<?xml version="1.0"?>
<VTKFile type="UnstructuredGrid" version="0.1" byte_order="LittleEndian">
<UnstructuredGrid>
<Piece NumberOfPoints="31048" NumberOfCells="10933">
<Points>
<DataArray type="Float64" NumberOfComponents="3" format="ascii">
-0.5 -0.5 0 -0.45966401123466488 -0.49658733248650311 0 -0.40896344978824928 -0.5 0 -0.5 -0.5 0 -0.49999999999999772 -0.47600230024017931 0 -0.47846481948080899 -0.47835377823494579 0 -0.5 -0.5 0 -0.47846481948080899 -0.47835377823494579 0 -0.45966401123466488 -0.49658733248650311 0 -0.49999999999999772 -0.47600230024017931 0 -0.47846481948080899 -0.47835377823494579 0 -0.48663031278447982 -0.45896074991701058 0 -0.49999999999999772 -0.47600230024017931 0 -0.47846481948080899 -0.47835377823494579 0 -0.47846481948080899 -0.47835377823494579 0 -0.45966401123466488 -0.49658733248650311 0 -0.45692963896162048 -0.48070525622971388 0 -0.45966401123466488 -0.49658733248650311 0 -0.45692963896162048 -0.48070525622971388 0 -0.47846481948080899 -0.47835377823494579 0 -0.45692963896162048 -0.48070525622971388 0 -0.46588888375070592 -0.46675240324930273 0 -0.45692963896162048 -0.48070525622971388 0 -0.45291178277604027 -0.45736831013892187 0 -0.47846481948080899 -0.47835377823494579 0 -0.45692963896162048 -0.48070525622971388 0 -0.45692963896162048 -0.48070525622971388 0 -0.44630962018671372 -0.46961798428304857 0 -0.45291178277604027 -0.45736831013892187 0 -0.45692963896162048 -0.48070525622971388 0 -0.44630962018671372 -0.46961798428304857 0 -0.43000179547083378 -0.48364557202407898 0 -0.45692963896162048 -0.48070525622971388 0 -0.43000179547083378 -0.48364557202407898 0 -0.45966401123466488 -0.49658733248650311 0 -0.45692963896162048 -0.48070525622971388 0 -0.43000179547083378 -0.48364557202407898 0 -0.45291178277604027 -0.45736831013892187 0 -0.44889392659046018 -0.43403136404812981 0 -0.44576964967754928 -0.44775750114313551 0 -0.45291178277604027 -0.45736831013892187 0 -0.44889392659046018 -0.43403136404812981 0 -0.44576964967754928 -0.44775750114313551 0 -0.4420236995768253 -0.43889794657762188 0 -0.44889392659046018 -0.43403136404812981 0 -0.4420236995768253 -0.43889794657762188 0 -0.43795457363143991 -0.44704478416018989 0 -0.4353432285932719 -0.4354544262594332 0 -0.44576964967754928 -0.44775750114313551 0 -0.4420236995768253 -0.43889794657762188 0 -0.43795457363143991 -0.44704478416018989 0 -0.44576964967754928 -0.44775750114313551 0 -0.43795457363143991 -0.44704478416018989 0 -0.44144336127146788 -0.45782316793564931 0 -0.44630962018671372 -0.46961798428304857 0 -0.44144336127146788 -0.45782316793564931 0 -0.4342616214588958 -0.46725457514822838 0 -0.44630962018671372 -0.46961798428304857 0 -0.44144336127146788 -0.45782316793564931 0 -0.45291178277604027 -0.45736831013892187 0 -0.44576964967754928 -0.44775750114313551 0 -0.44144336127146788 -0.45782316793564931 0 -0.45291178277604027 -0.45736831013892187 0 -0.45692963896162048 -0.48070525622971388 0 -0.45291178277604027 -0.45736831013892187 0 -0.46588888375070592 -0.46675240324930273 0 -0.45291178277604027 -0.45736831013892187 0 -0.45966933447960318 -0.45572426184337628 0 -0.46575185313353917 -0.45925153041176398 0 -0.45291178277604027 -0.45736831013892187 0 -0.46588888375070592 -0.46675240324930273 0 -0.46575185313353917 -0.45925153041176398 0 -0.46588888375070592 -0.46675240324930273 0 -0.46575185313353917 -0.45925153041176398 0 -0.47444295785175589 -0.4593023255142048 0 -0.45966933447960318 -0.45572426184337628 0 -0.46575185313353917 -0.45925153041176398 0 -0.46790989392199378 -0.45216716007609492 0 -0.45966933447960318 -0.45572426184337628 0 -0.46599162139971789 -0.43886018175947239 0 -0.46397647541351938 -0.44185953462894217 0 -0.46599162139971789 -0.43886018175947239 0 -0.46790989392199378 -0.45216716007609492 0 -0.47105949878466319 -0.43114296985480949 0 -0.45966933447960318 -0.45572426184337628 0 -0.46599162139971789 -0.43886018175947239 0 -0.46790989392199378 -0.45216716007609492 0 -0.45966933447960318 -0.45572426184337628 0 -0.46599162139971789 -0.43886018175947239 0 -0.45291178277604027 -0.45736831013892187 0 -0.46397647541351938 -0.44185953462894217 0 -0.44889392659046018 -0.43403136404812981 0 -0.45291178277604027 -0.45736831013892187 0 -0.45966933447960318 -0.45572426184337628 0 -0.46397647541351938 -0.44185953462894217 0 -0.46790989392199378 -0.45216716007609492 0 -0.47710204910637383 -0.42416254534193581 0 -0.46790989392199378 -0.45216716007609492 0 -0.48005421812543569 -0.43942908164429162 0 -0.47710204910637383 -0.42416254534193581 0 -0.46790989392199378 -0.45216716007609492 0 -0.47962785556108539 -0.45003824052489749 0 -0.48005421812543569 -0.43942908164429162 0 -0.47962785556108539 -0.45003824052489749 0 -0.48005421812543569 -0.43942908164429162 0 -0.48868798392767793 -0.44201763362024438 0 -0.47846481948080899 -0.47835377823494579 0 -0.46588888375070592 -0.46675240324930273 0 -0.47444295785175589 -0.4593023255142048 0 -0.47846481948080899 -0.47835377823494579 0 -0.47444295785175589 -0.4593023255142048 0 -0.48663031278447982 -0.45896074991701058 0 -0.46790989392199378 -0.45216716007609492 0 -0.47962785556108539 -0.45003824052489749 0 -0.47444295785175589 -0.4593023255142048 0 -0.46575185313353917 -0.45925153041176398 0 -0.46790989392199378 -0.45216716007609492 0 -0.47444295785175589 -0.4593023255142048 0 -0.47962785556108539 -0.45003824052489749 0 -0.47444295785175589 -0.4593023255142048 0 -0.48663031278447982 -0.45896074991701058 0 -0.49999999999999772 -0.47600230024017931 0 -0.48663031278447982 -0.45896074991701058 0 -0.5 -0.45043107386881692 0 -0.5 -0.45043107386881692 0 -0.48868798392767793 -0.44201763362024438 0 -0.5 -0.42485984749745448 0 -0.47962785556108539 -0.45003824052489749 0 -0.48663031278447982 -0.45896074991701058 0 -0.48868798392767793 -0.44201763362024438 0 -0.48663031278447982 -0.45896074991701058 0 -0.5 -0.45043107386881692 0 -0.48868798392767793 -0.44201763362024438 0 -0.48868798392767793 -0.44201763362024438 0 -0.48879895941858131 -0.42945493301215171 0 -0.5 -0.42485984749745448 0 -0.48005421812543569 -0.43942908164429162 0 -0.48868798392767793 -0.44201763362024438 0 -0.48879895941858131 -0.42945493301215171 0 -0.48879895941858131 -0.42945493301215171 0 -0.48637954663565369 -0.42293705884680671 0 -0.49075502247517022 -0.42076817690049412 0 -0.48879895941858131 -0.42945493301215171 0 -0.5 -0.42485984749745448 0 -0.49075502247517022 -0.42076817690049412 0 -0.5 -0.42485984749745448 0 -0.49178400022208502 -0.41002789218281499 0 -0.5 -0.39928862112609209 0 -0.5 -0.42485984749745448 0 -0.49178400022208502 -0.41002789218281499 0 -0.49075502247517022 -0.42076817690049412 0 -0.49178400022208502 -0.41002789218281499 0 -0.48508458381982911 -0.41298753957730511 0 -0.48463967985132689 -0.40119856782122698 0 -0.49178400022208502 -0.41002789218281499 0 -0.48508458381982911 -0.41298753957730511 0 -0.4868126060995307 -0.41656115296324231 0 -0.49178400022208502 -0.41002789218281499 0 -0.49075502247517022 -0.42076817690049412 0 -0.4868126060995307 -0.41656115296324231 0 -0.48637954663565369 -0.42293705884680671 0 -0.49075502247517022 -0.42076817690049412 0 -0.4868126060995307 -0.41656115296324231 0 -0.47710204910637383 -0.42416254534193581 0 -0.48463967985132689 -0.40119856782122698 0 -0.47231390831983278 -0.42199610167556861 0 -0.48154260554655492 -0.39737945724483481 0 -0.48508458381982911 -0.41298753957730511 0 -0.47710204910637383 -0.42416254534193581 0 -0.48463967985132689 -0.40119856782122698 0 -0.48637954663565369 -0.42293705884680671 0 -0.4868126060995307 -0.41656115296324231 0 -0.47710204910637383 -0.42416254534193581 0 -0.47553249120311331 -0.40762552545486341 0 -0.47231390831983278 -0.42199610167556861 0 -0.48154260554655492 -0.39737945724483481 0 -0.47231390831983278 -0.42199610167556861 0 -0.48463967985132689 -0.40119856782122698 0 -0.48154260554655492 -0.39737945724483481 0 -0.47231390831983278 -0.42199610167556861 0 -0.47710204910637383 -0.42416254534193581 0 -0.48463967985132689 -0.40119856782122698 0 -0.48508458381982911 -0.41298753957730511 0 -0.4868126060995307 -0.41656115296324231 0 -0.47710204910637383 -0.42416254534193581 0 -0.47553249120311331 -0.40762552545486341 0 -0.47148754737094928 -0.41024777641391352 0 -0.47188226019967122 -0.41422254246750029 0 -0.46925429150769538 -0.41284899187400492 0 -0.47148754737094928 -0.41024777641391352 0 -0.47188226019967122 -0.41422254246750029 0 -0.46925429150769538 -0.41284899187400492 0 -0.47148754737094928 -0.41024777641391352 0 -0.46865892537956277 -0.40941828865034202 0 -0.47553249120311331 -0.40762552545486341 0 -0.47148754737094928 -0.41024777641391352 0 -0.47091700398815578 -0.40664614660913562 0 -0.47148754737094928 -0.41024777641391352 0 -0.47091700398815578 -0.40664614660913562 0 -0.46865892537956277 -0.40941828865034202 0 -0.47091700398815578 -0.40664614660913562 0 -0.46760452559658178 -0.40599474626548587 0 -0.46865892537956277 -0.40941828865034202 0 -0.47553249120311331 -0.40762552545486341 0 -0.47188226019967122 -0.41422254246750029 0 -0.47231390831983278 -0.42199610167556861 0 -0.46925429150769538 -0.41284899187400492 0 -0.47188226019967122 -0.41422254246750029 0 -0.46871474998237039 -0.41726916442086359 0 -0.47188226019967122 -0.41422254246750029 0 -0.47231390831983278 -0.42199610167556861 0 -0.46871474998237039 -0.41726916442086359 0 -0.46599162139971789 -0.43886018175947239 0 -0.47231390831983278 -0.42199610167556861 0 -0.46790989392199378 -0.45216716007609492 0 -0.47105949878466319 -0.43114296985480949 0 -0.47710204910637383 -0.42416254534193581 0 -0.47231390831983278 -0.42199610167556861 0 -0.47105949878466319 -0.43114296985480949 0 -0.47710204910637383 -0.42416254534193581 0 -0.46599162139971789 -0.43886018175947239 0 -0.47231390831983278 -0.42199610167556861 0 -0.47105949878466319 -0.43114296985480949 0 -0.47231390831983278 -0.42199610167556861 0 -0.47710204910637383 -0.42416254534193581 0 -0.48005421812543569 -0.43942908164429162 0 -0.48879895941858131 -0.42945493301215171 0 -0.47710204910637383 -0.42416254534193581 0 -0.48879895941858131 -0.42945493301215171 0 -0.48637954663565369 -0.42293705884680671 0 -0.47710204910637383 -0.42416254534193581 0 -0.48879895941858131 -0.42945493301215171 0 -0.47710204910637383 -0.42416254534193581 0 -0.49217731059628372 -0.37823459030051942 0 -0.49378365375220928 -0.39018500709506238 0 -0.5 -0.37371739475472959 0 -0.48154260554655492 -0.39737945724483481 0 -0.49077130277327702 -0.37276281281410101 0 -0.49378365375220928 -0.39018500709506238 0 -0.5 -0.39928862112609209 0 -0.5 -0.37371739475472959 0 -0.49217731059628372 -0.37823459030051942 0 -0.48463967985132689 -0.40119856782122698 0 -0.49217731059628372 -0.37823459030051942 0 -0.48154260554655492 -0.39737945724483481 0 -0.49077130277327702 -0.37276281281410101 0 -0.49217731059628372 -0.37823459030051942 0 -0.49378365375220928 -0.39018500709506238 0 -0.48463967985132689 -0.40119856782122698 0 -0.49217731059628372 -0.37823459030051942 0 -0.48463967985132689 -0.40119856782122698 0 -0.48154260554655492 -0.39737945724483481 0 -0.49378365375220928 -0.39018500709506238 0 -0.4925518334564053 -0.40017502205629912 0 -0.48463967985132689 -0.40119856782122698 0 -0.49378365375220928 -0.39018500709506238 0 -0.4925518334564053 -0.40017502205629912 0 -0.5 -0.39928862112609209 0 -0.49178400022208502 -0.41002789218281499 0 -0.4925518334564053 -0.40017502205629912 0 -0.5 -0.39928862112609209 0 -0.49178400022208502 -0.41002789218281499 0 -0.4925518334564053 -0.40017502205629912 0 -0.48463967985132689 -0.40119856782122698 0 -0.47553249120311331 -0.40762552545486341 0 -0.4757368639821522 -0.40089389757604332 0 -0.48154260554655492 -0.39737945724483481 0 -0.47553249120311331 -0.40762552545486341 0 -0.47288570591939733 -0.4035570862188968 0 -0.4757368639821522 -0.40089389757604332 0 -0.47553249120311331 -0.40762552545486341 0 -0.47091700398815578 -0.40664614660913562 0 -0.47288570591939733 -0.4035570862188968 0 -0.47091700398815578 -0.40664614660913562 0 -0.47288570591939733 -0.4035570862188968 0 -0.46933282845933061 -0.40303345665131168 0 -0.47091700398815578 -0.40664614660913562 0 -0.46933282845933061 -0.40303345665131168 0 -0.46760452559658178 -0.40599474626548587 0 -0.46933282845933061 -0.40303345665131168 0 -0.47171657738768652 -0.39910901778940833 0 -0.46544009644847001 -0.39930566231227721 0 -0.47288570591939733 -0.4035570862188968 0 -0.46933282845933061 -0.40303345665131168 0 -0.47171657738768652 -0.39910901778940833 0 -0.47288570591939733 -0.4035570862188968 0 -0.47171657738768652 -0.39910901778940833 0 -0.4757368639821522 -0.40089389757604332 0 -0.47171657738768652 -0.39910901778940833 0 -0.4757368639821522 -0.40089389757604332 0 -0.47624084322076132 -0.3959818830145222 0 -0.47171657738768652 -0.39910901778940833 0 -0.47624084322076132 -0.3959818830145222 0 -0.47227292177095609 -0.39392263011158701 0 -0.47171657738768652 -0.39910901778940833 0 -0.47227292177095609 -0.39392263011158701 0 -0.46806858697703663 -0.39520944228166471 0 -0.47227292177095609 -0.39392263011158701 0 -0.46839294697461792 -0.38891290295235459 0 -0.46806858697703663 -0.39520944228166471 0 -0.47227292177095609 -0.39392263011158701 0 -0.475786416275706 -0.39051696191708829 0 -0.46839294697461792 -0.38891290295235459 0 -0.47624084322076132 -0.3959818830145222 0 -0.47227292177095609 -0.39392263011158701 0 -0.475786416275706 -0.39051696191708829 0 -0.47844147526905118 -0.39298212553100381 0 -0.48154260554655492 -0.39737945724483481 0 -0.48035260079689712 -0.38638239377038708 0 -0.47624084322076132 -0.3959818830145222 0 -0.47844147526905118 -0.39298212553100381 0 -0.475786416275706 -0.39051696191708829 0 -0.4757368639821522 -0.40089389757604332 0 -0.47624084322076132 -0.3959818830145222 0 -0.48154260554655492 -0.39737945724483481 0 -0.47624084322076132 -0.3959818830145222 0 -0.47844147526905118 -0.39298212553100381 0 -0.48154260554655492 -0.39737945724483481 0 -0.48154260554655492 -0.39737945724483481 0 -0.48035260079689712 -0.38638239377038708 0 -0.49077130277327702 -0.37276281281410101 0 -0.48035260079689712 -0.38638239377038708 0 -0.47509609930583929 -0.38469199763262929 0 -0.47994373849828909 -0.37959026784392652 0 -0.47844147526905118 -0.39298212553100381 0 -0.48035260079689712 -0.38638239377038708 0 -0.475786416275706 -0.39051696191708829 0 -0.48035260079689712 -0.38638239377038708 0 -0.475786416275706 -0.39051696191708829 0 -0.47509609930583929 -0.38469199763262929 0 -0.475786416275706 -0.39051696191708829 0 -0.47509609930583929 -0.38469199763262929 0 -0.46839294697461792 -0.38891290295235459 0 -0.47509609930583929 -0.38469199763262929 0 -0.47100479398368639 -0.37805746167938997 0 -0.46839294697461792 -0.38891290295235459 0 -0.47509609930583929 -0.38469199763262929 0 -0.47100479398368639 -0.37805746167938997 0 -0.47994373849828909 -0.37959026784392652 0 -0.48035260079689712 -0.38638239377038708 0 -0.47994373849828909 -0.37959026784392652 0 -0.49077130277327702 -0.37276281281410101 0 -0.47100479398368639 -0.37805746167938997 0 -0.47994373849828909 -0.37959026784392652 0 -0.48049096145974451 -0.3725438070269953 0 -0.4582149991379656 -0.38680779802656828 0 -0.44616179505902981 -0.38185194220403518 0 -0.45635759651788949 -0.37088045004578329 0 -0.47100479398368639 -0.37805746167938997 0 -0.4582149991379656 -0.38680779802656828 0 -0.45635759651788949 -0.37088045004578329 0 -0.46839294697461792 -0.38891290295235459 0 -0.4582149991379656 -0.38680779802656828 0 -0.46252039230345232 -0.39479699824269632 0 -0.47100479398368639 -0.37805746167938997 0 -0.46839294697461792 -0.38891290295235459 0 -0.4582149991379656 -0.38680779802656828 0 -0.4582149991379656 -0.38680779802656828 0 -0.45538046555554962 -0.39540536838626511 0 -0.46252039230345232 -0.39479699824269632 0 -0.4582149991379656 -0.38680779802656828 0 -0.45538046555554962 -0.39540536838626511 0 -0.44930244564643979 -0.39050233645106519 0 -0.45538046555554962 -0.39540536838626511 0 -0.46252039230345232 -0.39479699824269632 0 -0.45982811269789492 -0.40072842380118417 0 -0.46839294697461792 -0.38891290295235459 0 -0.46806858697703663 -0.39520944228166471 0 -0.46252039230345232 -0.39479699824269632 0 -0.47171657738768652 -0.39910901778940833 0 -0.46806858697703663 -0.39520944228166471 0 -0.46544009644847001 -0.39930566231227721 0 -0.46806858697703663 -0.39520944228166471 0 -0.46252039230345232 -0.39479699824269632 0 -0.46544009644847001 -0.39930566231227721 0 -0.46252039230345232 -0.39479699824269632 0 -0.46544009644847001 -0.39930566231227721 0 -0.45982811269789492 -0.40072842380118417 0 -0.46544009644847001 -0.39930566231227721 0 -0.46326591963120012 -0.40236665711281883 0 -0.45982811269789492 -0.40072842380118417 0 -0.46544009644847001 -0.39930566231227721 0 -0.46598300249544128 -0.40300907788625512 0 -0.46326591963120012 -0.40236665711281883 0 -0.46933282845933061 -0.40303345665131168 0 -0.46544009644847001 -0.39930566231227721 0 -0.46598300249544128 -0.40300907788625512 0 -0.46933282845933061 -0.40303345665131168 0 -0.46760452559658178 -0.40599474626548587 0 -0.46598300249544128 -0.40300907788625512 0 -0.46760452559658178 -0.40599474626548587 0 -0.46598300249544128 -0.40300907788625512 0 -0.46398603183118331 -0.40483578278605598 0 -0.46598300249544128 -0.40300907788625512 0 -0.46398603183118331 -0.40483578278605598 0 -0.46326591963120012 -0.40236665711281883 0 -0.46398603183118331 -0.40483578278605598 0 -0.46326591963120012 -0.40236665711281883 0 -0.46109235468301019 -0.40395433877832121 0 -0.46326591963120012 -0.40236665711281883 0 -0.46109235468301019 -0.40395433877832121 0 -0.45982811269789492 -0.40072842380118417 0 -0.46398603183118331 -0.40483578278605598 0 -0.46109235468301019 -0.40395433877832121 0 -0.46076751545053451 -0.40670356482569181 0 -0.46109235468301019 -0.40395433877832121 0 -0.45732858329379711 -0.40562818106252968 0 -0.45982811269789492 -0.40072842380118417 0 -0.46109235468301019 -0.40395433877832121 0 -0.45732858329379711 -0.40562818106252968 0 -0.46076751545053451 -0.40670356482569181 0 -0.45538046555554962 -0.39540536838626511 0 -0.45982811269789492 -0.40072842380118417 0 -0.45316682962481608 -0.40265837419557188 0 -0.45732858329379711 -0.40562818106252968 0 -0.45982811269789492 -0.40072842380118417 0 -0.45316682962481608 -0.40265837419557188 0 -0.45732858329379711 -0.40562818106252968 0 -0.45316682962481608 -0.40265837419557188 0 -0.45355623364871811 -0.40626925522489882 0 -0.44769427973163201 -0.40262064781065859 0 -0.44200230341023322 -0.39271698243239728 0 -0.44559859644893829 -0.40990848337486541 0 -0.44559859644893829 -0.40990848337486541 0 -0.43188535853137372 -0.38606719198275591 0 -0.44200230341023322 -0.39271698243239728 0 -0.44559859644893829 -0.40990848337486541 0 -0.43188535853137372 -0.38606719198275591 0 -0.45316682962481608 -0.40265837419557188 0 -0.45084600708240502 -0.40571533409987148 0 -0.44769427973163201 -0.40262064781065859 0 -0.45316682962481608 -0.40265837419557188 0 -0.45084600708240502 -0.40571533409987148 0 -0.45355623364871811 -0.40626925522489882 0 -0.45316682962481608 -0.40265837419557188 0 -0.44769427973163201 -0.40262064781065859 0 -0.44925001392272929 -0.39693827960050448 0 -0.45084600708240502 -0.40571533409987148 0 -0.44769427973163201 -0.40262064781065859 0 -0.44890577556851752 -0.40676364005183169 0 -0.44769427973163201 -0.40262064781065859 0 -0.44200230341023322 -0.39271698243239728 0 -0.44925001392272929 -0.39693827960050448 0 -0.44200230341023322 -0.39271698243239728 0 -0.44925001392272929 -0.39693827960050448 0 -0.44930244564643979 -0.39050233645106519 0 -0.45538046555554962 -0.39540536838626511 0 -0.45316682962481608 -0.40265837419557188 0 -0.44925001392272929 -0.39693827960050448 0 -0.45538046555554962 -0.39540536838626511 0 -0.44925001392272929 -0.39693827960050448 0 -0.44930244564643979 -0.39050233645106519 0 -0.44616179505902981 -0.38185194220403518 0 -0.43188535853137372 -0.38606719198275591 0 -0.44091665549700731 -0.36524421336338447 0 -0.44200230341023322 -0.39271698243239728 0 -0.44930244564643979 -0.39050233645106519 0 -0.44616179505902981 -0.38185194220403518 0 -0.4582149991379656 -0.38680779802656828 0 -0.44930244564643979 -0.39050233645106519 0 -0.44616179505902981 -0.38185194220403518 0 -0.44200230341023322 -0.39271698243239728 0 -0.44616179505902981 -0.38185194220403518 0 -0.43188535853137372 -0.38606719198275591 0 -0.46599162139971789 -0.43886018175947239 0 -0.47231390831983278 -0.42199610167556861 0 -0.45478753593122911 -0.42588400900190371 0 -0.46397647541351938 -0.44185953462894217 0 -0.45478753593122911 -0.42588400900190371 0 -0.46599162139971789 -0.43886018175947239 0 -0.46397647541351938 -0.44185953462894217 0 -0.45478753593122911 -0.42588400900190371 0 -0.46397647541351938 -0.44185953462894217 0 -0.45478753593122911 -0.42588400900190371 0 -0.44889392659046018 -0.43403136404812981 0 -0.47231390831983278 -0.42199610167556861 0 -0.45478753593122911 -0.42588400900190371 0 -0.44559859644893829 -0.40990848337486541 0 -0.47231390831983278 -0.42199610167556861 0 -0.46871474998237039 -0.41726916442086359 0 -0.46098374456215391 -0.41336833076097201 0 -0.47231390831983278 -0.42199610167556861 0 -0.4562049677185695 -0.41249269478868122 0 -0.44559859644893829 -0.40990848337486541 0 -0.47231390831983278 -0.42199610167556861 0 -0.44559859644893829 -0.40990848337486541 0 -0.47231390831983278 -0.42199610167556861 0 -0.46098374456215391 -0.41336833076097201 0 -0.4562049677185695 -0.41249269478868122 0 -0.46871474998237039 -0.41726916442086359 0 -0.46670777263350027 -0.41398115551761627 0 -0.46420038920005058 -0.41328079472579871 0 -0.46925429150769538 -0.41284899187400492 0 -0.46871474998237039 -0.41726916442086359 0 -0.46670777263350027 -0.41398115551761627 0 -0.46871474998237039 -0.41726916442086359 0 -0.46420038920005058 -0.41328079472579871 0 -0.46098374456215391 -0.41336833076097201 0 -0.46760452559658178 -0.40599474626548587 0 -0.46398603183118331 -0.40483578278605598 0 -0.46521607517600833 -0.40855620312327978 0 -0.46760452559658178 -0.40599474626548587 0 -0.46865892537956277 -0.40941828865034202 0 -0.46521607517600833 -0.40855620312327978 0 -0.46865892537956277 -0.40941828865034202 0 -0.46521607517600833 -0.40855620312327978 0 -0.46603220874983448 -0.41135010552126089 0 -0.46925429150769538 -0.41284899187400492 0 -0.46865892537956277 -0.40941828865034202 0 -0.46603220874983448 -0.41135010552126089 0 -0.46925429150769538 -0.41284899187400492 0 -0.46603220874983448 -0.41135010552126089 0 -0.46670777263350027 -0.41398115551761627 0 -0.46603220874983448 -0.41135010552126089 0 -0.46670777263350027 -0.41398115551761627 0 -0.46420038920005058 -0.41328079472579871 0 -0.46420038920005058 -0.41328079472579871 0 -0.46098374456215391 -0.41336833076097201 0 -0.4621557986021898 -0.41001519923652402 0 -0.46603220874983448 -0.41135010552126089 0 -0.46420038920005058 -0.41328079472579871 0 -0.4621557986021898 -0.41001519923652402 0 -0.46521607517600833 -0.40855620312327978 0 -0.4621557986021898 -0.41001519923652402 0 -0.46303135526497902 -0.40752768749288792 0 -0.46521607517600833 -0.40855620312327978 0 -0.46603220874983448 -0.41135010552126089 0 -0.4621557986021898 -0.41001519923652402 0 -0.4621557986021898 -0.41001519923652402 0 -0.46303135526497902 -0.40752768749288792 0 -0.46076751545053451 -0.40670356482569181 0 -0.46398603183118331 -0.40483578278605598 0 -0.46303135526497902 -0.40752768749288792 0 -0.46076751545053451 -0.40670356482569181 0 -0.46398603183118331 -0.40483578278605598 0 -0.46521607517600833 -0.40855620312327978 0 -0.46303135526497902 -0.40752768749288792 0 -0.45732858329379711 -0.40562818106252968 0 -0.46076751545053451 -0.40670356482569181 0 -0.45848810350682218 -0.40951346505415381 0 -0.45732858329379711 -0.40562818106252968 0 -0.45848810350682218 -0.40951346505415381 0 -0.45542485111622011 -0.40850393391340761 0 -0.4621557986021898 -0.41001519923652402 0 -0.46076751545053451 -0.40670356482569181 0 -0.45848810350682218 -0.40951346505415381 0 -0.46098374456215391 -0.41336833076097201 0 -0.45848810350682218 -0.40951346505415381 0 -0.4562049677185695 -0.41249269478868122 0 -0.46098374456215391 -0.41336833076097201 0 -0.4621557986021898 -0.41001519923652402 0 -0.45848810350682218 -0.40951346505415381 0 -0.45848810350682218 -0.40951346505415381 0 -0.4562049677185695 -0.41249269478868122 0 -0.45542485111622011 -0.40850393391340761 0 -0.4562049677185695 -0.41249269478868122 0 -0.45542485111622011 -0.40850393391340761 0 -0.45148421901109459 -0.4088100949219316 0 -0.45542485111622011 -0.40850393391340761 0 -0.45355623364871811 -0.40626925522489882 0 -0.45148421901109459 -0.4088100949219316 0 -0.45732858329379711 -0.40562818106252968 0 -0.45542485111622011 -0.40850393391340761 0 -0.45355623364871811 -0.40626925522489882 0 -0.45478753593122911 -0.42588400900190371 0 -0.44559859644893829 -0.40990848337486541 0 -0.4562049677185695 -0.41249269478868122 0 -0.45148421901109459 -0.4088100949219316 0 -0.44559859644893829 -0.40990848337486541 0 -0.45084600708240502 -0.40571533409987148 0 -0.45148421901109459 -0.4088100949219316 0 -0.44890577556851752 -0.40676364005183169 0 -0.45084600708240502 -0.40571533409987148 0 -0.45355623364871811 -0.40626925522489882 0 -0.45148421901109459 -0.4088100949219316 0 -0.44769427973163201 -0.40262064781065859 0 -0.44559859644893829 -0.40990848337486541 0 -0.44890577556851752 -0.40676364005183169 0 -0.45148421901109459 -0.4088100949219316 0 -0.44559859644893829 -0.40990848337486541 0 -0.44890577556851752 -0.40676364005183169 0 -0.44586651269008992 -0.42339786226678289 0 -0.43200855771365332 -0.41044360894392329 0 -0.44559859644893829 -0.40990848337486541 0 -0.44586651269008992 -0.42339786226678289 0 -0.43200855771365332 -0.41044360894392329 0 -0.45478753593122911 -0.42588400900190371 0 -0.44559859644893829 -0.40990848337486541 0 -0.44889392659046018 -0.43403136404812981 0 -0.44559859644893829 -0.40990848337486541 0 -0.44889392659046018 -0.43403136404812981 0 -0.44559859644893829 -0.40990848337486541 0 -0.44586651269008992 -0.42339786226678289 0 -0.44889392659046018 -0.43403136404812981 0 -0.44586651269008992 -0.42339786226678289 0 -0.44180617367271308 -0.43055262432490221 0 -0.43384325424592518 -0.42404195512831822 0 -0.44586651269008992 -0.42339786226678289 0 -0.44889392659046018 -0.43403136404812981 0 -0.44180617367271308 -0.43055262432490221 0 -0.4420236995768253 -0.43889794657762188 0 -0.44889392659046018 -0.43403136404812981 0 -0.44180617367271308 -0.43055262432490221 0 -0.4420236995768253 -0.43889794657762188 0 -0.44180617367271308 -0.43055262432490221 0 -0.4353432285932719 -0.4354544262594332 0 -0.44180617367271308 -0.43055262432490221 0 -0.4353432285932719 -0.4354544262594332 0 -0.43384325424592518 -0.42404195512831822 0 -0.4353432285932719 -0.4354544262594332 0 -0.42652070429886302 -0.43048521210487478 0 -0.43384325424592518 -0.42404195512831822 0 -0.4353432285932719 -0.4354544262594332 0 -0.42652070429886302 -0.43048521210487478 0 -0.42708408049008079 -0.44222887119709459 0 -0.42652070429886302 -0.43048521210487478 0 -0.4153734498284104 -0.43690532000970961 0 -0.42708408049008079 -0.44222887119709459 0 -0.42652070429886302 -0.43048521210487478 0 -0.43384325424592518 -0.42404195512831822 0 -0.41999830031718888 -0.41952708055269622 0 -0.43200855771365332 -0.41044360894392329 0 -0.41999830031718888 -0.41952708055269622 0 -0.41815060273721738 -0.39748935562106308 0 -0.44586651269008992 -0.42339786226678289 0 -0.43384325424592518 -0.42404195512831822 0 -0.43200855771365332 -0.41044360894392329 0 -0.43384325424592518 -0.42404195512831822 0 -0.43200855771365332 -0.41044360894392329 0 -0.41999830031718888 -0.41952708055269622 0 -0.41999830031718888 -0.41952708055269622 0 -0.40762547487354728 -0.41267488957585402 0 -0.41815060273721738 -0.39748935562106308 0 -0.41999830031718888 -0.41952708055269622 0 -0.40762547487354728 -0.41267488957585402 0 -0.40539426624422809 -0.42670693672781179 0 -0.4153734498284104 -0.43690532000970961 0 -0.40539426624422809 -0.42670693672781179 0 -0.40336093209443202 -0.44256797957160871 0 -0.42652070429886302 -0.43048521210487478 0 -0.41999830031718888 -0.41952708055269622 0 -0.4153734498284104 -0.43690532000970961 0 -0.41999830031718888 -0.41952708055269622 0 -0.4153734498284104 -0.43690532000970961 0 -0.40539426624422809 -0.42670693672781179 0 -0.43188535853137372 -0.38606719198275591 0 -0.41815060273721738 -0.39748935562106308 0 -0.41727822103040141 -0.37877151101651668 0 -0.43188535853137372 -0.38606719198275591 0 -0.41727822103040141 -0.37877151101651668 0 -0.41817212061380848 -0.36222590059064652 0 -0.44559859644893829 -0.40990848337486541 0 -0.43188535853137372 -0.38606719198275591 0 -0.41815060273721738 -0.39748935562106308 0 -0.44559859644893829 -0.40990848337486541 0 -0.43200855771365332 -0.41044360894392329 0 -0.41815060273721738 -0.39748935562106308 0 -0.44559859644893829 -0.40990848337486541 0 -0.41815060273721738 -0.39748935562106308 0 -0.43200855771365332 -0.41044360894392329 0 -0.41815060273721738 -0.39748935562106308 0 -0.41815060273721738 -0.39748935562106308 0 -0.40105596197332227 -0.38975470915538868 0 -0.40442842339398172 -0.40135381216396238 0 -0.41815060273721738 -0.39748935562106308 0 -0.40105596197332227 -0.38975470915538868 0 -0.40762547487354728 -0.41267488957585402 0 -0.41815060273721738 -0.39748935562106308 0 -0.40442842339398172 -0.40135381216396238 0 -0.41815060273721738 -0.39748935562106308 0 -0.40137425648189712 -0.38180702445510539 0 -0.41815060273721738 -0.39748935562106308 0 -0.40137425648189712 -0.38180702445510539 0 -0.40105596197332227 -0.38975470915538868 0 -0.41815060273721738 -0.39748935562106308 0 -0.41042904848230249 -0.38162800184648971 0 -0.40137425648189712 -0.38180702445510539 0 -0.41815060273721738 -0.39748935562106308 0 -0.41042904848230249 -0.38162800184648971 0 -0.41727822103040141 -0.37877151101651668 0 -0.41042904848230249 -0.38162800184648971 0 -0.41156998819073592 -0.37699513358398312 0 -0.41727822103040141 -0.37877151101651668 0 -0.41042904848230249 -0.38162800184648971 0 -0.41156998819073592 -0.37699513358398312 0 -0.40377217397126081 -0.3730769845557802 0 -0.40105596197332227 -0.38975470915538868 0 -0.38396132120942678 -0.38202006268971478 0 -0.40137425648189712 -0.38180702445510539 0 -0.40105596197332227 -0.38975470915538868 0 -0.38396132120942678 -0.38202006268971478 0 -0.41042904848230249 -0.38162800184648971 0 -0.40137425648189712 -0.38180702445510539 0 -0.40377217397126081 -0.3730769845557802 0 -0.40105596197332227 -0.38975470915538868 0 -0.39568273807421028 -0.39959875092602098 0 -0.3859689890887506 -0.39397747093738872 0 -0.40105596197332227 -0.38975470915538868 0 -0.40442842339398172 -0.40135381216396238 0 -0.39568273807421028 -0.39959875092602098 0 -0.40442842339398172 -0.40135381216396238 0 -0.39568273807421028 -0.39959875092602098 0 -0.39765525426452208 -0.40825046079734673 0 -0.39568273807421028 -0.39959875092602098 0 -0.39765525426452208 -0.40825046079734673 0 -0.38810561350056882 -0.40702837271868397 0 -0.37682871575927379 -0.4031209564268845 0 -0.3859689890887506 -0.39397747093738872 0 -0.37098705112042651 -0.38640796132580352 0 -0.39568273807421028 -0.39959875092602098 0 -0.3859689890887506 -0.39397747093738872 0 -0.38810561350056882 -0.40702837271868397 0 -0.37682871575927379 -0.4031209564268845 0 -0.3859689890887506 -0.39397747093738872 0 -0.38810561350056882 -0.40702837271868397 0 -0.40137425648189712 -0.38180702445510539 0 -0.38396132120942678 -0.38202006268971478 0 -0.38459791022657719 -0.36612469328914687 0 -0.40105596197332227 -0.38975470915538868 0 -0.3859689890887506 -0.39397747093738872 0 -0.38396132120942678 -0.38202006268971478 0 -0.3859689890887506 -0.39397747093738872 0 -0.38396132120942678 -0.38202006268971478 0 -0.37098705112042651 -0.38640796132580352 0 -0.38396132120942678 -0.38202006268971478 0 -0.37554122506897858 -0.37413195453287218 0 -0.37098705112042651 -0.38640796132580352 0 -0.40539426624422809 -0.42670693672781179 0 -0.39386331478719461 -0.41878454231592599 0 -0.38703114723878018 -0.43361022622180928 0 -0.40539426624422809 -0.42670693672781179 0 -0.38703114723878018 -0.43361022622180928 0 -0.40336093209443202 -0.44256797957160871 0 -0.40762547487354728 -0.41267488957585402 0 -0.40539426624422809 -0.42670693672781179 0 -0.39386331478719461 -0.41878454231592599 0 -0.40762547487354728 -0.41267488957585402 0 -0.40442842339398172 -0.40135381216396238 0 -0.39765525426452208 -0.40825046079734673 0 -0.40762547487354728 -0.41267488957585402 0 -0.39765525426452208 -0.40825046079734673 0 -0.39386331478719461 -0.41878454231592599 0 -0.39765525426452208 -0.40825046079734673 0 -0.39386331478719461 -0.41878454231592599 0 -0.38810561350056882 -0.40702837271868397 0 -0.39386331478719461 -0.41878454231592599 0 -0.38810561350056882 -0.40702837271868397 0 -0.37863466902946158 -0.41843805490853758 0 -0.37682871575927379 -0.4031209564268845 0 -0.38810561350056882 -0.40702837271868397 0 -0.37863466902946158 -0.41843805490853758 0 -0.37863466902946158 -0.41843805490853758 0 -0.38703114723878018 -0.43361022622180928 0 -0.36653449971058388 -0.43022957819680357 0 -0.39386331478719461 -0.41878454231592599 0 -0.37863466902946158 -0.41843805490853758 0 -0.38703114723878018 -0.43361022622180928 0 -0.38703114723878018 -0.43361022622180928 0 -0.38534190817324843 -0.45313121890198949 0 -0.36356953271933062 -0.44579178748675952 0 -0.37614610848926072 -0.48952620361281218 0 -0.40896344978824928 -0.5 0 -0.34336967304326432 -0.5 0 -0.40336093209443202 -0.44256797957160871 0 -0.38534190817324843 -0.45313121890198949 0 -0.40717542119774142 -0.4543169168844064 0 -0.38703114723878018 -0.43361022622180928 0 -0.40336093209443202 -0.44256797957160871 0 -0.38534190817324843 -0.45313121890198949 0 -0.40220053696631131 -0.46538311376708119 0 -0.38534190817324843 -0.45313121890198949 0 -0.40717542119774142 -0.4543169168844064 0 -0.40220053696631131 -0.46538311376708119 0 -0.38534190817324843 -0.45313121890198949 0 -0.39024971310017448 -0.47398248516347141 0 -0.38534190817324843 -0.45313121890198949 0 -0.39024971310017448 -0.47398248516347141 0 -0.36963097928822641 -0.46898421185555289 0 -0.39024971310017448 -0.47398248516347141 0 -0.37614610848926072 -0.48952620361281218 0 -0.40307395198004731 -0.48658588781844558 0 -0.37614610848926072 -0.48952620361281218 0 -0.40307395198004731 -0.48658588781844558 0 -0.40896344978824928 -0.5 0 -0.39024971310017448 -0.47398248516347141 0 -0.37614610848926072 -0.48952620361281218 0 -0.36963097928822641 -0.46898421185555289 0 -0.37614610848926072 -0.48952620361281218 0 -0.40307395198004731 -0.48658588781844558 0 -0.39024971310017448 -0.47398248516347141 0 -0.40307395198004731 -0.48658588781844558 0 -0.4089044347356483 -0.47489958746587752 0 -0.40220053696631131 -0.46538311376708119 0 -0.39024971310017448 -0.47398248516347141 0 -0.4089044347356483 -0.47489958746587752 0 -0.40307395198004731 -0.48658588781844558 0 -0.4089044347356483 -0.47489958746587752 0 -0.43000179547083378 -0.48364557202407898 0 -0.45966401123466488 -0.49658733248650311 0 -0.40896344978824928 -0.5 0 -0.43000179547083378 -0.48364557202407898 0 -0.4089044347356483 -0.47489958746587752 0 -0.43000179547083378 -0.48364557202407898 0 -0.41899617616087481 -0.46490087855631013 0 -0.40307395198004731 -0.48658588781844558 0 -0.40896344978824928 -0.5 0 -0.43000179547083378 -0.48364557202407898 0 -0.40307395198004731 -0.48658588781844558 0 -0.43000179547083378 -0.48364557202407898 0 -0.44630962018671372 -0.46961798428304857 0 -0.43000179547083378 -0.48364557202407898 0 -0.4342616214588958 -0.46725457514822838 0 -0.43000179547083378 -0.48364557202407898 0 -0.4342616214588958 -0.46725457514822838 0 -0.41899617616087481 -0.46490087855631013 0 -0.4342616214588958 -0.46725457514822838 0 -0.4297481664670314 -0.45605751049559551 0 -0.41899617616087481 -0.46490087855631013 0 -0.4297481664670314 -0.45605751049559551 0 -0.41938542708666282 -0.45112610370655498 0 -0.41899617616087481 -0.46490087855631013 0 -0.43795457363143991 -0.44704478416018989 0 -0.44144336127146788 -0.45782316793564931 0 -0.4297481664670314 -0.45605751049559551 0 -0.44144336127146788 -0.45782316793564931 0 -0.4342616214588958 -0.46725457514822838 0 -0.4297481664670314 -0.45605751049559551 0 -0.43795457363143991 -0.44704478416018989 0 -0.4297481664670314 -0.45605751049559551 0 -0.42708408049008079 -0.44222887119709459 0 -0.43795457363143991 -0.44704478416018989 0 -0.4353432285932719 -0.4354544262594332 0 -0.42708408049008079 -0.44222887119709459 0 -0.4297481664670314 -0.45605751049559551 0 -0.42708408049008079 -0.44222887119709459 0 -0.41938542708666282 -0.45112610370655498 0 -0.4153734498284104 -0.43690532000970961 0 -0.40336093209443202 -0.44256797957160871 0 -0.41938542708666282 -0.45112610370655498 0 -0.40336093209443202 -0.44256797957160871 0 -0.41938542708666282 -0.45112610370655498 0 -0.40717542119774142 -0.4543169168844064 0 -0.4153734498284104 -0.43690532000970961 0 -0.42708408049008079 -0.44222887119709459 0 -0.41938542708666282 -0.45112610370655498 0 -0.40220053696631131 -0.46538311376708119 0 -0.40717542119774142 -0.4543169168844064 0 -0.41899617616087481 -0.46490087855631013 0 -0.40220053696631131 -0.46538311376708119 0 -0.4089044347356483 -0.47489958746587752 0 -0.41899617616087481 -0.46490087855631013 0 -0.41938542708666282 -0.45112610370655498 0 -0.40717542119774142 -0.4543169168844064 0 -0.41899617616087481 -0.46490087855631013 0 -0.43927174221576148 -0.25208391209016778 0 -0.44428534831845679 -0.27073198434761653 0 -0.43002805456726612 -0.258643427362864 0 -0.43927174221576148 -0.25208391209016778 0 -0.44428534831845679 -0.27073198434761653 0 -0.45680584449248979 -0.26276110639121381 0 -0.43927174221576148 -0.25208391209016778 0 -0.45680584449248979 -0.26276110639121381 0 -0.46123398647280539 -0.25011284716588772 0 -0.44428534831845679 -0.27073198434761653 0 -0.46454742062320742 -0.27933794580138338 0 -0.4681175245435748 -0.2767546838030383 0 -0.44428534831845679 -0.27073198434761653 0 -0.4681175245435748 -0.2767546838030383 0 -0.44428534831845679 -0.27073198434761653 0 -0.4681175245435748 -0.2767546838030383 0 -0.45680584449248979 -0.26276110639121381 0 -0.44428534831845679 -0.27073198434761653 0 -0.46454742062320742 -0.27933794580138338 0 -0.45167648167409802 -0.28675256000087002 0 -0.4681175245435748 -0.2767546838030383 0 -0.45680584449248979 -0.26276110639121381 0 -0.47055246872178252 -0.26112414317264759 0 -0.46454742062320742 -0.27933794580138338 0 -0.4681175245435748 -0.2767546838030383 0 -0.47144665532026608 -0.28324491885298059 0 -0.46454742062320742 -0.27933794580138338 0 -0.4681175245435748 -0.2767546838030383 0 -0.45680584449248979 -0.26276110639121381 0 -0.46123398647280539 -0.25011284716588772 0 -0.47055246872178252 -0.26112414317264759 0 -0.48405876227178818 -0.26521989530713641 0 -0.47055246872178252 -0.26112414317264759 0 -0.48140992144811862 -0.2447762604425387 0 -0.46123398647280539 -0.25011284716588772 0 -0.47055246872178252 -0.26112414317264759 0 -0.48140992144811862 -0.2447762604425387 0 -0.48405876227178818 -0.26521989530713641 0 -0.50000000000000033 -0.25368510681123269 0 -0.5 -0.26924845245095219 0 -0.48405876227178818 -0.26521989530713641 0 -0.50000000000000033 -0.25368510681123269 0 -0.48140992144811862 -0.2447762604425387 0 -0.48405876227178818 -0.26521989530713641 0 -0.50000000000000033 -0.25368510681123269 0 -0.48405876227178818 -0.26521989530713641 0 -0.5 -0.26924845245095219 0 -0.48405876227178568 -0.28078324094685481 0 -0.5 -0.26924845245095219 0 -0.48405876227178568 -0.28078324094685481 0 -0.49999999999999661 -0.2848117980906717 0 -0.4681175245435748 -0.2767546838030383 0 -0.48405876227178818 -0.26521989530713641 0 -0.4681175245435748 -0.2767546838030383 0 -0.48405876227178568 -0.28078324094685481 0 -0.4681175245435748 -0.2767546838030383 0 -0.48405876227178818 -0.26521989530713641 0 -0.47055246872178252 -0.26112414317264759 0 -0.4681175245435748 -0.2767546838030383 0 -0.48405876227178568 -0.28078324094685481 0 -0.47144665532026608 -0.28324491885298059 0 -0.4681175245435748 -0.2767546838030383 0 -0.48405876227178818 -0.26521989530713641 0 -0.48405876227178568 -0.28078324094685481 0 -0.47144665532026608 -0.28324491885298059 0 -0.47549579403278591 -0.2900826270571874 0 -0.46501377512997588 -0.28926609665644071 0 -0.47549579403278591 -0.2900826270571874 0 -0.47044388724915409 -0.29926252672970671 0 -0.46501377512997588 -0.28926609665644071 0 -0.47549579403278591 -0.2900826270571874 0 -0.49004704901271251 -0.29064172440496111 0 -0.48455517906382423 -0.29997296389237921 0 -0.47549579403278591 -0.2900826270571874 0 -0.48455517906382423 -0.29997296389237921 0 -0.47044388724915409 -0.29926252672970671 0 -0.48405876227178568 -0.28078324094685481 0 -0.47144665532026608 -0.28324491885298059 0 -0.47549579403278591 -0.2900826270571874 0 -0.48405876227178568 -0.28078324094685481 0 -0.47549579403278591 -0.2900826270571874 0 -0.49004704901271251 -0.29064172440496111 0 -0.49999999999999661 -0.2848117980906717 0 -0.49004704901271251 -0.29064172440496111 0 -0.5 -0.30076911437698989 0 -0.48405876227178568 -0.28078324094685481 0 -0.49999999999999661 -0.2848117980906717 0 -0.48405876227178568 -0.28078324094685481 0 -0.49999999999999661 -0.2848117980906717 0 -0.49004704901271251 -0.29064172440496111 0 -0.5 -0.30076911437698989 0 -0.49036563043098541 -0.30962017751191723 0 -0.50000000000000022 -0.31672643066330819 0 -0.49004704901271251 -0.29064172440496111 0 -0.5 -0.30076911437698989 0 -0.48455517906382423 -0.29997296389237921 0 -0.5 -0.30076911437698989 0 -0.48455517906382423 -0.29997296389237921 0 -0.49036563043098541 -0.30962017751191723 0 -0.48455517906382423 -0.29997296389237921 0 -0.49036563043098541 -0.30962017751191723 0 -0.47997587760821692 -0.3093836940399276 0 -0.48455517906382423 -0.29997296389237921 0 -0.47997587760821692 -0.3093836940399276 0 -0.47044388724915409 -0.29926252672970671 0 -0.47997587760821692 -0.3093836940399276 0 -0.47039295331868158 -0.309482056689592 0 -0.47357295747851541 -0.31661365832026073 0 -0.47997587760821692 -0.3093836940399276 0 -0.47044388724915409 -0.29926252672970671 0 -0.47039295331868158 -0.309482056689592 0 -0.47039295331868158 -0.309482056689592 0 -0.46330213042851232 -0.3056651337645514 0 -0.46392691601789737 -0.31592365859699312 0 -0.47044388724915409 -0.29926252672970671 0 -0.47039295331868158 -0.309482056689592 0 -0.46330213042851232 -0.3056651337645514 0 -0.46330213042851232 -0.3056651337645514 0 -0.45426320303615592 -0.30946149092930042 0 -0.46392691601789737 -0.31592365859699312 0 -0.46330213042851232 -0.3056651337645514 0 -0.45426320303615592 -0.30946149092930042 0 -0.45815614967825752 -0.2973110890670666 0 -0.47044388724915409 -0.29926252672970671 0 -0.46330213042851232 -0.3056651337645514 0 -0.45815614967825752 -0.2973110890670666 0 -0.47044388724915409 -0.29926252672970671 0 -0.45815614967825752 -0.2973110890670666 0 -0.46501377512997588 -0.28926609665644071 0 -0.46454742062320742 -0.27933794580138338 0 -0.47144665532026608 -0.28324491885298059 0 -0.46501377512997588 -0.28926609665644071 0 -0.46454742062320742 -0.27933794580138338 0 -0.46501377512997588 -0.28926609665644071 0 -0.45167648167409802 -0.28675256000087002 0 -0.45815614967825752 -0.2973110890670666 0 -0.46501377512997588 -0.28926609665644071 0 -0.45167648167409802 -0.28675256000087002 0 -0.44428534831845679 -0.27073198434761653 0 -0.45167648167409802 -0.28675256000087002 0 -0.4379846197515338 -0.28704114327097818 0 -0.45815614967825752 -0.2973110890670666 0 -0.45167648167409802 -0.28675256000087002 0 -0.44427317514716491 -0.29860291094961899 0 -0.45167648167409802 -0.28675256000087002 0 -0.4379846197515338 -0.28704114327097818 0 -0.44427317514716491 -0.29860291094961899 0 -0.4379846197515338 -0.28704114327097818 0 -0.44427317514716491 -0.29860291094961899 0 -0.43083860054267159 -0.29841165411753362 0 -0.45426320303615592 -0.30946149092930042 0 -0.44427317514716491 -0.29860291094961899 0 -0.43520328509292328 -0.31417841590625267 0 -0.45426320303615592 -0.30946149092930042 0 -0.45815614967825752 -0.2973110890670666 0 -0.44427317514716491 -0.29860291094961899 0 -0.45426320303615592 -0.30946149092930042 0 -0.45176521795929658 -0.32355296000222028 0 -0.43520328509292328 -0.31417841590625267 0 -0.45176521795929658 -0.32355296000222028 0 -0.43835950870904522 -0.33438298789989179 0 -0.43520328509292328 -0.31417841590625267 0 -0.45176521795929658 -0.32355296000222028 0 -0.43835950870904522 -0.33438298789989179 0 -0.4558116106991742 -0.340080214030266 0 -0.43835950870904522 -0.33438298789989179 0 -0.4558116106991742 -0.340080214030266 0 -0.44248124368755209 -0.34890656822596378 0 -0.4558116106991742 -0.340080214030266 0 -0.46945594530438778 -0.32853215846191369 0 -0.47090506434525981 -0.352829110251625 0 -0.45176521795929658 -0.32355296000222028 0 -0.4558116106991742 -0.340080214030266 0 -0.46945594530438778 -0.32853215846191369 0 -0.45176521795929658 -0.32355296000222028 0 -0.46392691601789737 -0.31592365859699312 0 -0.46945594530438778 -0.32853215846191369 0 -0.45426320303615592 -0.30946149092930042 0 -0.45176521795929658 -0.32355296000222028 0 -0.46392691601789737 -0.31592365859699312 0 -0.48343562652919769 -0.31957723339837679 0 -0.48545253217263001 -0.33477777045746659 0 -0.46945594530438778 -0.32853215846191369 0 -0.47039295331868158 -0.309482056689592 0 -0.46392691601789737 -0.31592365859699312 0 -0.47357295747851541 -0.31661365832026073 0 -0.46392691601789737 -0.31592365859699312 0 -0.47357295747851541 -0.31661365832026073 0 -0.46945594530438778 -0.32853215846191369 0 -0.47357295747851541 -0.31661365832026073 0 -0.48343562652919769 -0.31957723339837679 0 -0.46945594530438778 -0.32853215846191369 0 -0.47997587760821692 -0.3093836940399276 0 -0.47357295747851541 -0.31661365832026073 0 -0.48343562652919769 -0.31957723339837679 0 -0.48343562652919769 -0.31957723339837679 0 -0.50000000000000022 -0.31672643066330819 0 -0.48545253217263001 -0.33477777045746659 0 -0.50000000000000022 -0.31672643066330819 0 -0.5 -0.33243629952333759 0 -0.48545253217263001 -0.33477777045746659 0 -0.49036563043098541 -0.30962017751191723 0 -0.47997587760821692 -0.3093836940399276 0 -0.48343562652919769 -0.31957723339837679 0 -0.49036563043098541 -0.30962017751191723 0 -0.48343562652919769 -0.31957723339837679 0 -0.50000000000000022 -0.31672643066330819 0 -0.50000000000000022 -0.31672643066330819 0 -0.48545253217263001 -0.33477777045746659 0 -0.5 -0.33243629952333759 0 -0.48863278319448472 -0.34591649052316059 0 -0.49999999999999961 -0.3481461683833672 0 -0.5 -0.33243629952333759 0 -0.48545253217263001 -0.33477777045746659 0 -0.48863278319448472 -0.34591649052316059 0 -0.48545253217263001 -0.33477777045746659 0 -0.46945594530438778 -0.32853215846191369 0 -0.47090506434525981 -0.352829110251625 0 -0.47090506434525981 -0.352829110251625 0 -0.48863278319448472 -0.34591649052316059 0 -0.48730071178086037 -0.35742347392511692 0 -0.48545253217263001 -0.33477777045746659 0 -0.47090506434525981 -0.352829110251625 0 -0.48545253217263001 -0.33477777045746659 0 -0.47090506434525981 -0.352829110251625 0 -0.48863278319448472 -0.34591649052316059 0 -0.47090506434525981 -0.352829110251625 0 -0.48730071178086037 -0.35742347392511692 0 -0.47547032759525448 -0.36653064411409209 0 -0.49999999999999972 -0.35527061277981192 0 -0.49999999999999961 -0.3481461683833672 0 -0.49077130277327702 -0.37276281281410101 0 -0.48863278319448472 -0.34591649052316059 0 -0.48730071178086037 -0.35742347392511692 0 -0.49999999999999961 -0.3481461683833672 0 -0.49217731059628372 -0.37823459030051942 0 -0.49999999999999972 -0.35527061277981192 0 -0.5 -0.37371739475472959 0 -0.49217731059628372 -0.37823459030051942 0 -0.49999999999999972 -0.35527061277981192 0 -0.49077130277327702 -0.37276281281410101 0 -0.49217731059628372 -0.37823459030051942 0 -0.49999999999999972 -0.35527061277981192 0 -0.49999999999999961 -0.3481461683833672 0 -0.49077130277327702 -0.37276281281410101 0 -0.48730071178086037 -0.35742347392511692 0 -0.49999999999999961 -0.3481461683833672 0 -0.49077130277327702 -0.37276281281410101 0 -0.48730071178086037 -0.35742347392511692 0 -0.49077130277327702 -0.37276281281410101 0 -0.48397374869049892 -0.36693234355732168 0 -0.49077130277327702 -0.37276281281410101 0 -0.48049096145974451 -0.3725438070269953 0 -0.48397374869049892 -0.36693234355732168 0 -0.47994373849828909 -0.37959026784392652 0 -0.49077130277327702 -0.37276281281410101 0 -0.48049096145974451 -0.3725438070269953 0 -0.48049096145974451 -0.3725438070269953 0 -0.48397374869049892 -0.36693234355732168 0 -0.47547032759525448 -0.36653064411409209 0 -0.48730071178086037 -0.35742347392511692 0 -0.48397374869049892 -0.36693234355732168 0 -0.47547032759525448 -0.36653064411409209 0 -0.47100479398368639 -0.37805746167938997 0 -0.48049096145974451 -0.3725438070269953 0 -0.47547032759525448 -0.36653064411409209 0 -0.47090506434525981 -0.352829110251625 0 -0.45635759651788949 -0.37088045004578329 0 -0.45329443414937648 -0.3555881111834045 0 -0.47090506434525981 -0.352829110251625 0 -0.47547032759525448 -0.36653064411409209 0 -0.45635759651788949 -0.37088045004578329 0 -0.47100479398368639 -0.37805746167938997 0 -0.47547032759525448 -0.36653064411409209 0 -0.45635759651788949 -0.37088045004578329 0 -0.47090506434525981 -0.352829110251625 0 -0.45635759651788949 -0.37088045004578329 0 -0.4558116106991742 -0.340080214030266 0 -0.47090506434525981 -0.352829110251625 0 -0.45329443414937648 -0.3555881111834045 0 -0.45329443414937648 -0.3555881111834045 0 -0.44248124368755209 -0.34890656822596378 0 -0.44091665549700731 -0.36524421336338447 0 -0.4558116106991742 -0.340080214030266 0 -0.45329443414937648 -0.3555881111834045 0 -0.44248124368755209 -0.34890656822596378 0 -0.44616179505902981 -0.38185194220403518 0 -0.45635759651788949 -0.37088045004578329 0 -0.44091665549700731 -0.36524421336338447 0 -0.45635759651788949 -0.37088045004578329 0 -0.45329443414937648 -0.3555881111834045 0 -0.44091665549700731 -0.36524421336338447 0 -0.43188535853137372 -0.38606719198275591 0 -0.41817212061380848 -0.36222590059064652 0 -0.43188535853137372 -0.38606719198275591 0 -0.44091665549700731 -0.36524421336338447 0 -0.42836234658170502 -0.36392617835393271 0 -0.43188535853137372 -0.38606719198275591 0 -0.42836234658170502 -0.36392617835393271 0 -0.41817212061380848 -0.36222590059064652 0 -0.42836234658170502 -0.36392617835393271 0 -0.42254315825420458 -0.35778913328999179 0 -0.41817212061380848 -0.36222590059064652 0 -0.44091665549700731 -0.36524421336338447 0 -0.42836234658170502 -0.36392617835393271 0 -0.42866499742994629 -0.34995161433447852 0 -0.44248124368755209 -0.34890656822596378 0 -0.44091665549700731 -0.36524421336338447 0 -0.42866499742994629 -0.34995161433447852 0 -0.43835950870904522 -0.33438298789989179 0 -0.44248124368755209 -0.34890656822596378 0 -0.42866499742994629 -0.34995161433447852 0 -0.42866499742994629 -0.34995161433447852 0 -0.42254315825420458 -0.35778913328999179 0 -0.4149731683913585 -0.35505283988090952 0 -0.42836234658170502 -0.36392617835393271 0 -0.42866499742994629 -0.34995161433447852 0 -0.42254315825420458 -0.35778913328999179 0 -0.42866499742994629 -0.34995161433447852 0 -0.4149731683913585 -0.35505283988090952 0 -0.41623069738537888 -0.32962815490016978 0 -0.42254315825420458 -0.35778913328999179 0 -0.4149731683913585 -0.35505283988090952 0 -0.41817212061380848 -0.36222590059064652 0 -0.4149731683913585 -0.35505283988090952 0 -0.40994095545954062 -0.36060629939982669 0 -0.41817212061380848 -0.36222590059064652 0 -0.4149731683913585 -0.35505283988090952 0 -0.40235571547159438 -0.35258095134378509 0 -0.40471818741236432 -0.3400733048866601 0 -0.4149731683913585 -0.35505283988090952 0 -0.40994095545954062 -0.36060629939982669 0 -0.40235571547159438 -0.35258095134378509 0 -0.40994095545954062 -0.36060629939982669 0 -0.41192828531083431 -0.36825391572390181 0 -0.40119963281908178 -0.36368357168579413 0 -0.40994095545954062 -0.36060629939982669 0 -0.41817212061380848 -0.36222590059064652 0 -0.41192828531083431 -0.36825391572390181 0 -0.41727822103040141 -0.37877151101651668 0 -0.41817212061380848 -0.36222590059064652 0 -0.41192828531083431 -0.36825391572390181 0 -0.41156998819073592 -0.37699513358398312 0 -0.41727822103040141 -0.37877151101651668 0 -0.41192828531083431 -0.36825391572390181 0 -0.41156998819073592 -0.37699513358398312 0 -0.41192828531083431 -0.36825391572390181 0 -0.40377217397126081 -0.3730769845557802 0 -0.40119963281908178 -0.36368357168579413 0 -0.38459791022657719 -0.36612469328914687 0 -0.39254572878184041 -0.35508287432014118 0 -0.40137425648189712 -0.38180702445510539 0 -0.38459791022657719 -0.36612469328914687 0 -0.41192828531083431 -0.36825391572390181 0 -0.40377217397126081 -0.3730769845557802 0 -0.40119963281908178 -0.36368357168579413 0 -0.40377217397126081 -0.3730769845557802 0 -0.40119963281908178 -0.36368357168579413 0 -0.38459791022657719 -0.36612469328914687 0 -0.40137425648189712 -0.38180702445510539 0 -0.40377217397126081 -0.3730769845557802 0 -0.38459791022657719 -0.36612469328914687 0 -0.38396132120942678 -0.38202006268971478 0 -0.38459791022657719 -0.36612469328914687 0 -0.37554122506897858 -0.37413195453287218 0 -0.38459791022657719 -0.36612469328914687 0 -0.37554122506897858 -0.37413195453287218 0 -0.36956404656562769 -0.36525534939686233 0 -0.38264097282124182 -0.35156327211804062 0 -0.39193441257070638 -0.34146188316393927 0 -0.37616960060515481 -0.34089362858762617 0 -0.38459791022657719 -0.36612469328914687 0 -0.36782156397125731 -0.35044236212318852 0 -0.38459791022657719 -0.36612469328914687 0 -0.38264097282124182 -0.35156327211804062 0 -0.36782156397125731 -0.35044236212318852 0 -0.38264097282124182 -0.35156327211804062 0 -0.37616960060515481 -0.34089362858762617 0 -0.36782156397125731 -0.35044236212318852 0 -0.38459791022657719 -0.36612469328914687 0 -0.38264097282124182 -0.35156327211804062 0 -0.39254572878184041 -0.35508287432014118 0 -0.38264097282124182 -0.35156327211804062 0 -0.39254572878184041 -0.35508287432014118 0 -0.39193441257070638 -0.34146188316393927 0 -0.39254572878184041 -0.35508287432014118 0 -0.40235571547159438 -0.35258095134378509 0 -0.39193441257070638 -0.34146188316393927 0 -0.40994095545954062 -0.36060629939982669 0 -0.40119963281908178 -0.36368357168579413 0 -0.40235571547159438 -0.35258095134378509 0 -0.40119963281908178 -0.36368357168579413 0 -0.39254572878184041 -0.35508287432014118 0 -0.40235571547159438 -0.35258095134378509 0 -0.40235571547159438 -0.35258095134378509 0 -0.40471818741236432 -0.3400733048866601 0 -0.39193441257070638 -0.34146188316393927 0 -0.39193441257070638 -0.34146188316393927 0 -0.3836883705698077 -0.33081947646482041 0 -0.39809694324278327 -0.32164269514449673 0 -0.40471818741236432 -0.3400733048866601 0 -0.39193441257070638 -0.34146188316393927 0 -0.39809694324278327 -0.32164269514449673 0 -0.39193441257070638 -0.34146188316393927 0 -0.3836883705698077 -0.33081947646482041 0 -0.37616960060515481 -0.34089362858762617 0 -0.3836883705698077 -0.33081947646482041 0 -0.37616960060515481 -0.34089362858762617 0 -0.37056545304969202 -0.32908542843563537 0 -0.3836883705698077 -0.33081947646482041 0 -0.37672108508850533 -0.31174063430154492 0 -0.37056545304969202 -0.32908542843563537 0 -0.3836883705698077 -0.33081947646482041 0 -0.39809694324278327 -0.32164269514449673 0 -0.37672108508850533 -0.31174063430154492 0 -0.41623069738537888 -0.32962815490016978 0 -0.41748822637939931 -0.30420346991943009 0 -0.39809694324278327 -0.32164269514449673 0 -0.41623069738537888 -0.32962815490016978 0 -0.41748822637939931 -0.30420346991943009 0 -0.4149731683913585 -0.35505283988090952 0 -0.41623069738537888 -0.32962815490016978 0 -0.4149731683913585 -0.35505283988090952 0 -0.40471818741236432 -0.3400733048866601 0 -0.41623069738537888 -0.32962815490016978 0 -0.40471818741236432 -0.3400733048866601 0 -0.39809694324278327 -0.32164269514449673 0 -0.41623069738537888 -0.32962815490016978 0 -0.43835950870904522 -0.33438298789989179 0 -0.42866499742994629 -0.34995161433447852 0 -0.41623069738537888 -0.32962815490016978 0 -0.43835950870904522 -0.33438298789989179 0 -0.41623069738537888 -0.32962815490016978 0 -0.43520328509292328 -0.31417841590625267 0 -0.41623069738537888 -0.32962815490016978 0 -0.43520328509292328 -0.31417841590625267 0 -0.41748822637939931 -0.30420346991943009 0 -0.44427317514716491 -0.29860291094961899 0 -0.43520328509292328 -0.31417841590625267 0 -0.43083860054267159 -0.29841165411753362 0 -0.43520328509292328 -0.31417841590625267 0 -0.43083860054267159 -0.29841165411753362 0 -0.41748822637939931 -0.30420346991943009 0 -0.4379846197515338 -0.28704114327097818 0 -0.43083860054267159 -0.29841165411753362 0 -0.41874575537341968 -0.27877878493869052 0 -0.43083860054267159 -0.29841165411753362 0 -0.41748822637939931 -0.30420346991943009 0 -0.41874575537341968 -0.27877878493869052 0 -0.41748822637939931 -0.30420346991943009 0 -0.41874575537341968 -0.27877878493869052 0 -0.41748822637939931 -0.30420346991943009 0 -0.40248565024016231 -0.28018281953340429 0 -0.41874575537341968 -0.27877878493869052 0 -0.39809694324278327 -0.32164269514449673 0 -0.41748822637939931 -0.30420346991943009 0 -0.39241014424259729 -0.29598974864964861 0 -0.39809694324278327 -0.32164269514449673 0 -0.37672108508850533 -0.31174063430154492 0 -0.39241014424259729 -0.29598974864964861 0 -0.37672108508850533 -0.31174063430154492 0 -0.39241014424259729 -0.29598974864964861 0 -0.37044187115484278 -0.28750303277664813 0 -0.39241014424259729 -0.29598974864964861 0 -0.3892270893498912 -0.27066584022236712 0 -0.37044187115484278 -0.28750303277664813 0 -0.39241014424259729 -0.29598974864964861 0 -0.40248565024016231 -0.28018281953340429 0 -0.3892270893498912 -0.27066584022236712 0 -0.41748822637939931 -0.30420346991943009 0 -0.39241014424259729 -0.29598974864964861 0 -0.40248565024016231 -0.28018281953340429 0 -0.40248565024016231 -0.28018281953340429 0 -0.40084075364886168 -0.26264473691782381 0 -0.40989557855881648 -0.26708169508109247 0 -0.40248565024016231 -0.28018281953340429 0 -0.3892270893498912 -0.27066584022236712 0 -0.40084075364886168 -0.26264473691782381 0 -0.3892270893498912 -0.27066584022236712 0 -0.38865366959963482 -0.25001431328282347 0 -0.36983015608973419 -0.25390947188451179 0 -0.3892270893498912 -0.27066584022236712 0 -0.36983015608973419 -0.25390947188451179 0 -0.38865366959963482 -0.25001431328282347 0 -0.40084075364886168 -0.26264473691782381 0 -0.40325337519837501 -0.24785612878935209 0 -0.3892270893498912 -0.27066584022236712 0 -0.38865366959963482 -0.25001431328282347 0 -0.40084075364886168 -0.26264473691782381 0 -0.40084075364886168 -0.26264473691782381 0 -0.40879845111358259 -0.25665351572631812 0 -0.40325337519837501 -0.24785612878935209 0 -0.40879845111358259 -0.25665351572631812 0 -0.41771339199803692 -0.25615188312583598 0 -0.41228915616382261 -0.24953313471748659 0 -0.41771339199803692 -0.25615188312583598 0 -0.42000328436744028 -0.25335409995795077 0 -0.41874575537341968 -0.27877878493869052 0 -0.42000328436744028 -0.25335409995795077 0 -0.42045317209333849 -0.26470928489219592 0 -0.41874575537341968 -0.27877878493869052 0 -0.40879845111358259 -0.25665351572631812 0 -0.41228915616382261 -0.24953313471748659 0 -0.40325337519837501 -0.24785612878935209 0 -0.41771339199803692 -0.25615188312583598 0 -0.42000328436744028 -0.25335409995795077 0 -0.41228915616382261 -0.24953313471748659 0 -0.41771339199803692 -0.25615188312583598 0 -0.42000328436744028 -0.25335409995795077 0 -0.40084075364886168 -0.26264473691782381 0 -0.40879845111358259 -0.25665351572631812 0 -0.40989557855881648 -0.26708169508109247 0 -0.40879845111358259 -0.25665351572631812 0 -0.41771339199803692 -0.25615188312583598 0 -0.40989557855881648 -0.26708169508109247 0 -0.41771339199803692 -0.25615188312583598 0 -0.40989557855881648 -0.26708169508109247 0 -0.41874575537341968 -0.27877878493869052 0 -0.42000328436744028 -0.25335409995795077 0 -0.41874575537341968 -0.27877878493869052 0 -0.40248565024016231 -0.28018281953340429 0 -0.40989557855881648 -0.26708169508109247 0 -0.41874575537341968 -0.27877878493869052 0 -0.44428534831845679 -0.27073198434761653 0 -0.42045317209333849 -0.26470928489219592 0 -0.41874575537341968 -0.27877878493869052 0 -0.44428534831845679 -0.27073198434761653 0 -0.42045317209333849 -0.26470928489219592 0 -0.44428534831845679 -0.27073198434761653 0 -0.4379846197515338 -0.28704114327097818 0 -0.41874575537341968 -0.27877878493869052 0 -0.44428534831845679 -0.27073198434761653 0 -0.42045317209333849 -0.26470928489219592 0 -0.43002805456726612 -0.258643427362864 0 -0.43927174221576148 -0.25208391209016778 0 -0.42000328436744028 -0.25335409995795077 0 -0.43002805456726612 -0.258643427362864 0 -0.42000328436744028 -0.25335409995795077 0 -0.42045317209333849 -0.26470928489219592 0 -0.43002805456726612 -0.258643427362864 0 -0.31659653321669018 -0.25755681406275349 0 -0.33135634945294667 -0.26561887982722648 0 -0.3300046262548299 -0.24483365668078319 0 -0.31504856038177009 -0.27481043202551342 0 -0.33135634945294667 -0.26561887982722648 0 -0.329439857672293 -0.28230858787269908 0 -0.31659653321669018 -0.25755681406275349 0 -0.31504856038177009 -0.27481043202551342 0 -0.33135634945294667 -0.26561887982722648 0 -0.33135634945294667 -0.26561887982722648 0 -0.34598410252681239 -0.27909860881070692 0 -0.329439857672293 -0.28230858787269908 0 -0.33135634945294667 -0.26561887982722648 0 -0.34807838734227869 -0.25811203799629667 0 -0.34598410252681239 -0.27909860881070692 0 -0.33135634945294667 -0.26561887982722648 0 -0.34807838734227869 -0.25811203799629667 0 -0.3300046262548299 -0.24483365668078319 0 -0.34807838734227869 -0.25811203799629667 0 -0.36983015608973419 -0.25390947188451179 0 -0.36137220512087059 -0.27003643167855218 0 -0.3892270893498912 -0.27066584022236712 0 -0.36983015608973419 -0.25390947188451179 0 -0.36137220512087059 -0.27003643167855218 0 -0.3892270893498912 -0.27066584022236712 0 -0.36137220512087059 -0.27003643167855218 0 -0.37044187115484278 -0.28750303277664813 0 -0.34807838734227869 -0.25811203799629667 0 -0.36137220512087059 -0.27003643167855218 0 -0.34598410252681239 -0.27909860881070692 0 -0.36137220512087059 -0.27003643167855218 0 -0.34598410252681239 -0.27909860881070692 0 -0.37044187115484278 -0.28750303277664813 0 -0.34598410252681239 -0.27909860881070692 0 -0.37044187115484278 -0.28750303277664813 0 -0.35584029909675929 -0.30330002522061761 0 -0.34598410252681239 -0.27909860881070692 0 -0.35584029909675929 -0.30330002522061761 0 -0.33538839775262291 -0.30008886148303698 0 -0.37672108508850533 -0.31174063430154492 0 -0.35584029909675929 -0.30330002522061761 0 -0.36375789671781572 -0.31678638834118339 0 -0.37672108508850533 -0.31174063430154492 0 -0.37044187115484278 -0.28750303277664813 0 -0.35584029909675929 -0.30330002522061761 0 -0.35584029909675929 -0.30330002522061761 0 -0.33538839775262291 -0.30008886148303698 0 -0.34120532003023007 -0.31467066500520868 0 -0.33538839775262291 -0.30008886148303698 0 -0.32479269297843327 -0.32107911415536711 0 -0.34120532003023007 -0.31467066500520868 0 -0.33538839775262291 -0.30008886148303698 0 -0.32479269297843327 -0.32107911415536711 0 -0.34598410252681239 -0.27909860881070692 0 -0.33538839775262291 -0.30008886148303698 0 -0.329439857672293 -0.28230858787269908 0 -0.34598410252681239 -0.27909860881070692 0 -0.33538839775262291 -0.30008886148303698 0 -0.31504856038177009 -0.27481043202551342 0 -0.329439857672293 -0.28230858787269908 0 -0.31913651611782051 -0.29221350990101308 0 -0.31504856038177009 -0.27481043202551342 0 -0.31913651611782051 -0.29221350990101308 0 -0.30659232562701672 -0.28890670905104721 0 -0.33538839775262291 -0.30008886148303698 0 -0.329439857672293 -0.28230858787269908 0 -0.31913651611782051 -0.29221350990101308 0 -0.33538839775262291 -0.30008886148303698 0 -0.31903412911317502 -0.30526151359432979 0 -0.32479269297843327 -0.32107911415536711 0 -0.33538839775262291 -0.30008886148303698 0 -0.31913651611782051 -0.29221350990101308 0 -0.31903412911317502 -0.30526151359432979 0 -0.31913651611782051 -0.29221350990101308 0 -0.31903412911317502 -0.30526151359432979 0 -0.30941702470659999 -0.30022407006566248 0 -0.31903412911317502 -0.30526151359432979 0 -0.31111541730141312 -0.31204992908433432 0 -0.30941702470659999 -0.30022407006566248 0 -0.32479269297843327 -0.32107911415536711 0 -0.30697337893144871 -0.3232105209057296 0 -0.31111541730141312 -0.31204992908433432 0 -0.31903412911317502 -0.30526151359432979 0 -0.32479269297843327 -0.32107911415536711 0 -0.31111541730141312 -0.31204992908433432 0 -0.32479269297843327 -0.32107911415536711 0 -0.31419698820424258 -0.34206936682769662 0 -0.3263429452201918 -0.34054589675622698 0 -0.32479269297843327 -0.32107911415536711 0 -0.31419698820424258 -0.34206936682769662 0 -0.32479269297843327 -0.32107911415536711 0 -0.31419698820424258 -0.34206936682769662 0 -0.30697337893144871 -0.3232105209057296 0 -0.31419698820424258 -0.34206936682769662 0 -0.3263429452201918 -0.34054589675622698 0 -0.31628724582704498 -0.34752645136217569 0 -0.32479269297843327 -0.32107911415536711 0 -0.3263429452201918 -0.34054589675622698 0 -0.33810046068702848 -0.32586585876008622 0 -0.3263429452201918 -0.34054589675622698 0 -0.34461009959961952 -0.33779420503703372 0 -0.33537995651025382 -0.34880287319044739 0 -0.3263429452201918 -0.34054589675622698 0 -0.33810046068702848 -0.32586585876008622 0 -0.34461009959961952 -0.33779420503703372 0 -0.33810046068702848 -0.32586585876008622 0 -0.34120532003023007 -0.31467066500520868 0 -0.35190474963630608 -0.32301946540693582 0 -0.32479269297843327 -0.32107911415536711 0 -0.33810046068702848 -0.32586585876008622 0 -0.34120532003023007 -0.31467066500520868 0 -0.35584029909675929 -0.30330002522061761 0 -0.34120532003023007 -0.31467066500520868 0 -0.35190474963630608 -0.32301946540693582 0 -0.35584029909675929 -0.30330002522061761 0 -0.35190474963630608 -0.32301946540693582 0 -0.36375789671781572 -0.31678638834118339 0 -0.35190474963630608 -0.32301946540693582 0 -0.36375789671781572 -0.31678638834118339 0 -0.37056545304969202 -0.32908542843563537 0 -0.37672108508850533 -0.31174063430154492 0 -0.36375789671781572 -0.31678638834118339 0 -0.37056545304969202 -0.32908542843563537 0 -0.35190474963630608 -0.32301946540693582 0 -0.37056545304969202 -0.32908542843563537 0 -0.36089854726626602 -0.33863069561766879 0 -0.37616960060515481 -0.34089362858762617 0 -0.36089854726626602 -0.33863069561766879 0 -0.36782156397125731 -0.35044236212318852 0 -0.37616960060515481 -0.34089362858762617 0 -0.37056545304969202 -0.32908542843563537 0 -0.36089854726626602 -0.33863069561766879 0 -0.36089854726626602 -0.33863069561766879 0 -0.34461009959961952 -0.33779420503703372 0 -0.35447266719346249 -0.35007929501872082 0 -0.35190474963630608 -0.32301946540693582 0 -0.36089854726626602 -0.33863069561766879 0 -0.34461009959961952 -0.33779420503703372 0 -0.33810046068702848 -0.32586585876008622 0 -0.35190474963630608 -0.32301946540693582 0 -0.34461009959961952 -0.33779420503703372 0 -0.34461009959961952 -0.33779420503703372 0 -0.35447266719346249 -0.35007929501872082 0 -0.33537995651025382 -0.34880287319044739 0 -0.35447266719346249 -0.35007929501872082 0 -0.34227429308876839 -0.36644893520654559 0 -0.33537995651025382 -0.34880287319044739 0 -0.35447266719346249 -0.35007929501872082 0 -0.33537995651025382 -0.34880287319044739 0 -0.36089854726626602 -0.33863069561766879 0 -0.35447266719346249 -0.35007929501872082 0 -0.36782156397125731 -0.35044236212318852 0 -0.36782156397125731 -0.35044236212318852 0 -0.36956404656562769 -0.36525534939686233 0 -0.35843220633349338 -0.36185148715414661 0 -0.35447266719346249 -0.35007929501872082 0 -0.36782156397125731 -0.35044236212318852 0 -0.35843220633349338 -0.36185148715414661 0 -0.38459791022657719 -0.36612469328914687 0 -0.36782156397125731 -0.35044236212318852 0 -0.36956404656562769 -0.36525534939686233 0 -0.37554122506897858 -0.37413195453287218 0 -0.36956404656562769 -0.36525534939686233 0 -0.36049876906785772 -0.37409860013393709 0 -0.36956404656562769 -0.36525534939686233 0 -0.36049876906785772 -0.37409860013393709 0 -0.35843220633349338 -0.36185148715414661 0 -0.36049876906785772 -0.37409860013393709 0 -0.35843220633349338 -0.36185148715414661 0 -0.34227429308876839 -0.36644893520654559 0 -0.35447266719346249 -0.35007929501872082 0 -0.35843220633349338 -0.36185148715414661 0 -0.34227429308876839 -0.36644893520654559 0 -0.34227429308876839 -0.36644893520654559 0 -0.32367563491546059 -0.3668154918083143 0 -0.33106402400387691 -0.38610453225445268 0 -0.34227429308876839 -0.36644893520654559 0 -0.32940428258538179 -0.35739843789187081 0 -0.32367563491546059 -0.3668154918083143 0 -0.34227429308876839 -0.36644893520654559 0 -0.33537995651025382 -0.34880287319044739 0 -0.32940428258538179 -0.35739843789187081 0 -0.31628724582704498 -0.34752645136217569 0 -0.32367563491546059 -0.3668154918083143 0 -0.33537995651025382 -0.34880287319044739 0 -0.32940428258538179 -0.35739843789187081 0 -0.31628724582704498 -0.34752645136217569 0 -0.33537995651025382 -0.34880287319044739 0 -0.31628724582704498 -0.34752645136217569 0 -0.3263429452201918 -0.34054589675622698 0 -0.33537995651025382 -0.34880287319044739 0 -0.31628724582704498 -0.34752645136217569 0 -0.32940428258538179 -0.35739843789187081 0 -0.31628724582704498 -0.34752645136217569 0 -0.32367563491546059 -0.3668154918083143 0 -0.31628724582704498 -0.34752645136217569 0 -0.32367563491546059 -0.3668154918083143 0 -0.31235194476371952 -0.3602705771895256 0 -0.31419698820424258 -0.34206936682769662 0 -0.31160046353782728 -0.34721312177175601 0 -0.31419698820424258 -0.34206936682769662 0 -0.31628724582704498 -0.34752645136217569 0 -0.31628724582704498 -0.34752645136217569 0 -0.31160046353782728 -0.34721312177175601 0 -0.31419698820424258 -0.34206936682769662 0 -0.31628724582704498 -0.34752645136217569 0 -0.31160046353782728 -0.34721312177175601 0 -0.31628724582704498 -0.34752645136217569 0 -0.31235194476371952 -0.3602705771895256 0 -0.31160046353782728 -0.34721312177175601 0 -0.32367563491546059 -0.3668154918083143 0 -0.31235194476371952 -0.3602705771895256 0 -0.31174277845508108 -0.38390054271067492 0 -0.30140006231940669 -0.3674202720743332 0 -0.31235194476371952 -0.3602705771895256 0 -0.31174277845508108 -0.38390054271067492 0 -0.30140006231940669 -0.3674202720743332 0 -0.29876425976869581 -0.35459889692062618 0 -0.29239813476133403 -0.36177935425687252 0 -0.31160046353782728 -0.34721312177175601 0 -0.28784134391110411 -0.34562473239031832 0 -0.30140006231940669 -0.3674202720743332 0 -0.31160046353782728 -0.34721312177175601 0 -0.31160046353782728 -0.34721312177175601 0 -0.29876425976869581 -0.35459889692062618 0 -0.28784134391110411 -0.34562473239031832 0 -0.30140006231940669 -0.3674202720743332 0 -0.31235194476371952 -0.3602705771895256 0 -0.31160046353782728 -0.34721312177175601 0 -0.30140006231940669 -0.3674202720743332 0 -0.31160046353782728 -0.34721312177175601 0 -0.29876425976869581 -0.35459889692062618 0 -0.28784134391110411 -0.34562473239031832 0 -0.28226237556022182 -0.3649607123004126 0 -0.27700475692894239 -0.3449002644822351 0 -0.28784134391110411 -0.34562473239031832 0 -0.28226237556022182 -0.3649607123004126 0 -0.28784134391110411 -0.34562473239031832 0 -0.28226237556022182 -0.3649607123004126 0 -0.29239813476133403 -0.36177935425687252 0 -0.29876425976869581 -0.35459889692062618 0 -0.28784134391110411 -0.34562473239031832 0 -0.29239813476133403 -0.36177935425687252 0 -0.28784134391110411 -0.34562473239031832 0 -0.27700475692894239 -0.3449002644822351 0 -0.28226237556022182 -0.3649607123004126 0 -0.28680213480438271 -0.37567621007169882 0 -0.27668340720933648 -0.38429669221050589 0 -0.30140006231940669 -0.3674202720743332 0 -0.29239813476133403 -0.36177935425687252 0 -0.28680213480438271 -0.37567621007169882 0 -0.28226237556022182 -0.3649607123004126 0 -0.29239813476133403 -0.36177935425687252 0 -0.28680213480438271 -0.37567621007169882 0 -0.28226237556022182 -0.3649607123004126 0 -0.27449671319206331 -0.37090895262474077 0 -0.27668340720933648 -0.38429669221050589 0 -0.28226237556022182 -0.3649607123004126 0 -0.27449671319206331 -0.37090895262474077 0 -0.27700475692894239 -0.3449002644822351 0 -0.28226237556022182 -0.3649607123004126 0 -0.27668340720933648 -0.38429669221050589 0 -0.27449671319206331 -0.37090895262474077 0 -0.25862232839652621 -0.35903655254702782 0 -0.25372868251686681 -0.37824598268554438 0 -0.25862232839652621 -0.35903655254702782 0 -0.27700475692894239 -0.3449002644822351 0 -0.2471067327845882 -0.34290146550219369 0 -0.27700475692894239 -0.3449002644822351 0 -0.2471067327845882 -0.34290146550219369 0 -0.27449671319206331 -0.37090895262474077 0 -0.27700475692894239 -0.3449002644822351 0 -0.27449671319206331 -0.37090895262474077 0 -0.25862232839652621 -0.35903655254702782 0 -0.27700475692894239 -0.3449002644822351 0 -0.27700475692894239 -0.3449002644822351 0 -0.2794725457905165 -0.31930902380390402 0 -0.27700475692894239 -0.3449002644822351 0 -0.26173596944191041 -0.32710854533710337 0 -0.2794725457905165 -0.31930902380390402 0 -0.27700475692894239 -0.3449002644822351 0 -0.26173596944191041 -0.32710854533710337 0 -0.2471067327845882 -0.34290146550219369 0 -0.26173596944191041 -0.32710854533710337 0 -0.26531234258196801 -0.30463220097938393 0 -0.24362129897875531 -0.31279969058816581 0 -0.26173596944191041 -0.32710854533710337 0 -0.2471067327845882 -0.34290146550219369 0 -0.24362129897875531 -0.31279969058816581 0 -0.26173596944191041 -0.32710854533710337 0 -0.2794725457905165 -0.31930902380390402 0 -0.26531234258196801 -0.30463220097938393 0 -0.2794725457905165 -0.31930902380390402 0 -0.29379555678488201 -0.32498820368704062 0 -0.28726838347843558 -0.30865432144710597 0 -0.29379555678488201 -0.32498820368704062 0 -0.29974976965865657 -0.30435167498376192 0 -0.28726838347843558 -0.30865432144710597 0 -0.29379555678488201 -0.32498820368704062 0 -0.29974976965865657 -0.30435167498376192 0 -0.28784134391110411 -0.34562473239031832 0 -0.27700475692894239 -0.3449002644822351 0 -0.29379555678488201 -0.32498820368704062 0 -0.28784134391110411 -0.34562473239031832 0 -0.29379555678488201 -0.32498820368704062 0 -0.30288154627390118 -0.33662118911650818 0 -0.27700475692894239 -0.3449002644822351 0 -0.2794725457905165 -0.31930902380390402 0 -0.29379555678488201 -0.32498820368704062 0 -0.28784134391110411 -0.34562473239031832 0 -0.29379555678488201 -0.32498820368704062 0 -0.31419698820424258 -0.34206936682769662 0 -0.30288154627390118 -0.33662118911650818 0 -0.30697337893144871 -0.3232105209057296 0 -0.31160046353782728 -0.34721312177175601 0 -0.28784134391110411 -0.34562473239031832 0 -0.30288154627390118 -0.33662118911650818 0 -0.29379555678488201 -0.32498820368704062 0 -0.30288154627390118 -0.33662118911650818 0 -0.30697337893144871 -0.3232105209057296 0 -0.31419698820424258 -0.34206936682769662 0 -0.30697337893144871 -0.3232105209057296 0 -0.31419698820424258 -0.34206936682769662 0 -0.31160046353782728 -0.34721312177175601 0 -0.30288154627390118 -0.33662118911650818 0 -0.29379555678488201 -0.32498820368704062 0 -0.30697337893144871 -0.3232105209057296 0 -0.29974976965865657 -0.30435167498376192 0 -0.30697337893144871 -0.3232105209057296 0 -0.29974976965865657 -0.30435167498376192 0 -0.31111541730141312 -0.31204992908433432 0 -0.30697337893144871 -0.3232105209057296 0 -0.29974976965865657 -0.30435167498376192 0 -0.30178855477177841 -0.29728551050515128 0 -0.29974976965865657 -0.30435167498376192 0 -0.30941702470659999 -0.30022407006566248 0 -0.30178855477177841 -0.29728551050515128 0 -0.29974976965865657 -0.30435167498376192 0 -0.29159669265494598 -0.29699122300748859 0 -0.30178855477177841 -0.29728551050515128 0 -0.29974976965865657 -0.30435167498376192 0 -0.29974976965865657 -0.30435167498376192 0 -0.31111541730141312 -0.31204992908433432 0 -0.30941702470659999 -0.30022407006566248 0 -0.31913651611782051 -0.29221350990101308 0 -0.30941702470659999 -0.30022407006566248 0 -0.30659232562701672 -0.28890670905104721 0 -0.30178855477177841 -0.29728551050515128 0 -0.30941702470659999 -0.30022407006566248 0 -0.30659232562701672 -0.28890670905104721 0 -0.30659232562701672 -0.28890670905104721 0 -0.29458808973461298 -0.28693525521497421 0 -0.30120250718818059 -0.27658376315334321 0 -0.30178855477177841 -0.29728551050515128 0 -0.30659232562701672 -0.28890670905104721 0 -0.29458808973461298 -0.28693525521497421 0 -0.30178855477177841 -0.29728551050515128 0 -0.29458808973461298 -0.28693525521497421 0 -0.29159669265494598 -0.29699122300748859 0 -0.29458808973461298 -0.28693525521497421 0 -0.28194033465209112 -0.29371778312557278 0 -0.28440812351366562 -0.26812654244724188 0 -0.29458808973461298 -0.28693525521497421 0 -0.28194033465209112 -0.29371778312557278 0 -0.29159669265494598 -0.29699122300748859 0 -0.2794725457905165 -0.31930902380390402 0 -0.28194033465209112 -0.29371778312557278 0 -0.28726838347843558 -0.30865432144710597 0 -0.28194033465209112 -0.29371778312557278 0 -0.29159669265494598 -0.29699122300748859 0 -0.28726838347843558 -0.30865432144710597 0 -0.29451129293891359 -0.30337872882134342 0 -0.29159669265494598 -0.29699122300748859 0 -0.28726838347843558 -0.30865432144710597 0 -0.29974976965865657 -0.30435167498376192 0 -0.29451129293891359 -0.30337872882134342 0 -0.29159669265494598 -0.29699122300748859 0 -0.29974976965865657 -0.30435167498376192 0 -0.29451129293891359 -0.30337872882134342 0 -0.28726838347843558 -0.30865432144710597 0 -0.2794725457905165 -0.31930902380390402 0 -0.28194033465209112 -0.29371778312557278 0 -0.26531234258196801 -0.30463220097938393 0 -0.2794725457905165 -0.31930902380390402 0 -0.28194033465209112 -0.29371778312557278 0 -0.26531234258196801 -0.30463220097938393 0 -0.25452603338474811 -0.29265532270736311 0 -0.24362129897875531 -0.31279969058816581 0 -0.26531234258196801 -0.30463220097938393 0 -0.25452603338474811 -0.29265532270736311 0 -0.26694599230596933 -0.28372556483085382 0 -0.25452603338474811 -0.29265532270736311 0 -0.25375469099219139 -0.27805694384383239 0 -0.24288527000267349 -0.28711669108024679 0 -0.25452603338474811 -0.29265532270736311 0 -0.26694599230596933 -0.28372556483085382 0 -0.25375469099219139 -0.27805694384383239 0 -0.28194033465209112 -0.29371778312557278 0 -0.26531234258196801 -0.30463220097938393 0 -0.26694599230596933 -0.28372556483085382 0 -0.28194033465209112 -0.29371778312557278 0 -0.26694599230596933 -0.28372556483085382 0 -0.28440812351366562 -0.26812654244724188 0 -0.26694599230596933 -0.28372556483085382 0 -0.26173442871115171 -0.26516459588172892 0 -0.28440812351366562 -0.26812654244724188 0 -0.25375469099219139 -0.27805694384383239 0 -0.26173442871115171 -0.26516459588172892 0 -0.24004363130804821 -0.26592468619517817 0 -0.26694599230596933 -0.28372556483085382 0 -0.25375469099219139 -0.27805694384383239 0 -0.26173442871115171 -0.26516459588172892 0 -0.26173442871115171 -0.26516459588172892 0 -0.27027951111711762 -0.24829868529917781 0 -0.25072384826432742 -0.23841644955799321 0 -0.26173442871115171 -0.26516459588172892 0 -0.24004363130804821 -0.26592468619517817 0 -0.25072384826432742 -0.23841644955799321 0 -0.28440812351366562 -0.26812654244724188 0 -0.28687591237524018 -0.24253530176891069 0 -0.27027951111711762 -0.24829868529917781 0 -0.26173442871115171 -0.26516459588172892 0 -0.28440812351366562 -0.26812654244724188 0 -0.27027951111711762 -0.24829868529917781 0 -0.28440812351366562 -0.26812654244724188 0 -0.28687591237524018 -0.24253530176891069 0 -0.29458154172358941 -0.25465892743969759 0 -0.28440812351366562 -0.26812654244724188 0 -0.28687591237524018 -0.24253530176891069 0 -0.29458154172358941 -0.25465892743969759 0 -0.28440812351366562 -0.26812654244724188 0 -0.30302339509131548 -0.26250853116630418 0 -0.28440812351366562 -0.26812654244724188 0 -0.30120250718818059 -0.27658376315334321 0 -0.30302339509131548 -0.26250853116630418 0 -0.28194033465209112 -0.29371778312557278 0 -0.28440812351366562 -0.26812654244724188 0 -0.29458808973461298 -0.28693525521497421 0 -0.28440812351366562 -0.26812654244724188 0 -0.30120250718818059 -0.27658376315334321 0 -0.31504856038177009 -0.27481043202551342 0 -0.30659232562701672 -0.28890670905104721 0 -0.30120250718818059 -0.27658376315334321 0 -0.31504856038177009 -0.27481043202551342 0 -0.30120250718818059 -0.27658376315334321 0 -0.30302339509131548 -0.26250853116630418 0 -0.31659653321669018 -0.25755681406275349 0 -0.30302339509131548 -0.26250853116630418 0 -0.30401873591413647 -0.24546533437633369 0 -0.31659653321669018 -0.25755681406275349 0 -0.31504856038177009 -0.27481043202551342 0 -0.30302339509131548 -0.26250853116630418 0 -0.29458154172358941 -0.25465892743969759 0 -0.30302339509131548 -0.26250853116630418 0 -0.30401873591413647 -0.24546533437633369 0 -0.33287042612364859 -0.46665017123126562 0 -0.34179715726541282 -0.43845235607152933 0 -0.35232798539431948 -0.46069463450825032 0 -0.34179715726541282 -0.43845235607152933 0 -0.32686246794290857 -0.44615180367495899 0 -0.32002478181149491 -0.43111292465629919 0 -0.33287042612364859 -0.46665017123126562 0 -0.34179715726541282 -0.43845235607152933 0 -0.32686246794290857 -0.44615180367495899 0 -0.32002478181149491 -0.43111292465629919 0 -0.30632400891769163 -0.43537136724523789 0 -0.31196902067231808 -0.44970569656638698 0 -0.32686246794290857 -0.44615180367495899 0 -0.32002478181149491 -0.43111292465629919 0 -0.31196902067231808 -0.44970569656638698 0 -0.33287042612364859 -0.46665017123126562 0 -0.31196902067231808 -0.44970569656638698 0 -0.30714571755529008 -0.47481110910015312 0 -0.33287042612364859 -0.46665017123126562 0 -0.31196902067231808 -0.44970569656638698 0 -0.33287042612364859 -0.46665017123126562 0 -0.32686246794290857 -0.44615180367495899 0 -0.31196902067231808 -0.44970569656638698 0 -0.33287042612364859 -0.46665017123126562 0 -0.3230849070024529 -0.4795246542812544 0 -0.30714571755529008 -0.47481110910015312 0 -0.3230849070024529 -0.4795246542812544 0 -0.32229042150768739 -0.49540683520154538 0 -0.30714571755529008 -0.47481110910015312 0 -0.32229042150768739 -0.49540683520154538 0 -0.34336967304326432 -0.5 0 -0.29610683790165671 -0.5 0 -0.3230849070024529 -0.4795246542812544 0 -0.32229042150768739 -0.49540683520154538 0 -0.33720451421447761 -0.48241422245181281 0 -0.32229042150768739 -0.49540683520154538 0 -0.33720451421447761 -0.48241422245181281 0 -0.34921826499847403 -0.49246651940717878 0 -0.32229042150768739 -0.49540683520154538 0 -0.34336967304326432 -0.5 0 -0.34921826499847403 -0.49246651940717878 0 -0.32229042150768739 -0.49540683520154538 0 -0.34921826499847403 -0.49246651940717878 0 -0.33287042612364859 -0.46665017123126562 0 -0.3230849070024529 -0.4795246542812544 0 -0.33720451421447761 -0.48241422245181281 0 -0.33287042612364859 -0.46665017123126562 0 -0.33720451421447761 -0.48241422245181281 0 -0.35377183157497921 -0.48359464589614398 0 -0.33287042612364859 -0.46665017123126562 0 -0.35377183157497921 -0.48359464589614398 0 -0.33287042612364859 -0.46665017123126562 0 -0.35377183157497921 -0.48359464589614398 0 -0.35232798539431948 -0.46069463450825032 0 -0.35377183157497921 -0.48359464589614398 0 -0.36963097928822641 -0.46898421185555289 0 -0.35232798539431948 -0.46069463450825032 0 -0.37614610848926072 -0.48952620361281218 0 -0.34336967304326432 -0.5 0 -0.34921826499847403 -0.49246651940717878 0 -0.33720451421447761 -0.48241422245181281 0 -0.35377183157497921 -0.48359464589614398 0 -0.34921826499847403 -0.49246651940717878 0 -0.37614610848926072 -0.48952620361281218 0 -0.34921826499847403 -0.49246651940717878 0 -0.37614610848926072 -0.48952620361281218 0 -0.35377183157497921 -0.48359464589614398 0 -0.34921826499847403 -0.49246651940717878 0 -0.37614610848926072 -0.48952620361281218 0 -0.35377183157497921 -0.48359464589614398 0 -0.36963097928822641 -0.46898421185555289 0 -0.36963097928822641 -0.46898421185555289 0 -0.35232798539431948 -0.46069463450825032 0 -0.36356953271933062 -0.44579178748675952 0 -0.38534190817324843 -0.45313121890198949 0 -0.36963097928822641 -0.46898421185555289 0 -0.36356953271933062 -0.44579178748675952 0 -0.34179715726541282 -0.43845235607152933 0 -0.36356953271933062 -0.44579178748675952 0 -0.36653449971058388 -0.43022957819680357 0 -0.34179715726541282 -0.43845235607152933 0 -0.36356953271933062 -0.44579178748675952 0 -0.34179715726541282 -0.43845235607152933 0 -0.35232798539431948 -0.46069463450825032 0 -0.36356953271933062 -0.44579178748675952 0 -0.38534190817324843 -0.45313121890198949 0 -0.36356953271933062 -0.44579178748675952 0 -0.38703114723878018 -0.43361022622180928 0 -0.36356953271933062 -0.44579178748675952 0 -0.36653449971058388 -0.43022957819680357 0 -0.37682871575927379 -0.4031209564268845 0 -0.37863466902946158 -0.41843805490853758 0 -0.35723238684418179 -0.41656945086376213 0 -0.37863466902946158 -0.41843805490853758 0 -0.36653449971058388 -0.43022957819680357 0 -0.35723238684418179 -0.41656945086376213 0 -0.35723238684418179 -0.41656945086376213 0 -0.35265145904244832 -0.40193954718724639 0 -0.33845241309229313 -0.40539357270059118 0 -0.35723238684418179 -0.41656945086376213 0 -0.33845241309229313 -0.40539357270059118 0 -0.33641012707093421 -0.42084559612193312 0 -0.34179715726541282 -0.43845235607152933 0 -0.36653449971058388 -0.43022957819680357 0 -0.35723238684418179 -0.41656945086376213 0 -0.34179715726541282 -0.43845235607152933 0 -0.35723238684418179 -0.41656945086376213 0 -0.33641012707093421 -0.42084559612193312 0 -0.36049876906785772 -0.37409860013393709 0 -0.37098705112042651 -0.38640796132580352 0 -0.35131065669463463 -0.38802179540250781 0 -0.37554122506897858 -0.37413195453287218 0 -0.36049876906785772 -0.37409860013393709 0 -0.37098705112042651 -0.38640796132580352 0 -0.37682871575927379 -0.4031209564268845 0 -0.35723238684418179 -0.41656945086376213 0 -0.36361037953868391 -0.39777336978212491 0 -0.37098705112042651 -0.38640796132580352 0 -0.36361037953868391 -0.39777336978212491 0 -0.35131065669463463 -0.38802179540250781 0 -0.37682871575927379 -0.4031209564268845 0 -0.37098705112042651 -0.38640796132580352 0 -0.36361037953868391 -0.39777336978212491 0 -0.35265145904244832 -0.40193954718724639 0 -0.35131065669463463 -0.38802179540250781 0 -0.33845241309229313 -0.40539357270059118 0 -0.35723238684418179 -0.41656945086376213 0 -0.36361037953868391 -0.39777336978212491 0 -0.35265145904244832 -0.40193954718724639 0 -0.36361037953868391 -0.39777336978212491 0 -0.35265145904244832 -0.40193954718724639 0 -0.35131065669463463 -0.38802179540250781 0 -0.36049876906785772 -0.37409860013393709 0 -0.34227429308876839 -0.36644893520654559 0 -0.35131065669463463 -0.38802179540250781 0 -0.34227429308876839 -0.36644893520654559 0 -0.35131065669463463 -0.38802179540250781 0 -0.33106402400387691 -0.38610453225445268 0 -0.35131065669463463 -0.38802179540250781 0 -0.33106402400387691 -0.38610453225445268 0 -0.33845241309229313 -0.40539357270059118 0 -0.33106402400387691 -0.38610453225445268 0 -0.33845241309229313 -0.40539357270059118 0 -0.33106402400387691 -0.38610453225445268 0 -0.33845241309229313 -0.40539357270059118 0 -0.32506261293157279 -0.39895187777153951 0 -0.33845241309229313 -0.40539357270059118 0 -0.32506261293157279 -0.39895187777153951 0 -0.32454389634128822 -0.41269967631748339 0 -0.32506261293157279 -0.39895187777153951 0 -0.31174277845508108 -0.38390054271067492 0 -0.31172464828930851 -0.40238372391950589 0 -0.32506261293157279 -0.39895187777153951 0 -0.32454389634128822 -0.41269967631748339 0 -0.31172464828930851 -0.40238372391950589 0 -0.32367563491546059 -0.3668154918083143 0 -0.33106402400387691 -0.38610453225445268 0 -0.31174277845508108 -0.38390054271067492 0 -0.32367563491546059 -0.3668154918083143 0 -0.33106402400387691 -0.38610453225445268 0 -0.33106402400387691 -0.38610453225445268 0 -0.32506261293157279 -0.39895187777153951 0 -0.31174277845508108 -0.38390054271067492 0 -0.34179715726541282 -0.43845235607152933 0 -0.33641012707093421 -0.42084559612193312 0 -0.32002478181149491 -0.43111292465629919 0 -0.34179715726541282 -0.43845235607152933 0 -0.32002478181149491 -0.43111292465629919 0 -0.33845241309229313 -0.40539357270059118 0 -0.33641012707093421 -0.42084559612193312 0 -0.32454389634128822 -0.41269967631748339 0 -0.32454389634128822 -0.41269967631748339 0 -0.32002478181149491 -0.43111292465629919 0 -0.31039655844395858 -0.41435617954327469 0 -0.33641012707093421 -0.42084559612193312 0 -0.32454389634128822 -0.41269967631748339 0 -0.32002478181149491 -0.43111292465629919 0 -0.32454389634128822 -0.41269967631748339 0 -0.31039655844395858 -0.41435617954327469 0 -0.31172464828930851 -0.40238372391950589 0 -0.32002478181149491 -0.43111292465629919 0 -0.29825240635757733 -0.42377349324106828 0 -0.31039655844395858 -0.41435617954327469 0 -0.32002478181149491 -0.43111292465629919 0 -0.30003707315637168 -0.42559839532721983 0 -0.29825240635757733 -0.42377349324106828 0 -0.32002478181149491 -0.43111292465629919 0 -0.30632400891769163 -0.43537136724523789 0 -0.30003707315637168 -0.42559839532721983 0 -0.32002478181149491 -0.43111292465629919 0 -0.29825240635757733 -0.42377349324106828 0 -0.30632400891769163 -0.43537136724523789 0 -0.30003707315637168 -0.42559839532721983 0 -0.29106761522098751 -0.43276122190150851 0 -0.30003707315637168 -0.42559839532721983 0 -0.29825240635757733 -0.42377349324106828 0 -0.29825240635757733 -0.42377349324106828 0 -0.31039655844395858 -0.41435617954327469 0 -0.29743705942012422 -0.4018110795820159 0 -0.29825240635757733 -0.42377349324106828 0 -0.27030733563551929 -0.4143532565566343 0 -0.29825240635757733 -0.42377349324106828 0 -0.28512053790638042 -0.41034556700415731 0 -0.29743705942012422 -0.4018110795820159 0 -0.29825240635757733 -0.42377349324106828 0 -0.28512053790638042 -0.41034556700415731 0 -0.29825240635757733 -0.42377349324106828 0 -0.28512053790638042 -0.41034556700415731 0 -0.27030733563551929 -0.4143532565566343 0 -0.29825240635757733 -0.42377349324106828 0 -0.29106761522098751 -0.43276122190150851 0 -0.27016620976965727 -0.41581674723662948 0 -0.30003707315637168 -0.42559839532721983 0 -0.29825240635757733 -0.42377349324106828 0 -0.29106761522098751 -0.43276122190150851 0 -0.30140006231940669 -0.3674202720743332 0 -0.31174277845508108 -0.38390054271067492 0 -0.29119966110098638 -0.38762742237691061 0 -0.31174277845508108 -0.38390054271067492 0 -0.29743705942012422 -0.4018110795820159 0 -0.29119966110098638 -0.38762742237691061 0 -0.31174277845508108 -0.38390054271067492 0 -0.31172464828930851 -0.40238372391950589 0 -0.29743705942012422 -0.4018110795820159 0 -0.31039655844395858 -0.41435617954327469 0 -0.31172464828930851 -0.40238372391950589 0 -0.29743705942012422 -0.4018110795820159 0 -0.28512053790638042 -0.41034556700415731 0 -0.29743705942012422 -0.4018110795820159 0 -0.28448586701840212 -0.39619968038816727 0 -0.29743705942012422 -0.4018110795820159 0 -0.28448586701840212 -0.39619968038816727 0 -0.29119966110098638 -0.38762742237691061 0 -0.30140006231940669 -0.3674202720743332 0 -0.29119966110098638 -0.38762742237691061 0 -0.30140006231940669 -0.3674202720743332 0 -0.29119966110098638 -0.38762742237691061 0 -0.28680213480438271 -0.37567621007169882 0 -0.28448586701840212 -0.39619968038816727 0 -0.29119966110098638 -0.38762742237691061 0 -0.27668340720933648 -0.38429669221050589 0 -0.29119966110098638 -0.38762742237691061 0 -0.28680213480438271 -0.37567621007169882 0 -0.27668340720933648 -0.38429669221050589 0 -0.27449671319206331 -0.37090895262474077 0 -0.27198866945518352 -0.39691764076724628 0 -0.27449671319206331 -0.37090895262474077 0 -0.27198866945518352 -0.39691764076724628 0 -0.25372868251686681 -0.37824598268554438 0 -0.27449671319206331 -0.37090895262474077 0 -0.27668340720933648 -0.38429669221050589 0 -0.27198866945518352 -0.39691764076724628 0 -0.27198866945518352 -0.39691764076724628 0 -0.26697553485617631 -0.41323011207655802 0 -0.26109603604429799 -0.40846368529764882 0 -0.27198866945518352 -0.39691764076724628 0 -0.27030733563551929 -0.4143532565566343 0 -0.28448586701840212 -0.39619968038816727 0 -0.27668340720933648 -0.38429669221050589 0 -0.27198866945518352 -0.39691764076724628 0 -0.28512053790638042 -0.41034556700415731 0 -0.28448586701840212 -0.39619968038816727 0 -0.27198866945518352 -0.39691764076724628 0 -0.28512053790638042 -0.41034556700415731 0 -0.27198866945518352 -0.39691764076724628 0 -0.27198866945518352 -0.39691764076724628 0 -0.2531098078334369 -0.39505658787466119 0 -0.26109603604429799 -0.40846368529764882 0 -0.2531098078334369 -0.39505658787466119 0 -0.26109603604429799 -0.40846368529764882 0 -0.24263514192489499 -0.40502500625716792 0 -0.27198866945518352 -0.39691764076724628 0 -0.25372868251686681 -0.37824598268554438 0 -0.27198866945518352 -0.39691764076724628 0 -0.2531098078334369 -0.39505658787466119 0 -0.25372868251686681 -0.37824598268554438 0 -0.29106761522098751 -0.43276122190150851 0 -0.27016620976965727 -0.41581674723662948 0 -0.27016620976965727 -0.41581674723662948 0 -0.2610014272341315 -0.42386051704126421 0 -0.26746025142878421 -0.44387783149108562 0 -0.27016620976965727 -0.41581674723662948 0 -0.26746025142878421 -0.44387783149108562 0 -0.28207858671543212 -0.44429675797388679 0 -0.27016620976965727 -0.41581674723662948 0 -0.26746025142878421 -0.44387783149108562 0 -0.29106761522098751 -0.43276122190150851 0 -0.27016620976965727 -0.41581674723662948 0 -0.28207858671543212 -0.44429675797388679 0 -0.29825240635757733 -0.42377349324106828 0 -0.27016620976965727 -0.41581674723662948 0 -0.27030733563551929 -0.4143532565566343 0 -0.28512053790638042 -0.41034556700415731 0 -0.27198866945518352 -0.39691764076724628 0 -0.27030733563551929 -0.4143532565566343 0 -0.27198866945518352 -0.39691764076724628 0 -0.26697553485617631 -0.41323011207655802 0 -0.27030733563551929 -0.4143532565566343 0 -0.26697553485617631 -0.41323011207655802 0 -0.27030733563551929 -0.4143532565566343 0 -0.26697553485617631 -0.41323011207655802 0 -0.27016620976965727 -0.41581674723662948 0 -0.2610014272341315 -0.42386051704126421 0 -0.27016620976965727 -0.41581674723662948 0 -0.27030733563551929 -0.4143532565566343 0 -0.26697553485617631 -0.41323011207655802 0 -0.27016620976965727 -0.41581674723662948 0 -0.27030733563551929 -0.4143532565566343 0 -0.26697553485617631 -0.41323011207655802 0 -0.27016620976965727 -0.41581674723662948 0 -0.26697553485617631 -0.41323011207655802 0 -0.2610014272341315 -0.42386051704126421 0 -0.24263514192489499 -0.40502500625716792 0 -0.26697553485617631 -0.41323011207655802 0 -0.26109603604429799 -0.40846368529764882 0 -0.24263514192489499 -0.40502500625716792 0 -0.26697553485617631 -0.41323011207655802 0 -0.24263514192489499 -0.40502500625716792 0 -0.26697553485617631 -0.41323011207655802 0 -0.26109603604429799 -0.40846368529764882 0 -0.2610014272341315 -0.42386051704126421 0 -0.26746025142878421 -0.44387783149108562 0 -0.24906648241450419 -0.4446402053072348 0 -0.2610014272341315 -0.42386051704126421 0 -0.24906648241450419 -0.4446402053072348 0 -0.24474641712459139 -0.42652236367682889 0 -0.26746025142878421 -0.44387783149108562 0 -0.26475429308790982 -0.47193891574554148 0 -0.24906648241450419 -0.4446402053072348 0 -0.26746025142878421 -0.44387783149108562 0 -0.28784356358008728 -0.45856101969816992 0 -0.26475429308790982 -0.47193891574554148 0 -0.26746025142878421 -0.44387783149108562 0 -0.26475429308790982 -0.47193891574554148 0 -0.26746025142878421 -0.44387783149108562 0 -0.28207858671543212 -0.44429675797388679 0 -0.28784356358008728 -0.45856101969816992 0 -0.29106761522098751 -0.43276122190150851 0 -0.28207858671543212 -0.44429675797388679 0 -0.29323969654720627 -0.44633117403498801 0 -0.28207858671543212 -0.44429675797388679 0 -0.29323969654720627 -0.44633117403498801 0 -0.28784356358008728 -0.45856101969816992 0 -0.28784356358008728 -0.45856101969816992 0 -0.31196902067231808 -0.44970569656638698 0 -0.30714571755529008 -0.47481110910015312 0 -0.29106761522098751 -0.43276122190150851 0 -0.31196902067231808 -0.44970569656638698 0 -0.29323969654720627 -0.44633117403498801 0 -0.28784356358008728 -0.45856101969816992 0 -0.31196902067231808 -0.44970569656638698 0 -0.30632400891769163 -0.43537136724523789 0 -0.29106761522098751 -0.43276122190150851 0 -0.31196902067231808 -0.44970569656638698 0 -0.29106761522098751 -0.43276122190150851 0 -0.29323969654720627 -0.44633117403498801 0 -0.31196902067231808 -0.44970569656638698 0 -0.32229042150768739 -0.49540683520154538 0 -0.30714571755529008 -0.47481110910015312 0 -0.29610683790165671 -0.5 0 -0.28784356358008728 -0.45856101969816992 0 -0.30714571755529008 -0.47481110910015312 0 -0.2835797493743959 -0.48106220890877238 0 -0.30714571755529008 -0.47481110910015312 0 -0.2835797493743959 -0.48106220890877238 0 -0.29610683790165671 -0.5 0 -0.2835797493743959 -0.48106220890877238 0 -0.29610683790165671 -0.5 0 -0.2620483347470357 -0.4999999999999975 0 -0.28784356358008728 -0.45856101969816992 0 -0.2835797493743959 -0.48106220890877238 0 -0.26475429308790982 -0.47193891574554148 0 -0.2835797493743959 -0.48106220890877238 0 -0.26475429308790982 -0.47193891574554148 0 -0.2620483347470357 -0.4999999999999975 0 -0.26475429308790982 -0.47193891574554148 0 -0.2620483347470357 -0.4999999999999975 0 -0.24765865014248489 -0.48482547006564231 0 -0.26475429308790982 -0.47193891574554148 0 -0.2620483347470357 -0.4999999999999975 0 -0.2620483347470357 -0.4999999999999975 0 -0.24765865014248489 -0.48482547006564231 0 -0.2382912122508502 -0.5 0 -0.24765865014248489 -0.48482547006564231 0 -0.2382912122508502 -0.5 0 -0.22725742093175541 -0.48560711782335869 0 -0.26475429308790982 -0.47193891574554148 0 -0.24765865014248489 -0.48482547006564231 0 -0.2347333675128809 -0.46651623189213098 0 -0.24765865014248489 -0.48482547006564231 0 -0.22725742093175541 -0.48560711782335869 0 -0.2347333675128809 -0.46651623189213098 0 -0.22725742093175541 -0.48560711782335869 0 -0.2347333675128809 -0.46651623189213098 0 -0.20512468065708661 -0.47334151695486543 0 -0.2382912122508502 -0.5 0 -0.22725742093175541 -0.48560711782335869 0 -0.21453408975466459 -0.49999999999999911 0 -0.24906648241450419 -0.4446402053072348 0 -0.2347333675128809 -0.46651623189213098 0 -0.2313650145929462 -0.43958352760853092 0 -0.26475429308790982 -0.47193891574554148 0 -0.24906648241450419 -0.4446402053072348 0 -0.2347333675128809 -0.46651623189213098 0 -0.2347333675128809 -0.46651623189213098 0 -0.2313650145929462 -0.43958352760853092 0 -0.21578890982870949 -0.45221698609991479 0 -0.2313650145929462 -0.43958352760853092 0 -0.21578890982870949 -0.45221698609991479 0 -0.21186125091848321 -0.42363265399573241 0 -0.21578890982870949 -0.45221698609991479 0 -0.19571527155950841 -0.44668303390973191 0 -0.21186125091848321 -0.42363265399573241 0 -0.21578890982870949 -0.45221698609991479 0 -0.19571527155950841 -0.44668303390973191 0 -0.20512468065708661 -0.47334151695486543 0 -0.2347333675128809 -0.46651623189213098 0 -0.21578890982870949 -0.45221698609991479 0 -0.20512468065708661 -0.47334151695486543 0 -0.19571527155950841 -0.44668303390973191 0 -0.20512468065708661 -0.47334151695486543 0 -0.1815957381450487 -0.46982065071888313 0 -0.19571527155950841 -0.44668303390973191 0 -0.20512468065708661 -0.47334151695486543 0 -0.21453408975466459 -0.49999999999999911 0 -0.20512468065708661 -0.47334151695486543 0 -0.22725742093175541 -0.48560711782335869 0 -0.21453408975466459 -0.49999999999999911 0 -0.20512468065708661 -0.47334151695486543 0 -0.21453408975466459 -0.49999999999999911 0 -0.20512468065708661 -0.47334151695486543 0 -0.19345724518032689 -0.5 0 -0.20512468065708661 -0.47334151695486543 0 -0.18382190859200709 -0.48499511259527361 0 -0.1815957381450487 -0.46982065071888313 0 -0.20512468065708661 -0.47334151695486543 0 -0.19345724518032689 -0.5 0 -0.18382190859200709 -0.48499511259527361 0 -0.19345724518032689 -0.5 0 -0.172380400605989 -0.5 0 -0.18382190859200709 -0.48499511259527361 0 -0.172380400605989 -0.5 0 -0.18382190859200709 -0.48499511259527361 0 -0.16655147837158421 -0.48181339530261952 0 -0.172380400605989 -0.5 0 -0.16655147837158421 -0.48181339530261952 0 -0.15130355603165119 -0.50000000000000422 0 -0.16655147837158421 -0.48181339530261952 0 -0.1815957381450487 -0.46982065071888313 0 -0.16391138649903769 -0.45839789605538389 0 -0.16655147837158421 -0.48181339530261952 0 -0.16391138649903769 -0.45839789605538389 0 -0.14719896605462079 -0.47608141404386051 0 -0.18382190859200709 -0.48499511259527361 0 -0.16655147837158421 -0.48181339530261952 0 -0.1815957381450487 -0.46982065071888313 0 -0.19571527155950841 -0.44668303390973191 0 -0.17006800129221139 -0.43838175335971069 0 -0.16391138649903769 -0.45839789605538389 0 -0.19571527155950841 -0.44668303390973191 0 -0.1815957381450487 -0.46982065071888313 0 -0.16391138649903769 -0.45839789605538389 0 -0.17006800129221139 -0.43838175335971069 0 -0.16391138649903769 -0.45839789605538389 0 -0.14309437607758929 -0.45216282808771707 0 -0.17006800129221139 -0.43838175335971069 0 -0.14309437607758929 -0.45216282808771707 0 -0.16391138649903769 -0.45839789605538389 0 -0.14309437607758929 -0.45216282808771707 0 -0.14719896605462079 -0.47608141404386051 0 -0.14309437607758929 -0.45216282808771707 0 -0.14719896605462079 -0.47608141404386051 0 -0.14309437607758929 -0.45216282808771707 0 -0.13961314743226941 -0.43187674176677038 0 -0.17006800129221139 -0.43838175335971069 0 -0.14309437607758929 -0.45216282808771707 0 -0.13961314743226941 -0.43187674176677038 0 -0.14309437607758929 -0.45216282808771707 0 -0.12634073113087191 -0.44378726844184607 0 -0.13961314743226941 -0.43187674176677038 0 -0.14309437607758929 -0.45216282808771707 0 -0.14719896605462079 -0.47608141404386051 0 -0.1188620011512401 -0.46454337267673412 0 -0.14309437607758929 -0.45216282808771707 0 -0.12634073113087191 -0.44378726844184607 0 -0.1188620011512401 -0.46454337267673412 0 -0.14309437607758929 -0.45216282808771707 0 -0.1188620011512401 -0.46454337267673412 0 -0.12968072546621401 -0.48318219875650242 0 -0.14719896605462079 -0.47608141404386051 0 -0.1188620011512401 -0.46454337267673412 0 -0.12968072546621401 -0.48318219875650242 0 -0.15130355603165119 -0.50000000000000422 0 -0.1238694244071858 -0.5 0 -0.16655147837158421 -0.48181339530261952 0 -0.15130355603165119 -0.50000000000000422 0 -0.14719896605462079 -0.47608141404386051 0 -0.12968072546621401 -0.48318219875650242 0 -0.15130355603165119 -0.50000000000000422 0 -0.14719896605462079 -0.47608141404386051 0 -0.15130355603165119 -0.50000000000000422 0 -0.14719896605462079 -0.47608141404386051 0 -0.1502133232826639 -0.39224453253034408 0 -0.13613191878694769 -0.41159065544582402 0 -0.16241338097291269 -0.40530650920842581 0 -0.1502133232826639 -0.39224453253034408 0 -0.1417331601780446 -0.37634865514489341 0 -0.16047555407407729 -0.37482723265364332 0 -0.1502133232826639 -0.39224453253034408 0 -0.1417331601780446 -0.37634865514489341 0 -0.13265069014162589 -0.39130456912487749 0 -0.1417331601780446 -0.37634865514489341 0 -0.13265069014162589 -0.39130456912487749 0 -0.1219167210072663 -0.38008905888290517 0 -0.13265069014162589 -0.39130456912487749 0 -0.13613191878694769 -0.41159065544582402 0 -0.1502133232826639 -0.39224453253034408 0 -0.13265069014162589 -0.39130456912487749 0 -0.13613191878694769 -0.41159065544582402 0 -0.13265069014162589 -0.39130456912487749 0 -0.13613191878694769 -0.41159065544582402 0 -0.1161711078885298 -0.39891365138407031 0 -0.13613191878694769 -0.41159065544582402 0 -0.13961314743226941 -0.43187674176677038 0 -0.12634073113087191 -0.44378726844184607 0 -0.13961314743226941 -0.43187674176677038 0 -0.1181243082007703 -0.42376097710149641 0 -0.13613191878694769 -0.41159065544582402 0 -0.13961314743226941 -0.43187674176677038 0 -0.1181243082007703 -0.42376097710149641 0 -0.13613191878694769 -0.41159065544582402 0 -0.13961314743226941 -0.43187674176677038 0 -0.1574088463004312 -0.42310523416485107 0 -0.17006800129221139 -0.43838175335971069 0 -0.13961314743226941 -0.43187674176677038 0 -0.1574088463004312 -0.42310523416485107 0 -0.13613191878694769 -0.41159065544582402 0 -0.1574088463004312 -0.42310523416485107 0 -0.16241338097291269 -0.40530650920842581 0 -0.1574088463004312 -0.42310523416485107 0 -0.18630586246193001 -0.42002455086459822 0 -0.16241338097291269 -0.40530650920842581 0 -0.17006800129221139 -0.43838175335971069 0 -0.1574088463004312 -0.42310523416485107 0 -0.18630586246193001 -0.42002455086459822 0 -0.19571527155950841 -0.44668303390973191 0 -0.17006800129221139 -0.43838175335971069 0 -0.18630586246193001 -0.42002455086459822 0 -0.18630586246193001 -0.42002455086459822 0 -0.17557989986893899 -0.39151606262485439 0 -0.16241338097291269 -0.40530650920842581 0 -0.18630586246193001 -0.42002455086459822 0 -0.17557989986893899 -0.39151606262485439 0 -0.19810552696750849 -0.40489070040727132 0 -0.1502133232826639 -0.39224453253034408 0 -0.17557989986893899 -0.39151606262485439 0 -0.16241338097291269 -0.40530650920842581 0 -0.1502133232826639 -0.39224453253034408 0 -0.17557989986893899 -0.39151606262485439 0 -0.16047555407407729 -0.37482723265364332 0 -0.17557989986893899 -0.39151606262485439 0 -0.16047555407407729 -0.37482723265364332 0 -0.1772239115371258 -0.36378179544822897 0 -0.17557989986893899 -0.39151606262485439 0 -0.19395435606233241 -0.38861479461838738 0 -0.1772239115371258 -0.36378179544822897 0 -0.17557989986893899 -0.39151606262485439 0 -0.19395435606233241 -0.38861479461838738 0 -0.19810552696750849 -0.40489070040727132 0 -0.19395435606233241 -0.38861479461838738 0 -0.19810552696750849 -0.40489070040727132 0 -0.2182947489936137 -0.39681990043777771 0 -0.19395435606233241 -0.38861479461838738 0 -0.2182947489936137 -0.39681990043777771 0 -0.19395435606233241 -0.38861479461838738 0 -0.2182947489936137 -0.39681990043777771 0 -0.21959588931369819 -0.37511185921415507 0 -0.19571527155950841 -0.44668303390973191 0 -0.18630586246193001 -0.42002455086459822 0 -0.19571527155950841 -0.44668303390973191 0 -0.18630586246193001 -0.42002455086459822 0 -0.21186125091848321 -0.42363265399573241 0 -0.18630586246193001 -0.42002455086459822 0 -0.19810552696750849 -0.40489070040727132 0 -0.21186125091848321 -0.42363265399573241 0 -0.19810552696750849 -0.40489070040727132 0 -0.2182947489936137 -0.39681990043777771 0 -0.21186125091848321 -0.42363265399573241 0 -0.2313650145929462 -0.43958352760853092 0 -0.21186125091848321 -0.42363265399573241 0 -0.2310770324495271 -0.42008596343476501 0 -0.2182947489936137 -0.39681990043777771 0 -0.21186125091848321 -0.42363265399573241 0 -0.2310770324495271 -0.42008596343476501 0 -0.2182947489936137 -0.39681990043777771 0 -0.2310770324495271 -0.42008596343476501 0 -0.24263514192489499 -0.40502500625716792 0 -0.2610014272341315 -0.42386051704126421 0 -0.24474641712459139 -0.42652236367682889 0 -0.24263514192489499 -0.40502500625716792 0 -0.2310770324495271 -0.42008596343476501 0 -0.24474641712459139 -0.42652236367682889 0 -0.24263514192489499 -0.40502500625716792 0 -0.2313650145929462 -0.43958352760853092 0 -0.2310770324495271 -0.42008596343476501 0 -0.24474641712459139 -0.42652236367682889 0 -0.24906648241450419 -0.4446402053072348 0 -0.2313650145929462 -0.43958352760853092 0 -0.24474641712459139 -0.42652236367682889 0 -0.2182947489936137 -0.39681990043777771 0 -0.21959588931369819 -0.37511185921415507 0 -0.23610050922594189 -0.38663062436569828 0 -0.2182947489936137 -0.39681990043777771 0 -0.24263514192489499 -0.40502500625716792 0 -0.2182947489936137 -0.39681990043777771 0 -0.24263514192489499 -0.40502500625716792 0 -0.23610050922594189 -0.38663062436569828 0 -0.2531098078334369 -0.39505658787466119 0 -0.24263514192489499 -0.40502500625716792 0 -0.23610050922594189 -0.38663062436569828 0 -0.2531098078334369 -0.39505658787466119 0 -0.25372868251686681 -0.37824598268554438 0 -0.23610050922594189 -0.38663062436569828 0 -0.25372868251686681 -0.37824598268554438 0 -0.2354686955785506 -0.35957432460384192 0 -0.25372868251686681 -0.37824598268554438 0 -0.23610050922594189 -0.38663062436569828 0 -0.2354686955785506 -0.35957432460384192 0 -0.25862232839652621 -0.35903655254702782 0 -0.25372868251686681 -0.37824598268554438 0 -0.2354686955785506 -0.35957432460384192 0 -0.21959588931369819 -0.37511185921415507 0 -0.23610050922594189 -0.38663062436569828 0 -0.2354686955785506 -0.35957432460384192 0 -0.21959588931369819 -0.37511185921415507 0 -0.2354686955785506 -0.35957432460384192 0 -0.2184715570638143 -0.35793218645779562 0 -0.2354686955785506 -0.35957432460384192 0 -0.2471067327845882 -0.34290146550219369 0 -0.21720870864023509 -0.34090266652213908 0 -0.2354686955785506 -0.35957432460384192 0 -0.21720870864023509 -0.34090266652213908 0 -0.2354686955785506 -0.35957432460384192 0 -0.21720870864023509 -0.34090266652213908 0 -0.2184715570638143 -0.35793218645779562 0 -0.25862232839652621 -0.35903655254702782 0 -0.2354686955785506 -0.35957432460384192 0 -0.2471067327845882 -0.34290146550219369 0 -0.2471067327845882 -0.34290146550219369 0 -0.24362129897875531 -0.31279969058816581 0 -0.23198737252180071 -0.3301388856372211 0 -0.24362129897875531 -0.31279969058816581 0 -0.23198737252180071 -0.3301388856372211 0 -0.21868319739549 -0.3209411594695481 0 -0.23198737252180071 -0.3301388856372211 0 -0.21720870864023509 -0.34090266652213908 0 -0.21868319739549 -0.3209411594695481 0 -0.2471067327845882 -0.34290146550219369 0 -0.21720870864023509 -0.34090266652213908 0 -0.2471067327845882 -0.34290146550219369 0 -0.23198737252180071 -0.3301388856372211 0 -0.21720870864023509 -0.34090266652213908 0 -0.21720870864023509 -0.34090266652213908 0 -0.19027954474718439 -0.33910234737518391 0 -0.21720870864023509 -0.34090266652213908 0 -0.2015641642543404 -0.32490541610765628 0 -0.21720870864023509 -0.34090266652213908 0 -0.21868319739549 -0.3209411594695481 0 -0.2015641642543404 -0.32490541610765628 0 -0.21868319739549 -0.3209411594695481 0 -0.2015641642543404 -0.32490541610765628 0 -0.2080073280864774 -0.2995463368533553 0 -0.2015641642543404 -0.32490541610765628 0 -0.1859196198684461 -0.30890816569317309 0 -0.2015641642543404 -0.32490541610765628 0 -0.1859196198684461 -0.30890816569317309 0 -0.1786885336863375 -0.32536417612510887 0 -0.21720870864023509 -0.34090266652213908 0 -0.2015641642543404 -0.32490541610765628 0 -0.19027954474718439 -0.33910234737518391 0 -0.2015641642543404 -0.32490541610765628 0 -0.19027954474718439 -0.33910234737518391 0 -0.1786885336863375 -0.32536417612510887 0 -0.19027954474718439 -0.33910234737518391 0 -0.20323039501472551 -0.36021652026673229 0 -0.1772239115371258 -0.36378179544822897 0 -0.19395435606233241 -0.38861479461838738 0 -0.20323039501472551 -0.36021652026673229 0 -0.1772239115371258 -0.36378179544822897 0 -0.21959588931369819 -0.37511185921415507 0 -0.20323039501472551 -0.36021652026673229 0 -0.2184715570638143 -0.35793218645779562 0 -0.19395435606233241 -0.38861479461838738 0 -0.21959588931369819 -0.37511185921415507 0 -0.20323039501472551 -0.36021652026673229 0 -0.21720870864023509 -0.34090266652213908 0 -0.20323039501472551 -0.36021652026673229 0 -0.2184715570638143 -0.35793218645779562 0 -0.21720870864023509 -0.34090266652213908 0 -0.19027954474718439 -0.33910234737518391 0 -0.20323039501472551 -0.36021652026673229 0 -0.22911004428117909 -0.25928338888805341 0 -0.21664362513124291 -0.26229047600745209 0 -0.222298668502317 -0.24847530355297609 0 -0.22911004428117909 -0.25928338888805341 0 -0.22872196377807519 -0.27251913721924459 0 -0.21664362513124291 -0.26229047600745209 0 -0.22911004428117909 -0.25928338888805341 0 -0.2354726814988696 -0.24894793315851049 0 -0.222298668502317 -0.24847530355297609 0 -0.24004363130804821 -0.26592468619517817 0 -0.2354726814988696 -0.24894793315851049 0 -0.25072384826432742 -0.23841644955799321 0 -0.22911004428117909 -0.25928338888805341 0 -0.24004363130804821 -0.26592468619517817 0 -0.2354726814988696 -0.24894793315851049 0 -0.24004363130804821 -0.26592468619517817 0 -0.25072384826432742 -0.23841644955799321 0 -0.25375469099219139 -0.27805694384383239 0 -0.24004363130804821 -0.26592468619517817 0 -0.24288527000267349 -0.28711669108024679 0 -0.24004363130804821 -0.26592468619517817 0 -0.2293634143517691 -0.29343292283236322 0 -0.22872196377807519 -0.27251913721924459 0 -0.2188330934739722 -0.28620369836933901 0 -0.20923966767956739 -0.2793163965723931 0 -0.22872196377807519 -0.27251913721924459 0 -0.20923966767956739 -0.2793163965723931 0 -0.24004363130804821 -0.26592468619517817 0 -0.22872196377807519 -0.27251913721924459 0 -0.2293634143517691 -0.29343292283236322 0 -0.22911004428117909 -0.25928338888805341 0 -0.24004363130804821 -0.26592468619517817 0 -0.22872196377807519 -0.27251913721924459 0 -0.22872196377807519 -0.27251913721924459 0 -0.2293634143517691 -0.29343292283236322 0 -0.2188330934739722 -0.28620369836933901 0 -0.24004363130804821 -0.26592468619517817 0 -0.2293634143517691 -0.29343292283236322 0 -0.24288527000267349 -0.28711669108024679 0 -0.24362129897875531 -0.31279969058816581 0 -0.2293634143517691 -0.29343292283236322 0 -0.24288527000267349 -0.28711669108024679 0 -0.25452603338474811 -0.29265532270736311 0 -0.24362129897875531 -0.31279969058816581 0 -0.24288527000267349 -0.28711669108024679 0 -0.21868319739549 -0.3209411594695481 0 -0.2293634143517691 -0.29343292283236322 0 -0.24362129897875531 -0.31279969058816581 0 -0.21868319739549 -0.3209411594695481 0 -0.2293634143517691 -0.29343292283236322 0 -0.21868319739549 -0.3209411594695481 0 -0.2293634143517691 -0.29343292283236322 0 -0.2080073280864774 -0.2995463368533553 0 -0.2015641642543404 -0.32490541610765628 0 -0.2080073280864774 -0.2995463368533553 0 -0.1859196198684461 -0.30890816569317309 0 -0.2080073280864774 -0.2995463368533553 0 -0.1897573715810596 -0.28611365592554161 0 -0.1859196198684461 -0.30890816569317309 0 -0.2080073280864774 -0.2995463368533553 0 -0.1897573715810596 -0.28611365592554161 0 -0.20923966767956739 -0.2793163965723931 0 -0.1897573715810596 -0.28611365592554161 0 -0.20923966767956739 -0.2793163965723931 0 -0.2188330934739722 -0.28620369836933901 0 -0.2080073280864774 -0.2995463368533553 0 -0.20923966767956739 -0.2793163965723931 0 -0.2293634143517691 -0.29343292283236322 0 -0.2188330934739722 -0.28620369836933901 0 -0.2080073280864774 -0.2995463368533553 0 -0.22872196377807519 -0.27251913721924459 0 -0.20923966767956739 -0.2793163965723931 0 -0.21664362513124291 -0.26229047600745209 0 -0.20923966767956739 -0.2793163965723931 0 -0.20166694682779901 -0.26239280046571117 0 -0.21664362513124291 -0.26229047600745209 0 -0.20923966767956739 -0.2793163965723931 0 -0.20166694682779901 -0.26239280046571117 0 -0.1855890245678454 -0.26917068663672539 0 -0.1897573715810596 -0.28611365592554161 0 -0.20923966767956739 -0.2793163965723931 0 -0.1855890245678454 -0.26917068663672539 0 -0.20166694682779901 -0.26239280046571117 0 -0.18679401823353531 -0.25309787563023223 0 -0.19701865170035759 -0.24077808621420541 0 -0.20166694682779901 -0.26239280046571117 0 -0.19701865170035759 -0.24077808621420541 0 -0.20166694682779901 -0.26239280046571117 0 -0.18679401823353531 -0.25309787563023223 0 -0.1855890245678454 -0.26917068663672539 0 -0.20166694682779901 -0.26239280046571117 0 -0.21032388326083029 -0.25024911192045129 0 -0.19701865170035759 -0.24077808621420541 0 -0.20166694682779901 -0.26239280046571117 0 -0.21032388326083029 -0.25024911192045129 0 -0.21664362513124291 -0.26229047600745209 0 -0.21032388326083029 -0.25024911192045129 0 -0.21664362513124291 -0.26229047600745209 0 -0.222298668502317 -0.24847530355297609 0 -0.17116287506745159 -0.25520359587210562 0 -0.16862387438099369 -0.27441941795874802 0 -0.15569989281877869 -0.25863487375335492 0 -0.17116287506745159 -0.25520359587210562 0 -0.15569989281877869 -0.25863487375335492 0 -0.15713976905195959 -0.24665593677925601 0 -0.17116287506745159 -0.25520359587210562 0 -0.18679401823353531 -0.25309787563023223 0 -0.1855890245678454 -0.26917068663672539 0 -0.1897573715810596 -0.28611365592554161 0 -0.1855890245678454 -0.26917068663672539 0 -0.16862387438099369 -0.27441941795874802 0 -0.17116287506745159 -0.25520359587210562 0 -0.1855890245678454 -0.26917068663672539 0 -0.16862387438099369 -0.27441941795874802 0 -0.16862387438099369 -0.27441941795874802 0 -0.17027507548255169 -0.29291091527869001 0 -0.15017377847902241 -0.27235643482278749 0 -0.16862387438099369 -0.27441941795874802 0 -0.15017377847902241 -0.27235643482278749 0 -0.15569989281877869 -0.25863487375335492 0 -0.17027507548255169 -0.29291091527869001 0 -0.15017377847902241 -0.27235643482278749 0 -0.17027507548255169 -0.29291091527869001 0 -0.14788387869433101 -0.30072307309763308 0 -0.1897573715810596 -0.28611365592554161 0 -0.16862387438099369 -0.27441941795874802 0 -0.17027507548255169 -0.29291091527869001 0 -0.1897573715810596 -0.28611365592554161 0 -0.17027507548255169 -0.29291091527869001 0 -0.1859196198684461 -0.30890816569317309 0 -0.1897573715810596 -0.28611365592554161 0 -0.17027507548255169 -0.29291091527869001 0 -0.17027507548255169 -0.29291091527869001 0 -0.1859196198684461 -0.30890816569317309 0 -0.17027507548255169 -0.29291091527869001 0 -0.1859196198684461 -0.30890816569317309 0 -0.16498224042861109 -0.31373548695382819 0 -0.17027507548255169 -0.29291091527869001 0 -0.14788387869433101 -0.30072307309763308 0 -0.16498224042861109 -0.31373548695382819 0 -0.14788387869433101 -0.30072307309763308 0 -0.16498224042861109 -0.31373548695382819 0 -0.14660552564488891 -0.32078894186354462 0 -0.14788387869433101 -0.30072307309763308 0 -0.13427128342459149 -0.30890164360628858 0 -0.14660552564488891 -0.32078894186354462 0 -0.14788387869433101 -0.30072307309763308 0 -0.13427128342459149 -0.30890164360628858 0 -0.13549484676779691 -0.29123233887408168 0 -0.13427128342459149 -0.30890164360628858 0 -0.1185992195973678 -0.31478208446321532 0 -0.1234773191078062 -0.29835466652758469 0 -0.13427128342459149 -0.30890164360628858 0 -0.13549484676779691 -0.29123233887408168 0 -0.1234773191078062 -0.29835466652758469 0 -0.13549484676779691 -0.29123233887408168 0 -0.12674544062716531 -0.2875180167175489 0 -0.1234773191078062 -0.29835466652758469 0 -0.13549484676779691 -0.29123233887408168 0 -0.12674544062716531 -0.2875180167175489 0 -0.13520112381667279 -0.28003790528545891 0 -0.13549484676779691 -0.29123233887408168 0 -0.14108320101907171 -0.28277905146625021 0 -0.13520112381667279 -0.28003790528545891 0 -0.13549484676779691 -0.29123233887408168 0 -0.14108320101907171 -0.28277905146625021 0 -0.1446980224594813 -0.28885539670309318 0 -0.17027507548255169 -0.29291091527869001 0 -0.1446980224594813 -0.28885539670309318 0 -0.1475430042670004 -0.27690142240708859 0 -0.14108320101907171 -0.28277905146625021 0 -0.1446980224594813 -0.28885539670309318 0 -0.1475430042670004 -0.27690142240708859 0 -0.17027507548255169 -0.29291091527869001 0 -0.14788387869433101 -0.30072307309763308 0 -0.1446980224594813 -0.28885539670309318 0 -0.14788387869433101 -0.30072307309763308 0 -0.13549484676779691 -0.29123233887408168 0 -0.1446980224594813 -0.28885539670309318 0 -0.17027507548255169 -0.29291091527869001 0 -0.15017377847902241 -0.27235643482278749 0 -0.1475430042670004 -0.27690142240708859 0 -0.15017377847902241 -0.27235643482278749 0 -0.1475430042670004 -0.27690142240708859 0 -0.12875709436948191 -0.25407444815903568 0 -0.1475430042670004 -0.27690142240708859 0 -0.14066180602684389 -0.27853061409774171 0 -0.13881989500463079 -0.27440407723216897 0 -0.14108320101907171 -0.28277905146625021 0 -0.1475430042670004 -0.27690142240708859 0 -0.14066180602684389 -0.27853061409774171 0 -0.14066180602684389 -0.27853061409774171 0 -0.13881989500463079 -0.27440407723216897 0 -0.13520112381667279 -0.28003790528545891 0 -0.1475430042670004 -0.27690142240708859 0 -0.13881989500463079 -0.27440407723216897 0 -0.13541558173528981 -0.26932216817355997 0 -0.14108320101907171 -0.28277905146625021 0 -0.14066180602684389 -0.27853061409774171 0 -0.13520112381667279 -0.28003790528545891 0 -0.1475430042670004 -0.27690142240708859 0 -0.13541558173528981 -0.26932216817355997 0 -0.12875709436948191 -0.25407444815903568 0 -0.13881989500463079 -0.27440407723216897 0 -0.13311469259178921 -0.27380089573644378 0 -0.13520112381667279 -0.28003790528545891 0 -0.12674544062716531 -0.2875180167175489 0 -0.13520112381667279 -0.28003790528545891 0 -0.12779211398180851 -0.27617974536287099 0 -0.12674544062716531 -0.2875180167175489 0 -0.12779211398180851 -0.27617974536287099 0 -0.12107718002096519 -0.2795383907146704 0 -0.13311469259178921 -0.27380089573644378 0 -0.13520112381667279 -0.28003790528545891 0 -0.12779211398180851 -0.27617974536287099 0 -0.12779211398180851 -0.27617974536287099 0 -0.1288432224435469 -0.26742999733306277 0 -0.1217710243907115 -0.26875326639004188 0 -0.13311469259178921 -0.27380089573644378 0 -0.12779211398180851 -0.27617974536287099 0 -0.1288432224435469 -0.26742999733306277 0 -0.1288432224435469 -0.26742999733306277 0 -0.124630317030118 -0.26159359545958921 0 -0.1217710243907115 -0.26875326639004188 0 -0.13311469259178921 -0.27380089573644378 0 -0.1288432224435469 -0.26742999733306277 0 -0.13541558173528981 -0.26932216817355997 0 -0.13881989500463079 -0.27440407723216897 0 -0.13311469259178921 -0.27380089573644378 0 -0.13541558173528981 -0.26932216817355997 0 -0.15017377847902241 -0.27235643482278749 0 -0.130072481475493 -0.25180195436688507 0 -0.1407491460047243 -0.25616043147434953 0 -0.15017377847902241 -0.27235643482278749 0 -0.130072481475493 -0.25180195436688507 0 -0.1475430042670004 -0.27690142240708859 0 -0.12875709436948191 -0.25407444815903568 0 -0.15017377847902241 -0.27235643482278749 0 -0.130072481475493 -0.25180195436688507 0 -0.12875709436948191 -0.25407444815903568 0 -0.1288432224435469 -0.26742999733306277 0 -0.12875709436948191 -0.25407444815903568 0 -0.124630317030118 -0.26159359545958921 0 -0.1288432224435469 -0.26742999733306277 0 -0.13541558173528981 -0.26932216817355997 0 -0.12875709436948191 -0.25407444815903568 0 -0.1407491460047243 -0.25616043147434953 0 -0.15569989281877869 -0.25863487375335492 0 -0.14634991392852029 -0.24701342561288289 0 -0.15017377847902241 -0.27235643482278749 0 -0.1407491460047243 -0.25616043147434953 0 -0.15569989281877869 -0.25863487375335492 0 -0.15569989281877869 -0.25863487375335492 0 -0.14634991392852029 -0.24701342561288289 0 -0.15713976905195959 -0.24665593677925601 0 -0.1772239115371258 -0.36378179544822897 0 -0.1633503808541335 -0.33730202822822958 0 -0.15363320926077051 -0.35761274232480689 0 -0.16047555407407729 -0.37482723265364332 0 -0.1772239115371258 -0.36378179544822897 0 -0.15363320926077051 -0.35761274232480689 0 -0.19027954474718439 -0.33910234737518391 0 -0.1772239115371258 -0.36378179544822897 0 -0.1633503808541335 -0.33730202822822958 0 -0.19027954474718439 -0.33910234737518391 0 -0.1786885336863375 -0.32536417612510887 0 -0.1633503808541335 -0.33730202822822958 0 -0.19027954474718439 -0.33910234737518391 0 -0.1633503808541335 -0.33730202822822958 0 -0.1859196198684461 -0.30890816569317309 0 -0.1786885336863375 -0.32536417612510887 0 -0.16498224042861109 -0.31373548695382819 0 -0.16498224042861109 -0.31373548695382819 0 -0.1633503808541335 -0.33730202822822958 0 -0.14660552564488891 -0.32078894186354462 0 -0.1786885336863375 -0.32536417612510887 0 -0.16498224042861109 -0.31373548695382819 0 -0.1633503808541335 -0.33730202822822958 0 -0.1633503808541335 -0.33730202822822958 0 -0.1408726807394837 -0.34330070490581499 0 -0.14660552564488891 -0.32078894186354462 0 -0.13427128342459149 -0.30890164360628858 0 -0.12922917150728219 -0.32951430041084928 0 -0.1185992195973678 -0.31478208446321532 0 -0.13427128342459149 -0.30890164360628858 0 -0.14660552564488891 -0.32078894186354462 0 -0.12922917150728219 -0.32951430041084928 0 -0.1408726807394837 -0.34330070490581499 0 -0.14660552564488891 -0.32078894186354462 0 -0.12922917150728219 -0.32951430041084928 0 -0.1408726807394837 -0.34330070490581499 0 -0.12922917150728219 -0.32951430041084928 0 -0.12066231117813039 -0.34569424908591279 0 -0.1408726807394837 -0.34330070490581499 0 -0.13257668785178139 -0.36145396094891541 0 -0.12066231117813039 -0.34569424908591279 0 -0.1408726807394837 -0.34330070490581499 0 -0.15363320926077051 -0.35761274232480689 0 -0.13257668785178139 -0.36145396094891541 0 -0.1633503808541335 -0.33730202822822958 0 -0.1408726807394837 -0.34330070490581499 0 -0.15363320926077051 -0.35761274232480689 0 -0.1417331601780446 -0.37634865514489341 0 -0.15363320926077051 -0.35761274232480689 0 -0.13257668785178139 -0.36145396094891541 0 -0.1417331601780446 -0.37634865514489341 0 -0.16047555407407729 -0.37482723265364332 0 -0.15363320926077051 -0.35761274232480689 0 -0.1417331601780446 -0.37634865514489341 0 -0.13257668785178139 -0.36145396094891541 0 -0.1219167210072663 -0.38008905888290517 0 -0.13257668785178139 -0.36145396094891541 0 -0.1145775243971575 -0.36546726112071343 0 -0.1219167210072663 -0.38008905888290517 0 -0.1145775243971575 -0.36546726112071343 0 -0.10135182884643031 -0.36765561096446442 0 -0.10495859327679451 -0.38118814837188503 0 -0.1145775243971575 -0.36546726112071343 0 -0.10135182884643031 -0.36765561096446442 0 -0.103116285115656 -0.35395041718901438 0 -0.10135182884643031 -0.36765561096446442 0 -0.103116285115656 -0.35395041718901438 0 -0.089737328475416822 -0.36132194398373652 0 -0.103116285115656 -0.35395041718901438 0 -0.108803332668857 -0.33892340891446232 0 -0.085576424878699736 -0.34451599268163258 0 -0.1145775243971575 -0.36546726112071343 0 -0.103116285115656 -0.35395041718901438 0 -0.12066231117813039 -0.34569424908591279 0 -0.13257668785178139 -0.36145396094891541 0 -0.1145775243971575 -0.36546726112071343 0 -0.12066231117813039 -0.34569424908591279 0 -0.103116285115656 -0.35395041718901438 0 -0.12066231117813039 -0.34569424908591279 0 -0.108803332668857 -0.33892340891446232 0 -0.12922917150728219 -0.32951430041084928 0 -0.12066231117813039 -0.34569424908591279 0 -0.11552356940393391 -0.32810041412042762 0 -0.12066231117813039 -0.34569424908591279 0 -0.11552356940393391 -0.32810041412042762 0 -0.108803332668857 -0.33892340891446232 0 -0.1185992195973678 -0.31478208446321532 0 -0.11552356940393391 -0.32810041412042762 0 -0.10045380961254249 -0.32281050172834652 0 -0.12922917150728219 -0.32951430041084928 0 -0.1185992195973678 -0.31478208446321532 0 -0.11552356940393391 -0.32810041412042762 0 -0.1185992195973678 -0.31478208446321532 0 -0.10045380961254249 -0.32281050172834652 0 -0.107901992776242 -0.30264267377958493 0 -0.10045380961254249 -0.32281050172834652 0 -0.108803332668857 -0.33892340891446232 0 -0.085576424878699736 -0.34451599268163258 0 -0.11552356940393391 -0.32810041412042762 0 -0.10045380961254249 -0.32281050172834652 0 -0.108803332668857 -0.33892340891446232 0 -0.10045380961254249 -0.32281050172834652 0 -0.076806928330129476 -0.32440665907022331 0 -0.085576424878699736 -0.34451599268163258 0 -0.076806928330129476 -0.32440665907022331 0 -0.089878750437375823 -0.30822198257661798 0 -0.075479513325821063 -0.31107563030213958 0 -0.10045380961254249 -0.32281050172834652 0 -0.076806928330129476 -0.32440665907022331 0 -0.089878750437375823 -0.30822198257661798 0 -0.076806928330129476 -0.32440665907022331 0 -0.050002540949144518 -0.3294749223597187 0 -0.060898784844116198 -0.31484822912099331 0 -0.076806928330129476 -0.32440665907022331 0 -0.075479513325821063 -0.31107563030213958 0 -0.060898784844116198 -0.31484822912099331 0 -0.076806928330129476 -0.32440665907022331 0 -0.063770944803493351 -0.34738045985972332 0 -0.050002540949144518 -0.3294749223597187 0 -0.076806928330129476 -0.32440665907022331 0 -0.063770944803493351 -0.34738045985972332 0 -0.085576424878699736 -0.34451599268163258 0 -0.063770944803493351 -0.34738045985972332 0 -0.072983626094223819 -0.36520806689879481 0 -0.085576424878699736 -0.34451599268163258 0 -0.072983626094223819 -0.36520806689879481 0 -0.055997487321713502 -0.36554542025478332 0 -0.059435892456149678 -0.38090363897561802 0 -0.063770944803493351 -0.34738045985972332 0 -0.072983626094223819 -0.36520806689879481 0 -0.055997487321713502 -0.36554542025478332 0 -0.10135182884643031 -0.36765561096446442 0 -0.089737328475416822 -0.36132194398373652 0 -0.088173120083863299 -0.37840868346538847 0 -0.072983626094223819 -0.36520806689879481 0 -0.089737328475416822 -0.36132194398373652 0 -0.088173120083863299 -0.37840868346538847 0 -0.072983626094223819 -0.36520806689879481 0 -0.089737328475416822 -0.36132194398373652 0 -0.085576424878699736 -0.34451599268163258 0 -0.103116285115656 -0.35395041718901438 0 -0.089737328475416822 -0.36132194398373652 0 -0.085576424878699736 -0.34451599268163258 0 -0.097482444952388198 -0.26017222762151532 0 -0.091407705863245425 -0.25235714484008959 0 -0.098388133221083043 -0.2495265329015236 0 -0.097482444952388198 -0.26017222762151532 0 -0.10426568687250121 -0.25532279680587211 0 -0.098388133221083043 -0.2495265329015236 0 -0.097482444952388198 -0.26017222762151532 0 -0.1067309197030837 -0.26528109512651121 0 -0.099555698492940964 -0.26950433327420842 0 -0.097482444952388198 -0.26017222762151532 0 -0.1067309197030837 -0.26528109512651121 0 -0.10426568687250121 -0.25532279680587211 0 -0.1067309197030837 -0.26528109512651121 0 -0.10426568687250121 -0.25532279680587211 0 -0.1112104850318912 -0.25719870605258283 0 -0.10426568687250121 -0.25532279680587211 0 -0.1090276001301521 -0.2524008449134118 0 -0.1112104850318912 -0.25719870605258283 0 -0.10426568687250121 -0.25532279680587211 0 -0.1090276001301521 -0.2524008449134118 0 -0.105800613435617 -0.2470165031877396 0 -0.10426568687250121 -0.25532279680587211 0 -0.105800613435617 -0.2470165031877396 0 -0.098388133221083043 -0.2495265329015236 0 -0.1090276001301521 -0.2524008449134118 0 -0.1112104850318912 -0.25719870605258283 0 -0.11483361518059911 -0.25006537360745279 0 -0.1112104850318912 -0.25719870605258283 0 -0.11483361518059911 -0.25006537360745279 0 -0.11644519202996791 -0.25783798571715061 0 -0.12875709436948191 -0.25407444815903568 0 -0.11483361518059911 -0.25006537360745279 0 -0.1209767352617543 -0.2565854332550439 0 -0.11483361518059911 -0.25006537360745279 0 -0.1209767352617543 -0.2565854332550439 0 -0.11644519202996791 -0.25783798571715061 0 -0.12875709436948191 -0.25407444815903568 0 -0.1209767352617543 -0.2565854332550439 0 -0.124630317030118 -0.26159359545958921 0 -0.124630317030118 -0.26159359545958921 0 -0.11984645110786971 -0.26149462254162298 0 -0.1217710243907115 -0.26875326639004188 0 -0.1209767352617543 -0.2565854332550439 0 -0.124630317030118 -0.26159359545958921 0 -0.11984645110786971 -0.26149462254162298 0 -0.11984645110786971 -0.26149462254162298 0 -0.11535867356772531 -0.26384579312905032 0 -0.11644519202996791 -0.25783798571715061 0 -0.1209767352617543 -0.2565854332550439 0 -0.11984645110786971 -0.26149462254162298 0 -0.11644519202996791 -0.25783798571715061 0 -0.11984645110786971 -0.26149462254162298 0 -0.11535867356772531 -0.26384579312905032 0 -0.1217710243907115 -0.26875326639004188 0 -0.1067309197030837 -0.26528109512651121 0 -0.1112104850318912 -0.25719870605258283 0 -0.11535867356772531 -0.26384579312905032 0 -0.1112104850318912 -0.25719870605258283 0 -0.11535867356772531 -0.26384579312905032 0 -0.11644519202996791 -0.25783798571715061 0 -0.11535867356772531 -0.26384579312905032 0 -0.1138250118283939 -0.27261651123073022 0 -0.1217710243907115 -0.26875326639004188 0 -0.1067309197030837 -0.26528109512651121 0 -0.11535867356772531 -0.26384579312905032 0 -0.1138250118283939 -0.27261651123073022 0 -0.1138250118283939 -0.27261651123073022 0 -0.1217710243907115 -0.26875326639004188 0 -0.12107718002096519 -0.2795383907146704 0 -0.12779211398180851 -0.27617974536287099 0 -0.1217710243907115 -0.26875326639004188 0 -0.12107718002096519 -0.2795383907146704 0 -0.1138250118283939 -0.27261651123073022 0 -0.1129321712742733 -0.28018130411504438 0 -0.1051294255897493 -0.2773882584068697 0 -0.1138250118283939 -0.27261651123073022 0 -0.12107718002096519 -0.2795383907146704 0 -0.1129321712742733 -0.28018130411504438 0 -0.1067309197030837 -0.26528109512651121 0 -0.1051294255897493 -0.2773882584068697 0 -0.099555698492940964 -0.26950433327420842 0 -0.1067309197030837 -0.26528109512651121 0 -0.1138250118283939 -0.27261651123073022 0 -0.1051294255897493 -0.2773882584068697 0 -0.097482444952388198 -0.26017222762151532 0 -0.099555698492940964 -0.26950433327420842 0 -0.092930821083103715 -0.26771599246952638 0 -0.099555698492940964 -0.26950433327420842 0 -0.093257453118642211 -0.27538194635779878 0 -0.092930821083103715 -0.26771599246952638 0 -0.1051294255897493 -0.2773882584068697 0 -0.094511681024589511 -0.28993258933265798 0 -0.093257453118642211 -0.27538194635779878 0 -0.1051294255897493 -0.2773882584068697 0 -0.099555698492940964 -0.26950433327420842 0 -0.093257453118642211 -0.27538194635779878 0 -0.094511681024589511 -0.28993258933265798 0 -0.11188647019038039 -0.28845197161948388 0 -0.107901992776242 -0.30264267377958493 0 -0.1051294255897493 -0.2773882584068697 0 -0.094511681024589511 -0.28993258933265798 0 -0.11188647019038039 -0.28845197161948388 0 -0.094511681024589511 -0.28993258933265798 0 -0.107901992776242 -0.30264267377958493 0 -0.1129321712742733 -0.28018130411504438 0 -0.1051294255897493 -0.2773882584068697 0 -0.11188647019038039 -0.28845197161948388 0 -0.12107718002096519 -0.2795383907146704 0 -0.1129321712742733 -0.28018130411504438 0 -0.11188647019038039 -0.28845197161948388 0 -0.12674544062716531 -0.2875180167175489 0 -0.12107718002096519 -0.2795383907146704 0 -0.11188647019038039 -0.28845197161948388 0 -0.12674544062716531 -0.2875180167175489 0 -0.11188647019038039 -0.28845197161948388 0 -0.1234773191078062 -0.29835466652758469 0 -0.11188647019038039 -0.28845197161948388 0 -0.1234773191078062 -0.29835466652758469 0 -0.107901992776242 -0.30264267377958493 0 -0.1185992195973678 -0.31478208446321532 0 -0.1234773191078062 -0.29835466652758469 0 -0.107901992776242 -0.30264267377958493 0 -0.10045380961254249 -0.32281050172834652 0 -0.107901992776242 -0.30264267377958493 0 -0.089878750437375823 -0.30822198257661798 0 -0.094511681024589511 -0.28993258933265798 0 -0.107901992776242 -0.30264267377958493 0 -0.089878750437375823 -0.30822198257661798 0 -0.094511681024589511 -0.28993258933265798 0 -0.089878750437375823 -0.30822198257661798 0 -0.08396628418231053 -0.29411383307331529 0 -0.089878750437375823 -0.30822198257661798 0 -0.074751431225866485 -0.29983666922866198 0 -0.08396628418231053 -0.29411383307331529 0 -0.089878750437375823 -0.30822198257661798 0 -0.075479513325821063 -0.31107563030213958 0 -0.074751431225866485 -0.29983666922866198 0 -0.075479513325821063 -0.31107563030213958 0 -0.063514841203156425 -0.30407744669966003 0 -0.074751431225866485 -0.29983666922866198 0 -0.075479513325821063 -0.31107563030213958 0 -0.063514841203156425 -0.30407744669966003 0 -0.060898784844116198 -0.31484822912099331 0 -0.063514841203156425 -0.30407744669966003 0 -0.074751431225866485 -0.29983666922866198 0 -0.063539417411167282 -0.29176531202092387 0 -0.074751431225866485 -0.29983666922866198 0 -0.074785561271778669 -0.28946292597692108 0 -0.063539417411167282 -0.29176531202092387 0 -0.074751431225866485 -0.29983666922866198 0 -0.074785561271778669 -0.28946292597692108 0 -0.08396628418231053 -0.29411383307331529 0 -0.074785561271778669 -0.28946292597692108 0 -0.063539417411167282 -0.29176531202092387 0 -0.06962765558905018 -0.28570131910227631 0 -0.06962765558905018 -0.28570131910227631 0 -0.07434924598539952 -0.28066724381757119 0 -0.065836397687855236 -0.28090979459368898 0 -0.063539417411167282 -0.29176531202092387 0 -0.06962765558905018 -0.28570131910227631 0 -0.065836397687855236 -0.28090979459368898 0 -0.074785561271778669 -0.28946292597692108 0 -0.081407081056017072 -0.28538577864413017 0 -0.07434924598539952 -0.28066724381757119 0 -0.074785561271778669 -0.28946292597692108 0 -0.06962765558905018 -0.28570131910227631 0 -0.07434924598539952 -0.28066724381757119 0 -0.094511681024589511 -0.28993258933265798 0 -0.081407081056017072 -0.28538577864413017 0 -0.081121369272937199 -0.27722250488573091 0 -0.081407081056017072 -0.28538577864413017 0 -0.079523804794912195 -0.28026573127899013 0 -0.07434924598539952 -0.28066724381757119 0 -0.074785561271778669 -0.28946292597692108 0 -0.081407081056017072 -0.28538577864413017 0 -0.08396628418231053 -0.29411383307331529 0 -0.094511681024589511 -0.28993258933265798 0 -0.081407081056017072 -0.28538577864413017 0 -0.08396628418231053 -0.29411383307331529 0 -0.094511681024589511 -0.28993258933265798 0 -0.081121369272937199 -0.27722250488573091 0 -0.081121369272937199 -0.27722250488573091 0 -0.077934205990084701 -0.25849823457342302 0 -0.086678739011287601 -0.26769882701960129 0 -0.081121369272937199 -0.27722250488573091 0 -0.077934205990084701 -0.25849823457342302 0 -0.094511681024589511 -0.28993258933265798 0 -0.093257453118642211 -0.27538194635779878 0 -0.081121369272937199 -0.27722250488573091 0 -0.093257453118642211 -0.27538194635779878 0 -0.086678739011287601 -0.26769882701960129 0 -0.081121369272937199 -0.27722250488573091 0 -0.093257453118642211 -0.27538194635779878 0 -0.092930821083103715 -0.26771599246952638 0 -0.086678739011287601 -0.26769882701960129 0 -0.081407081056017072 -0.28538577864413017 0 -0.081121369272937199 -0.27722250488573091 0 -0.079523804794912195 -0.28026573127899013 0 -0.081121369272937199 -0.27722250488573091 0 -0.079523804794912195 -0.28026573127899013 0 -0.07434924598539952 -0.28066724381757119 0 -0.081121369272937199 -0.27722250488573091 0 -0.069417961350928536 -0.26611362962095592 0 -0.077934205990084701 -0.25849823457342302 0 -0.081121369272937199 -0.27722250488573091 0 -0.07434924598539952 -0.28066724381757119 0 -0.069417961350928536 -0.26611362962095592 0 -0.07434924598539952 -0.28066724381757119 0 -0.065836397687855236 -0.28090979459368898 0 -0.069417961350928536 -0.26611362962095592 0 -0.081121369272937199 -0.27722250488573091 0 -0.069417961350928536 -0.26611362962095592 0 -0.077934205990084701 -0.25849823457342302 0 -0.070207504995135006 -0.25219882787524028 0 -0.07474704270723237 -0.239773964261115 0 -0.069417961350928536 -0.26611362962095592 0 -0.077934205990084701 -0.25849823457342302 0 -0.070207504995135006 -0.25219882787524028 0 -0.069417961350928536 -0.26611362962095592 0 -0.057714553428922379 -0.25500475435617842 0 -0.069417961350928536 -0.26611362962095592 0 -0.070207504995135006 -0.25219882787524028 0 -0.057714553428922379 -0.25500475435617842 0 -0.077934205990084701 -0.25849823457342302 0 -0.088149845591669967 -0.25967545681152771 0 -0.083971886421534386 -0.24957221478122329 0 -0.086678739011287601 -0.26769882701960129 0 -0.077934205990084701 -0.25849823457342302 0 -0.088149845591669967 -0.25967545681152771 0 -0.092930821083103715 -0.26771599246952638 0 -0.086678739011287601 -0.26769882701960129 0 -0.088149845591669967 -0.25967545681152771 0 -0.097482444952388198 -0.26017222762151532 0 -0.092930821083103715 -0.26771599246952638 0 -0.088149845591669967 -0.25967545681152771 0 -0.088149845591669967 -0.25967545681152771 0 -0.091407705863245425 -0.25235714484008959 0 -0.083971886421534386 -0.24957221478122329 0 -0.097482444952388198 -0.26017222762151532 0 -0.088149845591669967 -0.25967545681152771 0 -0.091407705863245425 -0.25235714484008959 0 -0.040512249463293341 -0.25569158202273867 0 -0.035224254491834993 -0.27151792184901508 0 -0.02050753490299383 -0.26205740768132563 0 -0.040512249463293341 -0.25569158202273867 0 -0.057714553428922379 -0.25500475435617842 0 -0.051316645434711532 -0.27941350857060882 0 -0.065836397687855236 -0.28090979459368898 0 -0.069417961350928536 -0.26611362962095592 0 -0.051316645434711532 -0.27941350857060882 0 -0.057714553428922379 -0.25500475435617842 0 -0.051316645434711532 -0.27941350857060882 0 -0.069417961350928536 -0.26611362962095592 0 -0.057714553428922379 -0.25500475435617842 0 -0.051316645434711532 -0.27941350857060882 0 -0.051316645434711532 -0.27941350857060882 0 -0.035224254491834993 -0.27151792184901508 0 -0.025952805467189019 -0.2868968591719252 0 -0.040512249463293341 -0.25569158202273867 0 -0.051316645434711532 -0.27941350857060882 0 -0.035224254491834993 -0.27151792184901508 0 -0.051316645434711532 -0.27941350857060882 0 -0.044918737440499193 -0.3038222627850386 0 -0.025952805467189019 -0.2868968591719252 0 -0.051316645434711532 -0.27941350857060882 0 -0.044918737440499193 -0.3038222627850386 0 -0.063539417411167282 -0.29176531202092387 0 -0.051316645434711532 -0.27941350857060882 0 -0.044918737440499193 -0.3038222627850386 0 -0.063539417411167282 -0.29176531202092387 0 -0.065836397687855236 -0.28090979459368898 0 -0.051316645434711532 -0.27941350857060882 0 -0.063514841203156425 -0.30407744669966003 0 -0.063539417411167282 -0.29176531202092387 0 -0.044918737440499193 -0.3038222627850386 0 -0.063514841203156425 -0.30407744669966003 0 -0.044918737440499193 -0.3038222627850386 0 -0.060898784844116198 -0.31484822912099331 0 -0.044918737440499193 -0.3038222627850386 0 -0.025952805467189019 -0.2868968591719252 0 -0.023540632916988581 -0.31610578747441592 0 -0.0042533295162894714 -0.30291953266693478 0 -0.025952805467189019 -0.2868968591719252 0 -0.023540632916988581 -0.31610578747441592 0 -0.0042533295162894714 -0.30291953266693478 0 -0.023540632916988581 -0.31610578747441592 0 0.0056592100768920166 -0.31809331474906261 0 -0.0042533295162894714 -0.30291953266693478 0 -0.0011038354285470269 -0.27759262811925578 0 -0.0042533295162894714 -0.30291953266693478 0 -0.025952805467189019 -0.2868968591719252 0 -0.0011038354285470269 -0.27759262811925578 0 -0.035224254491834993 -0.27151792184901508 0 -0.025952805467189019 -0.2868968591719252 0 -0.02050753490299383 -0.26205740768132563 0 -0.025952805467189019 -0.2868968591719252 0 -0.0011038354285470269 -0.27759262811925578 0 -0.02050753490299383 -0.26205740768132563 0 -0.0011038354285470269 -0.27759262811925578 0 -0.02050753490299383 -0.26205740768132563 0 0.002045658659195418 -0.25226572357157673 0 -0.02050753490299383 -0.26205740768132563 0 -0.014158786127307799 -0.24519737049676829 0 0.002045658659195418 -0.25226572357157673 0 -0.040512249463293341 -0.25569158202273867 0 -0.02050753490299383 -0.26205740768132563 0 -0.028054186667563302 -0.24683004061566199 0 -0.02050753490299383 -0.26205740768132563 0 -0.028054186667563302 -0.24683004061566199 0 -0.014158786127307799 -0.24519737049676829 0 -0.041451935361287877 -0.35561019429206669 0 -0.055997487321713502 -0.36554542025478332 0 -0.042345037893412783 -0.37862474124771361 0 -0.041451935361287877 -0.35561019429206669 0 -0.022199991597924549 -0.36847746851897623 0 -0.042345037893412783 -0.37862474124771361 0 -0.041451935361287877 -0.35561019429206669 0 -0.022199991597924549 -0.36847746851897623 0 -0.063770944803493351 -0.34738045985972332 0 -0.041451935361287877 -0.35561019429206669 0 -0.050002540949144518 -0.3294749223597187 0 -0.063770944803493351 -0.34738045985972332 0 -0.041451935361287877 -0.35561019429206669 0 -0.055997487321713502 -0.36554542025478332 0 -0.044918737440499193 -0.3038222627850386 0 -0.050002540949144518 -0.3294749223597187 0 -0.060898784844116198 -0.31484822912099331 0 -0.050002540949144518 -0.3294749223597187 0 -0.02910975880964841 -0.33733555366486162 0 -0.023540632916988581 -0.31610578747441592 0 -0.044918737440499193 -0.3038222627850386 0 -0.050002540949144518 -0.3294749223597187 0 -0.023540632916988581 -0.31610578747441592 0 -0.041451935361287877 -0.35561019429206669 0 -0.050002540949144518 -0.3294749223597187 0 -0.02910975880964841 -0.33733555366486162 0 -0.02910975880964841 -0.33733555366486162 0 -0.01281207884057475 -0.33340762167240701 0 -0.01750558476621155 -0.35099111245289899 0 -0.02910975880964841 -0.33733555366486162 0 -0.023540632916988581 -0.31610578747441592 0 -0.01281207884057475 -0.33340762167240701 0 -0.023540632916988581 -0.31610578747441592 0 -0.01281207884057475 -0.33340762167240701 0 0.0056592100768920166 -0.31809331474906261 0 -0.01281207884057475 -0.33340762167240701 0 -0.01750558476621155 -0.35099111245289899 0 0.0044074928226207309 -0.33817554634418401 0 -0.01281207884057475 -0.33340762167240701 0 0.0044074928226207309 -0.33817554634418401 0 0.0056592100768920166 -0.31809331474906261 0 -0.01750558476621155 -0.35099111245289899 0 -0.001397510826794308 -0.36155409714311598 0 0.0044074928226207309 -0.33817554634418401 0 -0.041451935361287877 -0.35561019429206669 0 -0.02910975880964841 -0.33733555366486162 0 -0.01750558476621155 -0.35099111245289899 0 -0.041451935361287877 -0.35561019429206669 0 -0.01750558476621155 -0.35099111245289899 0 -0.022199991597924549 -0.36847746851897623 0 -0.022199991597924549 -0.36847746851897623 0 -0.0029480478345611238 -0.38134474274588581 0 -0.022199991597924549 -0.36847746851897623 0 -0.001397510826794308 -0.36155409714311598 0 -0.0029480478345611238 -0.38134474274588581 0 -0.01750558476621155 -0.35099111245289899 0 -0.022199991597924549 -0.36847746851897623 0 -0.001397510826794308 -0.36155409714311598 0 -0.0029480478345611238 -0.38134474274588581 0 -0.022047552375237561 -0.39180739811008952 0 0.0023567555045513411 -0.39424368807509219 0 -0.0053933531450689126 -0.40583935730940551 0 -0.022047552375237561 -0.39180739811008952 0 -0.019364991900080949 -0.40709755143353382 0 -0.0053933531450689126 -0.40583935730940551 0 -0.022047552375237561 -0.39180739811008952 0 0.0023567555045513411 -0.39424368807509219 0 -0.022047552375237561 -0.39180739811008952 0 -0.030942051900373631 -0.40365164679376558 0 -0.019364991900080949 -0.40709755143353382 0 -0.022199991597924549 -0.36847746851897623 0 -0.022047552375237561 -0.39180739811008952 0 -0.042345037893412783 -0.37862474124771361 0 -0.022199991597924549 -0.36847746851897623 0 -0.0029480478345611238 -0.38134474274588581 0 -0.022047552375237561 -0.39180739811008952 0 -0.022047552375237561 -0.39180739811008952 0 -0.042345037893412783 -0.37862474124771361 0 -0.043028947615779953 -0.39764171767020517 0 -0.042345037893412783 -0.37862474124771361 0 -0.043028947615779953 -0.39764171767020517 0 -0.051410239923455177 -0.38898544990993988 0 -0.022047552375237561 -0.39180739811008952 0 -0.030942051900373631 -0.40365164679376558 0 -0.043028947615779953 -0.39764171767020517 0 -0.030942051900373631 -0.40365164679376558 0 -0.043028947615779953 -0.39764171767020517 0 -0.044876746116472598 -0.41596797880217029 0 -0.043028947615779953 -0.39764171767020517 0 -0.060831081728478342 -0.39877170174622301 0 -0.051410239923455177 -0.38898544990993988 0 -0.043028947615779953 -0.39764171767020517 0 -0.060831081728478342 -0.39877170174622301 0 -0.052830245328663233 -0.40725294302283321 0 -0.060831081728478342 -0.39877170174622301 0 -0.051410239923455177 -0.38898544990993988 0 -0.059435892456149678 -0.38090363897561802 0 -0.042345037893412783 -0.37862474124771361 0 -0.051410239923455177 -0.38898544990993988 0 -0.059435892456149678 -0.38090363897561802 0 -0.055997487321713502 -0.36554542025478332 0 -0.042345037893412783 -0.37862474124771361 0 -0.059435892456149678 -0.38090363897561802 0 -0.05347101533510093 -0.42767140743203602 0 -0.044876746116472598 -0.41596797880217029 0 -0.044258332761587083 -0.42531415972226477 0 -0.05347101533510093 -0.42767140743203602 0 -0.041118556120439603 -0.43342927474921311 0 -0.053601020182007693 -0.44108365735348382 0 -0.05347101533510093 -0.42767140743203602 0 -0.053601020182007693 -0.44108365735348382 0 -0.063493204984341176 -0.43693227507490362 0 -0.043028947615779953 -0.39764171767020517 0 -0.052830245328663233 -0.40725294302283321 0 -0.044876746116472598 -0.41596797880217029 0 -0.052830245328663233 -0.40725294302283321 0 -0.044876746116472598 -0.41596797880217029 0 -0.062584205853922048 -0.41663037387273472 0 -0.05347101533510093 -0.42767140743203602 0 -0.044876746116472598 -0.41596797880217029 0 -0.062584205853922048 -0.41663037387273472 0 -0.060831081728478342 -0.39877170174622301 0 -0.052830245328663233 -0.40725294302283321 0 -0.062584205853922048 -0.41663037387273472 0 -0.044876746116472598 -0.41596797880217029 0 -0.035994608021072023 -0.42323922684460519 0 -0.028203822403207429 -0.41513878010447047 0 -0.044876746116472598 -0.41596797880217029 0 -0.035994608021072023 -0.42323922684460519 0 -0.044258332761587083 -0.42531415972226477 0 -0.030942051900373631 -0.40365164679376558 0 -0.044876746116472598 -0.41596797880217029 0 -0.028203822403207429 -0.41513878010447047 0 -0.035994608021072023 -0.42323922684460519 0 -0.041118556120439603 -0.43342927474921311 0 -0.0262800491998204 -0.42490097616913608 0 -0.05347101533510093 -0.42767140743203602 0 -0.044258332761587083 -0.42531415972226477 0 -0.041118556120439603 -0.43342927474921311 0 -0.035994608021072023 -0.42323922684460519 0 -0.044258332761587083 -0.42531415972226477 0 -0.041118556120439603 -0.43342927474921311 0 -0.03489146627783847 -0.43479328688231811 0 -0.041118556120439603 -0.43342927474921311 0 -0.015845079777865739 -0.43364702429745328 0 -0.041118556120439603 -0.43342927474921311 0 -0.0262800491998204 -0.42490097616913608 0 -0.015845079777865739 -0.43364702429745328 0 -0.03489146627783847 -0.43479328688231811 0 -0.015845079777865739 -0.43364702429745328 0 -0.022792501434032161 -0.44122853394291489 0 -0.0262800491998204 -0.42490097616913608 0 -0.015845079777865739 -0.43364702429745328 0 -0.01023817967651721 -0.41905057484993791 0 -0.041118556120439603 -0.43342927474921311 0 -0.015845079777865739 -0.43364702429745328 0 -0.0262800491998204 -0.42490097616913608 0 -0.028203822403207429 -0.41513878010447047 0 -0.01023817967651721 -0.41905057484993791 0 -0.028203822403207429 -0.41513878010447047 0 -0.019364991900080949 -0.40709755143353382 0 -0.01023817967651721 -0.41905057484993791 0 -0.030942051900373631 -0.40365164679376558 0 -0.028203822403207429 -0.41513878010447047 0 -0.019364991900080949 -0.40709755143353382 0 -0.035994608021072023 -0.42323922684460519 0 -0.0262800491998204 -0.42490097616913608 0 -0.028203822403207429 -0.41513878010447047 0 -0.0053933531450689126 -0.40583935730940551 0 -0.01023817967651721 -0.41905057484993791 0 0.0113342753813368 -0.41256277494006283 0 -0.0053933531450689126 -0.40583935730940551 0 -0.019364991900080949 -0.40709755143353382 0 -0.01023817967651721 -0.41905057484993791 0 -0.015845079777865739 -0.43364702429745328 0 0.0094283965647081157 -0.43386477384569372 0 -0.015845079777865739 -0.43364702429745328 0 -0.01023817967651721 -0.41905057484993791 0 0.0094283965647081157 -0.43386477384569372 0 -0.015845079777865739 -0.43364702429745328 0 -0.0058504529610899324 -0.44990152804784911 0 -0.01700178227242051 -0.44625423590577801 0 -0.015845079777865739 -0.43364702429745328 0 -0.0058504529610899324 -0.44990152804784911 0 0.0094283965647081157 -0.43386477384569372 0 -0.0058504529610899324 -0.44990152804784911 0 -0.01618011672324654 -0.45520071058437689 0 -0.01700178227242051 -0.44625423590577801 0 -0.0058504529610899324 -0.44990152804784911 0 -0.011623736760695339 -0.46618794078210929 0 -0.01618011672324654 -0.45520071058437689 0 -0.0058504529610899324 -0.44990152804784911 0 -0.011623736760695339 -0.46618794078210929 0 0.0039709984709535521 -0.46476883406598812 0 -0.01618011672324654 -0.45520071058437689 0 -0.02299293421402299 -0.4634402595000377 0 -0.024340760465868191 -0.45129338265629532 0 -0.011623736760695339 -0.46618794078210929 0 -0.01618011672324654 -0.45520071058437689 0 -0.02299293421402299 -0.4634402595000377 0 -0.011623736760695339 -0.46618794078210929 0 -0.02299293421402299 -0.4634402595000377 0 -0.018761683200267359 -0.4741469931990952 0 -0.02299293421402299 -0.4634402595000377 0 -0.030495100877960028 -0.47324852431137587 0 -0.033787705219459042 -0.45875184677708952 0 -0.02299293421402299 -0.4634402595000377 0 -0.024340760465868191 -0.45129338265629532 0 -0.033787705219459042 -0.45875184677708952 0 -0.03489146627783847 -0.43479328688231811 0 -0.024340760465868191 -0.45129338265629532 0 -0.022792501434032161 -0.44122853394291489 0 -0.03489146627783847 -0.43479328688231811 0 -0.024340760465868191 -0.45129338265629532 0 -0.033787705219459042 -0.45875184677708952 0 -0.015845079777865739 -0.43364702429745328 0 -0.022792501434032161 -0.44122853394291489 0 -0.01700178227242051 -0.44625423590577801 0 -0.024340760465868191 -0.45129338265629532 0 -0.022792501434032161 -0.44122853394291489 0 -0.01700178227242051 -0.44625423590577801 0 -0.01618011672324654 -0.45520071058437689 0 -0.024340760465868191 -0.45129338265629532 0 -0.01700178227242051 -0.44625423590577801 0 -0.029445196634441971 -0.49374019206033393 0 9.6776935416854892e-06 -0.49687009603016702 0 -0.019768304568364869 -0.5 0 0.0048481237265801669 -0.5 0 9.6776935416854892e-06 -0.49687009603016702 0 -0.0090968466836395014 -0.48918820655694079 0 -0.029445196634441971 -0.49374019206033393 0 9.6776935416854892e-06 -0.49687009603016702 0 -0.0090968466836395014 -0.48918820655694079 0 9.6776935416854892e-06 -0.49687009603016702 0 0.0030684139669997592 -0.48764090158259221 0 -0.0090968466836395014 -0.48918820655694079 0 -0.0042147194705703427 -0.48381737062913271 0 0.0030684139669997592 -0.48764090158259221 0 -0.0090968466836395014 -0.48918820655694079 0 -0.01490240897372663 -0.48387247248247822 0 -0.0042147194705703427 -0.48381737062913271 0 -0.01490240897372663 -0.48387247248247822 0 -0.0042147194705703427 -0.48381737062913271 0 -0.0071170797511046196 -0.47591162345199173 0 -0.01490240897372663 -0.48387247248247822 0 -0.0071170797511046196 -0.47591162345199173 0 -0.018761683200267359 -0.4741469931990952 0 -0.0042147194705703427 -0.48381737062913271 0 -0.0071170797511046196 -0.47591162345199173 0 0.003558453197493754 -0.47918030164141068 0 -0.011623736760695339 -0.46618794078210929 0 -0.0071170797511046196 -0.47591162345199173 0 0.0039709984709535521 -0.46476883406598812 0 -0.011623736760695339 -0.46618794078210929 0 -0.0071170797511046196 -0.47591162345199173 0 -0.018761683200267359 -0.4741469931990952 0 -0.018761683200267359 -0.4741469931990952 0 -0.030495100877960028 -0.47324852431137587 0 -0.025438838624094549 -0.4822211386665789 0 -0.02299293421402299 -0.4634402595000377 0 -0.018761683200267359 -0.4741469931990952 0 -0.030495100877960028 -0.47324852431137587 0 -0.030495100877960028 -0.47324852431137587 0 -0.025438838624094549 -0.4822211386665789 0 -0.034527052950255308 -0.48167405902383281 0 -0.01490240897372663 -0.48387247248247822 0 -0.018761683200267359 -0.4741469931990952 0 -0.025438838624094549 -0.4822211386665789 0 -0.019768304568364869 -0.5 0 -0.029445196634441971 -0.49374019206033393 0 9.6776935416854892e-06 -0.49687009603016702 0 -0.019768304568364869 -0.5 0 -0.029445196634441971 -0.49374019206033393 0 -0.044384732863309961 -0.5 0 -0.0090968466836395014 -0.48918820655694079 0 -0.01490240897372663 -0.48387247248247822 0 -0.029445196634441971 -0.49374019206033393 0 -0.01490240897372663 -0.48387247248247822 0 -0.025438838624094549 -0.4822211386665789 0 -0.029445196634441971 -0.49374019206033393 0 -0.025438838624094549 -0.4822211386665789 0 -0.029445196634441971 -0.49374019206033393 0 -0.034527052950255308 -0.48167405902383281 0 -0.029445196634441971 -0.49374019206033393 0 -0.044384732863309961 -0.5 0 -0.058900070962425631 -0.49061028809050089 0 -0.029445196634441971 -0.49374019206033393 0 -0.043511523705026388 -0.4859536706899103 0 -0.058900070962425631 -0.49061028809050089 0 -0.029445196634441971 -0.49374019206033393 0 -0.058900070962425631 -0.49061028809050089 0 -0.029445196634441971 -0.49374019206033393 0 -0.043511523705026388 -0.4859536706899103 0 -0.034527052950255308 -0.48167405902383281 0 -0.043511523705026388 -0.4859536706899103 0 -0.034527052950255308 -0.48167405902383281 0 -0.043744604909753598 -0.47320676939096501 0 -0.043511523705026388 -0.4859536706899103 0 -0.043744604909753598 -0.47320676939096501 0 -0.050946865610497237 -0.48200878928303681 0 -0.030495100877960028 -0.47324852431137587 0 -0.034527052950255308 -0.48167405902383281 0 -0.043744604909753598 -0.47320676939096501 0 -0.043744604909753598 -0.47320676939096501 0 -0.057631262864783338 -0.47826442896077132 0 -0.046261364571310928 -0.45652885792154468 0 -0.057631262864783338 -0.47826442896077132 0 -0.050946865610497237 -0.48200878928303681 0 -0.058900070962425631 -0.49061028809050089 0 -0.043744604909753598 -0.47320676939096501 0 -0.057631262864783338 -0.47826442896077132 0 -0.050946865610497237 -0.48200878928303681 0 -0.044384732863309961 -0.5 0 -0.058900070962425631 -0.49061028809050089 0 -0.069001161158255039 -0.49999999999999822 0 -0.057631262864783338 -0.47826442896077132 0 -0.058900070962425631 -0.49061028809050089 0 -0.069001161158255039 -0.49999999999999822 0 -0.043511523705026388 -0.4859536706899103 0 -0.050946865610497237 -0.48200878928303681 0 -0.058900070962425631 -0.49061028809050089 0 -0.03489146627783847 -0.43479328688231811 0 -0.041118556120439603 -0.43342927474921311 0 -0.046261364571310928 -0.45652885792154468 0 -0.03489146627783847 -0.43479328688231811 0 -0.033787705219459042 -0.45875184677708952 0 -0.046261364571310928 -0.45652885792154468 0 -0.03489146627783847 -0.43479328688231811 0 -0.046261364571310928 -0.45652885792154468 0 -0.043744604909753598 -0.47320676939096501 0 -0.033787705219459042 -0.45875184677708952 0 -0.046261364571310928 -0.45652885792154468 0 -0.030495100877960028 -0.47324852431137587 0 -0.043744604909753598 -0.47320676939096501 0 -0.033787705219459042 -0.45875184677708952 0 -0.057631262864783338 -0.47826442896077132 0 -0.046261364571310928 -0.45652885792154468 0 -0.062255183964787283 -0.46320024328589299 0 -0.057631262864783338 -0.47826442896077132 0 -0.046261364571310928 -0.45652885792154468 0 -0.046261364571310928 -0.45652885792154468 0 -0.062255183964787283 -0.46320024328589299 0 -0.063676859986022294 -0.45022569972306181 0 -0.041118556120439603 -0.43342927474921311 0 -0.046261364571310928 -0.45652885792154468 0 -0.053601020182007693 -0.44108365735348382 0 -0.046261364571310928 -0.45652885792154468 0 -0.053601020182007693 -0.44108365735348382 0 -0.063676859986022294 -0.45022569972306181 0 -0.053601020182007693 -0.44108365735348382 0 -0.063676859986022294 -0.45022569972306181 0 -0.063493204984341176 -0.43693227507490362 0 -0.063676859986022294 -0.45022569972306181 0 -0.081645169628701553 -0.43878482927060508 0 -0.063493204984341176 -0.43693227507490362 0 -0.063676859986022294 -0.45022569972306181 0 -0.074971595097199931 -0.45822393861921051 0 -0.081645169628701553 -0.43878482927060508 0 -0.062255183964787283 -0.46320024328589299 0 -0.063676859986022294 -0.45022569972306181 0 -0.074971595097199931 -0.45822393861921051 0 -0.062255183964787283 -0.46320024328589299 0 -0.074971595097199931 -0.45822393861921051 0 -0.070116760590245575 -0.47091363449088802 0 -0.074971595097199931 -0.45822393861921051 0 -0.070116760590245575 -0.47091363449088802 0 -0.082098745560271663 -0.46984084523971009 0 -0.093667802170389947 -0.45694185184488367 0 -0.082098745560271663 -0.46984084523971009 0 -0.094629626224891072 -0.4769239172657514 0 -0.074971595097199931 -0.45822393861921051 0 -0.093667802170389947 -0.45694185184488367 0 -0.082098745560271663 -0.46984084523971009 0 -0.074971595097199931 -0.45822393861921051 0 -0.093667802170389947 -0.45694185184488367 0 -0.081645169628701553 -0.43878482927060508 0 -0.057631262864783338 -0.47826442896077132 0 -0.069001161158255039 -0.49999999999999822 0 -0.076302362750125058 -0.4823391464328447 0 -0.057631262864783338 -0.47826442896077132 0 -0.069001161158255039 -0.49999999999999822 0 -0.057631262864783338 -0.47826442896077132 0 -0.076302362750125058 -0.4823391464328447 0 -0.070116760590245575 -0.47091363449088802 0 -0.057631262864783338 -0.47826442896077132 0 -0.062255183964787283 -0.46320024328589299 0 -0.070116760590245575 -0.47091363449088802 0 -0.076302362750125058 -0.4823391464328447 0 -0.070116760590245575 -0.47091363449088802 0 -0.082098745560271663 -0.46984084523971009 0 -0.076302362750125058 -0.4823391464328447 0 -0.082098745560271663 -0.46984084523971009 0 -0.094629626224891072 -0.4769239172657514 0 -0.076302362750125058 -0.4823391464328447 0 -0.096435292782720561 -0.5 0 -0.094629626224891072 -0.4769239172657514 0 -0.069001161158255039 -0.49999999999999822 0 -0.076302362750125058 -0.4823391464328447 0 -0.096435292782720561 -0.5 0 -0.096435292782720561 -0.5 0 -0.094629626224891072 -0.4769239172657514 0 -0.1124743846336472 -0.48454415011268243 0 -0.094629626224891072 -0.4769239172657514 0 -0.1124743846336472 -0.48454415011268243 0 -0.1188620011512401 -0.46454337267673412 0 -0.094629626224891072 -0.4769239172657514 0 -0.1188620011512401 -0.46454337267673412 0 -0.12968072546621401 -0.48318219875650242 0 -0.1124743846336472 -0.48454415011268243 0 -0.1188620011512401 -0.46454337267673412 0 -0.12968072546621401 -0.48318219875650242 0 -0.1238694244071858 -0.5 0 -0.1124743846336472 -0.48454415011268243 0 -0.096435292782720561 -0.5 0 -0.1238694244071858 -0.5 0 -0.1124743846336472 -0.48454415011268243 0 -0.093667802170389947 -0.45694185184488367 0 -0.081645169628701553 -0.43878482927060508 0 -0.1085762031674314 -0.44012845345014029 0 -0.093667802170389947 -0.45694185184488367 0 -0.094629626224891072 -0.4769239172657514 0 -0.1188620011512401 -0.46454337267673412 0 -0.093667802170389947 -0.45694185184488367 0 -0.1085762031674314 -0.44012845345014029 0 -0.1188620011512401 -0.46454337267673412 0 -0.12634073113087191 -0.44378726844184607 0 -0.1085762031674314 -0.44012845345014029 0 -0.1188620011512401 -0.46454337267673412 0 -0.12634073113087191 -0.44378726844184607 0 -0.1085762031674314 -0.44012845345014029 0 -0.1181243082007703 -0.42376097710149641 0 -0.1085762031674314 -0.44012845345014029 0 -0.1181243082007703 -0.42376097710149641 0 -0.09623045444990283 -0.42614773777455628 0 -0.081645169628701553 -0.43878482927060508 0 -0.1085762031674314 -0.44012845345014029 0 -0.09623045444990283 -0.42614773777455628 0 -0.10448504091399299 -0.41315792022681891 0 -0.096544589706144004 -0.39705190908867122 0 -0.083555511198226476 -0.41514619270673481 0 -0.1181243082007703 -0.42376097710149641 0 -0.09623045444990283 -0.42614773777455628 0 -0.10448504091399299 -0.41315792022681891 0 -0.09623045444990283 -0.42614773777455628 0 -0.10448504091399299 -0.41315792022681891 0 -0.083555511198226476 -0.41514619270673481 0 -0.13613191878694769 -0.41159065544582402 0 -0.1181243082007703 -0.42376097710149641 0 -0.1161711078885298 -0.39891365138407031 0 -0.1181243082007703 -0.42376097710149641 0 -0.10448504091399299 -0.41315792022681891 0 -0.1161711078885298 -0.39891365138407031 0 -0.1145775243971575 -0.36546726112071343 0 -0.1219167210072663 -0.38008905888290517 0 -0.10495859327679451 -0.38118814837188503 0 -0.13265069014162589 -0.39130456912487749 0 -0.1161711078885298 -0.39891365138407031 0 -0.1219167210072663 -0.38008905888290517 0 -0.1161711078885298 -0.39891365138407031 0 -0.1219167210072663 -0.38008905888290517 0 -0.10495859327679451 -0.38118814837188503 0 -0.10495859327679451 -0.38118814837188503 0 -0.096544589706144004 -0.39705190908867122 0 -0.088173120083863299 -0.37840868346538847 0 -0.10135182884643031 -0.36765561096446442 0 -0.10495859327679451 -0.38118814837188503 0 -0.088173120083863299 -0.37840868346538847 0 -0.1161711078885298 -0.39891365138407031 0 -0.10495859327679451 -0.38118814837188503 0 -0.096544589706144004 -0.39705190908867122 0 -0.10448504091399299 -0.41315792022681891 0 -0.1161711078885298 -0.39891365138407031 0 -0.096544589706144004 -0.39705190908867122 0 -0.096544589706144004 -0.39705190908867122 0 -0.078731385127478973 -0.3950691176298361 0 -0.083555511198226476 -0.41514619270673481 0 -0.072983626094223819 -0.36520806689879481 0 -0.088173120083863299 -0.37840868346538847 0 -0.073428372944260897 -0.38201787300379281 0 -0.078731385127478973 -0.3950691176298361 0 -0.088173120083863299 -0.37840868346538847 0 -0.073428372944260897 -0.38201787300379281 0 -0.096544589706144004 -0.39705190908867122 0 -0.078731385127478973 -0.3950691176298361 0 -0.088173120083863299 -0.37840868346538847 0 -0.060831081728478342 -0.39877170174622301 0 -0.059435892456149678 -0.38090363897561802 0 -0.073428372944260897 -0.38201787300379281 0 -0.072983626094223819 -0.36520806689879481 0 -0.059435892456149678 -0.38090363897561802 0 -0.073428372944260897 -0.38201787300379281 0 -0.060831081728478342 -0.39877170174622301 0 -0.078731385127478973 -0.3950691176298361 0 -0.073428372944260897 -0.38201787300379281 0 -0.060831081728478342 -0.39877170174622301 0 -0.078731385127478973 -0.3950691176298361 0 -0.071925072252348315 -0.40734356931341981 0 -0.078731385127478973 -0.3950691176298361 0 -0.071925072252348315 -0.40734356931341981 0 -0.083555511198226476 -0.41514619270673481 0 -0.060831081728478342 -0.39877170174622301 0 -0.071925072252348315 -0.40734356931341981 0 -0.062584205853922048 -0.41663037387273472 0 -0.071925072252348315 -0.40734356931341981 0 -0.072427536378441792 -0.41666325111806962 0 -0.062584205853922048 -0.41663037387273472 0 -0.071925072252348315 -0.40734356931341981 0 -0.072427536378441792 -0.41666325111806962 0 -0.083555511198226476 -0.41514619270673481 0 -0.072427536378441792 -0.41666325111806962 0 -0.071645356209270358 -0.4275328685793891 0 -0.083555511198226476 -0.41514619270673481 0 -0.072427536378441792 -0.41666325111806962 0 -0.062584205853922048 -0.41663037387273472 0 -0.071645356209270358 -0.4275328685793891 0 -0.05347101533510093 -0.42767140743203602 0 -0.062584205853922048 -0.41663037387273472 0 -0.071645356209270358 -0.4275328685793891 0 -0.081645169628701553 -0.43878482927060508 0 -0.063493204984341176 -0.43693227507490362 0 -0.071645356209270358 -0.4275328685793891 0 -0.05347101533510093 -0.42767140743203602 0 -0.063493204984341176 -0.43693227507490362 0 -0.071645356209270358 -0.4275328685793891 0 -0.081645169628701553 -0.43878482927060508 0 -0.071645356209270358 -0.4275328685793891 0 -0.083555511198226476 -0.41514619270673481 0 -0.081645169628701553 -0.43878482927060508 0 -0.09623045444990283 -0.42614773777455628 0 -0.083555511198226476 -0.41514619270673481 0 -0.082725843864598636 -0.08219143755481817 0 -0.075945512851144759 -0.091612047150588863 0 -0.08685755327520113 -0.094127916624385966 0 -0.082725843864598636 -0.08219143755481817 0 -0.08685755327520113 -0.094127916624385966 0 -0.0945204406891203 -0.08435836893230389 0 -0.082725843864598636 -0.08219143755481817 0 -0.0945204406891203 -0.08435836893230389 0 -0.095228552116159354 -0.070868036298784728 0 -0.082725843864598636 -0.08219143755481817 0 -0.071916519887833194 -0.07013712179906359 0 -0.095228552116159354 -0.070868036298784728 0 -0.071916519887833194 -0.07013712179906359 0 -0.095228552116159354 -0.070868036298784728 0 -0.079646417349663642 -0.061691771128058959 0 -0.071916519887833194 -0.07013712179906359 0 -0.095228552116159354 -0.070868036298784728 0 -0.095228552116159354 -0.070868036298784728 0 -0.079646417349663642 -0.061691771128058959 0 -0.091329810721418839 -0.059670379361232852 0 -0.082725843864598636 -0.08219143755481817 0 -0.071916519887833194 -0.07013712179906359 0 -0.070390828693811747 -0.081929390547153147 0 -0.071916519887833194 -0.07013712179906359 0 -0.079646417349663642 -0.061691771128058959 0 -0.062864147071656357 -0.062276242090445737 0 -0.071916519887833194 -0.07013712179906359 0 -0.070390828693811747 -0.081929390547153147 0 -0.062257272558245369 -0.076039920942192363 0 -0.070390828693811747 -0.081929390547153147 0 -0.065703008785182523 -0.089862912435240694 0 -0.060587799686571603 -0.082653835595661279 0 -0.070390828693811747 -0.081929390547153147 0 -0.060587799686571603 -0.082653835595661279 0 -0.062257272558245369 -0.076039920942192363 0 -0.082725843864598636 -0.08219143755481817 0 -0.070390828693811747 -0.081929390547153147 0 -0.075945512851144759 -0.091612047150588863 0 -0.070390828693811747 -0.081929390547153147 0 -0.075945512851144759 -0.091612047150588863 0 -0.065703008785182523 -0.089862912435240694 0 -0.075945512851144759 -0.091612047150588863 0 -0.065703008785182523 -0.089862912435240694 0 -0.063747086900504263 -0.1004228525822561 0 -0.063747086900504263 -0.1004228525822561 0 -0.072275616283645955 -0.1131512454257303 0 -0.06054559442286947 -0.11201242882646011 0 -0.063747086900504263 -0.1004228525822561 0 -0.072275616283645955 -0.1131512454257303 0 -0.078388076658291686 -0.10244863763514379 0 -0.075945512851144759 -0.091612047150588863 0 -0.063747086900504263 -0.1004228525822561 0 -0.078388076658291686 -0.10244863763514379 0 -0.066546173548621232 -0.1222795392078645 0 -0.072275616283645955 -0.1131512454257303 0 -0.06054559442286947 -0.11201242882646011 0 -0.072275616283645955 -0.1131512454257303 0 -0.079154913729244394 -0.121915448498808 0 -0.066546173548621232 -0.1222795392078645 0 -0.072275616283645955 -0.1131512454257303 0 -0.079154913729244394 -0.121915448498808 0 -0.079154913729244394 -0.121915448498808 0 -0.089573453105765144 -0.10869081899075619 0 -0.1047602595159054 -0.1137702650083381 0 -0.072275616283645955 -0.1131512454257303 0 -0.079154913729244394 -0.121915448498808 0 -0.089573453105765144 -0.10869081899075619 0 -0.079154913729244394 -0.121915448498808 0 -0.089573453105765144 -0.10869081899075619 0 -0.072275616283645955 -0.1131512454257303 0 -0.078388076658291686 -0.10244863763514379 0 -0.089573453105765144 -0.10869081899075619 0 -0.075945512851144759 -0.091612047150588863 0 -0.078388076658291686 -0.10244863763514379 0 -0.08685755327520113 -0.094127916624385966 0 -0.078388076658291686 -0.10244863763514379 0 -0.089573453105765144 -0.10869081899075619 0 -0.08685755327520113 -0.094127916624385966 0 -0.089573453105765144 -0.10869081899075619 0 -0.08685755327520113 -0.094127916624385966 0 -0.099991992482286352 -0.095466189482704814 0 -0.089573453105765144 -0.10869081899075619 0 -0.099991992482286352 -0.095466189482704814 0 -0.1047602595159054 -0.1137702650083381 0 -0.099991992482286352 -0.095466189482704814 0 -0.1047602595159054 -0.1137702650083381 0 -0.1162135235181824 -0.087595374320889013 0 -0.089573453105765144 -0.10869081899075619 0 -0.099991992482286352 -0.095466189482704814 0 -0.1047602595159054 -0.1137702650083381 0 -0.1206501631140116 -0.1196762209048116 0 -0.1205201078216398 -0.1049632512248226 0 -0.1047602595159054 -0.1137702650083381 0 -0.1206501631140116 -0.1196762209048116 0 -0.1115459371956342 -0.13077829445691719 0 -0.1206501631140116 -0.1196762209048116 0 -0.1205201078216398 -0.1049632512248226 0 -0.1330070026904597 -0.1097875923650501 0 -0.1047602595159054 -0.1137702650083381 0 -0.1162135235181824 -0.087595374320889013 0 -0.1047602595159054 -0.1137702650083381 0 -0.1205201078216398 -0.1049632512248226 0 -0.1162135235181824 -0.087595374320889013 0 -0.1205201078216398 -0.1049632512248226 0 -0.1162135235181824 -0.087595374320889013 0 -0.12985377978098289 -0.09482830396379692 0 -0.1162135235181824 -0.087595374320889013 0 -0.1057082298188743 -0.079419099863378029 0 -0.120376902100942 -0.075467166246956263 0 -0.099991992482286352 -0.095466189482704814 0 -0.1162135235181824 -0.087595374320889013 0 -0.1057082298188743 -0.079419099863378029 0 -0.099991992482286352 -0.095466189482704814 0 -0.1057082298188743 -0.079419099863378029 0 -0.0945204406891203 -0.08435836893230389 0 -0.1057082298188743 -0.079419099863378029 0 -0.0945204406891203 -0.08435836893230389 0 -0.095228552116159354 -0.070868036298784728 0 -0.08685755327520113 -0.094127916624385966 0 -0.099991992482286352 -0.095466189482704814 0 -0.0945204406891203 -0.08435836893230389 0 -0.1057082298188743 -0.079419099863378029 0 -0.1079179680065555 -0.062759463898629547 0 -0.095228552116159354 -0.070868036298784728 0 -0.1079179680065555 -0.062759463898629547 0 -0.095228552116159354 -0.070868036298784728 0 -0.091329810721418839 -0.059670379361232852 0 -0.1162135235181824 -0.087595374320889013 0 -0.1276667875204594 -0.061420483633439937 0 -0.1057082298188743 -0.079419099863378029 0 -0.1079179680065555 -0.062759463898629547 0 -0.120376902100942 -0.075467166246956263 0 -0.1162135235181824 -0.087595374320889013 0 -0.120376902100942 -0.075467166246956263 0 -0.1276667875204594 -0.061420483633439937 0 -0.1079179680065555 -0.062759463898629547 0 -0.1191780740788313 -0.047088666837466972 0 -0.1033240357057047 -0.051567457975697013 0 -0.120376902100942 -0.075467166246956263 0 -0.1191780740788313 -0.047088666837466972 0 -0.120376902100942 -0.075467166246956263 0 -0.1191780740788313 -0.047088666837466972 0 -0.1276667875204594 -0.061420483633439937 0 -0.1079179680065555 -0.062759463898629547 0 -0.120376902100942 -0.075467166246956263 0 -0.1191780740788313 -0.047088666837466972 0 -0.1191780740788313 -0.047088666837466972 0 -0.10642161498654309 -0.04049709422692032 0 -0.1033240357057047 -0.051567457975697013 0 -0.1191780740788313 -0.047088666837466972 0 -0.10642161498654309 -0.04049709422692032 0 -0.1060198297361834 -0.026324916746777029 0 -0.1191780740788313 -0.047088666837466972 0 -0.1179792460567205 -0.018710167427977629 0 -0.10642161498654309 -0.04049709422692032 0 -0.095000090859077957 -0.035196297846314659 0 -0.1060198297361834 -0.026324916746777029 0 -0.10642161498654309 -0.04049709422692032 0 -0.095000090859077957 -0.035196297846314659 0 -0.091772710735174526 -0.047821685554235341 0 -0.10642161498654309 -0.04049709422692032 0 -0.1033240357057047 -0.051567457975697013 0 -0.091772710735174526 -0.047821685554235341 0 -0.10642161498654309 -0.04049709422692032 0 -0.091772710735174526 -0.047821685554235341 0 -0.1079179680065555 -0.062759463898629547 0 -0.1033240357057047 -0.051567457975697013 0 -0.091329810721418839 -0.059670379361232852 0 -0.1033240357057047 -0.051567457975697013 0 -0.091329810721418839 -0.059670379361232852 0 -0.091772710735174526 -0.047821685554235341 0 -0.1179792460567205 -0.018710167427977629 0 -0.13518087730504541 0.0058338015274088072 0 -0.1167804180346098 0.0096683319815117214 0 -0.1179792460567205 -0.018710167427977629 0 -0.1167804180346098 0.0096683319815117214 0 -0.1179792460567205 -0.018710167427977629 0 -0.097274239274747376 -0.0046019085417796646 0 -0.1167804180346098 0.0096683319815117214 0 -0.1191780740788313 -0.047088666837466972 0 -0.1179792460567205 -0.018710167427977629 0 -0.1060198297361834 -0.026324916746777029 0 -0.095000090859077957 -0.035196297846314659 0 -0.1060198297361834 -0.026324916746777029 0 -0.087241779402928779 -0.02318610010433066 0 -0.1060198297361834 -0.026324916746777029 0 -0.097274239274747376 -0.0046019085417796646 0 -0.087241779402928779 -0.02318610010433066 0 -0.1179792460567205 -0.018710167427977629 0 -0.1060198297361834 -0.026324916746777029 0 -0.097274239274747376 -0.0046019085417796646 0 -0.097274239274747376 -0.0046019085417796646 0 -0.078233446507469578 -0.010252112110808219 0 -0.081981731323709672 0.0092292092104944434 0 -0.097274239274747376 -0.0046019085417796646 0 -0.078233446507469578 -0.010252112110808219 0 -0.087241779402928779 -0.02318610010433066 0 -0.087241779402928779 -0.02318610010433066 0 -0.083544519434559955 -0.038151692599309929 0 -0.0679967444796193 -0.031464014728227553 0 -0.078233446507469578 -0.010252112110808219 0 -0.0679967444796193 -0.031464014728227553 0 -0.058869682475428689 -0.0077817525749057908 0 -0.0679967444796193 -0.031464014728227553 0 -0.058869682475428689 -0.0077817525749057908 0 -0.078233446507469578 -0.010252112110808219 0 -0.087241779402928779 -0.02318610010433066 0 -0.0679967444796193 -0.031464014728227553 0 -0.078233446507469578 -0.010252112110808219 0 -0.058869682475428689 -0.0077817525749057908 0 -0.081981731323709672 0.0092292092104944434 0 -0.091772710735174526 -0.047821685554235341 0 -0.083544519434559955 -0.038151692599309929 0 -0.077123806483806165 -0.055146276881550722 0 -0.091772710735174526 -0.047821685554235341 0 -0.077123806483806165 -0.055146276881550722 0 -0.079646417349663642 -0.061691771128058959 0 -0.091329810721418839 -0.059670379361232852 0 -0.077123806483806165 -0.055146276881550722 0 -0.079646417349663642 -0.061691771128058959 0 -0.077123806483806165 -0.055146276881550722 0 -0.091329810721418839 -0.059670379361232852 0 -0.091772710735174526 -0.047821685554235341 0 -0.077123806483806165 -0.055146276881550722 0 -0.095000090859077957 -0.035196297846314659 0 -0.091772710735174526 -0.047821685554235341 0 -0.083544519434559955 -0.038151692599309929 0 -0.095000090859077957 -0.035196297846314659 0 -0.087241779402928779 -0.02318610010433066 0 -0.083544519434559955 -0.038151692599309929 0 -0.0679967444796193 -0.031464014728227553 0 -0.064129040546685154 -0.049681283456652819 0 -0.077123806483806165 -0.055146276881550722 0 -0.083544519434559955 -0.038151692599309929 0 -0.0679967444796193 -0.031464014728227553 0 -0.077123806483806165 -0.055146276881550722 0 -0.0679967444796193 -0.031464014728227553 0 -0.077123806483806165 -0.055146276881550722 0 -0.079646417349663642 -0.061691771128058959 0 -0.077123806483806165 -0.055146276881550722 0 -0.062864147071656357 -0.062276242090445737 0 -0.064129040546685154 -0.049681283456652819 0 -0.077123806483806165 -0.055146276881550722 0 -0.062864147071656357 -0.062276242090445737 0 -0.077123806483806165 -0.055146276881550722 0 -0.062864147071656357 -0.062276242090445737 0 -0.062864147071656357 -0.062276242090445737 0 -0.05243690184366339 -0.060262852470139378 0 -0.057190764629057089 -0.054377140972501008 0 -0.064129040546685154 -0.049681283456652819 0 -0.062864147071656357 -0.062276242090445737 0 -0.057190764629057089 -0.054377140972501008 0 -0.05243690184366339 -0.060262852470139378 0 -0.049294123302313579 -0.053987445431778448 0 -0.043825248977434672 -0.061835059003759553 0 -0.05243690184366339 -0.060262852470139378 0 -0.049294123302313579 -0.053987445431778448 0 -0.057190764629057089 -0.054377140972501008 0 -0.049294123302313579 -0.053987445431778448 0 -0.057190764629057089 -0.054377140972501008 0 -0.053709869757606582 -0.044607603807589519 0 -0.064129040546685154 -0.049681283456652819 0 -0.057190764629057089 -0.054377140972501008 0 -0.053709869757606582 -0.044607603807589519 0 -0.0679967444796193 -0.031464014728227553 0 -0.064129040546685154 -0.049681283456652819 0 -0.053709869757606582 -0.044607603807589519 0 -0.0679967444796193 -0.031464014728227553 0 -0.053709869757606582 -0.044607603807589519 0 -0.042578722056988011 -0.02607804595853579 0 -0.037547960992125921 -0.048319432101953212 0 -0.042578722056988011 -0.02607804595853579 0 -0.02264376783593507 -0.033476250749725198 0 -0.053709869757606582 -0.044607603807589519 0 -0.037547960992125921 -0.048319432101953212 0 -0.042578722056988011 -0.02607804595853579 0 -0.049294123302313579 -0.053987445431778448 0 -0.053709869757606582 -0.044607603807589519 0 -0.037547960992125921 -0.048319432101953212 0 -0.037547960992125921 -0.048319432101953212 0 -0.033230576541648349 -0.060906014464405168 0 -0.027083990225655389 -0.05680204782543985 0 -0.037547960992125921 -0.048319432101953212 0 -0.033230576541648349 -0.060906014464405168 0 -0.043825248977434672 -0.061835059003759553 0 -0.049294123302313579 -0.053987445431778448 0 -0.037547960992125921 -0.048319432101953212 0 -0.043825248977434672 -0.061835059003759553 0 -0.058869682475428689 -0.0077817525749057908 0 -0.042578722056988011 -0.02607804595853579 0 -0.040135715836543677 -0.0043694999882779141 0 -0.0679967444796193 -0.031464014728227553 0 -0.058869682475428689 -0.0077817525749057908 0 -0.042578722056988011 -0.02607804595853579 0 -0.042578722056988011 -0.02607804595853579 0 -0.040135715836543677 -0.0043694999882779141 0 -0.022454462358346899 -0.01241010211001888 0 -0.040135715836543677 -0.0043694999882779141 0 -0.022454462358346899 -0.01241010211001888 0 -0.027208590888315939 0.0084929312031133842 0 -0.022454462358346899 -0.01241010211001888 0 -0.027208590888315939 0.0084929312031133842 0 -0.01042188962313418 0.0033145873257822219 0 -0.042578722056988011 -0.02607804595853579 0 -0.022454462358346899 -0.01241010211001888 0 -0.02264376783593507 -0.033476250749725198 0 -0.022454462358346899 -0.01241010211001888 0 -0.0045653430997711266 -0.018287619473552709 0 -0.02264376783593507 -0.033476250749725198 0 -0.0045653430997711266 -0.018287619473552709 0 -0.02264376783593507 -0.033476250749725198 0 -0.0056048939326261791 -0.039673260332606368 0 -0.022454462358346899 -0.01241010211001888 0 -0.0045653430997711266 -0.018287619473552709 0 -0.01042188962313418 0.0033145873257822219 0 -0.0045653430997711266 -0.018287619473552709 0 -0.01042188962313418 0.0033145873257822219 0 0.005904608835726727 -0.00024378440871443069 0 -0.027083990225655389 -0.05680204782543985 0 -0.013990952064892041 -0.05119138259787373 0 -0.016968425713235612 -0.068414305084892504 0 -0.033230576541648349 -0.060906014464405168 0 -0.027083990225655389 -0.05680204782543985 0 -0.016968425713235612 -0.068414305084892504 0 -0.027083990225655389 -0.05680204782543985 0 -0.025316667779652101 -0.047447278318748003 0 -0.013990952064892041 -0.05119138259787373 0 -0.037547960992125921 -0.048319432101953212 0 -0.027083990225655389 -0.05680204782543985 0 -0.025316667779652101 -0.047447278318748003 0 -0.025316667779652101 -0.047447278318748003 0 -0.02264376783593507 -0.033476250749725198 0 -0.013990952064892041 -0.05119138259787373 0 -0.037547960992125921 -0.048319432101953212 0 -0.025316667779652101 -0.047447278318748003 0 -0.02264376783593507 -0.033476250749725198 0 -0.02264376783593507 -0.033476250749725198 0 -0.0056048939326261791 -0.039673260332606368 0 -0.013990952064892041 -0.05119138259787373 0 -0.013990952064892041 -0.05119138259787373 0 -0.016968425713235612 -0.068414305084892504 0 0.00043414137965645799 -0.061061088137375992 0 -0.0056048939326261791 -0.039673260332606368 0 -0.013990952064892041 -0.05119138259787373 0 0.00043414137965645799 -0.061061088137375992 0 -0.011873169198497929 -0.087772215570247558 0 0.00043414137965645799 -0.061061088137375992 0 -0.011873169198497929 -0.087772215570247558 0 -0.016968425713235612 -0.068414305084892504 0 0.00043414137965645799 -0.061061088137375992 0 -0.011873169198497929 -0.087772215570247558 0 0.0043764673912596299 -0.079956963037604731 0 0.00043414137965645799 -0.061061088137375992 0 -0.011873169198497929 -0.087772215570247558 0 0.0055871776796167418 -0.096502554926749473 0 0.0043764673912596299 -0.079956963037604731 0 -0.011873169198497929 -0.087772215570247558 0 0.0055871776796167418 -0.096502554926749473 0 -0.011873169198497929 -0.087772215570247558 0 -0.030647024887798899 -0.092990574834819678 0 -0.038481915179940401 -0.074467589729157402 0 -0.011873169198497929 -0.087772215570247558 0 -0.038481915179940401 -0.074467589729157402 0 -0.011873169198497929 -0.087772215570247558 0 -0.016968425713235612 -0.068414305084892504 0 -0.038481915179940401 -0.074467589729157402 0 -0.033230576541648349 -0.060906014464405168 0 -0.016968425713235612 -0.068414305084892504 0 -0.040727256799789578 -0.06915922830598048 0 -0.016968425713235612 -0.068414305084892504 0 -0.040727256799789578 -0.06915922830598048 0 -0.016968425713235612 -0.068414305084892504 0 -0.040727256799789578 -0.06915922830598048 0 -0.038481915179940401 -0.074467589729157402 0 -0.043825248977434672 -0.061835059003759553 0 -0.040727256799789578 -0.06915922830598048 0 -0.04860448765950702 -0.069406207299341716 0 -0.033230576541648349 -0.060906014464405168 0 -0.043825248977434672 -0.061835059003759553 0 -0.040727256799789578 -0.06915922830598048 0 -0.040727256799789578 -0.06915922830598048 0 -0.04860448765950702 -0.069406207299341716 0 -0.043825248977434672 -0.061835059003759553 0 -0.040727256799789578 -0.06915922830598048 0 -0.040727256799789578 -0.06915922830598048 0 -0.038481915179940401 -0.074467589729157402 0 -0.04860448765950702 -0.069406207299341716 0 -0.038481915179940401 -0.074467589729157402 0 -0.048428760187909099 -0.083821118772574157 0 -0.04860448765950702 -0.069406207299341716 0 -0.038481915179940401 -0.074467589729157402 0 -0.04860448765950702 -0.069406207299341716 0 -0.040727256799789578 -0.06915922830598048 0 -0.038481915179940401 -0.074467589729157402 0 -0.030647024887798899 -0.092990574834819678 0 -0.048428760187909099 -0.083821118772574157 0 -0.047490132068796112 -0.098968010804293405 0 -0.030647024887798899 -0.092990574834819678 0 -0.038481915179940401 -0.074467589729157402 0 -0.048428760187909099 -0.083821118772574157 0 -0.030647024887798899 -0.092990574834819678 0 -0.038481915179940401 -0.074467589729157402 0 -0.048428760187909099 -0.083821118772574157 0 -0.05719135752579272 -0.091145746038005127 0 -0.047490132068796112 -0.098968010804293405 0 -0.065703008785182523 -0.089862912435240694 0 -0.05719135752579272 -0.091145746038005127 0 -0.060587799686571603 -0.082653835595661279 0 -0.048428760187909099 -0.083821118772574157 0 -0.060587799686571603 -0.082653835595661279 0 -0.055504818560885461 -0.077768357187697826 0 -0.048428760187909099 -0.083821118772574157 0 -0.05719135752579272 -0.091145746038005127 0 -0.060587799686571603 -0.082653835595661279 0 -0.060587799686571603 -0.082653835595661279 0 -0.062257272558245369 -0.076039920942192363 0 -0.055504818560885461 -0.077768357187697826 0 -0.071916519887833194 -0.07013712179906359 0 -0.062864147071656357 -0.062276242090445737 0 -0.04860448765950702 -0.069406207299341716 0 -0.071916519887833194 -0.07013712179906359 0 -0.062257272558245369 -0.076039920942192363 0 -0.04860448765950702 -0.069406207299341716 0 -0.062257272558245369 -0.076039920942192363 0 -0.055504818560885461 -0.077768357187697826 0 -0.04860448765950702 -0.069406207299341716 0 -0.071916519887833194 -0.07013712179906359 0 -0.04860448765950702 -0.069406207299341716 0 -0.062864147071656357 -0.062276242090445737 0 -0.04860448765950702 -0.069406207299341716 0 -0.05243690184366339 -0.060262852470139378 0 -0.043825248977434672 -0.061835059003759553 0 -0.04860448765950702 -0.069406207299341716 0 -0.062864147071656357 -0.062276242090445737 0 -0.05243690184366339 -0.060262852470139378 0 -0.04860448765950702 -0.069406207299341716 0 -0.048428760187909099 -0.083821118772574157 0 -0.055504818560885461 -0.077768357187697826 0 -0.04860448765950702 -0.069406207299341716 0 -0.06054559442286947 -0.11201242882646011 0 -0.038872639437462178 -0.1133177428187719 0 -0.055169916472709482 -0.12517812183203231 0 -0.066546173548621232 -0.1222795392078645 0 -0.06054559442286947 -0.11201242882646011 0 -0.055169916472709482 -0.12517812183203231 0 -0.063747086900504263 -0.1004228525822561 0 -0.05719135752579272 -0.091145746038005127 0 -0.047490132068796112 -0.098968010804293405 0 -0.063747086900504263 -0.1004228525822561 0 -0.06054559442286947 -0.11201242882646011 0 -0.047490132068796112 -0.098968010804293405 0 -0.06054559442286947 -0.11201242882646011 0 -0.047490132068796112 -0.098968010804293405 0 -0.038872639437462178 -0.1133177428187719 0 -0.065703008785182523 -0.089862912435240694 0 -0.063747086900504263 -0.1004228525822561 0 -0.05719135752579272 -0.091145746038005127 0 -0.047490132068796112 -0.098968010804293405 0 -0.038872639437462178 -0.1133177428187719 0 -0.030647024887798899 -0.092990574834819678 0 -0.047490132068796112 -0.098968010804293405 0 -0.038872639437462178 -0.1133177428187719 0 -0.038872639437462178 -0.1133177428187719 0 -0.055169916472709482 -0.12517812183203231 0 -0.043440524829983791 -0.13190826212108719 0 -0.038872639437462178 -0.1133177428187719 0 -0.030255146806130191 -0.1276674748332515 0 -0.043440524829983791 -0.13190826212108719 0 -0.038872639437462178 -0.1133177428187719 0 -0.030255146806130191 -0.1276674748332515 0 -0.038872639437462178 -0.1133177428187719 0 -0.02281213459565928 -0.1115135599404828 0 -0.030255146806130191 -0.1276674748332515 0 -0.02281213459565928 -0.1115135599404828 0 -0.020061622420425518 -0.11801622866398891 0 -0.030255146806130191 -0.1276674748332515 0 -0.02281213459565928 -0.1115135599404828 0 -0.030255146806130191 -0.1276674748332515 0 -0.019640957672936329 -0.1157347389352778 0 -0.02281213459565928 -0.1115135599404828 0 -0.020061622420425518 -0.11801622866398891 0 -0.02281213459565928 -0.1115135599404828 0 -0.020061622420425518 -0.11801622866398891 0 -0.02281213459565928 -0.1115135599404828 0 -0.015974691651047829 -0.1128772035176948 0 -0.01175785931783839 -0.1065107621217163 0 -0.019640957672936329 -0.1157347389352778 0 -0.020061622420425518 -0.11801622866398891 0 -0.019640957672936329 -0.1157347389352778 0 -0.015974691651047829 -0.1128772035176948 0 -0.01243253381211184 -0.1185875804614562 0 -0.019640957672936329 -0.1157347389352778 0 -0.02281213459565928 -0.1115135599404828 0 -0.015974691651047829 -0.1128772035176948 0 -0.019640957672936329 -0.1157347389352778 0 -0.020061622420425518 -0.11801622866398891 0 -0.01243253381211184 -0.1185875804614562 0 -0.011873169198497929 -0.087772215570247558 0 -0.02281213459565928 -0.1115135599404828 0 -0.030647024887798899 -0.092990574834819678 0 -0.02281213459565928 -0.1115135599404828 0 -0.011873169198497929 -0.087772215570247558 0 -0.030647024887798899 -0.092990574834819678 0 -0.02281213459565928 -0.1115135599404828 0 -0.030647024887798899 -0.092990574834819678 0 -0.038872639437462178 -0.1133177428187719 0 -0.02281213459565928 -0.1115135599404828 0 -0.011873169198497929 -0.087772215570247558 0 -0.01175785931783839 -0.1065107621217163 0 -0.0054880464665176369 -0.098150446906979827 0 -0.011873169198497929 -0.087772215570247558 0 -0.0054880464665176369 -0.098150446906979827 0 0.0055871776796167418 -0.096502554926749473 0 -0.011873169198497929 -0.087772215570247558 0 -0.02281213459565928 -0.1115135599404828 0 -0.01175785931783839 -0.1065107621217163 0 -0.01175785931783839 -0.1065107621217163 0 -1.170615023791954e-05 -0.1034689084604536 0 -0.0054880464665176369 -0.098150446906979827 0 -1.170615023791954e-05 -0.1034689084604536 0 -0.0051268486959103578 -0.122350190065947 0 -0.01175785931783839 -0.1065107621217163 0 -0.0051268486959103578 -0.122350190065947 0 -0.01243253381211184 -0.1185875804614562 0 -0.01175785931783839 -0.1065107621217163 0 -1.170615023791954e-05 -0.1034689084604536 0 -0.0051268486959103578 -0.122350190065947 0 -0.015974691651047829 -0.1128772035176948 0 -0.01175785931783839 -0.1065107621217163 0 -0.01243253381211184 -0.1185875804614562 0 -0.020061622420425518 -0.11801622866398891 0 -0.010241991241583001 -0.1412314716714404 0 -0.010241991241583001 -0.1412314716714404 0 0.0032140268818641178 -0.14153708485685071 0 0.0061657884986084316 -0.12918962103613721 0 -0.0051268486959103578 -0.122350190065947 0 -0.010241991241583001 -0.1412314716714404 0 -0.020061622420425518 -0.11801622866398891 0 -0.01243253381211184 -0.1185875804614562 0 -0.010241991241583001 -0.1412314716714404 0 -0.0051268486959103578 -0.122350190065947 0 -0.010241991241583001 -0.1412314716714404 0 0.0061657884986084316 -0.12918962103613721 0 -0.0051268486959103578 -0.122350190065947 0 -0.01243253381211184 -0.1185875804614562 0 -0.010241991241583001 -0.1412314716714404 0 -0.020061622420425518 -0.11801622866398891 0 -0.0238176406721964 -0.1383871228579665 0 -0.010241991241583001 -0.1412314716714404 0 -0.020061622420425518 -0.11801622866398891 0 -0.0238176406721964 -0.1383871228579665 0 -0.020061622420425518 -0.11801622866398891 0 -0.0238176406721964 -0.1383871228579665 0 -0.030255146806130191 -0.1276674748332515 0 -0.0238176406721964 -0.1383871228579665 0 -0.030255146806130191 -0.1276674748332515 0 -0.039341940624721322 -0.1473889652517453 0 -0.0238176406721964 -0.1383871228579665 0 -0.030255146806130191 -0.1276674748332515 0 -0.0238176406721964 -0.1383871228579665 0 -0.013931315381848211 -0.15484969783117869 0 -0.02901281443769882 -0.16656332648703889 0 -0.0238176406721964 -0.1383871228579665 0 -0.013931315381848211 -0.15484969783117869 0 -0.0238176406721964 -0.1383871228579665 0 -0.013931315381848211 -0.15484969783117869 0 -0.010241991241583001 -0.1412314716714404 0 -0.0238176406721964 -0.1383871228579665 0 -0.02901281443769882 -0.16656332648703889 0 -0.0238176406721964 -0.1383871228579665 0 -0.02901281443769882 -0.16656332648703889 0 -0.039341940624721322 -0.1473889652517453 0 -0.013931315381848211 -0.15484969783117869 0 -0.0061180970615561971 -0.15098104411288141 0 0.0057934695779179174 -0.1621061041675308 0 -0.013931315381848211 -0.15484969783117869 0 -0.010241991241583001 -0.1412314716714404 0 -0.0061180970615561971 -0.15098104411288141 0 -0.010241991241583001 -0.1412314716714404 0 -0.0061180970615561971 -0.15098104411288141 0 -0.013931315381848211 -0.15484969783117869 0 -0.010241991241583001 -0.1412314716714404 0 -0.010241991241583001 -0.1412314716714404 0 -0.0061180970615561971 -0.15098104411288141 0 0.0032140268818641178 -0.14153708485685071 0 -0.013931315381848211 -0.15484969783117869 0 -0.01973318282813654 -0.17626585429466249 0 0.00016161218586271259 -0.1783170499424877 0 -0.013931315381848211 -0.15484969783117869 0 0.00016161218586271259 -0.1783170499424877 0 -0.013931315381848211 -0.15484969783117869 0 0.0057934695779179174 -0.1621061041675308 0 0.00016161218586271259 -0.1783170499424877 0 -0.01973318282813654 -0.17626585429466249 0 -0.0072362567426319498 -0.1924080863237628 0 0.00016161218586271259 -0.1783170499424877 0 -0.01973318282813654 -0.17626585429466249 0 -0.02553505027442619 -0.19768201075814609 0 -0.01973318282813654 -0.17626585429466249 0 -0.02901281443769882 -0.16656332648703889 0 -0.034207988203200999 -0.1947395301161112 0 -0.013931315381848211 -0.15484969783117869 0 -0.01973318282813654 -0.17626585429466249 0 -0.02901281443769882 -0.16656332648703889 0 -0.013931315381848211 -0.15484969783117869 0 -0.01973318282813654 -0.17626585429466249 0 -0.02901281443769882 -0.16656332648703889 0 -0.04842873444330871 -0.16711045567024069 0 -0.039341940624721322 -0.1473889652517453 0 -0.052014739940029642 -0.15636545441377611 0 -0.04842873444330871 -0.16711045567024069 0 -0.039341940624721322 -0.1473889652517453 0 -0.02901281443769882 -0.16656332648703889 0 -0.04229126633652619 -0.17881131459053171 0 -0.04842873444330871 -0.16711045567024069 0 -0.04842873444330871 -0.16711045567024069 0 -0.039341940624721322 -0.1473889652517453 0 -0.02901281443769882 -0.16656332648703889 0 -0.04229126633652619 -0.17881131459053171 0 -0.034207988203200999 -0.1947395301161112 0 -0.02901281443769882 -0.16656332648703889 0 -0.034207988203200999 -0.1947395301161112 0 -0.04229126633652619 -0.17881131459053171 0 -0.057515528261897569 -0.1868319460887353 0 -0.034207988203200999 -0.1947395301161112 0 -0.057515528261897569 -0.1868319460887353 0 -0.04842873444330871 -0.16711045567024069 0 -0.04229126633652619 -0.17881131459053171 0 -0.057515528261897569 -0.1868319460887353 0 -0.04842873444330871 -0.16711045567024069 0 -0.057515528261897569 -0.1868319460887353 0 -0.062322562886658349 -0.16678136927802939 0 -0.063745213810263407 -0.1847183913414622 0 -0.057515528261897569 -0.1868319460887353 0 -0.04842873444330871 -0.16711045567024069 0 -0.062322562886658349 -0.16678136927802939 0 -0.057515528261897569 -0.1868319460887353 0 -0.05912802428591217 -0.19033162105907239 0 -0.063745213810263407 -0.1847183913414622 0 -0.057515528261897569 -0.1868319460887353 0 -0.063745213810263407 -0.1847183913414622 0 -0.052014739940029642 -0.15636545441377611 0 -0.062322562886658349 -0.16678136927802939 0 -0.069005910853996155 -0.15501280701314399 0 -0.052014739940029642 -0.15636545441377611 0 -0.04842873444330871 -0.16711045567024069 0 -0.062322562886658349 -0.16678136927802939 0 -0.052014739940029642 -0.15636545441377611 0 -0.065584826834636803 -0.13914045145629189 0 -0.052014739940029642 -0.15636545441377611 0 -0.051110389740416207 -0.13999625101498661 0 -0.065584826834636803 -0.13914045145629189 0 -0.052014739940029642 -0.15636545441377611 0 -0.051110389740416207 -0.13999625101498661 0 -0.039341940624721322 -0.1473889652517453 0 -0.052014739940029642 -0.15636545441377611 0 -0.065584826834636803 -0.13914045145629189 0 -0.069005910853996155 -0.15501280701314399 0 -0.055169916472709482 -0.12517812183203231 0 -0.051110389740416207 -0.13999625101498661 0 -0.065584826834636803 -0.13914045145629189 0 -0.066546173548621232 -0.1222795392078645 0 -0.055169916472709482 -0.12517812183203231 0 -0.065584826834636803 -0.13914045145629189 0 -0.055169916472709482 -0.12517812183203231 0 -0.051110389740416207 -0.13999625101498661 0 -0.043440524829983791 -0.13190826212108719 0 -0.030255146806130191 -0.1276674748332515 0 -0.039341940624721322 -0.1473889652517453 0 -0.051110389740416207 -0.13999625101498661 0 -0.043440524829983791 -0.13190826212108719 0 -0.039341940624721322 -0.1473889652517453 0 -0.030255146806130191 -0.1276674748332515 0 -0.043440524829983791 -0.13190826212108719 0 -0.039341940624721322 -0.1473889652517453 0 -0.014158786127307799 -0.24519737049676829 0 -0.0098572142302557775 -0.22952383578989441 0 -0.02479026077015236 -0.23272698803945799 0 -0.028054186667563302 -0.24683004061566199 0 -0.02479026077015236 -0.23272698803945799 0 -0.04030210207406916 -0.23847685483801981 0 -0.028054186667563302 -0.24683004061566199 0 -0.014158786127307799 -0.24519737049676829 0 -0.02479026077015236 -0.23272698803945799 0 -0.014158786127307799 -0.24519737049676829 0 -0.0041937972378574863 -0.2384814372205343 0 -0.0098572142302557775 -0.22952383578989441 0 -0.014158786127307799 -0.24519737049676829 0 -0.0041937972378574863 -0.2384814372205343 0 0.002045658659195418 -0.25226572357157673 0 -0.015321952323229139 -0.21526225450057679 0 0.0051951527469382107 -0.2269388190238977 0 -0.015321952323229139 -0.21526225450057679 0 0.0051951527469382107 -0.2269388190238977 0 0.005508109684769601 -0.2244221511810062 0 -0.0098572142302557775 -0.22952383578989441 0 -0.015321952323229139 -0.21526225450057679 0 0.0051951527469382107 -0.2269388190238977 0 -0.0041937972378574863 -0.2384814372205343 0 -0.0098572142302557775 -0.22952383578989441 0 0.0051951527469382107 -0.2269388190238977 0 -0.0098572142302557775 -0.22952383578989441 0 -0.018695018782215179 -0.2247325196610063 0 -0.015321952323229139 -0.21526225450057679 0 -0.018695018782215179 -0.2247325196610063 0 -0.02834519697557111 -0.21977168861308269 0 -0.015321952323229139 -0.21526225450057679 0 -0.0098572142302557775 -0.22952383578989441 0 -0.018695018782215179 -0.2247325196610063 0 -0.02479026077015236 -0.23272698803945799 0 -0.018695018782215179 -0.2247325196610063 0 -0.02479026077015236 -0.23272698803945799 0 -0.02834519697557111 -0.21977168861308269 0 -0.015321952323229139 -0.21526225450057679 0 -0.035839057393396982 -0.2035856899772566 0 -0.034054069434406267 -0.21132356409066111 0 -0.015321952323229139 -0.21526225450057679 0 -0.035839057393396982 -0.2035856899772566 0 -0.027556454757254559 -0.20514352467258751 0 -0.015321952323229139 -0.21526225450057679 0 -0.02553505027442619 -0.19768201075814609 0 -0.027556454757254559 -0.20514352467258751 0 -0.015321952323229139 -0.21526225450057679 0 -0.035839057393396982 -0.2035856899772566 0 -0.02834519697557111 -0.21977168861308269 0 -0.015321952323229139 -0.21526225450057679 0 -0.034054069434406267 -0.21132356409066111 0 -0.015321952323229139 -0.21526225450057679 0 -0.0020900314666772268 -0.2056362374066513 0 0.001564903750543953 -0.21508749120778081 0 -0.015321952323229139 -0.21526225450057679 0 0.005508109684769601 -0.2244221511810062 0 0.001564903750543953 -0.21508749120778081 0 -0.015321952323229139 -0.21526225450057679 0 -0.0020900314666772268 -0.2056362374066513 0 -0.02553505027442619 -0.19768201075814609 0 -0.0020900314666772268 -0.2056362374066513 0 -0.02553505027442619 -0.19768201075814609 0 -0.0020900314666772268 -0.2056362374066513 0 -0.0072362567426319498 -0.1924080863237628 0 -0.02553505027442619 -0.19768201075814609 0 -0.01973318282813654 -0.17626585429466249 0 -0.0072362567426319498 -0.1924080863237628 0 -0.02553505027442619 -0.19768201075814609 0 -0.01973318282813654 -0.17626585429466249 0 -0.02553505027442619 -0.19768201075814609 0 -0.034207988203200999 -0.1947395301161112 0 -0.027556454757254559 -0.20514352467258751 0 -0.02553505027442619 -0.19768201075814609 0 -0.035839057393396982 -0.2035856899772566 0 -0.02553505027442619 -0.19768201075814609 0 -0.034207988203200999 -0.1947395301161112 0 -0.027556454757254559 -0.20514352467258751 0 -0.02553505027442619 -0.19768201075814609 0 -0.034207988203200999 -0.1947395301161112 0 -0.05912802428591217 -0.19033162105907239 0 -0.035839057393396982 -0.2035856899772566 0 -0.057515528261897569 -0.1868319460887353 0 -0.034207988203200999 -0.1947395301161112 0 -0.057091451997723919 -0.19530026354469021 0 -0.047260931700680478 -0.20584440259599049 0 -0.035839057393396982 -0.2035856899772566 0 -0.034207988203200999 -0.1947395301161112 0 -0.035839057393396982 -0.2035856899772566 0 -0.02553505027442619 -0.19768201075814609 0 -0.034207988203200999 -0.1947395301161112 0 -0.035839057393396982 -0.2035856899772566 0 -0.05912802428591217 -0.19033162105907239 0 -0.035839057393396982 -0.2035856899772566 0 -0.057515528261897569 -0.1868319460887353 0 -0.034207988203200999 -0.1947395301161112 0 -0.05912802428591217 -0.19033162105907239 0 -0.057091451997723919 -0.19530026354469021 0 -0.05912802428591217 -0.19033162105907239 0 -0.035839057393396982 -0.2035856899772566 0 -0.05912802428591217 -0.19033162105907239 0 -0.061451936467821433 -0.19537531553966331 0 -0.065695024900316729 -0.18659425137963589 0 -0.057515528261897569 -0.1868319460887353 0 -0.05912802428591217 -0.19033162105907239 0 -0.05912802428591217 -0.19033162105907239 0 -0.061451936467821433 -0.19537531553966331 0 -0.057091451997723919 -0.19530026354469021 0 -0.05912802428591217 -0.19033162105907239 0 -0.061451936467821433 -0.19537531553966331 0 -0.05912802428591217 -0.19033162105907239 0 -0.065695024900316729 -0.18659425137963589 0 -0.061451936467821433 -0.19537531553966331 0 -0.058233830340577712 -0.20074045768874629 0 -0.065652753941613934 -0.20449254469806191 0 -0.057091451997723919 -0.19530026354469021 0 -0.061451936467821433 -0.19537531553966331 0 -0.058233830340577712 -0.20074045768874629 0 -0.057091451997723919 -0.19530026354469021 0 -0.061451936467821433 -0.19537531553966331 0 -0.057091451997723919 -0.19530026354469021 0 -0.058233830340577712 -0.20074045768874629 0 -0.047260931700680478 -0.20584440259599049 0 -0.058233830340577712 -0.20074045768874629 0 -0.047260931700680478 -0.20584440259599049 0 -0.065652753941613934 -0.20449254469806191 0 -0.045221507355882908 -0.21860976636875981 0 -0.058718655849625538 -0.219751668322476 0 -0.065652753941613934 -0.20449254469806191 0 -0.047260931700680478 -0.20584440259599049 0 -0.045221507355882908 -0.21860976636875981 0 -0.065652753941613934 -0.20449254469806191 0 -0.045221507355882908 -0.21860976636875981 0 -0.065652753941613934 -0.20449254469806191 0 -0.045221507355882908 -0.21860976636875981 0 -0.041635264252917109 -0.21059121089720431 0 -0.034054069434406267 -0.21132356409066111 0 -0.047260931700680478 -0.20584440259599049 0 -0.045221507355882908 -0.21860976636875981 0 -0.041635264252917109 -0.21059121089720431 0 -0.02834519697557111 -0.21977168861308269 0 -0.045221507355882908 -0.21860976636875981 0 -0.034054069434406267 -0.21132356409066111 0 -0.047260931700680478 -0.20584440259599049 0 -0.039713433205346933 -0.2079235494071652 0 -0.035839057393396982 -0.2035856899772566 0 -0.047260931700680478 -0.20584440259599049 0 -0.039713433205346933 -0.2079235494071652 0 -0.041635264252917109 -0.21059121089720431 0 -0.039713433205346933 -0.2079235494071652 0 -0.035839057393396982 -0.2035856899772566 0 -0.034054069434406267 -0.21132356409066111 0 -0.039713433205346933 -0.2079235494071652 0 -0.041635264252917109 -0.21059121089720431 0 -0.034054069434406267 -0.21132356409066111 0 -0.02479026077015236 -0.23272698803945799 0 -0.02834519697557111 -0.21977168861308269 0 -0.045221507355882908 -0.21860976636875981 0 -0.02479026077015236 -0.23272698803945799 0 -0.045221507355882908 -0.21860976636875981 0 -0.04030210207406916 -0.23847685483801981 0 -0.02479026077015236 -0.23272698803945799 0 -0.045221507355882908 -0.21860976636875981 0 -0.045221507355882908 -0.21860976636875981 0 -0.051030052154395773 -0.23110007688046311 0 -0.04030210207406916 -0.23847685483801981 0 -0.045221507355882908 -0.21860976636875981 0 -0.058718655849625538 -0.219751668322476 0 -0.051030052154395773 -0.23110007688046311 0 -0.058718655849625538 -0.219751668322476 0 -0.051030052154395773 -0.23110007688046311 0 -0.06337333651469193 -0.2334158466041083 0 -0.057714553428922379 -0.25500475435617842 0 -0.04030210207406916 -0.23847685483801981 0 -0.057714553428922379 -0.25500475435617842 0 -0.051030052154395773 -0.23110007688046311 0 -0.04030210207406916 -0.23847685483801981 0 -0.057714553428922379 -0.25500475435617842 0 -0.051030052154395773 -0.23110007688046311 0 -0.06337333651469193 -0.2334158466041083 0 -0.057714553428922379 -0.25500475435617842 0 -0.06337333651469193 -0.2334158466041083 0 -0.040512249463293341 -0.25569158202273867 0 -0.028054186667563302 -0.24683004061566199 0 -0.04030210207406916 -0.23847685483801981 0 -0.040512249463293341 -0.25569158202273867 0 -0.057714553428922379 -0.25500475435617842 0 -0.04030210207406916 -0.23847685483801981 0 -0.077934205990084701 -0.25849823457342302 0 -0.083971886421534386 -0.24957221478122329 0 -0.07474704270723237 -0.239773964261115 0 -0.09041974796923867 -0.24406125167670259 0 -0.080526144573508984 -0.23677295478476931 0 -0.09782673664442855 -0.23979469263012931 0 -0.091407705863245425 -0.25235714484008959 0 -0.09041974796923867 -0.24406125167670259 0 -0.098388133221083043 -0.2495265329015236 0 -0.091407705863245425 -0.25235714484008959 0 -0.09041974796923867 -0.24406125167670259 0 -0.083971886421534386 -0.24957221478122329 0 -0.09041974796923867 -0.24406125167670259 0 -0.082650623739631474 -0.24138381053383309 0 -0.080526144573508984 -0.23677295478476931 0 -0.082650623739631474 -0.24138381053383309 0 -0.080526144573508984 -0.23677295478476931 0 -0.07474704270723237 -0.239773964261115 0 -0.082650623739631474 -0.24138381053383309 0 -0.080526144573508984 -0.23677295478476931 0 -0.082650623739631474 -0.24138381053383309 0 -0.083971886421534386 -0.24957221478122329 0 -0.07474704270723237 -0.239773964261115 0 -0.09041974796923867 -0.24406125167670259 0 -0.082650623739631474 -0.24138381053383309 0 -0.083971886421534386 -0.24957221478122329 0 -0.077934205990084701 -0.25849823457342302 0 -0.07474704270723237 -0.239773964261115 0 -0.070207504995135006 -0.25219882787524028 0 -0.071223761498505955 -0.2416035565645287 0 -0.07474704270723237 -0.239773964261115 0 -0.057714553428922379 -0.25500475435617842 0 -0.071223761498505955 -0.2416035565645287 0 -0.06337333651469193 -0.2334158466041083 0 -0.070207504995135006 -0.25219882787524028 0 -0.057714553428922379 -0.25500475435617842 0 -0.071223761498505955 -0.2416035565645287 0 -0.071223761498505955 -0.2416035565645287 0 -0.07474704270723237 -0.239773964261115 0 -0.06337333651469193 -0.2334158466041083 0 -0.071223761498505955 -0.2416035565645287 0 -0.07474704270723237 -0.239773964261115 0 -0.080526144573508984 -0.23677295478476931 0 -0.07474704270723237 -0.239773964261115 0 -0.06337333651469193 -0.2334158466041083 0 -0.069032119600459727 -0.2118269388520376 0 -0.07474704270723237 -0.239773964261115 0 -0.06337333651469193 -0.2334158466041083 0 -0.070551218317602041 -0.21512390931191369 0 -0.080526144573508984 -0.23677295478476931 0 -0.070551218317602041 -0.21512390931191369 0 -0.06337333651469193 -0.2334158466041083 0 -0.070551218317602041 -0.21512390931191369 0 -0.069032119600459727 -0.2118269388520376 0 -0.07474704270723237 -0.239773964261115 0 -0.070551218317602041 -0.21512390931191369 0 -0.080526144573508984 -0.23677295478476931 0 -0.07474704270723237 -0.239773964261115 0 -0.070551218317602041 -0.21512390931191369 0 -0.058718655849625538 -0.219751668322476 0 -0.06337333651469193 -0.2334158466041083 0 -0.069032119600459727 -0.2118269388520376 0 -0.080526144573508984 -0.23677295478476931 0 -0.084817414903086696 -0.22159515260762061 0 -0.1036378526463841 -0.22477135721031449 0 -0.080526144573508984 -0.23677295478476931 0 -0.084817414903086696 -0.22159515260762061 0 -0.070551218317602041 -0.21512390931191369 0 -0.084817414903086696 -0.22159515260762061 0 -0.090061871862976151 -0.21088930613504109 0 -0.1036378526463841 -0.22477135721031449 0 -0.080526144573508984 -0.23677295478476931 0 -0.1036378526463841 -0.22477135721031449 0 -0.092790519077754818 -0.20938729155756361 0 -0.090061871862976151 -0.21088930613504109 0 -0.097648786977038021 -0.21627438760186099 0 -0.092790519077754818 -0.20938729155756361 0 -0.090061871862976151 -0.21088930613504109 0 -0.078424930134952331 -0.19566745212321521 0 -0.090061871862976151 -0.21088930613504109 0 -0.076485891079567742 -0.19700725505976821 0 -0.090061871862976151 -0.21088930613504109 0 -0.079808520321869414 -0.21071199160295781 0 -0.076485891079567742 -0.19700725505976821 0 -0.084817414903086696 -0.22159515260762061 0 -0.090061871862976151 -0.21088930613504109 0 -0.079808520321869414 -0.21071199160295781 0 -0.084817414903086696 -0.22159515260762061 0 -0.079808520321869414 -0.21071199160295781 0 -0.070551218317602041 -0.21512390931191369 0 -0.079808520321869414 -0.21071199160295781 0 -0.070551218317602041 -0.21512390931191369 0 -0.069612880728157772 -0.20961126841162331 0 -0.058718655849625538 -0.219751668322476 0 -0.069032119600459727 -0.2118269388520376 0 -0.065652753941613934 -0.20449254469806191 0 -0.070551218317602041 -0.21512390931191369 0 -0.069032119600459727 -0.2118269388520376 0 -0.070551218317602041 -0.21512390931191369 0 -0.069032119600459727 -0.2118269388520376 0 -0.069612880728157772 -0.20961126841162331 0 -0.070551218317602041 -0.21512390931191369 0 -0.069612880728157772 -0.20961126841162331 0 -0.069612880728157772 -0.20961126841162331 0 -0.072127169613626391 -0.2000189673836989 0 -0.068416538197623833 -0.2025828738990533 0 -0.069032119600459727 -0.2118269388520376 0 -0.065652753941613934 -0.20449254469806191 0 -0.069032119600459727 -0.2118269388520376 0 -0.065652753941613934 -0.20449254469806191 0 -0.069612880728157772 -0.20961126841162331 0 -0.069032119600459727 -0.2118269388520376 0 -0.069612880728157772 -0.20961126841162331 0 -0.069612880728157772 -0.20961126841162331 0 -0.068416538197623833 -0.2025828738990533 0 -0.065652753941613934 -0.20449254469806191 0 -0.069612880728157772 -0.20961126841162331 0 -0.068416538197623833 -0.2025828738990533 0 -0.065652753941613934 -0.20449254469806191 0 -0.068416538197623833 -0.2025828738990533 0 -0.069612880728157772 -0.20961126841162331 0 -0.074696535016055193 -0.20479562077529209 0 -0.072127169613626391 -0.2000189673836989 0 -0.069612880728157772 -0.20961126841162331 0 -0.072127169613626391 -0.2000189673836989 0 -0.079808520321869414 -0.21071199160295781 0 -0.069612880728157772 -0.20961126841162331 0 -0.074696535016055193 -0.20479562077529209 0 -0.079808520321869414 -0.21071199160295781 0 -0.074696535016055193 -0.20479562077529209 0 -0.076485891079567742 -0.19700725505976821 0 -0.074696535016055193 -0.20479562077529209 0 -0.076485891079567742 -0.19700725505976821 0 -0.072127169613626391 -0.2000189673836989 0 -0.076485891079567742 -0.19700725505976821 0 -0.072127169613626391 -0.2000189673836989 0 -0.076485891079567742 -0.19700725505976821 0 -0.074949347586406978 -0.1954360702156101 0 -0.078424930134952331 -0.19566745212321521 0 -0.076485891079567742 -0.19700725505976821 0 -0.078424930134952331 -0.19566745212321521 0 -0.076485891079567742 -0.19700725505976821 0 -0.074949347586406978 -0.1954360702156101 0 -0.073290930334432583 -0.1955790865000924 0 -0.076485891079567742 -0.19700725505976821 0 -0.073290930334432583 -0.1955790865000924 0 -0.076485891079567742 -0.19700725505976821 0 -0.074949347586406978 -0.1954360702156101 0 -0.073290930334432583 -0.1955790865000924 0 -0.072127169613626391 -0.2000189673836989 0 -0.067206558644238468 -0.1954743632206678 0 -0.073290930334432583 -0.1955790865000924 0 -0.072127169613626391 -0.2000189673836989 0 -0.076485891079567742 -0.19700725505976821 0 -0.073290930334432583 -0.1955790865000924 0 -0.072127169613626391 -0.2000189673836989 0 -0.072127169613626391 -0.2000189673836989 0 -0.068416538197623833 -0.2025828738990533 0 -0.065652753941613934 -0.20449254469806191 0 -0.068416538197623833 -0.2025828738990533 0 -0.067206558644238468 -0.1954743632206678 0 -0.072127169613626391 -0.2000189673836989 0 -0.068416538197623833 -0.2025828738990533 0 -0.067206558644238468 -0.1954743632206678 0 -0.061451936467821433 -0.19537531553966331 0 -0.065652753941613934 -0.20449254469806191 0 -0.061451936467821433 -0.19537531553966331 0 -0.065652753941613934 -0.20449254469806191 0 -0.067206558644238468 -0.1954743632206678 0 -0.073290930334432583 -0.1955790865000924 0 -0.067206558644238468 -0.1954743632206678 0 -0.068416538197623833 -0.2025828738990533 0 -0.067206558644238468 -0.1954743632206678 0 -0.061451936467821433 -0.19537531553966331 0 -0.067206558644238468 -0.1954743632206678 0 -0.067206558644238468 -0.1954743632206678 0 -0.069252524061868478 -0.19072134768818719 0 -0.065695024900316729 -0.18659425137963589 0 -0.061451936467821433 -0.19537531553966331 0 -0.067206558644238468 -0.1954743632206678 0 -0.065695024900316729 -0.18659425137963589 0 -0.067206558644238468 -0.1954743632206678 0 -0.065695024900316729 -0.18659425137963589 0 -0.073290930334432583 -0.1955790865000924 0 -0.067206558644238468 -0.1954743632206678 0 -0.069252524061868478 -0.19072134768818719 0 -0.069252524061868478 -0.19072134768818719 0 -0.068415528694499905 -0.18561482539829649 0 -0.065695024900316729 -0.18659425137963589 0 -0.074378392482175343 -0.19143029344058179 0 -0.068415528694499905 -0.18561482539829649 0 -0.069252524061868478 -0.19072134768818719 0 -0.074378392482175343 -0.19143029344058179 0 -0.068415528694499905 -0.18561482539829649 0 -0.074949347586406978 -0.1954360702156101 0 -0.073290930334432583 -0.1955790865000924 0 -0.074378392482175343 -0.19143029344058179 0 -0.073290930334432583 -0.1955790865000924 0 -0.069252524061868478 -0.19072134768818719 0 -0.074378392482175343 -0.19143029344058179 0 -0.073290930334432583 -0.1955790865000924 0 -0.074378392482175343 -0.19143029344058179 0 -0.074949347586406978 -0.1954360702156101 0 -0.074378392482175343 -0.19143029344058179 0 -0.078424930134952331 -0.19566745212321521 0 -0.074378392482175343 -0.19143029344058179 0 -0.078772675126339647 -0.18999661298577719 0 -0.078424930134952331 -0.19566745212321521 0 -0.074378392482175343 -0.19143029344058179 0 -0.078424930134952331 -0.19566745212321521 0 -0.092790519077754818 -0.20938729155756361 0 -0.078424930134952331 -0.19566745212321521 0 -0.1059767386994999 -0.1961416696585617 0 -0.078424930134952331 -0.19566745212321521 0 -0.1059767386994999 -0.1961416696585617 0 -0.078424930134952331 -0.19566745212321521 0 -0.1059767386994999 -0.1961416696585617 0 -0.093639959806350509 -0.1851544398262861 0 -0.078772675126339647 -0.18999661298577719 0 -0.078424930134952331 -0.19566745212321521 0 -0.08242770360058288 -0.187399261305987 0 -0.078424930134952331 -0.19566745212321521 0 -0.08242770360058288 -0.187399261305987 0 -0.093639959806350509 -0.1851544398262861 0 -0.092790519077754818 -0.20938729155756361 0 -0.078424930134952331 -0.19566745212321521 0 -0.090061871862976151 -0.21088930613504109 0 -0.076485891079567742 -0.19700725505976821 0 -0.078424930134952331 -0.19566745212321521 0 -0.078424930134952331 -0.19566745212321521 0 -0.093639959806350509 -0.1851544398262861 0 -0.1059767386994999 -0.1961416696585617 0 -0.093639959806350509 -0.1851544398262861 0 -0.1047289700833028 -0.1851230395995648 0 -0.1059767386994999 -0.1961416696585617 0 -0.1047289700833028 -0.1851230395995648 0 -0.118293341037632 -0.18651450902121131 0 -0.1059767386994999 -0.1961416696585617 0 -0.118293341037632 -0.18651450902121131 0 -0.13322517961482519 -0.19661066567610561 0 -0.1059767386994999 -0.1961416696585617 0 -0.1184172506631281 -0.20405091920382981 0 -0.13322517961482519 -0.19661066567610561 0 -0.1059767386994999 -0.1961416696585617 0 -0.13322517961482519 -0.19661066567610561 0 -0.12399798292479659 -0.21419861678823221 0 -0.1068527403713352 -0.22310190947410799 0 -0.11046910141339079 -0.20925272469241971 0 -0.12399798292479659 -0.21419861678823221 0 -0.1068527403713352 -0.22310190947410799 0 -0.1059767386994999 -0.1961416696585617 0 -0.11046910141339079 -0.20925272469241971 0 -0.1184172506631281 -0.20405091920382981 0 -0.11046910141339079 -0.20925272469241971 0 -0.1184172506631281 -0.20405091920382981 0 -0.12399798292479659 -0.21419861678823221 0 -0.092790519077754818 -0.20938729155756361 0 -0.11046910141339079 -0.20925272469241971 0 -0.1068527403713352 -0.22310190947410799 0 -0.092790519077754818 -0.20938729155756361 0 -0.1059767386994999 -0.1961416696585617 0 -0.11046910141339079 -0.20925272469241971 0 -0.092790519077754818 -0.20938729155756361 0 -0.1068527403713352 -0.22310190947410799 0 -0.090061871862976151 -0.21088930613504109 0 -0.1036378526463841 -0.22477135721031449 0 -0.092790519077754818 -0.20938729155756361 0 -0.097648786977038021 -0.21627438760186099 0 -0.1068527403713352 -0.22310190947410799 0 -0.090061871862976151 -0.21088930613504109 0 -0.097648786977038021 -0.21627438760186099 0 -0.1036378526463841 -0.22477135721031449 0 -0.080526144573508984 -0.23677295478476931 0 -0.1036378526463841 -0.22477135721031449 0 -0.09782673664442855 -0.23979469263012931 0 -0.097648786977038021 -0.21627438760186099 0 -0.1036378526463841 -0.22477135721031449 0 -0.1036378526463841 -0.22477135721031449 0 -0.1099711844719633 -0.2312474739109826 0 -0.1056547197900774 -0.23813758980519359 0 -0.1036378526463841 -0.22477135721031449 0 -0.1056547197900774 -0.23813758980519359 0 -0.09782673664442855 -0.23979469263012931 0 -0.1036378526463841 -0.22477135721031449 0 -0.1099711844719633 -0.2312474739109826 0 -0.097648786977038021 -0.21627438760186099 0 -0.1068527403713352 -0.22310190947410799 0 -0.1036378526463841 -0.22477135721031449 0 -0.1068527403713352 -0.22310190947410799 0 -0.1036378526463841 -0.22477135721031449 0 -0.1099711844719633 -0.2312474739109826 0 -0.1068527403713352 -0.22310190947410799 0 -0.1036378526463841 -0.22477135721031449 0 -0.1068527403713352 -0.22310190947410799 0 -0.1099711844719633 -0.2312474739109826 0 -0.12380094318803 -0.23963117047422849 0 -0.12399798292479659 -0.21419861678823221 0 -0.1068527403713352 -0.22310190947410799 0 -0.12161297710486001 -0.22597695049280811 0 -0.1068527403713352 -0.22310190947410799 0 -0.12161297710486001 -0.22597695049280811 0 -0.12380094318803 -0.23963117047422849 0 -0.1068527403713352 -0.22310190947410799 0 -0.12380094318803 -0.23963117047422849 0 -0.130072481475493 -0.25180195436688507 0 -0.1099711844719633 -0.2312474739109826 0 -0.12875709436948191 -0.25407444815903568 0 -0.1099711844719633 -0.2312474739109826 0 -0.130072481475493 -0.25180195436688507 0 -0.1099711844719633 -0.2312474739109826 0 -0.12380094318803 -0.23963117047422849 0 -0.11483361518059911 -0.25006537360745279 0 -0.1099711844719633 -0.2312474739109826 0 -0.1056547197900774 -0.23813758980519359 0 -0.12875709436948191 -0.25407444815903568 0 -0.11483361518059911 -0.25006537360745279 0 -0.1099711844719633 -0.2312474739109826 0 -0.130072481475493 -0.25180195436688507 0 -0.12875709436948191 -0.25407444815903568 0 -0.1099711844719633 -0.2312474739109826 0 -0.1090276001301521 -0.2524008449134118 0 -0.11483361518059911 -0.25006537360745279 0 -0.105800613435617 -0.2470165031877396 0 -0.11483361518059911 -0.25006537360745279 0 -0.105800613435617 -0.2470165031877396 0 -0.1056547197900774 -0.23813758980519359 0 -0.105800613435617 -0.2470165031877396 0 -0.1056547197900774 -0.23813758980519359 0 -0.09782673664442855 -0.23979469263012931 0 -0.105800613435617 -0.2470165031877396 0 -0.09782673664442855 -0.23979469263012931 0 -0.098388133221083043 -0.2495265329015236 0 -0.09041974796923867 -0.24406125167670259 0 -0.09782673664442855 -0.23979469263012931 0 -0.098388133221083043 -0.2495265329015236 0 -0.079073304345726209 -0.144177298706922 0 -0.093306995513628602 -0.1399451556957873 0 -0.084955065985414663 -0.1590323645811155 0 -0.093306995513628602 -0.1399451556957873 0 -0.084955065985414663 -0.1590323645811155 0 -0.079154913729244394 -0.121915448498808 0 -0.093306995513628602 -0.1399451556957873 0 -0.079154913729244394 -0.121915448498808 0 -0.1047602595159054 -0.1137702650083381 0 -0.093306995513628602 -0.1399451556957873 0 -0.079154913729244394 -0.121915448498808 0 -0.079073304345726209 -0.144177298706922 0 -0.093306995513628602 -0.1399451556957873 0 -0.079154913729244394 -0.121915448498808 0 -0.079073304345726209 -0.144177298706922 0 -0.065584826834636803 -0.13914045145629189 0 -0.079154913729244394 -0.121915448498808 0 -0.065584826834636803 -0.13914045145629189 0 -0.066546173548621232 -0.1222795392078645 0 -0.079154913729244394 -0.121915448498808 0 -0.065584826834636803 -0.13914045145629189 0 -0.079073304345726209 -0.144177298706922 0 -0.069005910853996155 -0.15501280701314399 0 -0.084955065985414663 -0.1590323645811155 0 -0.079073304345726209 -0.144177298706922 0 -0.065584826834636803 -0.13914045145629189 0 -0.069005910853996155 -0.15501280701314399 0 -0.069005910853996155 -0.15501280701314399 0 -0.07283607530616204 -0.16726394811502551 0 -0.084955065985414663 -0.1590323645811155 0 -0.062322562886658349 -0.16678136927802939 0 -0.069005910853996155 -0.15501280701314399 0 -0.07283607530616204 -0.16726394811502551 0 -0.062322562886658349 -0.16678136927802939 0 -0.07283607530616204 -0.16726394811502551 0 -0.068973441166858884 -0.17306688593371139 0 -0.062322562886658349 -0.16678136927802939 0 -0.065695024900316729 -0.18659425137963589 0 -0.062322562886658349 -0.16678136927802939 0 -0.065695024900316729 -0.18659425137963589 0 -0.068973441166858884 -0.17306688593371139 0 -0.062322562886658349 -0.16678136927802939 0 -0.063745213810263407 -0.1847183913414622 0 -0.065695024900316729 -0.18659425137963589 0 -0.05912802428591217 -0.19033162105907239 0 -0.063745213810263407 -0.1847183913414622 0 -0.065695024900316729 -0.18659425137963589 0 -0.065695024900316729 -0.18659425137963589 0 -0.068973441166858884 -0.17306688593371139 0 -0.07144317620603842 -0.1792793282433803 0 -0.07283607530616204 -0.16726394811502551 0 -0.076603136457200932 -0.17811957346644389 0 -0.079360478140972093 -0.1718180408076046 0 -0.07283607530616204 -0.16726394811502551 0 -0.076603136457200932 -0.17811957346644389 0 -0.07227467544832622 -0.17593914936720681 0 -0.07283607530616204 -0.16726394811502551 0 -0.068973441166858884 -0.17306688593371139 0 -0.07227467544832622 -0.17593914936720681 0 -0.076603136457200932 -0.17811957346644389 0 -0.077390672596575644 -0.17993809864754531 0 -0.079360478140972093 -0.1718180408076046 0 -0.076603136457200932 -0.17811957346644389 0 -0.079360478140972093 -0.1718180408076046 0 -0.076603136457200932 -0.17811957346644389 0 -0.07144317620603842 -0.1792793282433803 0 -0.077390672596575644 -0.17993809864754531 0 -0.068973441166858884 -0.17306688593371139 0 -0.07227467544832622 -0.17593914936720681 0 -0.07144317620603842 -0.1792793282433803 0 -0.076603136457200932 -0.17811957346644389 0 -0.07227467544832622 -0.17593914936720681 0 -0.07144317620603842 -0.1792793282433803 0 -0.068415528694499905 -0.18561482539829649 0 -0.065695024900316729 -0.18659425137963589 0 -0.077390672596575644 -0.17993809864754531 0 -0.065695024900316729 -0.18659425137963589 0 -0.077390672596575644 -0.17993809864754531 0 -0.074378392482175343 -0.19143029344058179 0 -0.068415528694499905 -0.18561482539829649 0 -0.077390672596575644 -0.17993809864754531 0 -0.074378392482175343 -0.19143029344058179 0 -0.078772675126339647 -0.18999661298577719 0 -0.077390672596575644 -0.17993809864754531 0 -0.065695024900316729 -0.18659425137963589 0 -0.07144317620603842 -0.1792793282433803 0 -0.077390672596575644 -0.17993809864754531 0 -0.074378392482175343 -0.19143029344058179 0 -0.077390672596575644 -0.17993809864754531 0 -0.077390672596575644 -0.17993809864754531 0 -0.085742553350576081 -0.18138288883451259 0 -0.08242770360058288 -0.187399261305987 0 -0.078772675126339647 -0.18999661298577719 0 -0.077390672596575644 -0.17993809864754531 0 -0.08242770360058288 -0.187399261305987 0 -0.077390672596575644 -0.17993809864754531 0 -0.089511877398795403 -0.17303975555823231 0 -0.079360478140972093 -0.1718180408076046 0 -0.077390672596575644 -0.17993809864754531 0 -0.085742553350576081 -0.18138288883451259 0 -0.089511877398795403 -0.17303975555823231 0 -0.077390672596575644 -0.17993809864754531 0 -0.089511877398795403 -0.17303975555823231 0 -0.077390672596575644 -0.17993809864754531 0 -0.079360478140972093 -0.1718180408076046 0 -0.085742553350576081 -0.18138288883451259 0 -0.089511877398795403 -0.17303975555823231 0 -0.093639959806350509 -0.1851544398262861 0 -0.085742553350576081 -0.18138288883451259 0 -0.08242770360058288 -0.187399261305987 0 -0.093639959806350509 -0.1851544398262861 0 -0.089511877398795403 -0.17303975555823231 0 -0.084955065985414663 -0.1590323645811155 0 -0.079360478140972093 -0.1718180408076046 0 -0.07283607530616204 -0.16726394811502551 0 -0.084955065985414663 -0.1590323645811155 0 -0.079360478140972093 -0.1718180408076046 0 -0.084955065985414663 -0.1590323645811155 0 -0.079360478140972093 -0.1718180408076046 0 -0.089511877398795403 -0.17303975555823231 0 -0.084955065985414663 -0.1590323645811155 0 -0.098513628154735897 -0.1661754486448842 0 -0.098513628154735897 -0.1661754486448842 0 -0.1061453335012814 -0.15630115747276199 0 -0.1086805568555361 -0.1747619538997886 0 -0.084955065985414663 -0.1590323645811155 0 -0.098513628154735897 -0.1661754486448842 0 -0.1061453335012814 -0.15630115747276199 0 -0.089511877398795403 -0.17303975555823231 0 -0.098513628154735897 -0.1661754486448842 0 -0.1086805568555361 -0.1747619538997886 0 -0.089511877398795403 -0.17303975555823231 0 -0.093639959806350509 -0.1851544398262861 0 -0.1086805568555361 -0.1747619538997886 0 -0.093639959806350509 -0.1851544398262861 0 -0.1086805568555361 -0.1747619538997886 0 -0.1086805568555361 -0.1747619538997886 0 -0.1047289700833028 -0.1851230395995648 0 -0.1133435897224347 -0.17970050643515009 0 -0.093639959806350509 -0.1851544398262861 0 -0.1086805568555361 -0.1747619538997886 0 -0.1047289700833028 -0.1851230395995648 0 -0.1189836714889341 -0.17265715924973679 0 -0.118293341037632 -0.18651450902121131 0 -0.13182200947658679 -0.1890131610267117 0 -0.1047289700833028 -0.1851230395995648 0 -0.1133435897224347 -0.17970050643515009 0 -0.118293341037632 -0.18651450902121131 0 -0.1086805568555361 -0.1747619538997886 0 -0.1133435897224347 -0.17970050643515009 0 -0.1189836714889341 -0.17265715924973679 0 -0.1133435897224347 -0.17970050643515009 0 -0.1189836714889341 -0.17265715924973679 0 -0.118293341037632 -0.18651450902121131 0 -0.1061453335012814 -0.15630115747276199 0 -0.1086805568555361 -0.1747619538997886 0 -0.1189836714889341 -0.17265715924973679 0 -0.1061453335012814 -0.15630115747276199 0 -0.1189836714889341 -0.17265715924973679 0 -0.11948551327275141 -0.15860985757859861 0 -0.1061453335012814 -0.15630115747276199 0 -0.1189836714889341 -0.17265715924973679 0 -0.1189836714889341 -0.17265715924973679 0 -0.11948551327275141 -0.15860985757859861 0 -0.12733327723314269 -0.16504852316286389 0 -0.11948551327275141 -0.15860985757859861 0 -0.11613246327587121 -0.1448939581026597 0 -0.12883282086452749 -0.1541484899049706 0 -0.1061453335012814 -0.15630115747276199 0 -0.11948551327275141 -0.15860985757859861 0 -0.11613246327587121 -0.1448939581026597 0 -0.093306995513628602 -0.1399451556957873 0 -0.1061453335012814 -0.15630115747276199 0 -0.093306995513628602 -0.1399451556957873 0 -0.1061453335012814 -0.15630115747276199 0 -0.11613246327587121 -0.1448939581026597 0 -0.093306995513628602 -0.1399451556957873 0 -0.084955065985414663 -0.1590323645811155 0 -0.1061453335012814 -0.15630115747276199 0 -0.1047602595159054 -0.1137702650083381 0 -0.093306995513628602 -0.1399451556957873 0 -0.093306995513628602 -0.1399451556957873 0 -0.11613246327587121 -0.1448939581026597 0 -0.1115459371956342 -0.13077829445691719 0 -0.1047602595159054 -0.1137702650083381 0 -0.093306995513628602 -0.1399451556957873 0 -0.1115459371956342 -0.13077829445691719 0 -0.11613246327587121 -0.1448939581026597 0 -0.1222582854999008 -0.13302235048208291 0 -0.13280730388069831 -0.1411370753271757 0 -0.11613246327587121 -0.1448939581026597 0 -0.1115459371956342 -0.13077829445691719 0 -0.1222582854999008 -0.13302235048208291 0 -0.1206501631140116 -0.1196762209048116 0 -0.1115459371956342 -0.13077829445691719 0 -0.1222582854999008 -0.13302235048208291 0 -0.1206501631140116 -0.1196762209048116 0 -0.1222582854999008 -0.13302235048208291 0 -0.13602922183001481 -0.12700507490658439 0 -0.13602922183001481 -0.12700507490658439 0 -0.151060327642731 -0.1360027325000204 0 -0.13280730388069831 -0.1411370753271757 0 -0.1222582854999008 -0.13302235048208291 0 -0.13602922183001481 -0.12700507490658439 0 -0.13280730388069831 -0.1411370753271757 0 -0.13602922183001481 -0.12700507490658439 0 -0.151060327642731 -0.1360027325000204 0 -0.14852313579675791 -0.11680153384729661 0 -0.151060327642731 -0.1360027325000204 0 -0.14253070417114511 -0.15174984606673619 0 -0.13280730388069831 -0.1411370753271757 0 -0.151060327642731 -0.1360027325000204 0 -0.14253070417114511 -0.15174984606673619 0 -0.15708943888084179 -0.1526164810571371 0 -0.14253070417114511 -0.15174984606673619 0 -0.14858394632667421 -0.16276612913372351 0 -0.15708943888084179 -0.1526164810571371 0 -0.14253070417114511 -0.15174984606673619 0 -0.13280730388069831 -0.1411370753271757 0 -0.12883282086452749 -0.1541484899049706 0 -0.11613246327587121 -0.1448939581026597 0 -0.13280730388069831 -0.1411370753271757 0 -0.12883282086452749 -0.1541484899049706 0 -0.11948551327275141 -0.15860985757859861 0 -0.12883282086452749 -0.1541484899049706 0 -0.12733327723314269 -0.16504852316286389 0 -0.12883282086452749 -0.1541484899049706 0 -0.12733327723314269 -0.16504852316286389 0 -0.1373959360529535 -0.1632795581712832 0 -0.12733327723314269 -0.16504852316286389 0 -0.1373959360529535 -0.1632795581712832 0 -0.13320482325366009 -0.17446290234960221 0 -0.1189836714889341 -0.17265715924973679 0 -0.12733327723314269 -0.16504852316286389 0 -0.13320482325366009 -0.17446290234960221 0 -0.1373959360529535 -0.1632795581712832 0 -0.13320482325366009 -0.17446290234960221 0 -0.14530547030229879 -0.17445373742685441 0 -0.14253070417114511 -0.15174984606673619 0 -0.12883282086452749 -0.1541484899049706 0 -0.1373959360529535 -0.1632795581712832 0 -0.1189836714889341 -0.17265715924973679 0 -0.13320482325366009 -0.17446290234960221 0 -0.13182200947658679 -0.1890131610267117 0 -0.1189836714889341 -0.17265715924973679 0 -0.13182200947658679 -0.1890131610267117 0 -0.13320482325366009 -0.17446290234960221 0 -0.14034924467277349 -0.18230737410588441 0 -0.14530547030229879 -0.17445373742685441 0 -0.14034924467277349 -0.18230737410588441 0 -0.13182200947658679 -0.1890131610267117 0 -0.14320313586306749 -0.18979386234763901 0 -0.13320482325366009 -0.17446290234960221 0 -0.14034924467277349 -0.18230737410588441 0 -0.13182200947658679 -0.1890131610267117 0 -0.14530547030229879 -0.17445373742685441 0 -0.15208046557374921 -0.1841036910930737 0 -0.16375721859090889 -0.172214760747364 0 -0.14034924467277349 -0.18230737410588441 0 -0.15208046557374921 -0.1841036910930737 0 -0.14320313586306749 -0.18979386234763901 0 -0.14034924467277349 -0.18230737410588441 0 -0.14530547030229879 -0.17445373742685441 0 -0.15208046557374921 -0.1841036910930737 0 -0.14530547030229879 -0.17445373742685441 0 -0.14858394632667421 -0.16276612913372351 0 -0.16375721859090889 -0.172214760747364 0 -0.14253070417114511 -0.15174984606673619 0 -0.1373959360529535 -0.1632795581712832 0 -0.14858394632667421 -0.16276612913372351 0 -0.1373959360529535 -0.1632795581712832 0 -0.14530547030229879 -0.17445373742685441 0 -0.14858394632667421 -0.16276612913372351 0 -0.17059057568065991 -0.15640636573034339 0 -0.16375721859090889 -0.172214760747364 0 -0.18000279481144321 -0.16391963676576149 0 -0.14858394632667421 -0.16276612913372351 0 -0.16375721859090889 -0.172214760747364 0 -0.15708943888084179 -0.1526164810571371 0 -0.17059057568065991 -0.15640636573034339 0 -0.16375721859090889 -0.172214760747364 0 -0.15708943888084179 -0.1526164810571371 0 -0.15208046557374921 -0.1841036910930737 0 -0.16375721859090889 -0.172214760747364 0 -0.17127454054901711 -0.18634857829849749 0 -0.18330723375096061 -0.17701957415038189 0 -0.1877220614454759 -0.19754865771119351 0 -0.17127454054901711 -0.18634857829849749 0 -0.18330723375096061 -0.17701957415038189 0 -0.1877220614454759 -0.19754865771119351 0 -0.16375721859090889 -0.172214760747364 0 -0.17127454054901711 -0.18634857829849749 0 -0.18330723375096061 -0.17701957415038189 0 -0.16375721859090889 -0.172214760747364 0 -0.18330723375096061 -0.17701957415038189 0 -0.18000279481144321 -0.16391963676576149 0 -0.18330723375096061 -0.17701957415038189 0 -0.18000279481144321 -0.16391963676576149 0 -0.19395889057052121 -0.15864815702413529 0 -0.17059057568065991 -0.15640636573034339 0 -0.18000279481144321 -0.16391963676576149 0 -0.1808805530190303 -0.15255725600453171 0 -0.18000279481144321 -0.16391963676576149 0 -0.1808805530190303 -0.15255725600453171 0 -0.19395889057052121 -0.15864815702413529 0 -0.1808805530190303 -0.15255725600453171 0 -0.17079240077402019 -0.1434085100721034 0 -0.1881957749964504 -0.1400880060527861 0 -0.17059057568065991 -0.15640636573034339 0 -0.1808805530190303 -0.15255725600453171 0 -0.17079240077402019 -0.1434085100721034 0 -0.1881957749964504 -0.1400880060527861 0 -0.19543974656364119 -0.12952400934525171 0 -0.17370704535480891 -0.12370643112049309 0 -0.17079240077402019 -0.1434085100721034 0 -0.1881957749964504 -0.1400880060527861 0 -0.17370704535480891 -0.12370643112049309 0 -0.151060327642731 -0.1360027325000204 0 -0.17370704535480891 -0.12370643112049309 0 -0.14852313579675791 -0.11680153384729661 0 -0.151060327642731 -0.1360027325000204 0 -0.17079240077402019 -0.1434085100721034 0 -0.17370704535480891 -0.12370643112049309 0 -0.151060327642731 -0.1360027325000204 0 -0.15708943888084179 -0.1526164810571371 0 -0.17079240077402019 -0.1434085100721034 0 -0.17059057568065991 -0.15640636573034339 0 -0.15708943888084179 -0.1526164810571371 0 -0.17079240077402019 -0.1434085100721034 0 -0.14481302165502311 -0.23558015778230559 0 -0.16170538707704521 -0.23088871053905191 0 -0.15713976905195959 -0.24665593677925601 0 -0.14481302165502311 -0.23558015778230559 0 -0.14634991392852029 -0.24701342561288289 0 -0.15713976905195959 -0.24665593677925601 0 -0.1407491460047243 -0.25616043147434953 0 -0.12380094318803 -0.23963117047422849 0 -0.14634991392852029 -0.24701342561288289 0 -0.12380094318803 -0.23963117047422849 0 -0.14481302165502311 -0.23558015778230559 0 -0.14634991392852029 -0.24701342561288289 0 -0.130072481475493 -0.25180195436688507 0 -0.1407491460047243 -0.25616043147434953 0 -0.12380094318803 -0.23963117047422849 0 -0.1407491460047243 -0.25616043147434953 0 -0.12380094318803 -0.23963117047422849 0 -0.13180024193527759 -0.22697610523466441 0 -0.14822476141985641 -0.22066258603271291 0 -0.13629155293954689 -0.216783158039491 0 -0.12380094318803 -0.23963117047422849 0 -0.14481302165502311 -0.23558015778230559 0 -0.13180024193527759 -0.22697610523466441 0 -0.12161297710486001 -0.22597695049280811 0 -0.12380094318803 -0.23963117047422849 0 -0.13180024193527759 -0.22697610523466441 0 -0.12399798292479659 -0.21419861678823221 0 -0.13180024193527759 -0.22697610523466441 0 -0.13629155293954689 -0.216783158039491 0 -0.12399798292479659 -0.21419861678823221 0 -0.12161297710486001 -0.22597695049280811 0 -0.13180024193527759 -0.22697610523466441 0 -0.14481302165502311 -0.23558015778230559 0 -0.14822476141985641 -0.22066258603271291 0 -0.16170538707704521 -0.23088871053905191 0 -0.14481302165502311 -0.23558015778230559 0 -0.13180024193527759 -0.22697610523466441 0 -0.14822476141985641 -0.22066258603271291 0 -0.15458041217405 -0.20940671634318611 0 -0.14114322547825711 -0.20529532410235449 0 -0.1604736205301506 -0.19707966169364941 0 -0.14822476141985641 -0.22066258603271291 0 -0.15458041217405 -0.20940671634318611 0 -0.16009931524013951 -0.21900741650855099 0 -0.14822476141985641 -0.22066258603271291 0 -0.15458041217405 -0.20940671634318611 0 -0.14114322547825711 -0.20529532410235449 0 -0.14822476141985641 -0.22066258603271291 0 -0.14114322547825711 -0.20529532410235449 0 -0.13629155293954689 -0.216783158039491 0 -0.12399798292479659 -0.21419861678823221 0 -0.14114322547825711 -0.20529532410235449 0 -0.13322517961482519 -0.19661066567610561 0 -0.1184172506631281 -0.20405091920382981 0 -0.12399798292479659 -0.21419861678823221 0 -0.13322517961482519 -0.19661066567610561 0 -0.12399798292479659 -0.21419861678823221 0 -0.14114322547825711 -0.20529532410235449 0 -0.12399798292479659 -0.21419861678823221 0 -0.14114322547825711 -0.20529532410235449 0 -0.13629155293954689 -0.216783158039491 0 -0.118293341037632 -0.18651450902121131 0 -0.13322517961482519 -0.19661066567610561 0 -0.13182200947658679 -0.1890131610267117 0 -0.13322517961482519 -0.19661066567610561 0 -0.13182200947658679 -0.1890131610267117 0 -0.14320313586306749 -0.18979386234763901 0 -0.14114322547825711 -0.20529532410235449 0 -0.13322517961482519 -0.19661066567610561 0 -0.1604736205301506 -0.19707966169364941 0 -0.13322517961482519 -0.19661066567610561 0 -0.1604736205301506 -0.19707966169364941 0 -0.13322517961482519 -0.19661066567610561 0 -0.14320313586306749 -0.18979386234763901 0 -0.1604736205301506 -0.19707966169364941 0 -0.15208046557374921 -0.1841036910930737 0 -0.14320313586306749 -0.18979386234763901 0 -0.1604736205301506 -0.19707966169364941 0 -0.15208046557374921 -0.1841036910930737 0 -0.17127454054901711 -0.18634857829849749 0 -0.1604736205301506 -0.19707966169364941 0 -0.17127454054901711 -0.18634857829849749 0 -0.1604736205301506 -0.19707966169364941 0 -0.1877220614454759 -0.19754865771119351 0 -0.1604736205301506 -0.19707966169364941 0 -0.1877220614454759 -0.19754865771119351 0 -0.17126270498811719 -0.21520377324449161 0 -0.19237035657291621 -0.2191633719626995 0 -0.1877220614454759 -0.19754865771119351 0 -0.1604736205301506 -0.19707966169364941 0 -0.17126270498811719 -0.21520377324449161 0 -0.1877220614454759 -0.19754865771119351 0 -0.15458041217405 -0.20940671634318611 0 -0.17126270498811719 -0.21520377324449161 0 -0.16009931524013951 -0.21900741650855099 0 -0.15458041217405 -0.20940671634318611 0 -0.1604736205301506 -0.19707966169364941 0 -0.17126270498811719 -0.21520377324449161 0 -0.17126270498811719 -0.21520377324449161 0 -0.16170538707704521 -0.23088871053905191 0 -0.17853259300422289 -0.23794420896241339 0 -0.17126270498811719 -0.21520377324449161 0 -0.16009931524013951 -0.21900741650855099 0 -0.16170538707704521 -0.23088871053905191 0 -0.14822476141985641 -0.22066258603271291 0 -0.16009931524013951 -0.21900741650855099 0 -0.16170538707704521 -0.23088871053905191 0 -0.17126270498811719 -0.21520377324449161 0 -0.17853259300422289 -0.23794420896241339 0 -0.19237035657291621 -0.2191633719626995 0 -0.17116287506745159 -0.25520359587210562 0 -0.18679401823353531 -0.25309787563023223 0 -0.17853259300422289 -0.23794420896241339 0 -0.17116287506745159 -0.25520359587210562 0 -0.17853259300422289 -0.23794420896241339 0 -0.16713515605016979 -0.24267311303820671 0 -0.18679401823353531 -0.25309787563023223 0 -0.17853259300422289 -0.23794420896241339 0 -0.19701865170035759 -0.24077808621420541 0 -0.16170538707704521 -0.23088871053905191 0 -0.16713515605016979 -0.24267311303820671 0 -0.15713976905195959 -0.24665593677925601 0 -0.17116287506745159 -0.25520359587210562 0 -0.16713515605016979 -0.24267311303820671 0 -0.15713976905195959 -0.24665593677925601 0 -0.16170538707704521 -0.23088871053905191 0 -0.17853259300422289 -0.23794420896241339 0 -0.16713515605016979 -0.24267311303820671 0 -0.21399152414243511 -0.23730889336191169 0 -0.19701865170035759 -0.24077808621420541 0 -0.2063754620985209 -0.2265507669674989 0 -0.21032388326083029 -0.25024911192045129 0 -0.21399152414243511 -0.23730889336191169 0 -0.19701865170035759 -0.24077808621420541 0 -0.21032388326083029 -0.25024911192045129 0 -0.21399152414243511 -0.23730889336191169 0 -0.222298668502317 -0.24847530355297609 0 -0.17853259300422289 -0.23794420896241339 0 -0.19701865170035759 -0.24077808621420541 0 -0.19237035657291621 -0.2191633719626995 0 -0.19701865170035759 -0.24077808621420541 0 -0.19237035657291621 -0.2191633719626995 0 -0.2063754620985209 -0.2265507669674989 0 -0.19701865170035759 -0.24077808621420541 0 -0.19237035657291621 -0.2191633719626995 0 -0.19237035657291621 -0.2191633719626995 0 -0.2063754620985209 -0.2265507669674989 0 -0.21091374414785791 -0.21337519535784691 0 -0.21399152414243511 -0.23730889336191169 0 -0.2063754620985209 -0.2265507669674989 0 -0.22174016338364269 -0.22223305073552091 0 -0.2063754620985209 -0.2265507669674989 0 -0.21091374414785791 -0.21337519535784691 0 -0.22174016338364269 -0.22223305073552091 0 -0.19237035657291621 -0.2191633719626995 0 -0.21091374414785791 -0.21337519535784691 0 -0.20643390413605461 -0.19787072309945011 0 -0.2165718470805619 -0.20499277511011521 0 -0.21091374414785791 -0.21337519535784691 0 -0.20643390413605461 -0.19787072309945011 0 -0.2165718470805619 -0.20499277511011521 0 -0.21091374414785791 -0.21337519535784691 0 -0.22379399321170171 -0.21053239349545691 0 -0.19237035657291621 -0.2191633719626995 0 -0.1877220614454759 -0.19754865771119351 0 -0.20643390413605461 -0.19787072309945011 0 -0.19237035657291621 -0.2191633719626995 0 -0.1877220614454759 -0.19754865771119351 0 -0.1877220614454759 -0.19754865771119351 0 -0.20643390413605461 -0.19787072309945011 0 -0.1877220614454759 -0.19754865771119351 0 -0.20643390413605461 -0.19787072309945011 0 -0.19777090039008041 -0.18530208911438389 0 -0.20643390413605461 -0.19787072309945011 0 -0.21228982601916521 -0.18057486931431899 0 -0.22122899401824039 -0.1873916831155889 0 -0.20643390413605461 -0.19787072309945011 0 -0.22514574682663341 -0.19819278848770691 0 -0.20643390413605461 -0.19787072309945011 0 -0.19777090039008041 -0.18530208911438389 0 -0.21228982601916521 -0.18057486931431899 0 -0.20643390413605461 -0.19787072309945011 0 -0.22514574682663341 -0.19819278848770691 0 -0.22122899401824039 -0.1873916831155889 0 -0.2165718470805619 -0.20499277511011521 0 -0.20643390413605461 -0.19787072309945011 0 -0.22514574682663341 -0.19819278848770691 0 -0.22514574682663341 -0.19819278848770691 0 -0.2338242921914688 -0.20272505461971391 0 -0.23391924430936981 -0.18986902955470489 0 -0.22514574682663341 -0.19819278848770691 0 -0.23391924430936981 -0.18986902955470489 0 -0.22122899401824039 -0.1873916831155889 0 -0.2338242921914688 -0.20272505461971391 0 -0.24527721666347321 -0.21256379641157161 0 -0.25236195113672338 -0.1919112964829979 0 -0.2338242921914688 -0.20272505461971391 0 -0.25236195113672338 -0.1919112964829979 0 -0.2338242921914688 -0.20272505461971391 0 -0.23391924430936981 -0.18986902955470489 0 -0.25236195113672338 -0.1919112964829979 0 -0.2338242921914688 -0.20272505461971391 0 -0.24527721666347321 -0.21256379641157161 0 -0.23217343322604059 -0.2143428861814026 0 -0.24527721666347321 -0.21256379641157161 0 -0.23217343322604059 -0.2143428861814026 0 -0.23623150067991641 -0.2236601356447499 0 -0.22514574682663341 -0.19819278848770691 0 -0.2338242921914688 -0.20272505461971391 0 -0.22379399321170171 -0.21053239349545691 0 -0.2338242921914688 -0.20272505461971391 0 -0.23217343322604059 -0.2143428861814026 0 -0.22379399321170171 -0.21053239349545691 0 -0.2165718470805619 -0.20499277511011521 0 -0.22514574682663341 -0.19819278848770691 0 -0.22379399321170171 -0.21053239349545691 0 -0.23217343322604059 -0.2143428861814026 0 -0.22379399321170171 -0.21053239349545691 0 -0.22174016338364269 -0.22223305073552091 0 -0.21091374414785791 -0.21337519535784691 0 -0.22379399321170171 -0.21053239349545691 0 -0.22174016338364269 -0.22223305073552091 0 -0.21399152414243511 -0.23730889336191169 0 -0.22174016338364269 -0.22223305073552091 0 -0.23044791276379051 -0.23612102098454171 0 -0.22174016338364269 -0.22223305073552091 0 -0.23623150067991641 -0.2236601356447499 0 -0.23044791276379051 -0.23612102098454171 0 -0.23217343322604059 -0.2143428861814026 0 -0.22174016338364269 -0.22223305073552091 0 -0.23623150067991641 -0.2236601356447499 0 -0.23623150067991641 -0.2236601356447499 0 -0.23044791276379051 -0.23612102098454171 0 -0.25072384826432742 -0.23841644955799321 0 -0.24527721666347321 -0.21256379641157161 0 -0.23623150067991641 -0.2236601356447499 0 -0.25072384826432742 -0.23841644955799321 0 -0.2354726814988696 -0.24894793315851049 0 -0.23044791276379051 -0.23612102098454171 0 -0.25072384826432742 -0.23841644955799321 0 -0.2354726814988696 -0.24894793315851049 0 -0.23044791276379051 -0.23612102098454171 0 -0.222298668502317 -0.24847530355297609 0 -0.21399152414243511 -0.23730889336191169 0 -0.23044791276379051 -0.23612102098454171 0 -0.222298668502317 -0.24847530355297609 0 -0.20638565849052579 -0.14542965310061309 0 -0.21539919339325739 -0.154402973339094 0 -0.22248519928184679 -0.14522004837137709 0 -0.20638565849052579 -0.14542965310061309 0 -0.22248519928184679 -0.14522004837137709 0 -0.21905532520058829 -0.1334651583264572 0 -0.20638565849052579 -0.14542965310061309 0 -0.21539919339325739 -0.154402973339094 0 -0.20652125541651109 -0.15880586066551369 0 -0.20638565849052579 -0.14542965310061309 0 -0.208033678837584 -0.13033137633198691 0 -0.21905532520058829 -0.1334651583264572 0 -0.20638565849052579 -0.14542965310061309 0 -0.208033678837584 -0.13033137633198691 0 -0.19543974656364119 -0.12952400934525171 0 -0.208033678837584 -0.13033137633198691 0 -0.21905532520058829 -0.1334651583264572 0 -0.213741019778449 -0.12358787610454269 0 -0.20638565849052579 -0.14542965310061309 0 -0.1881957749964504 -0.1400880060527861 0 -0.19543974656364119 -0.12952400934525171 0 -0.208033678837584 -0.13033137633198691 0 -0.19543974656364119 -0.12952400934525171 0 -0.20341144819041559 -0.12005497745297811 0 -0.1808805530190303 -0.15255725600453171 0 -0.1881957749964504 -0.1400880060527861 0 -0.19395889057052121 -0.15864815702413529 0 -0.20638565849052579 -0.14542965310061309 0 -0.1881957749964504 -0.1400880060527861 0 -0.19395889057052121 -0.15864815702413529 0 -0.20638565849052579 -0.14542965310061309 0 -0.19395889057052121 -0.15864815702413529 0 -0.20652125541651109 -0.15880586066551369 0 -0.18330723375096061 -0.17701957415038189 0 -0.19395889057052121 -0.15864815702413529 0 -0.20144640561630719 -0.1709401429512718 0 -0.19395889057052121 -0.15864815702413529 0 -0.20144640561630719 -0.1709401429512718 0 -0.20652125541651109 -0.15880586066551369 0 -0.18330723375096061 -0.17701957415038189 0 -0.20144640561630719 -0.1709401429512718 0 -0.19777090039008041 -0.18530208911438389 0 -0.18330723375096061 -0.17701957415038189 0 -0.1877220614454759 -0.19754865771119351 0 -0.19777090039008041 -0.18530208911438389 0 -0.20144640561630719 -0.1709401429512718 0 -0.21228982601916521 -0.18057486931431899 0 -0.21522157984658241 -0.16490703865479631 0 -0.20144640561630719 -0.1709401429512718 0 -0.19777090039008041 -0.18530208911438389 0 -0.21228982601916521 -0.18057486931431899 0 -0.21228982601916521 -0.18057486931431899 0 -0.21522157984658241 -0.16490703865479631 0 -0.22621181003498211 -0.16860613589149681 0 -0.20144640561630719 -0.1709401429512718 0 -0.20652125541651109 -0.15880586066551369 0 -0.21522157984658241 -0.16490703865479631 0 -0.21539919339325739 -0.154402973339094 0 -0.20652125541651109 -0.15880586066551369 0 -0.21522157984658241 -0.16490703865479631 0 -0.21539919339325739 -0.154402973339094 0 -0.21522157984658241 -0.16490703865479631 0 -0.22628499934814 -0.157801596774341 0 -0.21522157984658241 -0.16490703865479631 0 -0.22628499934814 -0.157801596774341 0 -0.22621181003498211 -0.16860613589149681 0 -0.22621181003498211 -0.16860613589149681 0 -0.2364093671096949 -0.16068306716239231 0 -0.23578822088313961 -0.17106386572274551 0 -0.22628499934814 -0.157801596774341 0 -0.22621181003498211 -0.16860613589149681 0 -0.2364093671096949 -0.16068306716239231 0 -0.21228982601916521 -0.18057486931431899 0 -0.22621181003498211 -0.16860613589149681 0 -0.22867533096078871 -0.17968598290805099 0 -0.21228982601916521 -0.18057486931431899 0 -0.22122899401824039 -0.1873916831155889 0 -0.22867533096078871 -0.17968598290805099 0 -0.22621181003498211 -0.16860613589149681 0 -0.22867533096078871 -0.17968598290805099 0 -0.23578822088313961 -0.17106386572274551 0 -0.23391924430936981 -0.18986902955470489 0 -0.22122899401824039 -0.1873916831155889 0 -0.22867533096078871 -0.17968598290805099 0 -0.23391924430936981 -0.18986902955470489 0 -0.24227915072236411 -0.17930737171417041 0 -0.25236195113672338 -0.1919112964829979 0 -0.24227915072236411 -0.17930737171417041 0 -0.25236195113672338 -0.1919112964829979 0 -0.25438837735015563 -0.17408901105307889 0 -0.23391924430936981 -0.18986902955470489 0 -0.22867533096078871 -0.17968598290805099 0 -0.24227915072236411 -0.17930737171417041 0 -0.22867533096078871 -0.17968598290805099 0 -0.24227915072236411 -0.17930737171417041 0 -0.23578822088313961 -0.17106386572274551 0 -0.24227915072236411 -0.17930737171417041 0 -0.23578822088313961 -0.17106386572274551 0 -0.245232381934577 -0.1660834696861731 0 -0.24227915072236411 -0.17930737171417041 0 -0.245232381934577 -0.1660834696861731 0 -0.25438837735015563 -0.17408901105307889 0 -0.2364093671096949 -0.16068306716239231 0 -0.245232381934577 -0.1660834696861731 0 -0.2441779313611992 -0.15430066241038479 0 -0.2364093671096949 -0.16068306716239231 0 -0.23578822088313961 -0.17106386572274551 0 -0.245232381934577 -0.1660834696861731 0 -0.245232381934577 -0.1660834696861731 0 -0.2441779313611992 -0.15430066241038479 0 -0.25828471235426331 -0.1565801894285449 0 -0.24251306179481419 -0.14061913508783591 0 -0.24654581804579309 -0.13376537365426189 0 -0.25828471235426331 -0.1565801894285449 0 -0.2441779313611992 -0.15430066241038479 0 -0.24251306179481419 -0.14061913508783591 0 -0.25828471235426331 -0.1565801894285449 0 -0.2441779313611992 -0.15430066241038479 0 -0.23395422373047001 -0.14967637101481701 0 -0.24251306179481419 -0.14061913508783591 0 -0.23395422373047001 -0.14967637101481701 0 -0.228949844248617 -0.1387277587095227 0 -0.24251306179481419 -0.14061913508783591 0 -0.2364093671096949 -0.16068306716239231 0 -0.2441779313611992 -0.15430066241038479 0 -0.23395422373047001 -0.14967637101481701 0 -0.22628499934814 -0.157801596774341 0 -0.23395422373047001 -0.14967637101481701 0 -0.22248519928184679 -0.14522004837137709 0 -0.22628499934814 -0.157801596774341 0 -0.2364093671096949 -0.16068306716239231 0 -0.23395422373047001 -0.14967637101481701 0 -0.23395422373047001 -0.14967637101481701 0 -0.22248519928184679 -0.14522004837137709 0 -0.228949844248617 -0.1387277587095227 0 -0.21539919339325739 -0.154402973339094 0 -0.22628499934814 -0.157801596774341 0 -0.22248519928184679 -0.14522004837137709 0 -0.228949844248617 -0.1387277587095227 0 -0.24251306179481419 -0.14061913508783591 0 -0.22674141123536559 -0.12465808074712641 0 -0.21905532520058829 -0.1334651583264572 0 -0.228949844248617 -0.1387277587095227 0 -0.22674141123536559 -0.12465808074712641 0 -0.21905532520058829 -0.1334651583264572 0 -0.22674141123536559 -0.12465808074712641 0 -0.213741019778449 -0.12358787610454269 0 -0.22248519928184679 -0.14522004837137709 0 -0.21905532520058829 -0.1334651583264572 0 -0.228949844248617 -0.1387277587095227 0 -0.24251306179481419 -0.14061913508783591 0 -0.24654581804579309 -0.13376537365426189 0 -0.22674141123536559 -0.12465808074712641 0 -0.24251306179481419 -0.14061913508783591 0 -0.22674141123536559 -0.12465808074712641 0 -0.24654581804579309 -0.13376537365426189 0 -0.23480692373732229 -0.11095055787997909 0 -0.2489309622580109 -0.1242303833033653 0 -0.23480692373732229 -0.11095055787997909 0 -0.24549039803179959 -0.1059939859931003 0 -0.25070980455925612 -0.1157637291888518 0 -0.24654581804579309 -0.13376537365426189 0 -0.23480692373732229 -0.11095055787997909 0 -0.22674141123536559 -0.12465808074712641 0 -0.23480692373732229 -0.11095055787997909 0 -0.2489309622580109 -0.1242303833033653 0 -0.25070980455925612 -0.1157637291888518 0 -0.24654581804579309 -0.13376537365426189 0 -0.23480692373732229 -0.11095055787997909 0 -0.24549039803179959 -0.1059939859931003 0 -0.24971090441552871 -0.096958464046099729 0 -0.2378072085228122 -0.089072822333533114 0 -0.23480692373732229 -0.11095055787997909 0 -0.24549039803179959 -0.1059939859931003 0 -0.2378072085228122 -0.089072822333533114 0 -0.23480692373732229 -0.11095055787997909 0 -0.2378072085228122 -0.089072822333533114 0 -0.22306802942885151 -0.088135742105696344 0 -0.23480692373732229 -0.11095055787997909 0 -0.22306802942885151 -0.088135742105696344 0 -0.2221801450510954 -0.1060904129666433 0 -0.22306802942885151 -0.088135742105696344 0 -0.2131855281047558 -0.098082385591244547 0 -0.23480692373732229 -0.11095055787997909 0 -0.2221801450510954 -0.1060904129666433 0 -0.22306802942885151 -0.088135742105696344 0 -0.22674141123536559 -0.12465808074712641 0 -0.210969760675917 -0.108697026406417 0 -0.2221801450510954 -0.1060904129666433 0 -0.22674141123536559 -0.12465808074712641 0 -0.210969760675917 -0.108697026406417 0 -0.23480692373732229 -0.11095055787997909 0 -0.2221801450510954 -0.1060904129666433 0 -0.22674141123536559 -0.12465808074712641 0 -0.24336531570479769 -0.065727331489220331 0 -0.2378072085228122 -0.089072822333533114 0 -0.2250876512780165 -0.064392679317399351 0 -0.24336531570479769 -0.065727331489220331 0 -0.2378072085228122 -0.089072822333533114 0 -0.25337569101513241 -0.084501502158025821 0 -0.24971090441552871 -0.096958464046099729 0 -0.2378072085228122 -0.089072822333533114 0 -0.25337569101513241 -0.084501502158025821 0 -0.2378072085228122 -0.089072822333533114 0 -0.22306802942885151 -0.088135742105696344 0 -0.2250876512780165 -0.064392679317399351 0 -0.22306802942885151 -0.088135742105696344 0 -0.2250876512780165 -0.064392679317399351 0 -0.20033165650512519 -0.071072651713821086 0 -0.2250876512780165 -0.064392679317399351 0 -0.20033165650512519 -0.071072651713821086 0 -0.20773695673549261 -0.052272518561201527 0 -0.22306802942885151 -0.088135742105696344 0 -0.20598765215981241 -0.087646242995685811 0 -0.2131855281047558 -0.098082385591244547 0 -0.22306802942885151 -0.088135742105696344 0 -0.20598765215981241 -0.087646242995685811 0 -0.20033165650512519 -0.071072651713821086 0 -0.20265751717147021 -0.099878367430403542 0 -0.17922598328423819 -0.085997294450397332 0 -0.20598765215981241 -0.087646242995685811 0 -0.20265751717147021 -0.099878367430403542 0 -0.17922598328423819 -0.085997294450397332 0 -0.20598765215981241 -0.087646242995685811 0 -0.20033165650512519 -0.071072651713821086 0 -0.17922598328423819 -0.085997294450397332 0 -0.22674141123536559 -0.12465808074712641 0 -0.213741019778449 -0.12358787610454269 0 -0.210969760675917 -0.108697026406417 0 -0.20341144819041559 -0.12005497745297811 0 -0.210969760675917 -0.108697026406417 0 -0.2001623369175724 -0.1105570449050914 0 -0.20341144819041559 -0.12005497745297811 0 -0.213741019778449 -0.12358787610454269 0 -0.210969760675917 -0.108697026406417 0 -0.208033678837584 -0.13033137633198691 0 -0.20341144819041559 -0.12005497745297811 0 -0.213741019778449 -0.12358787610454269 0 -0.2221801450510954 -0.1060904129666433 0 -0.210969760675917 -0.108697026406417 0 -0.2131855281047558 -0.098082385591244547 0 -0.20598765215981241 -0.087646242995685811 0 -0.2131855281047558 -0.098082385591244547 0 -0.20265751717147021 -0.099878367430403542 0 -0.210969760675917 -0.108697026406417 0 -0.20265751717147021 -0.099878367430403542 0 -0.2001623369175724 -0.1105570449050914 0 -0.210969760675917 -0.108697026406417 0 -0.2131855281047558 -0.098082385591244547 0 -0.20265751717147021 -0.099878367430403542 0 -0.20265751717147021 -0.099878367430403542 0 -0.18550241107618401 -0.1021195462040608 0 -0.17922598328423819 -0.085997294450397332 0 -0.20265751717147021 -0.099878367430403542 0 -0.2001623369175724 -0.1105570449050914 0 -0.18550241107618401 -0.1021195462040608 0 -0.2001623369175724 -0.1105570449050914 0 -0.191563055553092 -0.11770318849024081 0 -0.18550241107618401 -0.1021195462040608 0 -0.20341144819041559 -0.12005497745297811 0 -0.2001623369175724 -0.1105570449050914 0 -0.191563055553092 -0.11770318849024081 0 -0.19543974656364119 -0.12952400934525171 0 -0.20341144819041559 -0.12005497745297811 0 -0.191563055553092 -0.11770318849024081 0 -0.17370704535480891 -0.12370643112049309 0 -0.16172523634541491 -0.1070183808424095 0 -0.18550241107618401 -0.1021195462040608 0 -0.191563055553092 -0.11770318849024081 0 -0.17370704535480891 -0.12370643112049309 0 -0.18550241107618401 -0.1021195462040608 0 -0.19543974656364119 -0.12952400934525171 0 -0.191563055553092 -0.11770318849024081 0 -0.17370704535480891 -0.12370643112049309 0 -0.17370704535480891 -0.12370643112049309 0 -0.16172523634541491 -0.1070183808424095 0 -0.14852313579675791 -0.11680153384729661 0 -0.16172523634541491 -0.1070183808424095 0 -0.18550241107618401 -0.1021195462040608 0 -0.16204746641378431 -0.08973624109365709 0 -0.16172523634541491 -0.1070183808424095 0 -0.16204746641378431 -0.08973624109365709 0 -0.14594981662278539 -0.09680354857783828 0 -0.18550241107618401 -0.1021195462040608 0 -0.17922598328423819 -0.085997294450397332 0 -0.16204746641378431 -0.08973624109365709 0 -0.20033165650512519 -0.071072651713821086 0 -0.17922598328423819 -0.085997294450397332 0 -0.17493714182002559 -0.064397359501391027 0 -0.17922598328423819 -0.085997294450397332 0 -0.17493714182002559 -0.064397359501391027 0 -0.1557944493970064 -0.072116221470391192 0 -0.17922598328423819 -0.085997294450397332 0 -0.16204746641378431 -0.08973624109365709 0 -0.1557944493970064 -0.072116221470391192 0 -0.17922598328423819 -0.085997294450397332 0 -0.1557944493970064 -0.072116221470391192 0 -0.1557944493970064 -0.072116221470391192 0 -0.1352735564919858 -0.080223751315632738 0 -0.14594981662278539 -0.09680354857783828 0 -0.16204746641378431 -0.08973624109365709 0 -0.1557944493970064 -0.072116221470391192 0 -0.14594981662278539 -0.09680354857783828 0 -0.1557944493970064 -0.072116221470391192 0 -0.1323629155097743 -0.058235148490384941 0 -0.1557944493970064 -0.072116221470391192 0 -0.13635737525930311 -0.069178575696391562 0 -0.1352735564919858 -0.080223751315632738 0 -0.1557944493970064 -0.072116221470391192 0 -0.13635737525930311 -0.069178575696391562 0 -0.1323629155097743 -0.058235148490384941 0 -0.13635737525930311 -0.069178575696391562 0 -0.1352735564919858 -0.080223751315632738 0 -0.1276667875204594 -0.061420483633439937 0 -0.1162135235181824 -0.087595374320889013 0 -0.1352735564919858 -0.080223751315632738 0 -0.1276667875204594 -0.061420483633439937 0 -0.13635737525930311 -0.069178575696391562 0 -0.1323629155097743 -0.058235148490384941 0 -0.1276667875204594 -0.061420483633439937 0 -0.1352735564919858 -0.080223751315632738 0 -0.12985377978098289 -0.09482830396379692 0 -0.14594981662278539 -0.09680354857783828 0 -0.1162135235181824 -0.087595374320889013 0 -0.1352735564919858 -0.080223751315632738 0 -0.12985377978098289 -0.09482830396379692 0 -0.12985377978098289 -0.09482830396379692 0 -0.1330070026904597 -0.1097875923650501 0 -0.14594981662278539 -0.09680354857783828 0 -0.1205201078216398 -0.1049632512248226 0 -0.12985377978098289 -0.09482830396379692 0 -0.1330070026904597 -0.1097875923650501 0 -0.13602922183001481 -0.12700507490658439 0 -0.1330070026904597 -0.1097875923650501 0 -0.14852313579675791 -0.11680153384729661 0 -0.1206501631140116 -0.1196762209048116 0 -0.13602922183001481 -0.12700507490658439 0 -0.1330070026904597 -0.1097875923650501 0 -0.16172523634541491 -0.1070183808424095 0 -0.14852313579675791 -0.11680153384729661 0 -0.14594981662278539 -0.09680354857783828 0 -0.1330070026904597 -0.1097875923650501 0 -0.14852313579675791 -0.11680153384729661 0 -0.14594981662278539 -0.09680354857783828 0 -0.14179680904898881 -0.01103102019700854 0 -0.16003862370912281 -0.021864989907177751 0 -0.15716480579668429 0.0096173806601869243 0 -0.14179680904898881 -0.01103102019700854 0 -0.13912005152273629 -0.035245592945990889 0 -0.16003862370912281 -0.021864989907177751 0 -0.1179792460567205 -0.018710167427977629 0 -0.14179680904898881 -0.01103102019700854 0 -0.13518087730504541 0.0058338015274088072 0 -0.1179792460567205 -0.018710167427977629 0 -0.14179680904898881 -0.01103102019700854 0 -0.13912005152273629 -0.035245592945990889 0 -0.1191780740788313 -0.047088666837466972 0 -0.1179792460567205 -0.018710167427977629 0 -0.13912005152273629 -0.035245592945990889 0 -0.13912005152273629 -0.035245592945990889 0 -0.1323629155097743 -0.058235148490384941 0 -0.1276667875204594 -0.061420483633439937 0 -0.1191780740788313 -0.047088666837466972 0 -0.13912005152273629 -0.035245592945990889 0 -0.1276667875204594 -0.061420483633439937 0 -0.13912005152273629 -0.035245592945990889 0 -0.1276667875204594 -0.061420483633439937 0 -0.13912005152273629 -0.035245592945990889 0 -0.1323629155097743 -0.058235148490384941 0 -0.15332240043719239 -0.050963131129824368 0 -0.1557944493970064 -0.072116221470391192 0 -0.1323629155097743 -0.058235148490384941 0 -0.15332240043719239 -0.050963131129824368 0 -0.13912005152273629 -0.035245592945990889 0 -0.15332240043719239 -0.050963131129824368 0 -0.16003862370912281 -0.021864989907177751 0 -0.15332240043719239 -0.050963131129824368 0 -0.1717939529517111 -0.042508332671546523 0 -0.16003862370912281 -0.021864989907177751 0 -0.17493714182002559 -0.064397359501391027 0 -0.1557944493970064 -0.072116221470391192 0 -0.15332240043719239 -0.050963131129824368 0 -0.17493714182002559 -0.064397359501391027 0 -0.15332240043719239 -0.050963131129824368 0 -0.1717939529517111 -0.042508332671546523 0 -0.17493714182002559 -0.064397359501391027 0 -0.1717939529517111 -0.042508332671546523 0 -0.19007450889192951 -0.049947218415534483 0 -0.1717939529517111 -0.042508332671546523 0 -0.18016940808067289 -0.022525103880661951 0 -0.19007450889192951 -0.049947218415534483 0 -0.18016940808067289 -0.022525103880661951 0 -0.16003862370912281 -0.021864989907177751 0 -0.17618077961913581 -0.0035985267045714349 0 -0.16003862370912281 -0.021864989907177751 0 -0.17618077961913581 -0.0035985267045714349 0 -0.15716480579668429 0.0096173806601869243 0 -0.1717939529517111 -0.042508332671546523 0 -0.18016940808067289 -0.022525103880661951 0 -0.16003862370912281 -0.021864989907177751 0 -0.18016940808067289 -0.022525103880661951 0 -0.17618077961913581 -0.0035985267045714349 0 -0.19893365398983109 -0.0041071238595800259 0 -0.18016940808067289 -0.022525103880661951 0 -0.19893365398983109 -0.0041071238595800259 0 -0.18016940808067289 -0.022525103880661951 0 -0.19893365398983109 -0.0041071238595800259 0 -0.2024502716501711 -0.029527530051054549 0 -0.2024502716501711 -0.029527530051054549 0 -0.2145161172965902 -0.01322262508513292 0 -0.22077985023517219 -0.038199626318468648 0 -0.19893365398983109 -0.0041071238595800259 0 -0.2145161172965902 -0.01322262508513292 0 -0.21769789989898911 0.01431085616150183 0 -0.19893365398983109 -0.0041071238595800259 0 -0.2024502716501711 -0.029527530051054549 0 -0.2145161172965902 -0.01322262508513292 0 -0.20033165650512519 -0.071072651713821086 0 -0.17493714182002559 -0.064397359501391027 0 -0.19007450889192951 -0.049947218415534483 0 -0.20033165650512519 -0.071072651713821086 0 -0.19007450889192951 -0.049947218415534483 0 -0.20773695673549261 -0.052272518561201527 0 -0.18016940808067289 -0.022525103880661951 0 -0.2024502716501711 -0.029527530051054549 0 -0.19007450889192951 -0.049947218415534483 0 -0.2024502716501711 -0.029527530051054549 0 -0.19007450889192951 -0.049947218415534483 0 -0.20773695673549261 -0.052272518561201527 0 -0.2024502716501711 -0.029527530051054549 0 -0.20773695673549261 -0.052272518561201527 0 -0.22077985023517219 -0.038199626318468648 0 -0.2250876512780165 -0.064392679317399351 0 -0.20773695673549261 -0.052272518561201527 0 -0.22077985023517219 -0.038199626318468648 0 -0.2250876512780165 -0.064392679317399351 0 -0.22077985023517219 -0.038199626318468648 0 -0.2424439762167564 -0.043787450241019203 0 -0.22077985023517219 -0.038199626318468648 0 -0.2424439762167564 -0.043787450241019203 0 -0.2342347475845421 -0.01565714949806642 0 -0.24336531570479769 -0.065727331489220331 0 -0.2250876512780165 -0.064392679317399351 0 -0.2424439762167564 -0.043787450241019203 0 -0.2145161172965902 -0.01322262508513292 0 -0.2342347475845421 -0.01565714949806642 0 -0.21769789989898911 0.01431085616150183 0 -0.2145161172965902 -0.01322262508513292 0 -0.22077985023517219 -0.038199626318468648 0 -0.2342347475845421 -0.01565714949806642 0 -0.2424439762167564 -0.043787450241019203 0 -0.2342347475845421 -0.01565714949806642 0 -0.25437700065985103 -0.02525094854927299 0 -0.2342347475845421 -0.01565714949806642 0 -0.24968331053108711 -0.0096343182687553472 0 -0.25437700065985103 -0.02525094854927299 0 -0.2342347475845421 -0.01565714949806642 0 -0.24968331053108711 -0.0096343182687553472 0 -0.2436265138743488 0.0065037479392753318 0 -0.24968331053108711 -0.0096343182687553472 0 -0.26649498000560651 -0.0041329229669573231 0 -0.2436265138743488 0.0065037479392753318 0 -0.24968331053108711 -0.0096343182687553472 0 -0.25437700065985103 -0.02525094854927299 0 -0.26649498000560651 -0.0041329229669573231 0 -0.25437700065985103 -0.02525094854927299 0 -0.27384371670170671 -0.028675515219102918 0 -0.26649498000560651 -0.0041329229669573231 0 -0.27384371670170671 -0.028675515219102918 0 -0.26649498000560651 -0.0041329229669573231 0 -0.28550996469666812 -0.014365948860096581 0 -0.26649498000560651 -0.0041329229669573231 0 -0.28550996469666812 -0.014365948860096581 0 -0.28788476338416141 0.0020438274912654162 0 -0.29554605467350958 -0.0056270752818544222 0 -0.28550996469666812 -0.014365948860096581 0 -0.28788476338416141 0.0020438274912654162 0 -0.29554605467350958 -0.0056270752818544222 0 -0.28788476338416141 0.0020438274912654162 0 -0.29990889168979129 0.001231685760085421 0 -0.29554605467350958 -0.0056270752818544222 0 -0.28550996469666812 -0.014365948860096581 0 -0.29735620919151329 -0.016477701774447961 0 -0.27384371670170671 -0.028675515219102918 0 -0.28550996469666812 -0.014365948860096581 0 -0.29168220551422758 -0.031712424564627181 0 -0.28550996469666812 -0.014365948860096581 0 -0.29735620919151329 -0.016477701774447961 0 -0.29168220551422758 -0.031712424564627181 0 -0.29735620919151329 -0.016477701774447961 0 -0.30771798142821333 -0.026400763813054919 0 -0.29168220551422758 -0.031712424564627181 0 -0.30771798142821333 -0.026400763813054919 0 -0.31015431122765103 -0.0011357570533747129 0 -0.30771798142821333 -0.026400763813054919 0 -0.31015431122765103 -0.0011357570533747129 0 -0.30600008428928249 -0.0030200428416092759 0 -0.29735620919151329 -0.016477701774447961 0 -0.30771798142821333 -0.026400763813054919 0 -0.30600008428928249 -0.0030200428416092759 0 -0.31015431122765103 -0.0011357570533747129 0 -0.30600008428928249 -0.0030200428416092759 0 -0.29990889168979129 0.001231685760085421 0 -0.31015431122765103 -0.0011357570533747129 0 -0.30600008428928249 -0.0030200428416092759 0 -0.29554605467350958 -0.0056270752818544222 0 -0.30600008428928249 -0.0030200428416092759 0 -0.29990889168979129 0.001231685760085421 0 -0.29554605467350958 -0.0056270752818544222 0 -0.29735620919151329 -0.016477701774447961 0 -0.30600008428928249 -0.0030200428416092759 0 -0.30771798142821333 -0.026400763813054919 0 -0.30528165162877768 -0.051665770572735331 0 -0.29168220551422758 -0.031712424564627181 0 -0.30771798142821333 -0.026400763813054919 0 -0.30528165162877768 -0.051665770572735331 0 -0.31576324030239489 -0.040653424844253848 0 -0.30771798142821333 -0.026400763813054919 0 -0.30528165162877768 -0.051665770572735331 0 -0.30528165162877768 -0.051665770572735331 0 -0.29168220551422758 -0.031712424564627181 0 -0.28454894695726629 -0.049462961487513717 0 -0.27384371670170671 -0.028675515219102918 0 -0.29168220551422758 -0.031712424564627181 0 -0.28454894695726629 -0.049462961487513717 0 -0.30528165162877768 -0.051665770572735331 0 -0.28454894695726629 -0.049462961487513717 0 -0.29244193454514372 -0.066803425177083001 0 -0.28454894695726629 -0.049462961487513717 0 -0.27761751511788418 -0.066961551183906121 0 -0.29244193454514372 -0.066803425177083001 0 -0.2665170705308082 -0.046282204978945127 0 -0.27761751511788418 -0.066961551183906121 0 -0.28454894695726629 -0.049462961487513717 0 -0.2665170705308082 -0.046282204978945127 0 -0.27761751511788418 -0.066961551183906121 0 -0.2665170705308082 -0.046282204978945127 0 -0.26190401461426749 -0.070855655739992279 0 -0.27761751511788418 -0.066961551183906121 0 -0.27384371670170671 -0.028675515219102918 0 -0.28454894695726629 -0.049462961487513717 0 -0.2665170705308082 -0.046282204978945127 0 -0.2424439762167564 -0.043787450241019203 0 -0.25437700065985103 -0.02525094854927299 0 -0.2665170705308082 -0.046282204978945127 0 -0.25437700065985103 -0.02525094854927299 0 -0.27384371670170671 -0.028675515219102918 0 -0.2665170705308082 -0.046282204978945127 0 -0.24336531570479769 -0.065727331489220331 0 -0.2665170705308082 -0.046282204978945127 0 -0.26190401461426749 -0.070855655739992279 0 -0.24336531570479769 -0.065727331489220331 0 -0.2424439762167564 -0.043787450241019203 0 -0.2665170705308082 -0.046282204978945127 0 -0.24336531570479769 -0.065727331489220331 0 -0.26190401461426749 -0.070855655739992279 0 -0.25337569101513241 -0.084501502158025821 0 -0.26190401461426749 -0.070855655739992279 0 -0.25337569101513241 -0.084501502158025821 0 -0.26665952145714489 -0.087057309233605024 0 -0.24971090441552871 -0.096958464046099729 0 -0.25337569101513241 -0.084501502158025821 0 -0.26108217164898451 -0.097183901361724195 0 -0.25337569101513241 -0.084501502158025821 0 -0.26665952145714489 -0.087057309233605024 0 -0.26108217164898451 -0.097183901361724195 0 -0.26190401461426749 -0.070855655739992279 0 -0.26665952145714489 -0.087057309233605024 0 -0.27557175139898099 -0.081137034363003693 0 -0.27557175139898099 -0.081137034363003693 0 -0.27761751511788418 -0.066961551183906121 0 -0.28871795970496028 -0.087640897388867073 0 -0.26665952145714489 -0.087057309233605024 0 -0.27841882873313828 -0.092046374269760575 0 -0.27186647184734858 -0.098931854665899932 0 -0.26665952145714489 -0.087057309233605024 0 -0.27841882873313828 -0.092046374269760575 0 -0.27557175139898099 -0.081137034363003693 0 -0.27841882873313828 -0.092046374269760575 0 -0.27557175139898099 -0.081137034363003693 0 -0.28871795970496028 -0.087640897388867073 0 -0.26190401461426749 -0.070855655739992279 0 -0.27557175139898099 -0.081137034363003693 0 -0.27761751511788418 -0.066961551183906121 0 -0.2602953535867269 -0.11553034670823679 0 -0.26911083711160338 -0.11960384436840529 0 -0.25816117760555263 -0.1255307634636546 0 -0.25070980455925612 -0.1157637291888518 0 -0.2602953535867269 -0.11553034670823679 0 -0.25816117760555263 -0.1255307634636546 0 -0.2489309622580109 -0.1242303833033653 0 -0.25070980455925612 -0.1157637291888518 0 -0.25816117760555263 -0.1255307634636546 0 -0.24549039803179959 -0.1059939859931003 0 -0.25070980455925612 -0.1157637291888518 0 -0.2564685214683643 -0.1068446522750542 0 -0.25070980455925612 -0.1157637291888518 0 -0.2602953535867269 -0.11553034670823679 0 -0.2564685214683643 -0.1068446522750542 0 -0.2602953535867269 -0.11553034670823679 0 -0.26702642718885822 -0.10990874424521779 0 -0.26911083711160338 -0.11960384436840529 0 -0.2602953535867269 -0.11553034670823679 0 -0.2564685214683643 -0.1068446522750542 0 -0.26702642718885822 -0.10990874424521779 0 -0.2564685214683643 -0.1068446522750542 0 -0.26108217164898451 -0.097183901361724195 0 -0.26702642718885822 -0.10990874424521779 0 -0.24549039803179959 -0.1059939859931003 0 -0.24971090441552871 -0.096958464046099729 0 -0.2564685214683643 -0.1068446522750542 0 -0.24971090441552871 -0.096958464046099729 0 -0.2564685214683643 -0.1068446522750542 0 -0.26108217164898451 -0.097183901361724195 0 -0.26665952145714489 -0.087057309233605024 0 -0.26108217164898451 -0.097183901361724195 0 -0.27186647184734858 -0.098931854665899932 0 -0.27841882873313828 -0.092046374269760575 0 -0.27186647184734858 -0.098931854665899932 0 -0.28485156603242612 -0.10168580097865949 0 -0.27186647184734858 -0.098931854665899932 0 -0.27763997356974041 -0.1101604263327622 0 -0.28485156603242612 -0.10168580097865949 0 -0.26108217164898451 -0.097183901361724195 0 -0.27186647184734858 -0.098931854665899932 0 -0.26702642718885822 -0.10990874424521779 0 -0.27186647184734858 -0.098931854665899932 0 -0.26702642718885822 -0.10990874424521779 0 -0.27763997356974041 -0.1101604263327622 0 -0.26702642718885822 -0.10990874424521779 0 -0.27763997356974041 -0.1101604263327622 0 -0.26911083711160338 -0.11960384436840529 0 -0.27763997356974041 -0.1101604263327622 0 -0.26911083711160338 -0.11960384436840529 0 -0.28240949559094691 -0.1209547776230335 0 -0.26911083711160338 -0.11960384436840529 0 -0.28240949559094691 -0.1209547776230335 0 -0.26862893053779041 -0.133231444332227 0 -0.28240949559094691 -0.1209547776230335 0 -0.29935050584718031 -0.11317240169450569 0 -0.29076261401395248 -0.1352915928804358 0 -0.28240949559094691 -0.1209547776230335 0 -0.29057504364725878 -0.10987753611535719 0 -0.29935050584718031 -0.11317240169450569 0 -0.29935050584718031 -0.11317240169450569 0 -0.29076261401395248 -0.1352915928804358 0 -0.27763997356974041 -0.1101604263327622 0 -0.28240949559094691 -0.1209547776230335 0 -0.29057504364725878 -0.10987753611535719 0 -0.29057504364725878 -0.10987753611535719 0 -0.29981840429203582 -0.1083202435938284 0 -0.29935050584718031 -0.11317240169450569 0 -0.29981840429203582 -0.1083202435938284 0 -0.28871795970496028 -0.087640897388867073 0 -0.29981840429203582 -0.1083202435938284 0 -0.28871795970496028 -0.087640897388867073 0 -0.3013318630606886 -0.092625510463122035 0 -0.28485156603242612 -0.10168580097865949 0 -0.29981840429203582 -0.1083202435938284 0 -0.28871795970496028 -0.087640897388867073 0 -0.29057504364725878 -0.10987753611535719 0 -0.28485156603242612 -0.10168580097865949 0 -0.29981840429203582 -0.1083202435938284 0 -0.27763997356974041 -0.1101604263327622 0 -0.29057504364725878 -0.10987753611535719 0 -0.28485156603242612 -0.10168580097865949 0 -0.27841882873313828 -0.092046374269760575 0 -0.28485156603242612 -0.10168580097865949 0 -0.28871795970496028 -0.087640897388867073 0 -0.29981840429203582 -0.1083202435938284 0 -0.3013318630606886 -0.092625510463122035 0 -0.30064007422699363 -0.1098509567934603 0 -0.31052060539315868 -0.084402411082017584 0 -0.30064007422699363 -0.1098509567934603 0 -0.3013318630606886 -0.092625510463122035 0 -0.31052060539315868 -0.084402411082017584 0 -0.30064007422699363 -0.1098509567934603 0 -0.31052060539315868 -0.084402411082017584 0 -0.3260902512485529 -0.099558944449840425 0 -0.29981840429203582 -0.1083202435938284 0 -0.30064007422699363 -0.1098509567934603 0 -0.3013318630606886 -0.092625510463122035 0 -0.29981840429203582 -0.1083202435938284 0 -0.30064007422699363 -0.1098509567934603 0 -0.30064007422699363 -0.1098509567934603 0 -0.30570839022682478 -0.1192928724225614 0 -0.3260902512485529 -0.099558944449840425 0 -0.29935050584718031 -0.11317240169450569 0 -0.30064007422699363 -0.1098509567934603 0 -0.30570839022682478 -0.1192928724225614 0 -0.30064007422699363 -0.1098509567934603 0 -0.30570839022682478 -0.1192928724225614 0 -0.29981840429203582 -0.1083202435938284 0 -0.29935050584718031 -0.11317240169450569 0 -0.29981840429203582 -0.1083202435938284 0 -0.29935050584718031 -0.11317240169450569 0 -0.30064007422699363 -0.1098509567934603 0 -0.29935050584718031 -0.11317240169450569 0 -0.30064007422699363 -0.1098509567934603 0 -0.30671187394855282 -0.1211622918975932 0 -0.29983888914099138 -0.1249757838868354 0 -0.30815370012431431 -0.12542028008571471 0 -0.30570839022682478 -0.1192928724225614 0 -0.30671187394855282 -0.1211622918975932 0 -0.31407064313318062 -0.1195965130679109 0 -0.30570839022682478 -0.1192928724225614 0 -0.30671187394855282 -0.1211622918975932 0 -0.31153012226091198 -0.12298273144865809 0 -0.30671187394855282 -0.1211622918975932 0 -0.30815370012431431 -0.12542028008571471 0 -0.31153012226091198 -0.12298273144865809 0 -0.30671187394855282 -0.1211622918975932 0 -0.31407064313318062 -0.1195965130679109 0 -0.29935050584718031 -0.11317240169450569 0 -0.30570839022682478 -0.1192928724225614 0 -0.29983888914099138 -0.1249757838868354 0 -0.30570839022682478 -0.1192928724225614 0 -0.29983888914099138 -0.1249757838868354 0 -0.30570839022682478 -0.1192928724225614 0 -0.30671187394855282 -0.1211622918975932 0 -0.29983888914099138 -0.1249757838868354 0 -0.27761751511788418 -0.066961551183906121 0 -0.28871795970496028 -0.087640897388867073 0 -0.27761751511788418 -0.066961551183906121 0 -0.29215639502376711 -0.077503896622655694 0 -0.28871795970496028 -0.087640897388867073 0 -0.29215639502376711 -0.077503896622655694 0 -0.29244193454514372 -0.066803425177083001 0 -0.30284532182934271 -0.076930777332415795 0 -0.27761751511788418 -0.066961551183906121 0 -0.29215639502376711 -0.077503896622655694 0 -0.29244193454514372 -0.066803425177083001 0 -0.29215639502376711 -0.077503896622655694 0 -0.28871795970496028 -0.087640897388867073 0 -0.3013318630606886 -0.092625510463122035 0 -0.29215639502376711 -0.077503896622655694 0 -0.3013318630606886 -0.092625510463122035 0 -0.30284532182934271 -0.076930777332415795 0 -0.3013318630606886 -0.092625510463122035 0 -0.31052060539315868 -0.084402411082017584 0 -0.30284532182934271 -0.076930777332415795 0 -0.3013318630606886 -0.092625510463122035 0 -0.30284532182934271 -0.076930777332415795 0 -0.31052060539315868 -0.084402411082017584 0 -0.30284532182934271 -0.076930777332415795 0 -0.30528165162877768 -0.051665770572735331 0 -0.29244193454514372 -0.066803425177083001 0 -0.30284532182934271 -0.076930777332415795 0 -0.30528165162877768 -0.051665770572735331 0 -0.30284532182934271 -0.076930777332415795 0 -0.32034990890216708 -0.0590858086186586 0 -0.31052060539315868 -0.084402411082017584 0 -0.30284532182934271 -0.076930777332415795 0 -0.32034990890216708 -0.0590858086186586 0 -0.30528165162877768 -0.051665770572735331 0 -0.30284532182934271 -0.076930777332415795 0 -0.29244193454514372 -0.066803425177083001 0 -0.30284532182934271 -0.076930777332415795 0 -0.31052060539315868 -0.084402411082017584 0 -0.32875676548461102 -0.076496011358249433 0 -0.32034990890216708 -0.0590858086186586 0 -0.31052060539315868 -0.084402411082017584 0 -0.32034990890216708 -0.0590858086186586 0 -0.31052060539315868 -0.084402411082017584 0 -0.32875676548461102 -0.076496011358249433 0 -0.3260902512485529 -0.099558944449840425 0 -0.31052060539315868 -0.084402411082017584 0 -0.3260902512485529 -0.099558944449840425 0 -0.32875676548461102 -0.076496011358249433 0 -0.3260902512485529 -0.099558944449840425 0 -0.34590053041713342 -0.080378427920192355 0 -0.3260902512485529 -0.099558944449840425 0 -0.34590053041713342 -0.080378427920192355 0 -0.3260902512485529 -0.099558944449840425 0 -0.34676683452670831 -0.096490792336774378 0 -0.34590053041713342 -0.080378427920192355 0 -0.32875676548461102 -0.076496011358249433 0 -0.32034990890216708 -0.0590858086186586 0 -0.34092253146204238 -0.05905446472053856 0 -0.32875676548461102 -0.076496011358249433 0 -0.34590053041713342 -0.080378427920192355 0 -0.34092253146204238 -0.05905446472053856 0 -0.30570839022682478 -0.1192928724225614 0 -0.3260902512485529 -0.099558944449840425 0 -0.30570839022682478 -0.1192928724225614 0 -0.32121209559422642 -0.1132059800106886 0 -0.3260902512485529 -0.099558944449840425 0 -0.32113876393527441 -0.1212046785429227 0 -0.32912707619935322 -0.11888876585185509 0 -0.3257773897067513 -0.12696083631139321 0 -0.32113876393527441 -0.1212046785429227 0 -0.32121209559422642 -0.1132059800106886 0 -0.32912707619935322 -0.11888876585185509 0 -0.32113876393527441 -0.1212046785429227 0 -0.31407064313318062 -0.1195965130679109 0 -0.31550661504286021 -0.12737129747276579 0 -0.30570839022682478 -0.1192928724225614 0 -0.31407064313318062 -0.1195965130679109 0 -0.32121209559422642 -0.1132059800106886 0 -0.32113876393527441 -0.1212046785429227 0 -0.31407064313318062 -0.1195965130679109 0 -0.32121209559422642 -0.1132059800106886 0 -0.31153012226091198 -0.12298273144865809 0 -0.31407064313318062 -0.1195965130679109 0 -0.31550661504286021 -0.12737129747276579 0 -0.3260902512485529 -0.099558944449840425 0 -0.33838987137686549 -0.1115322163288426 0 -0.34676683452670831 -0.096490792336774378 0 -0.32121209559422642 -0.1132059800106886 0 -0.3260902512485529 -0.099558944449840425 0 -0.33838987137686549 -0.1115322163288426 0 -0.3260902512485529 -0.099558944449840425 0 -0.33838987137686549 -0.1115322163288426 0 -0.32121209559422642 -0.1132059800106886 0 -0.33838987137686549 -0.1115322163288426 0 -0.32912707619935322 -0.11888876585185509 0 -0.33838987137686549 -0.1115322163288426 0 -0.33645206971597641 -0.12306835146609681 0 -0.3506894915051797 -0.1235054882078431 0 -0.33838987137686549 -0.1115322163288426 0 -0.33645206971597641 -0.12306835146609681 0 -0.32912707619935322 -0.11888876585185509 0 -0.33645206971597641 -0.12306835146609681 0 -0.32912707619935322 -0.11888876585185509 0 -0.3257773897067513 -0.12696083631139321 0 -0.33838987137686549 -0.1115322163288426 0 -0.3506894915051797 -0.1235054882078431 0 -0.35841265480373019 -0.10632050082420511 0 -0.33838987137686549 -0.1115322163288426 0 -0.3506894915051797 -0.1235054882078431 0 -0.35841265480373019 -0.10632050082420511 0 -0.34676683452670831 -0.096490792336774378 0 -0.36504086478725972 -0.08466387216079152 0 -0.33838987137686549 -0.1115322163288426 0 -0.35841265480373019 -0.10632050082420511 0 -0.34676683452670831 -0.096490792336774378 0 -0.35841265480373019 -0.10632050082420511 0 -0.36504086478725972 -0.08466387216079152 0 -0.38054174058850881 -0.099067238422367254 0 -0.35841265480373019 -0.10632050082420511 0 -0.37071750949614313 -0.12569597969797369 0 -0.38054174058850881 -0.099067238422367254 0 -0.3506894915051797 -0.1235054882078431 0 -0.35841265480373019 -0.10632050082420511 0 -0.37071750949614313 -0.12569597969797369 0 -0.34590053041713342 -0.080378427920192355 0 -0.36504086478725972 -0.08466387216079152 0 -0.36571080958571378 -0.061197911390544431 0 -0.34590053041713342 -0.080378427920192355 0 -0.36571080958571378 -0.061197911390544431 0 -0.34590053041713342 -0.080378427920192355 0 -0.36571080958571378 -0.061197911390544431 0 -0.34092253146204238 -0.05905446472053856 0 -0.34676683452670831 -0.096490792336774378 0 -0.34590053041713342 -0.080378427920192355 0 -0.36504086478725972 -0.08466387216079152 0 -0.36504086478725972 -0.08466387216079152 0 -0.36571080958571378 -0.061197911390544431 0 -0.39258723976806498 -0.071571852114322571 0 -0.36571080958571378 -0.061197911390544431 0 -0.35524372047347141 -0.038028690133064397 0 -0.38552108875429431 -0.042017394860896513 0 -0.36571080958571378 -0.061197911390544431 0 -0.35524372047347141 -0.038028690133064397 0 -0.34092253146204238 -0.05905446472053856 0 -0.35524372047347141 -0.038028690133064397 0 -0.36899913698722853 -0.020285415498841441 0 -0.38552108875429431 -0.042017394860896513 0 -0.36899913698722853 -0.020285415498841441 0 -0.3726509171759278 -0.0042871194606509278 0 -0.36241518134319989 -0.0066877441878053466 0 -0.36899913698722853 -0.020285415498841441 0 -0.36241518134319989 -0.0066877441878053466 0 -0.35334194143049752 -0.01267605704233035 0 -0.3726509171759278 -0.0042871194606509278 0 -0.36241518134319989 -0.0066877441878053466 0 -0.36524667940101929 0.001494106089630491 0 -0.36241518134319989 -0.0066877441878053466 0 -0.35707862334528662 0.002397725235558461 0 -0.36524667940101929 0.001494106089630491 0 -0.35334194143049752 -0.01267605704233035 0 -0.34572501347511109 -0.025197119151390689 0 -0.34000851592018583 -0.0084526036919412573 0 -0.35334194143049752 -0.01267605704233035 0 -0.35707862334528662 0.002397725235558461 0 -0.35053270008252568 0.00024745909662373121 0 -0.35334194143049752 -0.01267605704233035 0 -0.35707862334528662 0.002397725235558461 0 -0.36241518134319989 -0.0066877441878053466 0 -0.35334194143049752 -0.01267605704233035 0 -0.35707862334528662 0.002397725235558461 0 -0.35334194143049752 -0.01267605704233035 0 -0.34000851592018583 -0.0084526036919412573 0 -0.35053270008252568 0.00024745909662373121 0 -0.35524372047347141 -0.038028690133064397 0 -0.36899913698722853 -0.020285415498841441 0 -0.34572501347511109 -0.025197119151390689 0 -0.36899913698722853 -0.020285415498841441 0 -0.35334194143049752 -0.01267605704233035 0 -0.34572501347511109 -0.025197119151390689 0 -0.34572501347511109 -0.025197119151390689 0 -0.34000851592018583 -0.0084526036919412573 0 -0.33017921241117643 -0.033769206155300033 0 -0.34000851592018583 -0.0084526036919412573 0 -0.33017921241117643 -0.033769206155300033 0 -0.34000851592018583 -0.0084526036919412573 0 -0.32256000771720261 -0.0150820229744968 0 -0.33017921241117643 -0.033769206155300033 0 -0.34000851592018583 -0.0084526036919412573 0 -0.32256000771720261 -0.0150820229744968 0 -0.32999606532842318 0.0078641208590209677 0 -0.30771798142821333 -0.026400763813054919 0 -0.31015431122765103 -0.0011357570533747129 0 -0.32256000771720261 -0.0150820229744968 0 -0.31015431122765103 -0.0011357570533747129 0 -0.32256000771720261 -0.0150820229744968 0 -0.32999606532842318 0.0078641208590209677 0 -0.30771798142821333 -0.026400763813054919 0 -0.32256000771720261 -0.0150820229744968 0 -0.33017921241117643 -0.033769206155300033 0 -0.31576324030239489 -0.040653424844253848 0 -0.32034990890216708 -0.0590858086186586 0 -0.33017921241117643 -0.033769206155300033 0 -0.32034990890216708 -0.0590858086186586 0 -0.33017921241117643 -0.033769206155300033 0 -0.30771798142821333 -0.026400763813054919 0 -0.31576324030239489 -0.040653424844253848 0 -0.33017921241117643 -0.033769206155300033 0 -0.30528165162877768 -0.051665770572735331 0 -0.31576324030239489 -0.040653424844253848 0 -0.32034990890216708 -0.0590858086186586 0 -0.32034990890216708 -0.0590858086186586 0 -0.34092253146204238 -0.05905446472053856 0 -0.33017921241117643 -0.033769206155300033 0 -0.35524372047347141 -0.038028690133064397 0 -0.34092253146204238 -0.05905446472053856 0 -0.33017921241117643 -0.033769206155300033 0 -0.35524372047347141 -0.038028690133064397 0 -0.34572501347511109 -0.025197119151390689 0 -0.33017921241117643 -0.033769206155300033 0 -0.30401873591413647 -0.24546533437633369 0 -0.29668121857547219 -0.23120469773345731 0 -0.31499835545508431 -0.23151030138369399 0 -0.30401873591413647 -0.24546533437633369 0 -0.29668121857547219 -0.23120469773345731 0 -0.31659653321669018 -0.25755681406275349 0 -0.30401873591413647 -0.24546533437633369 0 -0.31640456271018519 -0.24484152662589109 0 -0.30401873591413647 -0.24546533437633369 0 -0.31499835545508431 -0.23151030138369399 0 -0.31640456271018519 -0.24484152662589109 0 -0.30637986302314069 -0.21893006648055471 0 -0.29668121857547219 -0.23120469773345731 0 -0.28934370123681091 -0.21694406109057929 0 -0.30637986302314069 -0.21893006648055471 0 -0.29668121857547219 -0.23120469773345731 0 -0.31499835545508431 -0.23151030138369399 0 -0.28687591237524018 -0.24253530176891069 0 -0.27228727320874052 -0.2282138987346449 0 -0.28934370123681091 -0.21694406109057929 0 -0.28687591237524018 -0.24253530176891069 0 -0.28934370123681091 -0.21694406109057929 0 -0.29668121857547219 -0.23120469773345731 0 -0.28687591237524018 -0.24253530176891069 0 -0.28934370123681091 -0.21694406109057929 0 -0.29668121857547219 -0.23120469773345731 0 -0.28934370123681091 -0.21694406109057929 0 -0.30401873591413647 -0.24546533437633369 0 -0.29668121857547219 -0.23120469773345731 0 -0.28687591237524018 -0.24253530176891069 0 -0.29458154172358941 -0.25465892743969759 0 -0.30401873591413647 -0.24546533437633369 0 -0.28687591237524018 -0.24253530176891069 0 -0.28687591237524018 -0.24253530176891069 0 -0.27027951111711762 -0.24829868529917781 0 -0.27228727320874052 -0.2282138987346449 0 -0.27027951111711762 -0.24829868529917781 0 -0.25072384826432742 -0.23841644955799321 0 -0.27228727320874052 -0.2282138987346449 0 -0.25072384826432742 -0.23841644955799321 0 -0.26140406522060639 -0.2109082129208083 0 -0.24527721666347321 -0.21256379641157161 0 -0.25072384826432742 -0.23841644955799321 0 -0.26140406522060639 -0.2109082129208083 0 -0.25072384826432742 -0.23841644955799321 0 -0.27228727320874052 -0.2282138987346449 0 -0.26140406522060639 -0.2109082129208083 0 -0.27228727320874052 -0.2282138987346449 0 -0.27593725784325052 -0.2140595478582841 0 -0.28934370123681091 -0.21694406109057929 0 -0.27593725784325052 -0.2140595478582841 0 -0.26140406522060639 -0.2109082129208083 0 -0.28071399170684708 -0.20017201868710219 0 -0.27228727320874052 -0.2282138987346449 0 -0.27593725784325052 -0.2140595478582841 0 -0.26140406522060639 -0.2109082129208083 0 -0.24527721666347321 -0.21256379641157161 0 -0.26140406522060639 -0.2109082129208083 0 -0.25236195113672338 -0.1919112964829979 0 -0.26140406522060639 -0.2109082129208083 0 -0.25236195113672338 -0.1919112964829979 0 -0.27208428217688613 -0.1833999762836237 0 -0.26140406522060639 -0.2109082129208083 0 -0.28071399170684708 -0.20017201868710219 0 -0.27208428217688613 -0.1833999762836237 0 -0.28071399170684708 -0.20017201868710219 0 -0.28031175384305951 -0.1843676486373538 0 -0.27208428217688613 -0.1833999762836237 0 -0.28071399170684708 -0.20017201868710219 0 -0.27208428217688613 -0.1833999762836237 0 -0.26140406522060639 -0.2109082129208083 0 -0.27208428217688613 -0.1833999762836237 0 -0.28934370123681091 -0.21694406109057929 0 -0.29224242304910031 -0.18688399853309789 0 -0.28071399170684708 -0.20017201868710219 0 -0.28503488555435608 -0.19151543051666531 0 -0.28031175384305951 -0.1843676486373538 0 -0.28503488555435608 -0.19151543051666531 0 -0.28934370123681091 -0.21694406109057929 0 -0.29224242304910031 -0.18688399853309789 0 -0.28071399170684708 -0.20017201868710219 0 -0.28503488555435608 -0.19151543051666531 0 -0.28934370123681091 -0.21694406109057929 0 -0.27593725784325052 -0.2140595478582841 0 -0.28071399170684708 -0.20017201868710219 0 -0.28934370123681091 -0.21694406109057929 0 -0.28071399170684708 -0.20017201868710219 0 -0.28934370123681091 -0.21694406109057929 0 -0.30637986302314069 -0.21893006648055471 0 -0.28934370123681091 -0.21694406109057929 0 -0.31163935630926343 -0.20364036687094611 0 -0.31163935630926343 -0.20364036687094611 0 -0.29224242304910031 -0.18688399853309789 0 -0.31163935630926343 -0.20364036687094611 0 -0.31213242737901309 -0.18035654736000339 0 -0.29224242304910031 -0.18688399853309789 0 -0.28934370123681091 -0.21694406109057929 0 -0.31163935630926343 -0.20364036687094611 0 -0.29224242304910031 -0.18688399853309789 0 -0.31213242737901309 -0.18035654736000339 0 -0.29410581392002377 -0.16756043118962649 0 -0.29224242304910031 -0.18688399853309789 0 -0.31213242737901309 -0.18035654736000339 0 -0.31231663401071158 -0.15693733123326081 0 -0.29410581392002377 -0.16756043118962649 0 -0.31231663401071158 -0.15693733123326081 0 -0.29410581392002377 -0.16756043118962649 0 -0.29410581392002377 -0.16756043118962649 0 -0.28217472218071932 -0.15741078406636369 0 -0.27358683034749193 -0.17952997525229389 0 -0.29410581392002377 -0.16756043118962649 0 -0.29224242304910031 -0.18688399853309789 0 -0.29410581392002377 -0.16756043118962649 0 -0.28031175384305951 -0.1843676486373538 0 -0.27358683034749193 -0.17952997525229389 0 -0.29410581392002377 -0.16756043118962649 0 -0.29224242304910031 -0.18688399853309789 0 -0.28856990491777418 -0.18371143173035509 0 -0.29410581392002377 -0.16756043118962649 0 -0.28856990491777418 -0.18371143173035509 0 -0.28031175384305951 -0.1843676486373538 0 -0.29410581392002377 -0.16756043118962649 0 -0.27358683034749193 -0.17952997525229389 0 -0.29224242304910031 -0.18688399853309789 0 -0.28856990491777418 -0.18371143173035509 0 -0.28503488555435608 -0.19151543051666531 0 -0.28856990491777418 -0.18371143173035509 0 -0.28031175384305951 -0.1843676486373538 0 -0.28503488555435608 -0.19151543051666531 0 -0.29224242304910031 -0.18688399853309789 0 -0.28856990491777418 -0.18371143173035509 0 -0.28031175384305951 -0.1843676486373538 0 -0.27358683034749193 -0.17952997525229389 0 -0.27208428217688613 -0.1833999762836237 0 -0.27358683034749193 -0.17952997525229389 0 -0.27089961008197838 -0.1810975383462827 0 -0.26839912481327938 -0.1668160671684307 0 -0.27208428217688613 -0.1833999762836237 0 -0.27089961008197838 -0.1810975383462827 0 -0.27358683034749193 -0.17952997525229389 0 -0.27208428217688613 -0.1833999762836237 0 -0.27089961008197838 -0.1810975383462827 0 -0.27358683034749193 -0.17952997525229389 0 -0.27089961008197838 -0.1810975383462827 0 -0.27358683034749193 -0.17952997525229389 0 -0.27208428217688613 -0.1833999762836237 0 -0.25236195113672338 -0.1919112964829979 0 -0.27089961008197838 -0.1810975383462827 0 -0.25236195113672338 -0.1919112964829979 0 -0.27089961008197838 -0.1810975383462827 0 -0.25438837735015563 -0.17408901105307889 0 -0.25236195113672338 -0.1919112964829979 0 -0.27208428217688613 -0.1833999762836237 0 -0.27089961008197838 -0.1810975383462827 0 -0.27089961008197838 -0.1810975383462827 0 -0.25438837735015563 -0.17408901105307889 0 -0.25828471235426331 -0.1565801894285449 0 -0.245232381934577 -0.1660834696861731 0 -0.25438837735015563 -0.17408901105307889 0 -0.25828471235426331 -0.1565801894285449 0 -0.27089961008197838 -0.1810975383462827 0 -0.25828471235426331 -0.1565801894285449 0 -0.25828471235426331 -0.1565801894285449 0 -0.26839912481327938 -0.1668160671684307 0 -0.27089961008197838 -0.1810975383462827 0 -0.25828471235426331 -0.1565801894285449 0 -0.26839912481327938 -0.1668160671684307 0 -0.28217472218071932 -0.15741078406636369 0 -0.27358683034749193 -0.17952997525229389 0 -0.28217472218071932 -0.15741078406636369 0 -0.26839912481327938 -0.1668160671684307 0 -0.27108920438673562 -0.14858567909264611 0 -0.28217472218071932 -0.15741078406636369 0 -0.27358683034749193 -0.17952997525229389 0 -0.26839912481327938 -0.1668160671684307 0 -0.25828471235426331 -0.1565801894285449 0 -0.26839912481327938 -0.1668160671684307 0 -0.27108920438673562 -0.14858567909264611 0 -0.27108920438673562 -0.14858567909264611 0 -0.25828512242040869 -0.14218399667987491 0 -0.26862893053779041 -0.133231444332227 0 -0.24654581804579309 -0.13376537365426189 0 -0.25828471235426331 -0.1565801894285449 0 -0.25828471235426331 -0.1565801894285449 0 -0.27108920438673562 -0.14858567909264611 0 -0.25828512242040869 -0.14218399667987491 0 -0.24251306179481419 -0.14061913508783591 0 -0.25828471235426331 -0.1565801894285449 0 -0.24654581804579309 -0.13376537365426189 0 -0.25828471235426331 -0.1565801894285449 0 -0.25828512242040869 -0.14218399667987491 0 -0.2489309622580109 -0.1242303833033653 0 -0.25528788062344721 -0.1334307270018126 0 -0.25816117760555263 -0.1255307634636546 0 -0.24654581804579309 -0.13376537365426189 0 -0.2489309622580109 -0.1242303833033653 0 -0.25528788062344721 -0.1334307270018126 0 -0.24654581804579309 -0.13376537365426189 0 -0.25828512242040869 -0.14218399667987491 0 -0.25528788062344721 -0.1334307270018126 0 -0.25828512242040869 -0.14218399667987491 0 -0.25528788062344721 -0.1334307270018126 0 -0.26862893053779041 -0.133231444332227 0 -0.26911083711160338 -0.11960384436840529 0 -0.25816117760555263 -0.1255307634636546 0 -0.26862893053779041 -0.133231444332227 0 -0.25528788062344721 -0.1334307270018126 0 -0.25816117760555263 -0.1255307634636546 0 -0.26862893053779041 -0.133231444332227 0 -0.28240949559094691 -0.1209547776230335 0 -0.26862893053779041 -0.133231444332227 0 -0.29076261401395248 -0.1352915928804358 0 -0.27108920438673562 -0.14858567909264611 0 -0.26862893053779041 -0.133231444332227 0 -0.29076261401395248 -0.1352915928804358 0 -0.29935050584718031 -0.11317240169450569 0 -0.29076261401395248 -0.1352915928804358 0 -0.29672815988360601 -0.1403664164420666 0 -0.29410581392002377 -0.16756043118962649 0 -0.29672815988360601 -0.1403664164420666 0 -0.28217472218071932 -0.15741078406636369 0 -0.29076261401395248 -0.1352915928804358 0 -0.28217472218071932 -0.15741078406636369 0 -0.29076261401395248 -0.1352915928804358 0 -0.29672815988360601 -0.1403664164420666 0 -0.29410581392002377 -0.16756043118962649 0 -0.28217472218071932 -0.15741078406636369 0 -0.29672815988360601 -0.1403664164420666 0 -0.28217472218071932 -0.15741078406636369 0 -0.27108920438673562 -0.14858567909264611 0 -0.29076261401395248 -0.1352915928804358 0 -0.31231663401071158 -0.15693733123326081 0 -0.29672815988360601 -0.1403664164420666 0 -0.31632206150055597 -0.1458754985724641 0 -0.31231663401071158 -0.15693733123326081 0 -0.29410581392002377 -0.16756043118962649 0 -0.29672815988360601 -0.1403664164420666 0 -0.29672815988360601 -0.1403664164420666 0 -0.31250138375919179 -0.13636930031260561 0 -0.31632206150055597 -0.1458754985724641 0 -0.29935050584718031 -0.11317240169450569 0 -0.29983888914099138 -0.1249757838868354 0 -0.29672815988360601 -0.1403664164420666 0 -0.29935050584718031 -0.11317240169450569 0 -0.29672815988360601 -0.1403664164420666 0 -0.29672815988360601 -0.1403664164420666 0 -0.30687373335935447 -0.1300586150464195 0 -0.31250138375919179 -0.13636930031260561 0 -0.29983888914099138 -0.1249757838868354 0 -0.30687373335935447 -0.1300586150464195 0 -0.30815370012431431 -0.12542028008571471 0 -0.30687373335935447 -0.1300586150464195 0 -0.31550661504286021 -0.12737129747276579 0 -0.31250138375919179 -0.13636930031260561 0 -0.30687373335935447 -0.1300586150464195 0 -0.30815370012431431 -0.12542028008571471 0 -0.31550661504286021 -0.12737129747276579 0 -0.31153012226091198 -0.12298273144865809 0 -0.30815370012431431 -0.12542028008571471 0 -0.31550661504286021 -0.12737129747276579 0 -0.29983888914099138 -0.1249757838868354 0 -0.29672815988360601 -0.1403664164420666 0 -0.30687373335935447 -0.1300586150464195 0 -0.32113876393527441 -0.1212046785429227 0 -0.3257773897067513 -0.12696083631139321 0 -0.31550661504286021 -0.12737129747276579 0 -0.32347658647870359 -0.13778516290051759 0 -0.3257773897067513 -0.12696083631139321 0 -0.31550661504286021 -0.12737129747276579 0 -0.32347658647870359 -0.13778516290051759 0 -0.31550661504286021 -0.12737129747276579 0 -0.31250138375919179 -0.13636930031260561 0 -0.32347658647870359 -0.13778516290051759 0 -0.31250138375919179 -0.13636930031260561 0 -0.31632206150055597 -0.1458754985724641 0 -0.31231663401071158 -0.15693733123326081 0 -0.31632206150055597 -0.1458754985724641 0 -0.33052745410141138 -0.1463142312769157 0 -0.31231663401071158 -0.15693733123326081 0 -0.33052745410141138 -0.1463142312769157 0 -0.33582423820278778 -0.1582422127495956 0 -0.31231663401071158 -0.15693733123326081 0 -0.33052745410141138 -0.1463142312769157 0 -0.32347658647870359 -0.13778516290051759 0 -0.31632206150055597 -0.1458754985724641 0 -0.33052745410141138 -0.1463142312769157 0 -0.33052745410141138 -0.1463142312769157 0 -0.34228213779606598 -0.14580946084917309 0 -0.33582423820278778 -0.1582422127495956 0 -0.33052745410141138 -0.1463142312769157 0 -0.34228213779606598 -0.14580946084917309 0 -0.3376028637442316 -0.1344052422800816 0 -0.32347658647870359 -0.13778516290051759 0 -0.3257773897067513 -0.12696083631139321 0 -0.3376028637442316 -0.1344052422800816 0 -0.32347658647870359 -0.13778516290051759 0 -0.33052745410141138 -0.1463142312769157 0 -0.3376028637442316 -0.1344052422800816 0 -0.33645206971597641 -0.12306835146609681 0 -0.3257773897067513 -0.12696083631139321 0 -0.3376028637442316 -0.1344052422800816 0 -0.33645206971597641 -0.12306835146609681 0 -0.3506894915051797 -0.1235054882078431 0 -0.3376028637442316 -0.1344052422800816 0 -0.3506894915051797 -0.1235054882078431 0 -0.35363640616744169 -0.1358047554622806 0 -0.37071750949614313 -0.12569597969797369 0 -0.34228213779606598 -0.14580946084917309 0 -0.3376028637442316 -0.1344052422800816 0 -0.35363640616744169 -0.1358047554622806 0 -0.3506894915051797 -0.1235054882078431 0 -0.3376028637442316 -0.1344052422800816 0 -0.35363640616744169 -0.1358047554622806 0 -0.35363640616744169 -0.1358047554622806 0 -0.37071750949614313 -0.12569597969797369 0 -0.36680666286690738 -0.14647999565409761 0 -0.34228213779606598 -0.14580946084917309 0 -0.36680666286690738 -0.14647999565409761 0 -0.36049137084903021 -0.16739093492521651 0 -0.34228213779606598 -0.14580946084917309 0 -0.35363640616744169 -0.1358047554622806 0 -0.36680666286690738 -0.14647999565409761 0 -0.34228213779606598 -0.14580946084917309 0 -0.36049137084903021 -0.16739093492521651 0 -0.33582423820278778 -0.1582422127495956 0 -0.34228213779606598 -0.14580946084917309 0 -0.36049137084903021 -0.16739093492521651 0 -0.36680666286690738 -0.14647999565409761 0 -0.36049137084903021 -0.16739093492521651 0 -0.38013457174529541 -0.16202959899375111 0 -0.36049137084903021 -0.16739093492521651 0 -0.37870060390199423 -0.18897240900125981 0 -0.36049137084903021 -0.16739093492521651 0 -0.348615572221251 -0.19480129121027809 0 -0.37870060390199423 -0.18897240900125981 0 -0.36049137084903021 -0.16739093492521651 0 -0.37870060390199423 -0.18897240900125981 0 -0.38013457174529541 -0.16202959899375111 0 -0.36049137084903021 -0.16739093492521651 0 -0.3335035942567196 -0.17475910546341181 0 -0.348615572221251 -0.19480129121027809 0 -0.36049137084903021 -0.16739093492521651 0 -0.3335035942567196 -0.17475910546341181 0 -0.33582423820278778 -0.1582422127495956 0 -0.31231663401071158 -0.15693733123326081 0 -0.3335035942567196 -0.17475910546341181 0 -0.33582423820278778 -0.1582422127495956 0 -0.31213242737901309 -0.18035654736000339 0 -0.31231663401071158 -0.15693733123326081 0 -0.3335035942567196 -0.17475910546341181 0 -0.31213242737901309 -0.18035654736000339 0 -0.3335035942567196 -0.17475910546341181 0 -0.32784296074173858 -0.19409573540754191 0 -0.31163935630926343 -0.20364036687094611 0 -0.31213242737901309 -0.18035654736000339 0 -0.32784296074173858 -0.19409573540754191 0 -0.31163935630926343 -0.20364036687094611 0 -0.32784296074173858 -0.19409573540754191 0 -0.33103628956942027 -0.22039673520880129 0 -0.31163935630926343 -0.20364036687094611 0 -0.33103628956942027 -0.22039673520880129 0 -0.30637986302314069 -0.21893006648055471 0 -0.31163935630926343 -0.20364036687094611 0 -0.33103628956942027 -0.22039673520880129 0 -0.3335035942567196 -0.17475910546341181 0 -0.32784296074173858 -0.19409573540754191 0 -0.348615572221251 -0.19480129121027809 0 -0.32784296074173858 -0.19409573540754191 0 -0.348615572221251 -0.19480129121027809 0 -0.33103628956942027 -0.22039673520880129 0 -0.35700843436735852 -0.21375627950719561 0 -0.37625648331454958 -0.22745785856898251 0 -0.37870060390199423 -0.18897240900125981 0 -0.348615572221251 -0.19480129121027809 0 -0.35700843436735852 -0.21375627950719561 0 -0.37870060390199423 -0.18897240900125981 0 -0.348615572221251 -0.19480129121027809 0 -0.35700843436735852 -0.21375627950719561 0 -0.33103628956942027 -0.22039673520880129 0 -0.35700843436735852 -0.21375627950719561 0 -0.35043322282957728 -0.2371531035466565 0 -0.33103628956942027 -0.22039673520880129 0 -0.35700843436735852 -0.21375627950719561 0 -0.35043322282957728 -0.2371531035466565 0 -0.37625648331454958 -0.22745785856898251 0 -0.36983015608973419 -0.25390947188451179 0 -0.35043322282957728 -0.2371531035466565 0 -0.36983015608973419 -0.25390947188451179 0 -0.35043322282957728 -0.2371531035466565 0 -0.37625648331454958 -0.22745785856898251 0 -0.34807838734227869 -0.25811203799629667 0 -0.36983015608973419 -0.25390947188451179 0 -0.35043322282957728 -0.2371531035466565 0 -0.34807838734227869 -0.25811203799629667 0 -0.35043322282957728 -0.2371531035466565 0 -0.3300046262548299 -0.24483365668078319 0 -0.35043322282957728 -0.2371531035466565 0 -0.3300046262548299 -0.24483365668078319 0 -0.33103628956942027 -0.22039673520880129 0 -0.35043322282957728 -0.2371531035466565 0 -0.33103628956942027 -0.22039673520880129 0 -0.30637986302314069 -0.21893006648055471 0 -0.33103628956942027 -0.22039673520880129 0 -0.31499835545508431 -0.23151030138369399 0 -0.3300046262548299 -0.24483365668078319 0 -0.33103628956942027 -0.22039673520880129 0 -0.31499835545508431 -0.23151030138369399 0 -0.31659653321669018 -0.25755681406275349 0 -0.3300046262548299 -0.24483365668078319 0 -0.31640456271018519 -0.24484152662589109 0 -0.3300046262548299 -0.24483365668078319 0 -0.31499835545508431 -0.23151030138369399 0 -0.31640456271018519 -0.24484152662589109 0 -0.42000328436744028 -0.25335409995795077 0 -0.4367077728136779 -0.23294460943889089 0 -0.43927174221576148 -0.25208391209016778 0 -0.42000328436744028 -0.25335409995795077 0 -0.4367077728136779 -0.23294460943889089 0 -0.42000328436744028 -0.25335409995795077 0 -0.4367077728136779 -0.23294460943889089 0 -0.4214579082251293 -0.22394455670044261 0 -0.4367077728136779 -0.23294460943889089 0 -0.4214579082251293 -0.22394455670044261 0 -0.4362363080227124 -0.21120797898905311 0 -0.4214579082251293 -0.22394455670044261 0 -0.41078338772165912 -0.23265331082458621 0 -0.39690983695495829 -0.21055388307730311 0 -0.42000328436744028 -0.25335409995795077 0 -0.41078338772165912 -0.23265331082458621 0 -0.41228915616382261 -0.24953313471748659 0 -0.42000328436744028 -0.25335409995795077 0 -0.4214579082251293 -0.22394455670044261 0 -0.41078338772165912 -0.23265331082458621 0 -0.42000328436744028 -0.25335409995795077 0 -0.4214579082251293 -0.22394455670044261 0 -0.41078338772165912 -0.23265331082458621 0 -0.41228915616382261 -0.24953313471748659 0 -0.40325337519837501 -0.24785612878935209 0 -0.38865366959963482 -0.25001431328282347 0 -0.40325337519837501 -0.24785612878935209 0 -0.39556596183279352 -0.23324308848395189 0 -0.41078338772165912 -0.23265331082458621 0 -0.40325337519837501 -0.24785612878935209 0 -0.39556596183279352 -0.23324308848395189 0 -0.38865366959963482 -0.25001431328282347 0 -0.37625648331454958 -0.22745785856898251 0 -0.39556596183279352 -0.23324308848395189 0 -0.38865366959963482 -0.25001431328282347 0 -0.36983015608973419 -0.25390947188451179 0 -0.37625648331454958 -0.22745785856898251 0 -0.37625648331454958 -0.22745785856898251 0 -0.39556596183279352 -0.23324308848395189 0 -0.39690983695495829 -0.21055388307730311 0 -0.41078338772165912 -0.23265331082458621 0 -0.39556596183279352 -0.23324308848395189 0 -0.39690983695495829 -0.21055388307730311 0 -0.37625648331454958 -0.22745785856898251 0 -0.39690983695495829 -0.21055388307730311 0 -0.37870060390199423 -0.18897240900125981 0 -0.39690983695495829 -0.21055388307730311 0 -0.37870060390199423 -0.18897240900125981 0 -0.39690983695495829 -0.21055388307730311 0 -0.37870060390199423 -0.18897240900125981 0 -0.39918976079289309 -0.18958882794581189 0 -0.39690983695495829 -0.21055388307730311 0 -0.39918976079289309 -0.18958882794581189 0 -0.42291253208281843 -0.19453501344293431 0 -0.4214579082251293 -0.22394455670044261 0 -0.39690983695495829 -0.21055388307730311 0 -0.42291253208281843 -0.19453501344293431 0 -0.4214579082251293 -0.22394455670044261 0 -0.4362363080227124 -0.21120797898905311 0 -0.42291253208281843 -0.19453501344293431 0 -0.4214579082251293 -0.22394455670044261 0 -0.42291253208281843 -0.19453501344293431 0 -0.4362363080227124 -0.21120797898905311 0 -0.42291253208281843 -0.19453501344293431 0 -0.44669106573202128 -0.192080596443167 0 -0.42291253208281843 -0.19453501344293431 0 -0.4243671559405075 -0.165125470185426 0 -0.43848857122621338 -0.1669843304792179 0 -0.42291253208281843 -0.19453501344293431 0 -0.43848857122621338 -0.1669843304792179 0 -0.44669106573202128 -0.192080596443167 0 -0.42291253208281843 -0.19453501344293431 0 -0.4243671559405075 -0.165125470185426 0 -0.4243671559405075 -0.165125470185426 0 -0.43716769905328762 -0.14888770848455651 0 -0.43848857122621338 -0.1669843304792179 0 -0.4243671559405075 -0.165125470185426 0 -0.40900140180568523 -0.15762867323244489 0 -0.41030558170094689 -0.1757234610405638 0 -0.42291253208281843 -0.19453501344293431 0 -0.4243671559405075 -0.165125470185426 0 -0.41030558170094689 -0.1757234610405638 0 -0.39918976079289309 -0.18958882794581189 0 -0.42291253208281843 -0.19453501344293431 0 -0.41030558170094689 -0.1757234610405638 0 -0.39918976079289309 -0.18958882794581189 0 -0.41030558170094689 -0.1757234610405638 0 -0.39721467557183071 -0.17090770734298971 0 -0.37870060390199423 -0.18897240900125981 0 -0.39918976079289309 -0.18958882794581189 0 -0.39721467557183071 -0.17090770734298971 0 -0.37870060390199423 -0.18897240900125981 0 -0.38013457174529541 -0.16202959899375111 0 -0.39721467557183071 -0.17090770734298971 0 -0.38013457174529541 -0.16202959899375111 0 -0.39721467557183071 -0.17090770734298971 0 -0.3911212480325269 -0.14567944644061881 0 -0.40900140180568523 -0.15762867323244489 0 -0.39721467557183071 -0.17090770734298971 0 -0.3911212480325269 -0.14567944644061881 0 -0.40900140180568523 -0.15762867323244489 0 -0.41030558170094689 -0.1757234610405638 0 -0.39721467557183071 -0.17090770734298971 0 -0.40900140180568523 -0.15762867323244489 0 -0.3911212480325269 -0.14567944644061881 0 -0.41556682970599729 -0.14167779006090789 0 -0.36680666286690738 -0.14647999565409761 0 -0.38013457174529541 -0.16202959899375111 0 -0.3911212480325269 -0.14567944644061881 0 -0.37071750949614313 -0.12569597969797369 0 -0.36680666286690738 -0.14647999565409761 0 -0.3911212480325269 -0.14567944644061881 0 -0.37071750949614313 -0.12569597969797369 0 -0.3911212480325269 -0.14567944644061881 0 -0.39461008301172218 -0.12297541224525629 0 -0.3911212480325269 -0.14567944644061881 0 -0.41556682970599729 -0.14167779006090789 0 -0.39461008301172218 -0.12297541224525629 0 -0.41556682970599729 -0.14167779006090789 0 -0.39461008301172218 -0.12297541224525629 0 -0.41267078123875139 -0.1132865858272603 0 -0.4243671559405075 -0.165125470185426 0 -0.40900140180568523 -0.15762867323244489 0 -0.41556682970599729 -0.14167779006090789 0 -0.41556682970599729 -0.14167779006090789 0 -0.43716769905328762 -0.14888770848455651 0 -0.43844297564434842 -0.13204453278645201 0 -0.4243671559405075 -0.165125470185426 0 -0.41556682970599729 -0.14167779006090789 0 -0.43716769905328762 -0.14888770848455651 0 -0.41556682970599729 -0.14167779006090789 0 -0.43844297564434842 -0.13204453278645201 0 -0.41267078123875139 -0.1132865858272603 0 -0.43844297564434842 -0.13204453278645201 0 -0.45349670511650858 -0.13695653530917201 0 -0.45969885162518609 -0.1248443240432532 0 -0.43716769905328762 -0.14888770848455651 0 -0.43844297564434842 -0.13204453278645201 0 -0.45349670511650858 -0.13695653530917201 0 -0.43844297564434842 -0.13204453278645201 0 -0.45969885162518609 -0.1248443240432532 0 -0.43716769905328762 -0.14888770848455651 0 -0.45264395668615021 -0.15053759208616349 0 -0.43848857122621338 -0.1669843304792179 0 -0.43716769905328762 -0.14888770848455651 0 -0.45264395668615021 -0.15053759208616349 0 -0.45349670511650858 -0.13695653530917201 0 -0.45264395668615021 -0.15053759208616349 0 -0.46679934214608709 -0.13409085369310911 0 -0.45264395668615021 -0.15053759208616349 0 -0.46679934214608709 -0.13409085369310911 0 -0.47358190840333469 -0.1441871730360211 0 -0.45264395668615021 -0.15053759208616349 0 -0.47358190840333469 -0.1441871730360211 0 -0.47195732169728111 -0.15612680115048849 0 -0.45264395668615021 -0.15053759208616349 0 -0.46679934214608709 -0.13409085369310911 0 -0.45349670511650858 -0.13695653530917201 0 -0.46679934214608709 -0.13409085369310911 0 -0.45349670511650858 -0.13695653530917201 0 -0.45969885162518609 -0.1248443240432532 0 -0.46679934214608709 -0.13409085369310911 0 -0.48095472760602381 -0.1176441153000545 0 -0.46679934214608709 -0.13409085369310911 0 -0.45969885162518609 -0.1248443240432532 0 -0.48095472760602381 -0.1176441153000545 0 -0.46679934214608709 -0.13409085369310911 0 -0.48455781653138302 -0.13327928546415871 0 -0.48095472760602381 -0.1176441153000545 0 -0.46679934214608709 -0.13409085369310911 0 -0.48455781653138302 -0.13327928546415871 0 -0.47358190840333469 -0.1441871730360211 0 -0.5 -0.13969120193862031 0 -0.48455781653138302 -0.13327928546415871 0 -0.50000000000000422 -0.11119272572046721 0 -0.5 -0.13969120193862031 0 -0.48444771473734749 -0.15444025107312609 0 -0.5 -0.1681896781567733 0 -0.5 -0.13969120193862031 0 -0.48455781653138302 -0.13327928546415871 0 -0.48444771473734749 -0.15444025107312609 0 -0.48455781653138302 -0.13327928546415871 0 -0.48444771473734749 -0.15444025107312609 0 -0.47358190840333469 -0.1441871730360211 0 -0.48444771473734749 -0.15444025107312609 0 -0.47358190840333469 -0.1441871730360211 0 -0.47195732169728111 -0.15612680115048849 0 -0.48444771473734749 -0.15444025107312609 0 -0.47339416075497498 -0.16831947182861109 0 -0.48682123815238998 -0.17171613788171081 0 -0.48444771473734749 -0.15444025107312609 0 -0.47195732169728111 -0.15612680115048849 0 -0.47339416075497498 -0.16831947182861109 0 -0.48444771473734749 -0.15444025107312609 0 -0.48682123815238998 -0.17171613788171081 0 -0.5 -0.1681896781567733 0 -0.48682123815238998 -0.17171613788171081 0 -0.5 -0.1681896781567733 0 -0.48678296933375109 -0.18819019770924419 0 -0.5 -0.1681896781567733 0 -0.48678296933375109 -0.18819019770924419 0 -0.5 -0.19668815437492651 0 -0.47339416075497498 -0.16831947182861109 0 -0.48682123815238998 -0.17171613788171081 0 -0.47011674970615269 -0.1921256284007708 0 -0.48682123815238998 -0.17171613788171081 0 -0.47011674970615269 -0.1921256284007708 0 -0.48682123815238998 -0.17171613788171081 0 -0.47011674970615269 -0.1921256284007708 0 -0.48678296933375109 -0.18819019770924419 0 -0.45865936214253678 -0.17052312670469011 0 -0.44669106573202128 -0.192080596443167 0 -0.47011674970615269 -0.1921256284007708 0 -0.47339416075497498 -0.16831947182861109 0 -0.45865936214253678 -0.17052312670469011 0 -0.47011674970615269 -0.1921256284007708 0 -0.47195732169728111 -0.15612680115048849 0 -0.47339416075497498 -0.16831947182861109 0 -0.45865936214253678 -0.17052312670469011 0 -0.45264395668615021 -0.15053759208616349 0 -0.47195732169728111 -0.15612680115048849 0 -0.45865936214253678 -0.17052312670469011 0 -0.45264395668615021 -0.15053759208616349 0 -0.43848857122621338 -0.1669843304792179 0 -0.45264395668615021 -0.15053759208616349 0 -0.45865936214253678 -0.17052312670469011 0 -0.43848857122621338 -0.1669843304792179 0 -0.45865936214253678 -0.17052312670469011 0 -0.43848857122621338 -0.1669843304792179 0 -0.44669106573202128 -0.192080596443167 0 -0.4362363080227124 -0.21120797898905311 0 -0.44669106573202128 -0.192080596443167 0 -0.45341226125991529 -0.2125351189198309 0 -0.45341226125991529 -0.2125351189198309 0 -0.48063429779868461 -0.2126549738503615 0 -0.4656459924282832 -0.23018847163577039 0 -0.45341226125991529 -0.2125351189198309 0 -0.47011674970615269 -0.1921256284007708 0 -0.48063429779868461 -0.2126549738503615 0 -0.44669106573202128 -0.192080596443167 0 -0.45341226125991529 -0.2125351189198309 0 -0.47011674970615269 -0.1921256284007708 0 -0.45341226125991529 -0.2125351189198309 0 -0.47011674970615269 -0.1921256284007708 0 -0.47011674970615269 -0.1921256284007708 0 -0.48678296933375109 -0.18819019770924419 0 -0.48063429779868461 -0.2126549738503615 0 -0.48678296933375109 -0.18819019770924419 0 -0.5 -0.19668815437492651 0 -0.48063429779868461 -0.2126549738503615 0 -0.5 -0.19668815437492651 0 -0.48063429779868461 -0.2126549738503615 0 -0.5 -0.2251866305930795 0 -0.48063429779868461 -0.2126549738503615 0 -0.48140992144811862 -0.2447762604425387 0 -0.4656459924282832 -0.23018847163577039 0 -0.48063429779868461 -0.2126549738503615 0 -0.5 -0.2251866305930795 0 -0.48140992144811862 -0.2447762604425387 0 -0.50000000000000033 -0.25368510681123269 0 -0.5 -0.2251866305930795 0 -0.48140992144811862 -0.2447762604425387 0 -0.46123398647280539 -0.25011284716588772 0 -0.48140992144811862 -0.2447762604425387 0 -0.4656459924282832 -0.23018847163577039 0 -0.46123398647280539 -0.25011284716588772 0 -0.4656459924282832 -0.23018847163577039 0 -0.4512543510380887 -0.23557299185010949 0 -0.45341226125991529 -0.2125351189198309 0 -0.4656459924282832 -0.23018847163577039 0 -0.4512543510380887 -0.23557299185010949 0 -0.4367077728136779 -0.23294460943889089 0 -0.45341226125991529 -0.2125351189198309 0 -0.4512543510380887 -0.23557299185010949 0 -0.4367077728136779 -0.23294460943889089 0 -0.45341226125991529 -0.2125351189198309 0 -0.4367077728136779 -0.23294460943889089 0 -0.4362363080227124 -0.21120797898905311 0 -0.45341226125991529 -0.2125351189198309 0 -0.43927174221576148 -0.25208391209016778 0 -0.46123398647280539 -0.25011284716588772 0 -0.4512543510380887 -0.23557299185010949 0 -0.43927174221576148 -0.25208391209016778 0 -0.4367077728136779 -0.23294460943889089 0 -0.4512543510380887 -0.23557299185010949 0 -0.42082872506791591 -0.046002683660812803 0 -0.40626341955694911 -0.03592537104748101 0 -0.40453820216396102 -0.051503842364244039 0 -0.42082872506791591 -0.046002683660812803 0 -0.42052685648746579 -0.031263453809136497 0 -0.40626341955694911 -0.03592537104748101 0 -0.42082872506791591 -0.046002683660812803 0 -0.41669344860658702 -0.061820564769708708 0 -0.40453820216396102 -0.051503842364244039 0 -0.42082872506791591 -0.046002683660812803 0 -0.41669344860658702 -0.061820564769708708 0 -0.42897360252215699 -0.055710244797989958 0 -0.42082872506791591 -0.046002683660812803 0 -0.42897360252215699 -0.055710244797989958 0 -0.43589588996377288 -0.04644975318126765 0 -0.41669344860658702 -0.061820564769708708 0 -0.42897360252215699 -0.055710244797989958 0 -0.43103510433489278 -0.067463752473306479 0 -0.42897360252215699 -0.055710244797989958 0 -0.43103510433489278 -0.067463752473306479 0 -0.44041484463761638 -0.056814469904854142 0 -0.42897360252215699 -0.055710244797989958 0 -0.43589588996377288 -0.04644975318126765 0 -0.44041484463761638 -0.056814469904854142 0 -0.42082872506791591 -0.046002683660812803 0 -0.43589588996377288 -0.04644975318126765 0 -0.43528474327177091 -0.032244922889812642 0 -0.42082872506791591 -0.046002683660812803 0 -0.42052685648746579 -0.031263453809136497 0 -0.43528474327177091 -0.032244922889812642 0 -0.43528474327177091 -0.032244922889812642 0 -0.42827139990870472 -0.02082187325057994 0 -0.44137935866266942 -0.016363140029995199 0 -0.42052685648746579 -0.031263453809136497 0 -0.43528474327177091 -0.032244922889812642 0 -0.42827139990870472 -0.02082187325057994 0 -0.42827139990870472 -0.02082187325057994 0 -0.42982395106742899 -0.0075707495645251071 0 -0.41293756554363542 -0.017537426645689521 0 -0.42982395106742899 -0.0075707495645251071 0 -0.44137935866266942 -0.016363140029995199 0 -0.44091309867001888 0.0051402313807609561 0 -0.42827139990870472 -0.02082187325057994 0 -0.42982395106742899 -0.0075707495645251071 0 -0.44137935866266942 -0.016363140029995199 0 -0.42982395106742899 -0.0075707495645251071 0 -0.41293756554363542 -0.017537426645689521 0 -0.41792504398981378 0.0037659010775271859 0 -0.41293756554363542 -0.017537426645689521 0 -0.39896575605720602 -0.0057845984529939993 0 -0.41792504398981378 0.0037659010775271859 0 -0.42052685648746579 -0.031263453809136497 0 -0.40626341955694911 -0.03592537104748101 0 -0.41293756554363542 -0.017537426645689521 0 -0.42052685648746579 -0.031263453809136497 0 -0.42827139990870472 -0.02082187325057994 0 -0.41293756554363542 -0.017537426645689521 0 -0.40626341955694911 -0.03592537104748101 0 -0.41293756554363542 -0.017537426645689521 0 -0.39529598831802021 -0.022335755758276669 0 -0.41293756554363542 -0.017537426645689521 0 -0.39529598831802021 -0.022335755758276669 0 -0.39896575605720602 -0.0057845984529939993 0 -0.39529598831802021 -0.022335755758276669 0 -0.39896575605720602 -0.0057845984529939993 0 -0.38372708291996749 -0.010060758333478191 0 -0.36899913698722853 -0.020285415498841441 0 -0.3726509171759278 -0.0042871194606509278 0 -0.38372708291996749 -0.010060758333478191 0 -0.3726509171759278 -0.0042871194606509278 0 -0.38372708291996749 -0.010060758333478191 0 -0.38330909489703818 0.0066255610516746388 0 -0.39896575605720602 -0.0057845984529939993 0 -0.38372708291996749 -0.010060758333478191 0 -0.38330909489703818 0.0066255610516746388 0 -0.36899913698722853 -0.020285415498841441 0 -0.39529598831802021 -0.022335755758276669 0 -0.38372708291996749 -0.010060758333478191 0 -0.36899913698722853 -0.020285415498841441 0 -0.39529598831802021 -0.022335755758276669 0 -0.38552108875429431 -0.042017394860896513 0 -0.40626341955694911 -0.03592537104748101 0 -0.38552108875429431 -0.042017394860896513 0 -0.40453820216396102 -0.051503842364244039 0 -0.40626341955694911 -0.03592537104748101 0 -0.39529598831802021 -0.022335755758276669 0 -0.38552108875429431 -0.042017394860896513 0 -0.38552108875429431 -0.042017394860896513 0 -0.40453820216396102 -0.051503842364244039 0 -0.39258723976806498 -0.071571852114322571 0 -0.41669344860658702 -0.061820564769708708 0 -0.40453820216396102 -0.051503842364244039 0 -0.39258723976806498 -0.071571852114322571 0 -0.36571080958571378 -0.061197911390544431 0 -0.38552108875429431 -0.042017394860896513 0 -0.36571080958571378 -0.061197911390544431 0 -0.38552108875429431 -0.042017394860896513 0 -0.39258723976806498 -0.071571852114322571 0 -0.36504086478725972 -0.08466387216079152 0 -0.39258723976806498 -0.071571852114322571 0 -0.38054174058850881 -0.099067238422367254 0 -0.39258723976806498 -0.071571852114322571 0 -0.38054174058850881 -0.099067238422367254 0 -0.40376133984712959 -0.094158704296024229 0 -0.39258723976806498 -0.071571852114322571 0 -0.40376133984712959 -0.094158704296024229 0 -0.41832082261926551 -0.078449386124863685 0 -0.37071750949614313 -0.12569597969797369 0 -0.38054174058850881 -0.099067238422367254 0 -0.39461008301172218 -0.12297541224525629 0 -0.38054174058850881 -0.099067238422367254 0 -0.40376133984712959 -0.094158704296024229 0 -0.39461008301172218 -0.12297541224525629 0 -0.40376133984712959 -0.094158704296024229 0 -0.39461008301172218 -0.12297541224525629 0 -0.41267078123875139 -0.1132865858272603 0 -0.40376133984712959 -0.094158704296024229 0 -0.41267078123875139 -0.1132865858272603 0 -0.42229290292187682 -0.094629282842547638 0 -0.41267078123875139 -0.1132865858272603 0 -0.42229290292187682 -0.094629282842547638 0 -0.43813319314552213 -0.105462264528315 0 -0.42229290292187682 -0.094629282842547638 0 -0.43857837775871539 -0.081789473436274879 0 -0.43813319314552213 -0.105462264528315 0 -0.41267078123875139 -0.1132865858272603 0 -0.43813319314552213 -0.105462264528315 0 -0.43844297564434842 -0.13204453278645201 0 -0.41267078123875139 -0.1132865858272603 0 -0.43813319314552213 -0.105462264528315 0 -0.41669344860658702 -0.061820564769708708 0 -0.39258723976806498 -0.071571852114322571 0 -0.41832082261926551 -0.078449386124863685 0 -0.40376133984712959 -0.094158704296024229 0 -0.42229290292187682 -0.094629282842547638 0 -0.41832082261926551 -0.078449386124863685 0 -0.42229290292187682 -0.094629282842547638 0 -0.41832082261926551 -0.078449386124863685 0 -0.43857837775871539 -0.081789473436274879 0 -0.43103510433489278 -0.067463752473306479 0 -0.4422723455701596 -0.068310450330115027 0 -0.43857837775871539 -0.081789473436274879 0 -0.41669344860658702 -0.061820564769708708 0 -0.41832082261926551 -0.078449386124863685 0 -0.43103510433489278 -0.067463752473306479 0 -0.41832082261926551 -0.078449386124863685 0 -0.43103510433489278 -0.067463752473306479 0 -0.43857837775871539 -0.081789473436274879 0 -0.43103510433489278 -0.067463752473306479 0 -0.4422723455701596 -0.068310450330115027 0 -0.44041484463761638 -0.056814469904854142 0 -0.4422723455701596 -0.068310450330115027 0 -0.45030274096741513 -0.064202275803310838 0 -0.44041484463761638 -0.056814469904854142 0 -0.4422723455701596 -0.068310450330115027 0 -0.45030274096741513 -0.064202275803310838 0 -0.44871359615100442 -0.075501003494543195 0 -0.45171953035217932 -0.065138558216323014 0 -0.45030274096741513 -0.064202275803310838 0 -0.45030274096741513 -0.064202275803310838 0 -0.44871359615100442 -0.075501003494543195 0 -0.45922285007578412 -0.075188793089512637 0 -0.4422723455701596 -0.068310450330115027 0 -0.44871359615100442 -0.075501003494543195 0 -0.43857837775871539 -0.081789473436274879 0 -0.43857837775871539 -0.081789473436274879 0 -0.45311389298228139 -0.085514874337114313 0 -0.43813319314552213 -0.105462264528315 0 -0.44871359615100442 -0.075501003494543195 0 -0.43857837775871539 -0.081789473436274879 0 -0.45311389298228139 -0.085514874337114313 0 -0.45311389298228139 -0.085514874337114313 0 -0.45922285007578412 -0.075188793089512637 0 -0.47043973571037018 -0.077509768244670818 0 -0.45311389298228139 -0.085514874337114313 0 -0.46359560505229269 -0.097637943229369653 0 -0.47043973571037018 -0.077509768244670818 0 -0.44871359615100442 -0.075501003494543195 0 -0.45311389298228139 -0.085514874337114313 0 -0.45922285007578412 -0.075188793089512637 0 -0.45171953035217932 -0.065138558216323014 0 -0.47043973571037018 -0.077509768244670818 0 -0.45171953035217932 -0.065138558216323014 0 -0.45922285007578412 -0.075188793089512637 0 -0.47043973571037018 -0.077509768244670818 0 -0.45922285007578412 -0.075188793089512637 0 -0.47043973571037018 -0.077509768244670818 0 -0.45171953035217932 -0.065138558216323014 0 -0.46376300381529573 -0.063213571976253061 0 -0.47043973571037018 -0.077509768244670818 0 -0.45171953035217932 -0.065138558216323014 0 -0.45030274096741513 -0.064202275803310838 0 -0.45922285007578412 -0.075188793089512637 0 -0.43844297564434842 -0.13204453278645201 0 -0.45234498253695071 -0.1123981263234885 0 -0.45969885162518609 -0.1248443240432532 0 -0.43844297564434842 -0.13204453278645201 0 -0.45234498253695071 -0.1123981263234885 0 -0.43813319314552213 -0.105462264528315 0 -0.45234498253695071 -0.1123981263234885 0 -0.43813319314552213 -0.105462264528315 0 -0.46359560505229269 -0.097637943229369653 0 -0.43813319314552213 -0.105462264528315 0 -0.46359560505229269 -0.097637943229369653 0 -0.45311389298228139 -0.085514874337114313 0 -0.43813319314552213 -0.105462264528315 0 -0.46359560505229269 -0.097637943229369653 0 -0.45234498253695071 -0.1123981263234885 0 -0.46359560505229269 -0.097637943229369653 0 -0.46678307135447872 -0.1115794268551209 0 -0.45234498253695071 -0.1123981263234885 0 -0.46678307135447872 -0.1115794268551209 0 -0.45969885162518609 -0.1248443240432532 0 -0.46678307135447872 -0.1115794268551209 0 -0.45969885162518609 -0.1248443240432532 0 -0.48095472760602381 -0.1176441153000545 0 -0.45969885162518609 -0.1248443240432532 0 -0.48095472760602381 -0.1176441153000545 0 -0.46678307135447872 -0.1115794268551209 0 -0.48095472760602381 -0.1176441153000545 0 -0.47712410579008852 -0.1066544879181346 0 -0.48095472760602381 -0.1176441153000545 0 -0.47712410579008852 -0.1066544879181346 0 -0.48962558525429462 -0.107569693251419 0 -0.46359560505229269 -0.097637943229369653 0 -0.47712410579008852 -0.1066544879181346 0 -0.48388066261114809 -0.099744071145368096 0 -0.46359560505229269 -0.097637943229369653 0 -0.48388066261114809 -0.099744071145368096 0 -0.48905801695906331 -0.08981362193042397 0 -0.47712410579008852 -0.1066544879181346 0 -0.48388066261114809 -0.099744071145368096 0 -0.48962558525429462 -0.107569693251419 0 -0.46359560505229269 -0.097637943229369653 0 -0.46678307135447872 -0.1115794268551209 0 -0.47712410579008852 -0.1066544879181346 0 -0.48388066261114809 -0.099744071145368096 0 -0.500000000000001 -0.097044609397494125 0 -0.48905801695906331 -0.08981362193042397 0 -0.48388066261114809 -0.099744071145368096 0 -0.500000000000001 -0.097044609397494125 0 -0.48962558525429462 -0.107569693251419 0 -0.500000000000001 -0.097044609397494125 0 -0.48962558525429462 -0.107569693251419 0 -0.50000000000000422 -0.11119272572046721 0 -0.48095472760602381 -0.1176441153000545 0 -0.50000000000000422 -0.11119272572046721 0 -0.48455781653138302 -0.13327928546415871 0 -0.48095472760602381 -0.1176441153000545 0 -0.50000000000000422 -0.11119272572046721 0 -0.48095472760602381 -0.1176441153000545 0 -0.48962558525429462 -0.107569693251419 0 -0.50000000000000422 -0.11119272572046721 0 -0.48095472760602381 -0.1176441153000545 0 -0.48962558525429462 -0.107569693251419 0 -0.46376300381529573 -0.063213571976253061 0 -0.47211920345263408 -0.065894811243754098 0 -0.47043973571037018 -0.077509768244670818 0 -0.4832133830374864 -0.066081488584147294 0 -0.47211920345263408 -0.065894811243754098 0 -0.47043973571037018 -0.077509768244670818 0 -0.4832133830374864 -0.066081488584147294 0 -0.47211920345263408 -0.065894811243754098 0 -0.47106069124738431 -0.056774416169945392 0 -0.46359560505229269 -0.097637943229369653 0 -0.47043973571037018 -0.077509768244670818 0 -0.48905801695906331 -0.08981362193042397 0 -0.47043973571037018 -0.077509768244670818 0 -0.48905801695906331 -0.08981362193042397 0 -0.46359560505229269 -0.097637943229369653 0 -0.48905801695906331 -0.08981362193042397 0 -0.47043973571037018 -0.077509768244670818 0 -0.500000000000001 -0.083626317992187907 0 -0.47043973571037018 -0.077509768244670818 0 -0.48905801695906331 -0.08981362193042397 0 -0.500000000000001 -0.083626317992187907 0 -0.48905801695906331 -0.08981362193042397 0 -0.49999999999999573 -0.086451269955548513 0 -0.500000000000001 -0.097044609397494125 0 -0.48905801695906331 -0.08981362193042397 0 -0.49999999999999573 -0.086451269955548513 0 -0.500000000000001 -0.097044609397494125 0 -0.48905801695906331 -0.08981362193042397 0 -0.48905801695906331 -0.08981362193042397 0 -0.49999999999999573 -0.086451269955548513 0 -0.500000000000001 -0.083626317992187907 0 -0.4832133830374864 -0.066081488584147294 0 -0.500000000000001 -0.083626317992187907 0 -0.5 -0.060099545665706848 0 -0.4832133830374864 -0.066081488584147294 0 -0.47043973571037018 -0.077509768244670818 0 -0.500000000000001 -0.083626317992187907 0 -0.5 -0.060099545665706848 0 -0.48526382792267891 -0.050918696726963163 0 -0.5 -0.036572773339225928 0 -0.4832133830374864 -0.066081488584147294 0 -0.5 -0.060099545665706848 0 -0.48526382792267891 -0.050918696726963163 0 -0.5 -0.036572773339225928 0 -0.47817874298062152 -0.037289197388399198 0 -0.48818903686314791 -0.02435720963814509 0 -0.48526382792267891 -0.050918696726963163 0 -0.5 -0.036572773339225928 0 -0.47817874298062152 -0.037289197388399198 0 -0.48526382792267891 -0.050918696726963163 0 -0.47817874298062152 -0.037289197388399198 0 -0.46778012165347871 -0.044533266995336877 0 -0.47817874298062152 -0.037289197388399198 0 -0.46778012165347871 -0.044533266995336877 0 -0.46807345515539461 -0.0257836512505497 0 -0.47817874298062152 -0.037289197388399198 0 -0.46807345515539461 -0.0257836512505497 0 -0.48526382792267891 -0.050918696726963163 0 -0.47106069124738431 -0.056774416169945392 0 -0.46778012165347871 -0.044533266995336877 0 -0.4832133830374864 -0.066081488584147294 0 -0.48526382792267891 -0.050918696726963163 0 -0.47106069124738431 -0.056774416169945392 0 -0.46376300381529573 -0.063213571976253061 0 -0.47211920345263408 -0.065894811243754098 0 -0.47106069124738431 -0.056774416169945392 0 -0.46376300381529573 -0.063213571976253061 0 -0.47106069124738431 -0.056774416169945392 0 -0.46153646920472918 -0.053622266484380302 0 -0.45171953035217932 -0.065138558216323014 0 -0.45472362232416119 -0.03957326508009406 0 -0.45171953035217932 -0.065138558216323014 0 -0.46153646920472918 -0.053622266484380302 0 -0.45472362232416119 -0.03957326508009406 0 -0.45171953035217932 -0.065138558216323014 0 -0.46376300381529573 -0.063213571976253061 0 -0.46153646920472918 -0.053622266484380302 0 -0.47106069124738431 -0.056774416169945392 0 -0.46153646920472918 -0.053622266484380302 0 -0.46778012165347871 -0.044533266995336877 0 -0.46153646920472918 -0.053622266484380302 0 -0.46778012165347871 -0.044533266995336877 0 -0.45472362232416119 -0.03957326508009406 0 -0.46778012165347871 -0.044533266995336877 0 -0.45472362232416119 -0.03957326508009406 0 -0.46807345515539461 -0.0257836512505497 0 -0.43589588996377288 -0.04644975318126765 0 -0.43528474327177091 -0.032244922889812642 0 -0.45472362232416119 -0.03957326508009406 0 -0.43528474327177091 -0.032244922889812642 0 -0.45472362232416119 -0.03957326508009406 0 -0.44699819642083849 -0.025678365711299962 0 -0.45171953035217932 -0.065138558216323014 0 -0.45030274096741513 -0.064202275803310838 0 -0.45472362232416119 -0.03957326508009406 0 -0.45030274096741513 -0.064202275803310838 0 -0.45472362232416119 -0.03957326508009406 0 -0.44041484463761638 -0.056814469904854142 0 -0.43589588996377288 -0.04644975318126765 0 -0.45472362232416119 -0.03957326508009406 0 -0.44041484463761638 -0.056814469904854142 0 -0.44137935866266942 -0.016363140029995199 0 -0.4575112446583719 -0.014335535380556871 0 -0.44091309867001888 0.0051402313807609561 0 -0.4575112446583719 -0.014335535380556871 0 -0.44091309867001888 0.0051402313807609561 0 -0.44137935866266942 -0.016363140029995199 0 -0.4575112446583719 -0.014335535380556871 0 -0.4575112446583719 -0.014335535380556871 0 -0.45941139917563428 0.0028675073363715522 0 -0.44091309867001888 0.0051402313807609561 0 -0.45472362232416119 -0.03957326508009406 0 -0.44699819642083849 -0.025678365711299962 0 -0.4575112446583719 -0.014335535380556871 0 -0.43528474327177091 -0.032244922889812642 0 -0.44699819642083849 -0.025678365711299962 0 -0.44137935866266942 -0.016363140029995199 0 -0.44699819642083849 -0.025678365711299962 0 -0.44137935866266942 -0.016363140029995199 0 -0.4575112446583719 -0.014335535380556871 0 -0.45472362232416119 -0.03957326508009406 0 -0.46807345515539461 -0.0257836512505497 0 -0.4575112446583719 -0.014335535380556871 0 -0.45472362232416119 -0.03957326508009406 0 -0.4575112446583719 -0.014335535380556871 0 -0.46807345515539461 -0.0257836512505497 0 -0.4575112446583719 -0.014335535380556871 0 -0.47771745191272569 -0.01179583234847848 0 -0.46807345515539461 -0.0257836512505497 0 -0.4575112446583719 -0.014335535380556871 0 -0.4575112446583719 -0.014335535380556871 0 -0.47771745191272569 -0.01179583234847848 0 -0.46651899065793923 -0.0063643223838418719 0 -0.4575112446583719 -0.014335535380556871 0 -0.45941139917563428 0.0028675073363715522 0 -0.4575112446583719 -0.014335535380556871 0 -0.45941139917563428 0.0028675073363715522 0 -0.46651899065793923 -0.0063643223838418719 0 -0.4575112446583719 -0.014335535380556871 0 -0.47771745191272569 -0.01179583234847848 0 -0.46651899065793923 -0.0063643223838418719 0 -0.47771745191272569 -0.01179583234847848 0 -0.48197648259811038 0.01350935847227157 0 -0.47817874298062152 -0.037289197388399198 0 -0.46807345515539461 -0.0257836512505497 0 -0.48818903686314791 -0.02435720963814509 0 -0.46807345515539461 -0.0257836512505497 0 -0.47771745191272569 -0.01179583234847848 0 -0.48818903686314791 -0.02435720963814509 0 -0.5 -0.036572773339225928 0 -0.48818903686314791 -0.02435720963814509 0 -0.49999999999999739 -0.01304600101274501 0 -0.47771745191272569 -0.01179583234847848 0 -0.48818903686314791 -0.02435720963814509 0 -0.4915561377902315 -0.016051073346498801 0 -0.48818903686314791 -0.02435720963814509 0 -0.4915561377902315 -0.016051073346498801 0 -0.49999999999999739 -0.01304600101274501 0 -0.47771745191272569 -0.01179583234847848 0 -0.49746673649528422 -0.0093135595842568034 0 -0.47771745191272569 -0.01179583234847848 0 -0.4915561377902315 -0.016051073346498801 0 -0.49746673649528422 -0.0093135595842568034 0 -0.49746673649528422 -0.0093135595842568034 0 -0.49999999999999789 -0.0089951555946811111 0 -0.5 0.010560297795983831 0 -0.47771745191272569 -0.01179583234847848 0 -0.49746673649528422 -0.0093135595842568034 0 -0.48197648259811038 0.01350935847227157 0 -0.4915561377902315 -0.016051073346498801 0 -0.49999999999999739 -0.01304600101274501 0 -0.49746673649528422 -0.0093135595842568034 0 -0.49999999999999739 -0.01304600101274501 0 -0.49746673649528422 -0.0093135595842568034 0 -0.49999999999999789 -0.0089951555946811111 0 -0.49999999999999739 -0.01304600101274501 0 -0.49746673649528422 -0.0093135595842568034 0 -0.49746673649528422 -0.0093135595842568034 0 -0.49999999999999789 -0.0089951555946811111 0 -0.49746673649528422 -0.0093135595842568034 0 -0.5 0.010560297795983831 0 -0.48197648259811038 0.01350935847227157 0 -0.49746673649528422 -0.0093135595842568034 0 -0.48197648259811038 0.01350935847227157 0 -0.5 0.010560297795983831 0 -0.49093018214113082 0.02214948337793618 0 -0.48197648259811038 0.01350935847227157 0 -0.49093018214113082 0.02214948337793618 0 -0.48197648259811038 0.01350935847227157 0 -0.4832431143504724 0.033224013857726192 0 -0.5 0.010560297795983831 0 -0.50000000000000633 0.030115751186648779 0 -0.49093018214113082 0.02214948337793618 0 -0.50000000000000633 0.030115751186648779 0 -0.49093018214113082 0.02214948337793618 0 -0.4832431143504724 0.033224013857726192 0 -0.48197648259811038 0.01350935847227157 0 -0.4832431143504724 0.033224013857726192 0 -0.46648622870093792 0.036332276528800722 0 -0.48197648259811038 0.01350935847227157 0 -0.46648622870093792 0.036332276528800722 0 -0.46125487554460681 0.019557414622830161 0 -0.48197648259811038 0.01350935847227157 0 -0.46648622870093792 0.036332276528800722 0 -0.46651899065793923 -0.0063643223838418719 0 -0.48197648259811038 0.01350935847227157 0 -0.45941139917563428 0.0028675073363715522 0 -0.5 0.056766931725124481 0 -0.488151392793366 0.045187817115039393 0 -0.48208509534110922 0.059702832013251737 0 -0.50000000000000633 0.030115751186648779 0 -0.4832431143504724 0.033224013857726192 0 -0.50000000000000633 0.030115751186648779 0 -0.488151392793366 0.045187817115039393 0 -0.4832431143504724 0.033224013857726192 0 -0.50000000000000633 0.030115751186648779 0 -0.5 0.056766931725124481 0 -0.488151392793366 0.045187817115039393 0 -0.4832431143504724 0.033224013857726192 0 -0.46648622870093792 0.036332276528800722 0 -0.4832431143504724 0.033224013857726192 0 -0.47542875427524189 0.046129556792444633 0 -0.46648622870093792 0.036332276528800722 0 -0.47542875427524189 0.046129556792444633 0 -0.46722779674071829 0.043906038274379472 0 -0.46648622870093792 0.036332276528800722 0 -0.488151392793366 0.045187817115039393 0 -0.4832431143504724 0.033224013857726192 0 -0.47542875427524189 0.046129556792444633 0 -0.488151392793366 0.045187817115039393 0 -0.47542875427524189 0.046129556792444633 0 -0.48208509534110922 0.059702832013251737 0 -0.47542875427524189 0.046129556792444633 0 -0.4662707420372092 0.051627402163333933 0 -0.46722779674071829 0.043906038274379472 0 -0.47542875427524189 0.046129556792444633 0 -0.47024624653465452 0.058813456584548222 0 -0.4662707420372092 0.051627402163333933 0 -0.47542875427524189 0.046129556792444633 0 -0.47024624653465452 0.058813456584548222 0 -0.48208509534110922 0.059702832013251737 0 -0.4623044118675656 0.044204173563706928 0 -0.45065409215475671 0.05052237335916071 0 -0.45614650076786611 0.065083785601589894 0 -0.4662707420372092 0.051627402163333933 0 -0.4623044118675656 0.044204173563706928 0 -0.45614650076786611 0.065083785601589894 0 -0.4623044118675656 0.044204173563706928 0 -0.45614650076786611 0.065083785601589894 0 -0.47024624653465452 0.058813456584548222 0 -0.4662707420372092 0.051627402163333933 0 -0.45614650076786611 0.065083785601589894 0 -0.46648622870093792 0.036332276528800722 0 -0.440322272477156 0.041185472412508771 0 -0.46302182035479489 0.041436641397395092 0 -0.46648622870093792 0.036332276528800722 0 -0.440322272477156 0.041185472412508771 0 -0.4623044118675656 0.044204173563706928 0 -0.46302182035479489 0.041436641397395092 0 -0.45065409215475671 0.05052237335916071 0 -0.4623044118675656 0.044204173563706928 0 -0.46722779674071829 0.043906038274379472 0 -0.46302182035479489 0.041436641397395092 0 -0.4662707420372092 0.051627402163333933 0 -0.4623044118675656 0.044204173563706928 0 -0.46722779674071829 0.043906038274379472 0 -0.46722779674071829 0.043906038274379472 0 -0.46302182035479489 0.041436641397395092 0 -0.46648622870093792 0.036332276528800722 0 -0.46302182035479489 0.041436641397395092 0 -0.46648622870093792 0.036332276528800722 0 -0.46302182035479489 0.041436641397395092 0 -0.440322272477156 0.041185472412508771 0 -0.45065409215475671 0.05052237335916071 0 -0.46648622870093792 0.036332276528800722 0 -0.440322272477156 0.041185472412508771 0 -0.44485013814745472 0.02316531343076508 0 -0.44905207736181929 0.061865877336575163 0 -0.43160519680759651 0.053952272816395128 0 -0.44290840970033207 0.051881498981159978 0 -0.44905207736181929 0.061865877336575163 0 -0.43160519680759651 0.053952272816395128 0 -0.440322272477156 0.041185472412508771 0 -0.44290840970033207 0.051881498981159978 0 -0.43160519680759651 0.053952272816395128 0 -0.440322272477156 0.041185472412508771 0 -0.45065409215475671 0.05052237335916071 0 -0.44290840970033207 0.051881498981159978 0 -0.45065409215475671 0.05052237335916071 0 -0.44905207736181929 0.061865877336575163 0 -0.45614650076786611 0.065083785601589894 0 -0.45065409215475671 0.05052237335916071 0 -0.44905207736181929 0.061865877336575163 0 -0.45065409215475671 0.05052237335916071 0 -0.44290840970033207 0.051881498981159978 0 -0.44905207736181929 0.061865877336575163 0 -0.45941139917563428 0.0028675073363715522 0 -0.46125487554460681 0.019557414622830161 0 -0.45160737788442862 0.01268261669268194 0 -0.45941139917563428 0.0028675073363715522 0 -0.46125487554460681 0.019557414622830161 0 -0.48197648259811038 0.01350935847227157 0 -0.45941139917563428 0.0028675073363715522 0 -0.46125487554460681 0.019557414622830161 0 -0.46648622870093792 0.036332276528800722 0 -0.46125487554460681 0.019557414622830161 0 -0.44485013814745472 0.02316531343076508 0 -0.46125487554460681 0.019557414622830161 0 -0.44485013814745472 0.02316531343076508 0 -0.45160737788442862 0.01268261669268194 0 -0.44485013814745472 0.02316531343076508 0 -0.44091309867001888 0.0051402313807609561 0 -0.45160737788442862 0.01268261669268194 0 -0.45941139917563428 0.0028675073363715522 0 -0.44091309867001888 0.0051402313807609561 0 -0.45160737788442862 0.01268261669268194 0 -0.44091309867001888 0.0051402313807609561 0 -0.42425827453337789 0.02410286271160967 0 -0.44091309867001888 0.0051402313807609561 0 -0.41792504398981378 0.0037659010775271859 0 -0.42425827453337789 0.02410286271160967 0 -0.42982395106742899 -0.0075707495645251071 0 -0.44091309867001888 0.0051402313807609561 0 -0.41792504398981378 0.0037659010775271859 0 -0.41792504398981378 0.0037659010775271859 0 -0.4068297226380736 0.02559067364570854 0 -0.39893486609569478 0.011927981103442131 0 -0.4068297226380736 0.02559067364570854 0 -0.42425827453337789 0.02410286271160967 0 -0.40760345039673163 0.043065494042453863 0 -0.41792504398981378 0.0037659010775271859 0 -0.4068297226380736 0.02559067364570854 0 -0.42425827453337789 0.02410286271160967 0 -0.440322272477156 0.041185472412508771 0 -0.44485013814745472 0.02316531343076508 0 -0.42425827453337789 0.02410286271160967 0 -0.44485013814745472 0.02316531343076508 0 -0.44091309867001888 0.0051402313807609561 0 -0.42425827453337789 0.02410286271160967 0 -0.440322272477156 0.041185472412508771 0 -0.41415831625337368 0.046038668296214967 0 -0.440322272477156 0.041185472412508771 0 -0.42425827453337789 0.02410286271160967 0 -0.41415831625337368 0.046038668296214967 0 -0.43160519680759651 0.053952272816395128 0 -0.41415831625337368 0.046038668296214967 0 -0.440322272477156 0.041185472412508771 0 -0.43160519680759651 0.053952272816395128 0 -0.41415831625337368 0.046038668296214967 0 -0.43160519680759651 0.053952272816395128 0 -0.4095056371324744 0.058956079060222807 0 -0.41415831625337368 0.046038668296214967 0 -0.43160519680759651 0.053952272816395128 0 -0.4095056371324744 0.058956079060222807 0 -0.41550739346534199 0.072265650915184845 0 -0.4095056371324744 0.058956079060222807 0 -0.41415831625337368 0.046038668296214967 0 -0.40320815487691319 0.048069831995758032 0 -0.41415831625337368 0.046038668296214967 0 -0.40320815487691319 0.048069831995758032 0 -0.42425827453337789 0.02410286271160967 0 -0.40760345039673163 0.043065494042453863 0 -0.42425827453337789 0.02410286271160967 0 -0.41415831625337368 0.046038668296214967 0 -0.40760345039673163 0.043065494042453863 0 -0.41415831625337368 0.046038668296214967 0 -0.40760345039673163 0.043065494042453863 0 -0.40320815487691319 0.048069831995758032 0 -0.41415831625337368 0.046038668296214967 0 -0.40760345039673163 0.043065494042453863 0 -0.40760345039673163 0.043065494042453863 0 -0.38481987753503039 0.032731257808996342 0 -0.40320815487691319 0.048069831995758032 0 -0.38656936754766508 0.051156188412405407 0 -0.38481987753503039 0.032731257808996342 0 -0.40760345039673163 0.043065494042453863 0 -0.40320815487691319 0.048069831995758032 0 -0.38481987753503039 0.032731257808996342 0 -0.4068297226380736 0.02559067364570854 0 -0.40760345039673163 0.043065494042453863 0 -0.38481987753503039 0.032731257808996342 0 -0.40760345039673163 0.043065494042453863 0 -0.40320815487691319 0.048069831995758032 0 -0.40320815487691319 0.048069831995758032 0 -0.38656936754766508 0.051156188412405407 0 -0.40320815487691319 0.048069831995758032 0 -0.39564011769278618 0.05468080555088603 0 -0.38656936754766508 0.051156188412405407 0 -0.4095056371324744 0.058956079060222807 0 -0.40320815487691319 0.048069831995758032 0 -0.38963515870565191 0.063523596042682651 0 -0.40320815487691319 0.048069831995758032 0 -0.39564011769278618 0.05468080555088603 0 -0.38963515870565191 0.063523596042682651 0 -0.40320815487691319 0.048069831995758032 0 -0.38963515870565191 0.063523596042682651 0 -0.39564011769278618 0.05468080555088603 0 -0.38963515870565191 0.063523596042682651 0 -0.37195635054025011 0.062414506337287262 0 -0.39564011769278618 0.05468080555088603 0 -0.38656936754766508 0.051156188412405407 0 -0.37195635054025011 0.062414506337287262 0 -0.38656936754766508 0.051156188412405407 0 -0.36993058021841713 0.054242544829053038 0 -0.39564011769278618 0.05468080555088603 0 -0.37195635054025011 0.062414506337287262 0 -0.38656936754766508 0.051156188412405407 0 -0.36993058021841713 0.054242544829053038 0 -0.37195635054025011 0.062414506337287262 0 -0.38656936754766508 0.051156188412405407 0 -0.37682581693674783 0.044112443563187477 0 -0.36993058021841713 0.054242544829053038 0 -0.37682581693674783 0.044112443563187477 0 -0.38481987753503039 0.032731257808996342 0 -0.36598344244587838 0.038319783202294663 0 -0.38656936754766508 0.051156188412405407 0 -0.37682581693674783 0.044112443563187477 0 -0.38481987753503039 0.032731257808996342 0 -0.38481987753503039 0.032731257808996342 0 -0.38330909489703818 0.0066255610516746388 0 -0.37124240922392238 0.0159546708235399 0 -0.38481987753503039 0.032731257808996342 0 -0.38330909489703818 0.0066255610516746388 0 -0.39893486609569478 0.011927981103442131 0 -0.38330909489703818 0.0066255610516746388 0 -0.37124240922392238 0.0159546708235399 0 -0.37105926560901481 0.0060949122395229484 0 -0.3726509171759278 -0.0042871194606509278 0 -0.38330909489703818 0.0066255610516746388 0 -0.37105926560901481 0.0060949122395229484 0 -0.39896575605720602 -0.0057845984529939993 0 -0.41792504398981378 0.0037659010775271859 0 -0.39893486609569478 0.011927981103442131 0 -0.39896575605720602 -0.0057845984529939993 0 -0.38330909489703818 0.0066255610516746388 0 -0.39893486609569478 0.011927981103442131 0 -0.4068297226380736 0.02559067364570854 0 -0.38481987753503039 0.032731257808996342 0 -0.39893486609569478 0.011927981103442131 0 -0.40391979060475153 0.1055586112208665 0 -0.38909192653899338 0.1179678688311816 0 -0.38155938747992491 0.098566870914757881 0 -0.40391979060475153 0.1055586112208665 0 -0.38155938747992491 0.098566870914757881 0 -0.39054183552354033 0.089623453147329016 0 -0.40391979060475153 0.1055586112208665 0 -0.38155938747992491 0.098566870914757881 0 -0.40391979060475153 0.1055586112208665 0 -0.4032914301198407 0.12463496770649719 0 -0.38909192653899338 0.1179678688311816 0 -0.38909192653899338 0.1179678688311816 0 -0.3814008065916894 0.1124749014680579 0 -0.37840990618325931 0.1321093317991919 0 -0.37840990618325931 0.1321093317991919 0 -0.3719841621530966 0.1116669262127041 0 -0.38909192653899338 0.1179678688311816 0 -0.3814008065916894 0.1124749014680579 0 -0.38238728706197239 0.1030752805832611 0 -0.3814008065916894 0.1124749014680579 0 -0.37840990618325931 0.1321093317991919 0 -0.3719841621530966 0.1116669262127041 0 -0.38238728706197239 0.1030752805832611 0 -0.3719841621530966 0.1116669262127041 0 -0.3814008065916894 0.1124749014680579 0 -0.38238728706197239 0.1030752805832611 0 -0.3719841621530966 0.1116669262127041 0 -0.38909192653899338 0.1179678688311816 0 -0.38155938747992491 0.098566870914757881 0 -0.38238728706197239 0.1030752805832611 0 -0.38155938747992491 0.098566870914757881 0 -0.3719841621530966 0.1116669262127041 0 -0.38909192653899338 0.1179678688311816 0 -0.38238728706197239 0.1030752805832611 0 -0.38155938747992491 0.098566870914757881 0 -0.38155938747992491 0.098566870914757881 0 -0.37679700847320929 0.081941730068692681 0 -0.37460000895301448 0.080642119746363317 0 -0.38155938747992491 0.098566870914757881 0 -0.37679700847320929 0.081941730068692681 0 -0.39054183552354033 0.089623453147329016 0 -0.38155938747992491 0.098566870914757881 0 -0.37460000895301448 0.080642119746363317 0 -0.37606216253438818 0.078977360089605125 0 -0.37679700847320929 0.081941730068692681 0 -0.38809886652471137 0.077566814472760565 0 -0.37606216253438818 0.078977360089605125 0 -0.37460000895301448 0.080642119746363317 0 -0.37606216253438818 0.078977360089605125 0 -0.37679700847320929 0.081941730068692681 0 -0.37460000895301448 0.080642119746363317 0 -0.37606216253438818 0.078977360089605125 0 -0.37679700847320929 0.081941730068692681 0 -0.37679700847320929 0.081941730068692681 0 -0.39054183552354033 0.089623453147329016 0 -0.38809886652471137 0.077566814472760565 0 -0.37606216253438818 0.078977360089605125 0 -0.38963515870565191 0.063523596042682651 0 -0.37195635054025011 0.062414506337287262 0 -0.37606216253438818 0.078977360089605125 0 -0.38809886652471137 0.077566814472760565 0 -0.38963515870565191 0.063523596042682651 0 -0.37606216253438818 0.078977360089605125 0 -0.38963515870565191 0.063523596042682651 0 -0.4095056371324744 0.058956079060222807 0 -0.38963515870565191 0.063523596042682651 0 -0.40101623607265707 0.0713590759100836 0 -0.38809886652471137 0.077566814472760565 0 -0.40101623607265707 0.0713590759100836 0 -0.40233412453510548 0.084483239059567145 0 -0.38809886652471137 0.077566814472760565 0 -0.38963515870565191 0.063523596042682651 0 -0.40101623607265707 0.0713590759100836 0 -0.40391979060475153 0.1055586112208665 0 -0.39054183552354033 0.089623453147329016 0 -0.40233412453510548 0.084483239059567145 0 -0.39054183552354033 0.089623453147329016 0 -0.38809886652471137 0.077566814472760565 0 -0.40233412453510548 0.084483239059567145 0 -0.40233412453510548 0.084483239059567145 0 -0.41909368629973848 0.091231733939596132 0 -0.41550739346534199 0.072265650915184845 0 -0.4095056371324744 0.058956079060222807 0 -0.40101623607265707 0.0713590759100836 0 -0.41550739346534199 0.072265650915184845 0 -0.40101623607265707 0.0713590759100836 0 -0.40233412453510548 0.084483239059567145 0 -0.41550739346534199 0.072265650915184845 0 -0.43160519680759651 0.053952272816395128 0 -0.41550739346534199 0.072265650915184845 0 -0.43238877183437707 0.075652417363254232 0 -0.41909368629973848 0.091231733939596132 0 -0.41550739346534199 0.072265650915184845 0 -0.43238877183437707 0.075652417363254232 0 -0.43238877183437707 0.075652417363254232 0 -0.43421886016070688 0.09904686728406073 0 -0.44535663213209342 0.088032488185953439 0 -0.41909368629973848 0.091231733939596132 0 -0.43238877183437707 0.075652417363254232 0 -0.43421886016070688 0.09904686728406073 0 -0.41909368629973848 0.091231733939596132 0 -0.43421886016070688 0.09904686728406073 0 -0.42628019372957759 0.11255035152697671 0 -0.43421886016070688 0.09904686728406073 0 -0.42628019372957759 0.11255035152697671 0 -0.44166118690236661 0.1141990990353316 0 -0.40391979060475153 0.1055586112208665 0 -0.40233412453510548 0.084483239059567145 0 -0.41909368629973848 0.091231733939596132 0 -0.40391979060475153 0.1055586112208665 0 -0.42628019372957759 0.11255035152697671 0 -0.40391979060475153 0.1055586112208665 0 -0.41909368629973848 0.091231733939596132 0 -0.42628019372957759 0.11255035152697671 0 -0.40391979060475153 0.1055586112208665 0 -0.41496981185606852 0.119318716470034 0 -0.42628019372957759 0.11255035152697671 0 -0.40391979060475153 0.1055586112208665 0 -0.4032914301198407 0.12463496770649719 0 -0.41496981185606852 0.119318716470034 0 -0.4032914301198407 0.12463496770649719 0 -0.41496981185606852 0.119318716470034 0 -0.41569433644902259 0.1300283974526143 0 -0.41496981185606852 0.119318716470034 0 -0.42593380249649798 0.122911036410404 0 -0.41569433644902259 0.1300283974526143 0 -0.41496981185606852 0.119318716470034 0 -0.42593380249649798 0.122911036410404 0 -0.42628019372957759 0.11255035152697671 0 -0.42593380249649798 0.122911036410404 0 -0.44166118690236661 0.1141990990353316 0 -0.43232610777074748 0.12671768133931149 0 -0.42593380249649798 0.122911036410404 0 -0.42628019372957759 0.11255035152697671 0 -0.44166118690236661 0.1141990990353316 0 -0.44166118690236661 0.1141990990353316 0 -0.43892782739222752 0.13355339876569261 0 -0.44166118690236661 0.1141990990353316 0 -0.45814585536859848 0.1024752214956004 0 -0.45954584428379053 0.1205124967203971 0 -0.44166118690236661 0.1141990990353316 0 -0.45954584428379053 0.1205124967203971 0 -0.43892782739222752 0.13355339876569261 0 -0.44166118690236661 0.1141990990353316 0 -0.45814585536859848 0.1024752214956004 0 -0.44890384383511789 0.089641442318461245 0 -0.43421886016070688 0.09904686728406073 0 -0.44166118690236661 0.1141990990353316 0 -0.44535663213209342 0.088032488185953439 0 -0.44166118690236661 0.1141990990353316 0 -0.44890384383511789 0.089641442318461245 0 -0.44535663213209342 0.088032488185953439 0 -0.44166118690236661 0.1141990990353316 0 -0.44890384383511789 0.089641442318461245 0 -0.44166118690236661 0.1141990990353316 0 -0.44535663213209342 0.088032488185953439 0 -0.45814585536859848 0.1024752214956004 0 -0.47142816804714111 0.090360874720207943 0 -0.47254188328933089 0.1068112959977434 0 -0.45814585536859848 0.1024752214956004 0 -0.45954584428379053 0.1205124967203971 0 -0.47254188328933089 0.1068112959977434 0 -0.44905207736181929 0.061865877336575163 0 -0.43160519680759651 0.053952272816395128 0 -0.43238877183437707 0.075652417363254232 0 -0.44905207736181929 0.061865877336575163 0 -0.43238877183437707 0.075652417363254232 0 -0.44535663213209342 0.088032488185953439 0 -0.44890384383511789 0.089641442318461245 0 -0.45614650076786611 0.065083785601589894 0 -0.44905207736181929 0.061865877336575163 0 -0.44535663213209342 0.088032488185953439 0 -0.45614650076786611 0.065083785601589894 0 -0.44905207736181929 0.061865877336575163 0 -0.44535663213209342 0.088032488185953439 0 -0.44905207736181929 0.061865877336575163 0 -0.45614650076786611 0.065083785601589894 0 -0.44890384383511789 0.089641442318461245 0 -0.44535663213209342 0.088032488185953439 0 -0.45614650076786611 0.065083785601589894 0 -0.4610563190871394 0.082103589126315712 0 -0.47099004877416861 0.071816563316960208 0 -0.47142816804714111 0.090360874720207943 0 -0.45814585536859848 0.1024752214956004 0 -0.44890384383511789 0.089641442318461245 0 -0.4610563190871394 0.082103589126315712 0 -0.44890384383511789 0.089641442318461245 0 -0.4610563190871394 0.082103589126315712 0 -0.45614650076786611 0.065083785601589894 0 -0.45814585536859848 0.1024752214956004 0 -0.4610563190871394 0.082103589126315712 0 -0.47142816804714111 0.090360874720207943 0 -0.4610563190871394 0.082103589126315712 0 -0.45614650076786611 0.065083785601589894 0 -0.47099004877416861 0.071816563316960208 0 -0.45614650076786611 0.065083785601589894 0 -0.47099004877416861 0.071816563316960208 0 -0.47024624653465452 0.058813456584548222 0 -0.45614650076786611 0.065083785601589894 0 -0.47099004877416861 0.071816563316960208 0 -0.48208509534110922 0.059702832013251737 0 -0.47099004877416861 0.071816563316960208 0 -0.48583359678047139 0.078549341032330022 0 -0.47024624653465452 0.058813456584548222 0 -0.48208509534110922 0.059702832013251737 0 -0.47099004877416861 0.071816563316960208 0 -0.47099004877416861 0.071816563316960208 0 -0.48583359678047139 0.078549341032330022 0 -0.47099004877416861 0.071816563316960208 0 -0.47142816804714111 0.090360874720207943 0 -0.48583359678047139 0.078549341032330022 0 -0.47142816804714111 0.090360874720207943 0 -0.48583359678047139 0.078549341032330022 0 -0.48038679546117269 0.096842762332133778 0 -0.5 0.083418112263600186 0 -0.48583359678047139 0.078549341032330022 0 -0.49092627687018719 0.094579539394287815 0 -0.48583359678047139 0.078549341032330022 0 -0.48038679546117269 0.096842762332133778 0 -0.49092627687018719 0.094579539394287815 0 -0.5 0.056766931725124481 0 -0.5 0.083418112263600186 0 -0.48583359678047139 0.078549341032330022 0 -0.5 0.056766931725124481 0 -0.48208509534110922 0.059702832013251737 0 -0.48583359678047139 0.078549341032330022 0 -0.4884109921092919 0.1040181885412991 0 -0.47770093245123912 0.1260000037694021 0 -0.45954584428379053 0.1205124967203971 0 -0.47254188328933089 0.1068112959977434 0 -0.47770093245123912 0.1260000037694021 0 -0.47254188328933089 0.1068112959977434 0 -0.4884109921092919 0.1040181885412991 0 -0.47770093245123912 0.1260000037694021 0 -0.47142816804714111 0.090360874720207943 0 -0.47254188328933089 0.1068112959977434 0 -0.48038679546117269 0.096842762332133778 0 -0.47254188328933089 0.1068112959977434 0 -0.48038679546117269 0.096842762332133778 0 -0.4884109921092919 0.1040181885412991 0 -0.5 0.083418112263600186 0 -0.49092627687018719 0.094579539394287815 0 -0.5 0.1100692928020759 0 -0.48038679546117269 0.096842762332133778 0 -0.4884109921092919 0.1040181885412991 0 -0.49092627687018719 0.094579539394287815 0 -0.4884109921092919 0.1040181885412991 0 -0.49092627687018719 0.094579539394287815 0 -0.5 0.1100692928020759 0 -0.5 0.1100692928020759 0 -0.5 0.13672047334055171 0 -0.47770093245123912 0.1260000037694021 0 -0.4884109921092919 0.1040181885412991 0 -0.5 0.1100692928020759 0 -0.47770093245123912 0.1260000037694021 0 -0.5 0.13672047334055171 0 -0.47770093245123912 0.1260000037694021 0 -0.48113157351830449 0.14058530432575311 0 -0.47770093245123912 0.1260000037694021 0 -0.48113157351830449 0.14058530432575311 0 -0.46590886749153992 0.1493255812707481 0 -0.47770093245123912 0.1260000037694021 0 -0.46392543015206972 0.13432264445056261 0 -0.46590886749153992 0.1493255812707481 0 -0.47770093245123912 0.1260000037694021 0 -0.46590886749153992 0.1493255812707481 0 -0.47743210544725212 0.15185287026826089 0 -0.47169334772091809 0.15670421941916929 0 -0.46590886749153992 0.1493255812707481 0 -0.48113157351830449 0.14058530432575311 0 -0.47743210544725212 0.15185287026826089 0 -0.46590886749153992 0.1493255812707481 0 -0.48113157351830449 0.14058530432575311 0 -0.47743210544725212 0.15185287026826089 0 -0.4883123202985078 0.149860121106238 0 -0.47743210544725212 0.15185287026826089 0 -0.4883123202985078 0.149860121106238 0 -0.48507921326066161 0.15972199941592591 0 -0.5 0.13672047334055171 0 -0.48113157351830449 0.14058530432575311 0 -0.4883123202985078 0.149860121106238 0 -0.5 0.13672047334055171 0 -0.4883123202985078 0.149860121106238 0 -0.5 0.16337165387902761 0 -0.5 0.16337165387902761 0 -0.48785690887875349 0.16911329468733069 0 -0.48507921326066161 0.15972199941592591 0 -0.4883123202985078 0.149860121106238 0 -0.5 0.16337165387902761 0 -0.48507921326066161 0.15972199941592591 0 -0.48785690887875349 0.16911329468733069 0 -0.48752476925336341 0.1862919926432012 0 -0.49948842554111239 0.1907067101328983 0 -0.5 0.16337165387902761 0 -0.48785690887875349 0.16911329468733069 0 -0.49948842554111239 0.1907067101328983 0 -0.48785690887875349 0.16911329468733069 0 -0.47223137675788601 0.1854102081277452 0 -0.48785690887875349 0.16911329468733069 0 -0.47223137675788601 0.1854102081277452 0 -0.47353362567471602 0.1716375038690274 0 -0.48785690887875349 0.16911329468733069 0 -0.48752476925336341 0.1862919926432012 0 -0.47223137675788601 0.1854102081277452 0 -0.47223137675788601 0.1854102081277452 0 -0.47353362567471602 0.1716375038690274 0 -0.46568418044810689 0.17590475371945169 0 -0.48785690887875349 0.16911329468733069 0 -0.48507921326066161 0.15972199941592591 0 -0.4767752205693257 0.162157203564816 0 -0.47743210544725212 0.15185287026826089 0 -0.48507921326066161 0.15972199941592591 0 -0.4767752205693257 0.162157203564816 0 -0.48785690887875349 0.16911329468733069 0 -0.4767752205693257 0.162157203564816 0 -0.47353362567471602 0.1716375038690274 0 -0.4767752205693257 0.162157203564816 0 -0.47353362567471602 0.1716375038690274 0 -0.46760521082909112 0.1643697823602267 0 -0.47353362567471602 0.1716375038690274 0 -0.46760521082909112 0.1643697823602267 0 -0.46568418044810689 0.17590475371945169 0 -0.47743210544725212 0.15185287026826089 0 -0.4767752205693257 0.162157203564816 0 -0.47169334772091809 0.15670421941916929 0 -0.4767752205693257 0.162157203564816 0 -0.47169334772091809 0.15670421941916929 0 -0.46760521082909112 0.1643697823602267 0 -0.45628081313513352 0.16996363422560801 0 -0.46590886749153992 0.1493255812707481 0 -0.45628081313513352 0.16996363422560801 0 -0.45118337364277811 0.15603928596271791 0 -0.46590886749153992 0.1493255812707481 0 -0.46760521082909112 0.1643697823602267 0 -0.45628081313513352 0.16996363422560801 0 -0.46590886749153992 0.1493255812707481 0 -0.47169334772091809 0.15670421941916929 0 -0.46760521082909112 0.1643697823602267 0 -0.46590886749153992 0.1493255812707481 0 -0.46760521082909112 0.1643697823602267 0 -0.45628081313513352 0.16996363422560801 0 -0.46568418044810689 0.17590475371945169 0 -0.45628081313513352 0.16996363422560801 0 -0.46568418044810689 0.17590475371945169 0 -0.45876987584370821 0.18814264001465139 0 -0.45628081313513352 0.16996363422560801 0 -0.45876987584370821 0.18814264001465139 0 -0.44557075347708069 0.19194544945371081 0 -0.47223137675788601 0.1854102081277452 0 -0.46568418044810689 0.17590475371945169 0 -0.45876987584370821 0.18814264001465139 0 -0.45628081313513352 0.16996363422560801 0 -0.44351322294470308 0.17822722575389219 0 -0.44557075347708069 0.19194544945371081 0 -0.45628081313513352 0.16996363422560801 0 -0.44557075347708069 0.19194544945371081 0 -0.45628081313513352 0.16996363422560801 0 -0.44351322294470308 0.17822722575389219 0 -0.44143734873330998 0.16918343540661679 0 -0.44351322294470308 0.17822722575389219 0 -0.43767422444411569 0.1746794823769757 0 -0.44143734873330998 0.16918343540661679 0 -0.44351322294470308 0.17822722575389219 0 -0.43767422444411569 0.1746794823769757 0 -0.43163287386523902 0.18366436928129631 0 -0.44351322294470308 0.17822722575389219 0 -0.44557075347708069 0.19194544945371081 0 -0.43559926904268398 0.19178202898532171 0 -0.45628081313513352 0.16996363422560801 0 -0.44740372705685089 0.16322400281084001 0 -0.45118337364277811 0.15603928596271791 0 -0.44740372705685089 0.16322400281084001 0 -0.44338417164298177 0.15860207487053279 0 -0.45118337364277811 0.15603928596271791 0 -0.45628081313513352 0.16996363422560801 0 -0.44740372705685089 0.16322400281084001 0 -0.44143734873330998 0.16918343540661679 0 -0.44740372705685089 0.16322400281084001 0 -0.44143734873330998 0.16918343540661679 0 -0.43718201005867269 0.16221250395562389 0 -0.43767422444411569 0.1746794823769757 0 -0.44143734873330998 0.16918343540661679 0 -0.43422033477101951 0.16688608801909749 0 -0.44143734873330998 0.16918343540661679 0 -0.43718201005867269 0.16221250395562389 0 -0.43422033477101951 0.16688608801909749 0 -0.44338417164298177 0.15860207487053279 0 -0.43619446788209132 0.1529076984960541 0 -0.43718201005867269 0.16221250395562389 0 -0.44740372705685089 0.16322400281084001 0 -0.44338417164298177 0.15860207487053279 0 -0.43718201005867269 0.16221250395562389 0 -0.45118337364277811 0.15603928596271791 0 -0.46590886749153992 0.1493255812707481 0 -0.43619446788209132 0.1529076984960541 0 -0.45199407767210431 0.1456421509718894 0 -0.46590886749153992 0.1493255812707481 0 -0.43619446788209132 0.1529076984960541 0 -0.44378009940909968 0.1441088356888269 0 -0.43892782739222752 0.13355339876569261 0 -0.43619446788209132 0.1529076984960541 0 -0.44338417164298177 0.15860207487053279 0 -0.45118337364277811 0.15603928596271791 0 -0.43619446788209132 0.1529076984960541 0 -0.43892782739222752 0.13355339876569261 0 -0.43619446788209132 0.1529076984960541 0 -0.45199407767210431 0.1456421509718894 0 -0.44378009940909968 0.1441088356888269 0 -0.43619446788209132 0.1529076984960541 0 -0.46590886749153992 0.1493255812707481 0 -0.43619446788209132 0.1529076984960541 0 -0.45199407767210431 0.1456421509718894 0 -0.44378009940909968 0.1441088356888269 0 -0.45382299845016288 0.13819587449518289 0 -0.44166118690236661 0.1141990990353316 0 -0.43892782739222752 0.13355339876569261 0 -0.4351558898741355 0.13625659157486539 0 -0.44166118690236661 0.1141990990353316 0 -0.4351558898741355 0.13625659157486539 0 -0.45954584428379053 0.1205124967203971 0 -0.43892782739222752 0.13355339876569261 0 -0.45382299845016288 0.13819587449518289 0 -0.44378009940909968 0.1441088356888269 0 -0.43892782739222752 0.13355339876569261 0 -0.45382299845016288 0.13819587449518289 0 -0.45954584428379053 0.1205124967203971 0 -0.47770093245123912 0.1260000037694021 0 -0.46392543015206972 0.13432264445056261 0 -0.45954584428379053 0.1205124967203971 0 -0.45382299845016288 0.13819587449518289 0 -0.46392543015206972 0.13432264445056261 0 -0.45382299845016288 0.13819587449518289 0 -0.46392543015206972 0.13432264445056261 0 -0.46026395512763091 0.1436727649086354 0 -0.46392543015206972 0.13432264445056261 0 -0.46590886749153992 0.1493255812707481 0 -0.46026395512763091 0.1436727649086354 0 -0.45199407767210431 0.1456421509718894 0 -0.46590886749153992 0.1493255812707481 0 -0.46026395512763091 0.1436727649086354 0 -0.45199407767210431 0.1456421509718894 0 -0.45382299845016288 0.13819587449518289 0 -0.46026395512763091 0.1436727649086354 0 -0.47922328285479288 0.239403860082369 0 -0.46399351030847469 0.24395188759928779 0 -0.4784490913002995 0.25975246748932668 0 -0.47922328285479288 0.239403860082369 0 -0.46620656683517703 0.23129722958105159 0 -0.46399351030847469 0.24395188759928779 0 -0.47922328285479288 0.239403860082369 0 -0.5 0.24436361662805769 0 -0.4784490913002995 0.25975246748932668 0 -0.47922328285479288 0.239403860082369 0 -0.5 0.24436361662805769 0 -0.48970507848744138 0.22852520981802121 0 -0.48970507848744138 0.22852520981802121 0 -0.47608184841704532 0.2219967587224185 0 -0.48778513697907933 0.2063517344276587 0 -0.5 0.24436361662805769 0 -0.48970507848744138 0.22852520981802121 0 -0.5 0.21746954781573141 0 -0.47922328285479288 0.239403860082369 0 -0.47608184841704532 0.2219967587224185 0 -0.46620656683517703 0.23129722958105159 0 -0.47922328285479288 0.239403860082369 0 -0.48970507848744138 0.22852520981802121 0 -0.47608184841704532 0.2219967587224185 0 -0.47608184841704532 0.2219967587224185 0 -0.48778513697907933 0.2063517344276587 0 -0.47608184841704532 0.2219967587224185 0 -0.47190445153985372 0.20885535075028119 0 -0.48778513697907933 0.2063517344276587 0 -0.47190445153985372 0.20885535075028119 0 -0.48778513697907933 0.2063517344276587 0 -0.47804713508906532 0.1962069158505283 0 -0.47608184841704532 0.2219967587224185 0 -0.47190445153985372 0.20885535075028119 0 -0.46100229257705988 0.2180142231826408 0 -0.5 0.21746954781573141 0 -0.48778513697907933 0.2063517344276587 0 -0.49948842554111239 0.1907067101328983 0 -0.48970507848744138 0.22852520981802121 0 -0.5 0.21746954781573141 0 -0.48778513697907933 0.2063517344276587 0 -0.49948842554111239 0.1907067101328983 0 -0.47804713508906532 0.1962069158505283 0 -0.48752476925336341 0.1862919926432012 0 -0.49948842554111239 0.1907067101328983 0 -0.47804713508906532 0.1962069158505283 0 -0.48778513697907933 0.2063517344276587 0 -0.49948842554111239 0.1907067101328983 0 -0.47804713508906532 0.1962069158505283 0 -0.48778513697907933 0.2063517344276587 0 -0.49948842554111239 0.1907067101328983 0 -0.47223137675788601 0.1854102081277452 0 -0.47804713508906532 0.1962069158505283 0 -0.45660584463701842 0.20170712156815959 0 -0.47190445153985372 0.20885535075028119 0 -0.47804713508906532 0.1962069158505283 0 -0.45660584463701842 0.20170712156815959 0 -0.48752476925336341 0.1862919926432012 0 -0.47223137675788601 0.1854102081277452 0 -0.47804713508906532 0.1962069158505283 0 -0.47804713508906532 0.1962069158505283 0 -0.45660584463701842 0.20170712156815959 0 -0.47223137675788601 0.1854102081277452 0 -0.45660584463701842 0.20170712156815959 0 -0.47223137675788601 0.1854102081277452 0 -0.45660584463701842 0.20170712156815959 0 -0.45876987584370821 0.18814264001465139 0 -0.45660584463701842 0.20170712156815959 0 -0.45876987584370821 0.18814264001465139 0 -0.45172577055384061 0.19610565527500129 0 -0.45660584463701842 0.20170712156815959 0 -0.45014469102192978 0.20336456257599839 0 -0.45876987584370821 0.18814264001465139 0 -0.44557075347708069 0.19194544945371081 0 -0.45172577055384061 0.19610565527500129 0 -0.44557075347708069 0.19194544945371081 0 -0.45014469102192978 0.20336456257599839 0 -0.43631987780264891 0.20227650151428239 0 -0.44557075347708069 0.19194544945371081 0 -0.43631987780264891 0.20227650151428239 0 -0.43559926904268398 0.19178202898532171 0 -0.44557075347708069 0.19194544945371081 0 -0.45172577055384061 0.19610565527500129 0 -0.45014469102192978 0.20336456257599839 0 -0.45660584463701842 0.20170712156815959 0 -0.45172577055384061 0.19610565527500129 0 -0.45014469102192978 0.20336456257599839 0 -0.45660584463701842 0.20170712156815959 0 -0.45014469102192978 0.20336456257599839 0 -0.44414916323243669 0.21469902846995259 0 -0.45660584463701842 0.20170712156815959 0 -0.44414916323243669 0.21469902846995259 0 -0.45014469102192978 0.20336456257599839 0 -0.44414916323243669 0.21469902846995259 0 -0.43631987780264891 0.20227650151428239 0 -0.45660584463701842 0.20170712156815959 0 -0.44414916323243669 0.21469902846995259 0 -0.46100229257705988 0.2180142231826408 0 -0.47190445153985372 0.20885535075028119 0 -0.45660584463701842 0.20170712156815959 0 -0.46100229257705988 0.2180142231826408 0 -0.47608184841704532 0.2219967587224185 0 -0.46100229257705988 0.2180142231826408 0 -0.46620656683517703 0.23129722958105159 0 -0.46100229257705988 0.2180142231826408 0 -0.46620656683517703 0.23129722958105159 0 -0.45390232161562549 0.23097613839558151 0 -0.44414916323243669 0.21469902846995259 0 -0.44217974833861018 0.23117374510529029 0 -0.43169248182785491 0.22769093537174559 0 -0.44414916323243669 0.21469902846995259 0 -0.45390232161562549 0.23097613839558151 0 -0.44217974833861018 0.23117374510529029 0 -0.44414916323243669 0.21469902846995259 0 -0.46100229257705988 0.2180142231826408 0 -0.45390232161562549 0.23097613839558151 0 -0.44414916323243669 0.21469902846995259 0 -0.43169248182785491 0.22769093537174559 0 -0.45390232161562549 0.23097613839558151 0 -0.44217974833861018 0.23117374510529029 0 -0.44784340792963268 0.24566193026528449 0 -0.44217974833861018 0.23117374510529029 0 -0.44784340792963268 0.24566193026528449 0 -0.4362612258554292 0.23945830792229639 0 -0.44784340792963268 0.24566193026528449 0 -0.4362612258554292 0.23945830792229639 0 -0.43772017251073492 0.25071492700109782 0 -0.44784340792963268 0.24566193026528449 0 -0.46399351030847469 0.24395188759928779 0 -0.45856876218142739 0.25899060087044001 0 -0.45390232161562549 0.23097613839558151 0 -0.44784340792963268 0.24566193026528449 0 -0.46399351030847469 0.24395188759928779 0 -0.46620656683517703 0.23129722958105159 0 -0.45390232161562549 0.23097613839558151 0 -0.46399351030847469 0.24395188759928779 0 -0.41267999889491608 0.23241883219145479 0 -0.40550594772209481 0.25500262474814189 0 -0.41859921477497491 0.24134678005994381 0 -0.41267999889491608 0.23241883219145479 0 -0.40550594772209481 0.25500262474814189 0 -0.41267999889491608 0.23241883219145479 0 -0.40242553196709552 0.24470377531646639 0 -0.40550594772209481 0.25500262474814189 0 -0.41859921477497491 0.24134678005994381 0 -0.40550594772209481 0.25500262474814189 0 -0.41859921477497491 0.24134678005994381 0 -0.4282964880421043 0.24988677976854409 0 -0.41843448825728158 0.254975555924362 0 -0.41859921477497491 0.24134678005994381 0 -0.4362612258554292 0.23945830792229639 0 -0.43169248182785491 0.22769093537174559 0 -0.41859921477497491 0.24134678005994381 0 -0.4282964880421043 0.24988677976854409 0 -0.4362612258554292 0.23945830792229639 0 -0.4282964880421043 0.24988677976854409 0 -0.4362612258554292 0.23945830792229639 0 -0.43772017251073492 0.25071492700109782 0 -0.41859921477497491 0.24134678005994381 0 -0.43169248182785491 0.22769093537174559 0 -0.43169248182785491 0.22769093537174559 0 -0.42485320758727102 0.21007552783772829 0 -0.43169248182785491 0.22769093537174559 0 -0.42226993459444478 0.22000508375892411 0 -0.42485320758727102 0.21007552783772829 0 -0.43169248182785491 0.22769093537174559 0 -0.42226993459444478 0.22000508375892411 0 -0.41267999889491608 0.23241883219145479 0 -0.4362612258554292 0.23945830792229639 0 -0.43169248182785491 0.22769093537174559 0 -0.44217974833861018 0.23117374510529029 0 -0.4362612258554292 0.23945830792229639 0 -0.43169248182785491 0.22769093537174559 0 -0.41267999889491608 0.23241883219145479 0 -0.41985405006773729 0.20983503963476771 0 -0.42226993459444478 0.22000508375892411 0 -0.41267999889491608 0.23241883219145479 0 -0.41985405006773729 0.20983503963476771 0 -0.41859921477497491 0.24134678005994381 0 -0.43169248182785491 0.22769093537174559 0 -0.41267999889491608 0.23241883219145479 0 -0.41267999889491608 0.23241883219145479 0 -0.41985405006773729 0.20983503963476771 0 -0.40403262643857618 0.2145229080187219 0 -0.41985405006773729 0.20983503963476771 0 -0.42485320758727102 0.21007552783772829 0 -0.41801393334668852 0.1924601203037106 0 -0.41985405006773729 0.20983503963476771 0 -0.41801393334668852 0.1924601203037106 0 -0.40403262643857618 0.2145229080187219 0 -0.41801393334668852 0.1924601203037106 0 -0.40403262643857618 0.2145229080187219 0 -0.44414916323243669 0.21469902846995259 0 -0.42485320758727102 0.21007552783772829 0 -0.43631987780264891 0.20227650151428239 0 -0.42226993459444478 0.22000508375892411 0 -0.41985405006773729 0.20983503963476771 0 -0.42485320758727102 0.21007552783772829 0 -0.44414916323243669 0.21469902846995259 0 -0.43169248182785491 0.22769093537174559 0 -0.42485320758727102 0.21007552783772829 0 -0.43631987780264891 0.20227650151428239 0 -0.43559926904268398 0.19178202898532171 0 -0.41801393334668852 0.1924601203037106 0 -0.42485320758727102 0.21007552783772829 0 -0.43631987780264891 0.20227650151428239 0 -0.41801393334668852 0.1924601203037106 0 -0.43559926904268398 0.19178202898532171 0 -0.41801393334668852 0.1924601203037106 0 -0.43163287386523902 0.18366436928129631 0 -0.42485320758727102 0.21007552783772829 0 -0.41801393334668852 0.1924601203037106 0 -0.41801393334668852 0.1924601203037106 0 -0.39287567361042758 0.20016847000118521 0 -0.40403262643857618 0.2145229080187219 0 -0.39287567361042758 0.20016847000118521 0 -0.39867900368128989 0.18408477232761489 0 -0.3850326189331561 0.18590906179069941 0 -0.41801393334668852 0.1924601203037106 0 -0.39287567361042758 0.20016847000118521 0 -0.39867900368128989 0.18408477232761489 0 -0.39287567361042758 0.20016847000118521 0 -0.37672854268715572 0.19563282632865239 0 -0.3850326189331561 0.18590906179069941 0 -0.39287567361042758 0.20016847000118521 0 -0.37672854268715572 0.19563282632865239 0 -0.37734930586523291 0.20993929110379289 0 -0.37672854268715572 0.19563282632865239 0 -0.3850326189331561 0.18590906179069941 0 -0.37097276692626829 0.18302760571807669 0 -0.39287567361042758 0.20016847000118521 0 -0.37734930586523291 0.20993929110379289 0 -0.40403262643857618 0.2145229080187219 0 -0.40403262643857618 0.2145229080187219 0 -0.39005131953046379 0.23658569573373289 0 -0.41267999889491608 0.23241883219145479 0 -0.40403262643857618 0.2145229080187219 0 -0.39005131953046379 0.23658569573373289 0 -0.37734930586523291 0.20993929110379289 0 -0.40403262643857618 0.2145229080187219 0 -0.39005131953046379 0.23658569573373289 0 -0.37734930586523291 0.20993929110379289 0 -0.39005131953046379 0.23658569573373289 0 -0.37694323688959253 0.23439932673728911 0 -0.37734930586523291 0.20993929110379289 0 -0.39005131953046379 0.23658569573373289 0 -0.39005131953046379 0.23658569573373289 0 -0.37694323688959253 0.23439932673728911 0 -0.38451691437018648 0.2453191000558386 0 -0.37694323688959253 0.23439932673728911 0 -0.37932103441474058 0.25298974324206969 0 -0.36915274903456652 0.25566928348620699 0 -0.39005131953046379 0.23658569573373289 0 -0.38451691437018648 0.2453191000558386 0 -0.38810223377704772 0.25551313542616172 0 -0.39005131953046379 0.23658569573373289 0 -0.38451691437018648 0.2453191000558386 0 -0.37694323688959253 0.23439932673728911 0 -0.38451691437018648 0.2453191000558386 0 -0.37932103441474058 0.25298974324206969 0 -0.41267999889491608 0.23241883219145479 0 -0.39005131953046379 0.23658569573373289 0 -0.40242553196709552 0.24470377531646639 0 -0.39005131953046379 0.23658569573373289 0 -0.40242553196709552 0.24470377531646639 0 -0.40104719784854448 0.25965295346525019 0 -0.39005131953046379 0.23658569573373289 0 -0.40104719784854448 0.25965295346525019 0 -0.42017573626961202 0.15483878158004169 0 -0.41146242317091142 0.14401997619693069 0 -0.40415700465713261 0.15676986466402851 0 -0.42017573626961202 0.15483878158004169 0 -0.40415700465713261 0.15676986466402851 0 -0.42066057288072722 0.14109397054036399 0 -0.42017573626961202 0.15483878158004169 0 -0.41146242317091142 0.14401997619693069 0 -0.41146242317091142 0.14401997619693069 0 -0.41569433644902259 0.1300283974526143 0 -0.39662446559806291 0.1373688667476051 0 -0.42066057288072722 0.14109397054036399 0 -0.41569433644902259 0.1300283974526143 0 -0.42655355180998988 0.1335039983366452 0 -0.42066057288072722 0.14109397054036399 0 -0.41146242317091142 0.14401997619693069 0 -0.41569433644902259 0.1300283974526143 0 -0.44166118690236661 0.1141990990353316 0 -0.43232610777074748 0.12671768133931149 0 -0.4351558898741355 0.13625659157486539 0 -0.42066057288072722 0.14109397054036399 0 -0.42655355180998988 0.1335039983366452 0 -0.42774804374331121 0.14372020810559419 0 -0.42593380249649798 0.122911036410404 0 -0.41569433644902259 0.1300283974526143 0 -0.42655355180998988 0.1335039983366452 0 -0.42593380249649798 0.122911036410404 0 -0.42655355180998988 0.1335039983366452 0 -0.43232610777074748 0.12671768133931149 0 -0.42655355180998988 0.1335039983366452 0 -0.43232610777074748 0.12671768133931149 0 -0.4351558898741355 0.13625659157486539 0 -0.42655355180998988 0.1335039983366452 0 -0.4351558898741355 0.13625659157486539 0 -0.42774804374331121 0.14372020810559419 0 -0.42017573626961202 0.15483878158004169 0 -0.42774804374331121 0.14372020810559419 0 -0.43619446788209132 0.1529076984960541 0 -0.43892782739222752 0.13355339876569261 0 -0.4351558898741355 0.13625659157486539 0 -0.43619446788209132 0.1529076984960541 0 -0.4351558898741355 0.13625659157486539 0 -0.42774804374331121 0.14372020810559419 0 -0.43619446788209132 0.1529076984960541 0 -0.42017573626961202 0.15483878158004169 0 -0.43619446788209132 0.1529076984960541 0 -0.42066057288072722 0.14109397054036399 0 -0.42017573626961202 0.15483878158004169 0 -0.42774804374331121 0.14372020810559419 0 -0.43619446788209132 0.1529076984960541 0 -0.43718201005867269 0.16221250395562389 0 -0.43422033477101951 0.16688608801909749 0 -0.43619446788209132 0.1529076984960541 0 -0.43422033477101951 0.16688608801909749 0 -0.42017573626961202 0.15483878158004169 0 -0.43619446788209132 0.1529076984960541 0 -0.43422033477101951 0.16688608801909749 0 -0.43718201005867269 0.16221250395562389 0 -0.43422033477101951 0.16688608801909749 0 -0.42017573626961202 0.15483878158004169 0 -0.43422033477101951 0.16688608801909749 0 -0.42050326505379482 0.1678813055967753 0 -0.41801393334668852 0.1924601203037106 0 -0.43422033477101951 0.16688608801909749 0 -0.41801393334668852 0.1924601203037106 0 -0.43422033477101951 0.16688608801909749 0 -0.43163287386523902 0.18366436928129631 0 -0.41801393334668852 0.1924601203037106 0 -0.43422033477101951 0.16688608801909749 0 -0.42050326505379482 0.1678813055967753 0 -0.43767422444411569 0.1746794823769757 0 -0.43422033477101951 0.16688608801909749 0 -0.43163287386523902 0.18366436928129631 0 -0.44351322294470308 0.17822722575389219 0 -0.43559926904268398 0.19178202898532171 0 -0.43163287386523902 0.18366436928129631 0 -0.41801393334668852 0.1924601203037106 0 -0.41108546900190979 0.1746149924838698 0 -0.41801393334668852 0.1924601203037106 0 -0.41108546900190979 0.1746149924838698 0 -0.42050326505379482 0.1678813055967753 0 -0.41801393334668852 0.1924601203037106 0 -0.41108546900190979 0.1746149924838698 0 -0.39867900368128989 0.18408477232761489 0 -0.41108546900190979 0.1746149924838698 0 -0.40415700465713261 0.15676986466402851 0 -0.41108546900190979 0.1746149924838698 0 -0.42050326505379482 0.1678813055967753 0 -0.40415700465713261 0.15676986466402851 0 -0.42017573626961202 0.15483878158004169 0 -0.42050326505379482 0.1678813055967753 0 -0.40415700465713261 0.15676986466402851 0 -0.41108546900190979 0.1746149924838698 0 -0.40415700465713261 0.15676986466402851 0 -0.39534428027915131 0.1618220550041338 0 -0.40415700465713261 0.15676986466402851 0 -0.38558338154322369 0.15900894390396481 0 -0.40415700465713261 0.15676986466402851 0 -0.39534428027915131 0.1618220550041338 0 -0.38558338154322369 0.15900894390396481 0 -0.40415700465713261 0.15676986466402851 0 -0.38558338154322369 0.15900894390396481 0 -0.38633046356062622 0.15730723038013419 0 -0.41108546900190979 0.1746149924838698 0 -0.39534428027915131 0.1618220550041338 0 -0.39688529480840962 0.17323716544392539 0 -0.39534428027915131 0.1618220550041338 0 -0.39688529480840962 0.17323716544392539 0 -0.38862717087836302 0.16678832013349021 0 -0.39534428027915131 0.1618220550041338 0 -0.38890634277887071 0.16272584533863671 0 -0.38862717087836302 0.16678832013349021 0 -0.41108546900190979 0.1746149924838698 0 -0.39867900368128989 0.18408477232761489 0 -0.39688529480840962 0.17323716544392539 0 -0.39688529480840962 0.17323716544392539 0 -0.38917307754054581 0.1767937606458799 0 -0.38862717087836302 0.16678832013349021 0 -0.39867900368128989 0.18408477232761489 0 -0.39688529480840962 0.17323716544392539 0 -0.38917307754054581 0.1767937606458799 0 -0.39867900368128989 0.18408477232761489 0 -0.3850326189331561 0.18590906179069941 0 -0.38917307754054581 0.1767937606458799 0 -0.3850326189331561 0.18590906179069941 0 -0.38917307754054581 0.1767937606458799 0 -0.38067620473873198 0.17278676983865149 0 -0.38917307754054581 0.1767937606458799 0 -0.38067620473873198 0.17278676983865149 0 -0.38862717087836302 0.16678832013349021 0 -0.3850326189331561 0.18590906179069941 0 -0.38067620473873198 0.17278676983865149 0 -0.37097276692626829 0.18302760571807669 0 -0.39534428027915131 0.1618220550041338 0 -0.38558338154322369 0.15900894390396481 0 -0.38890634277887071 0.16272584533863671 0 -0.38607053841474498 0.16328406231295781 0 -0.38558338154322369 0.15900894390396481 0 -0.38207017271935012 0.16486868641080299 0 -0.38558338154322369 0.15900894390396481 0 -0.38633046356062622 0.15730723038013419 0 -0.38019707222607402 0.15785401462369211 0 -0.38607053841474498 0.16328406231295781 0 -0.38558338154322369 0.15900894390396481 0 -0.38890634277887071 0.16272584533863671 0 -0.38607053841474498 0.16328406231295781 0 -0.38890634277887071 0.16272584533863671 0 -0.38862717087836302 0.16678832013349021 0 -0.38067620473873198 0.17278676983865149 0 -0.38862717087836302 0.16678832013349021 0 -0.38207017271935012 0.16486868641080299 0 -0.38607053841474498 0.16328406231295781 0 -0.38862717087836302 0.16678832013349021 0 -0.38207017271935012 0.16486868641080299 0 -0.38067620473873198 0.17278676983865149 0 -0.38207017271935012 0.16486868641080299 0 -0.37416538136529881 0.16472317504898909 0 -0.38067620473873198 0.17278676983865149 0 -0.37416538136529881 0.16472317504898909 0 -0.37100330885703803 0.1725038782364812 0 -0.38019707222607402 0.15785401462369211 0 -0.37297402516570349 0.1524583679853265 0 -0.37416538136529881 0.16472317504898909 0 -0.38207017271935012 0.16486868641080299 0 -0.38019707222607402 0.15785401462369211 0 -0.37416538136529881 0.16472317504898909 0 -0.38558338154322369 0.15900894390396481 0 -0.38207017271935012 0.16486868641080299 0 -0.38019707222607402 0.15785401462369211 0 -0.38633046356062622 0.15730723038013419 0 -0.38115419474987189 0.14083981649663521 0 -0.38633046356062622 0.15730723038013419 0 -0.38115419474987189 0.14083981649663521 0 -0.38457764780669301 0.14065867352832551 0 -0.38633046356062622 0.15730723038013419 0 -0.38457764780669301 0.14065867352832551 0 -0.39205597568363332 0.15102466881248641 0 -0.38019707222607402 0.15785401462369211 0 -0.38011254467740863 0.1504705275631962 0 -0.37297402516570349 0.1524583679853265 0 -0.38633046356062622 0.15730723038013419 0 -0.38011254467740863 0.1504705275631962 0 -0.38115419474987189 0.14083981649663521 0 -0.38633046356062622 0.15730723038013419 0 -0.38019707222607402 0.15785401462369211 0 -0.38011254467740863 0.1504705275631962 0 -0.38011254467740863 0.1504705275631962 0 -0.38115419474987189 0.14083981649663521 0 -0.37297402516570349 0.1524583679853265 0 -0.38457764780669301 0.14065867352832551 0 -0.39205597568363332 0.15102466881248641 0 -0.38457764780669301 0.14065867352832551 0 -0.39205597568363332 0.15102466881248641 0 -0.38634561370396198 0.14056512628664489 0 -0.39205597568363332 0.15102466881248641 0 -0.39296857201064678 0.14373788862351991 0 -0.38634561370396198 0.14056512628664489 0 -0.38115419474987189 0.14083981649663521 0 -0.38457764780669301 0.14065867352832551 0 -0.39296857201064678 0.14373788862351991 0 -0.39049985717541141 0.13893277374746421 0 -0.38634561370396198 0.14056512628664489 0 -0.40415700465713261 0.15676986466402851 0 -0.38633046356062622 0.15730723038013419 0 -0.39205597568363332 0.15102466881248641 0 -0.40415700465713261 0.15676986466402851 0 -0.39205597568363332 0.15102466881248641 0 -0.39296857201064678 0.14373788862351991 0 -0.41146242317091142 0.14401997619693069 0 -0.40415700465713261 0.15676986466402851 0 -0.39662446559806291 0.1373688667476051 0 -0.40415700465713261 0.15676986466402851 0 -0.39662446559806291 0.1373688667476051 0 -0.40415700465713261 0.15676986466402851 0 -0.39296857201064678 0.14373788862351991 0 -0.39662446559806291 0.1373688667476051 0 -0.38909192653899338 0.1179678688311816 0 -0.39662446559806291 0.1373688667476051 0 -0.4032914301198407 0.12463496770649719 0 -0.38909192653899338 0.1179678688311816 0 -0.39662446559806291 0.1373688667476051 0 -0.4032914301198407 0.12463496770649719 0 -0.41569433644902259 0.1300283974526143 0 -0.39662446559806291 0.1373688667476051 0 -0.39662446559806291 0.1373688667476051 0 -0.39049985717541141 0.13893277374746421 0 -0.38606077738897399 0.1340592133320869 0 -0.39296857201064678 0.14373788862351991 0 -0.39662446559806291 0.1373688667476051 0 -0.39049985717541141 0.13893277374746421 0 -0.38909192653899338 0.1179678688311816 0 -0.38606077738897399 0.1340592133320869 0 -0.37840990618325931 0.1321093317991919 0 -0.38909192653899338 0.1179678688311816 0 -0.39662446559806291 0.1373688667476051 0 -0.38606077738897399 0.1340592133320869 0 -0.38457764780669301 0.14065867352832551 0 -0.38606077738897399 0.1340592133320869 0 -0.37840990618325931 0.1321093317991919 0 -0.39049985717541141 0.13893277374746421 0 -0.38606077738897399 0.1340592133320869 0 -0.38634561370396198 0.14056512628664489 0 -0.38457764780669301 0.14065867352832551 0 -0.38606077738897399 0.1340592133320869 0 -0.38634561370396198 0.14056512628664489 0 -0.38457764780669301 0.14065867352832551 0 -0.38634561370396198 0.14056512628664489 0 -0.38115419474987189 0.14083981649663521 0 -0.37840990618325931 0.1321093317991919 0 -0.3667819372444226 0.13213699316434049 0 -0.38115419474987189 0.14083981649663521 0 -0.37840990618325931 0.1321093317991919 0 -0.38115419474987189 0.14083981649663521 0 -0.38457764780669301 0.14065867352832551 0 -0.37840990618325931 0.1321093317991919 0 -0.38457764780669301 0.14065867352832551 0 -0.37840990618325931 0.1321093317991919 0 -0.38115419474987189 0.14083981649663521 0 -0.3667819372444226 0.13213699316434049 0 -0.3573844039846536 0.14209753213746781 0 -0.37840990618325931 0.1321093317991919 0 -0.3667819372444226 0.13213699316434049 0 -0.36676924979640702 0.1159737743328359 0 -0.3667819372444226 0.13213699316434049 0 -0.35019193150792199 0.12966451105557139 0 -0.36676924979640702 0.1159737743328359 0 -0.3667819372444226 0.13213699316434049 0 -0.35019193150792199 0.12966451105557139 0 -0.3573844039846536 0.14209753213746781 0 -0.35019193150792199 0.12966451105557139 0 -0.3573844039846536 0.14209753213746781 0 -0.33361461321943559 0.14335524777830511 0 -0.3573844039846536 0.14209753213746781 0 -0.34165393041108971 0.16128929664599331 0 -0.33361461321943559 0.14335524777830511 0 -0.3573844039846536 0.14209753213746781 0 -0.33361461321943559 0.14335524777830511 0 -0.3573844039846536 0.14209753213746781 0 -0.37297402516570349 0.1524583679853265 0 -0.35991308082528972 0.1689261962044922 0 -0.38115419474987189 0.14083981649663521 0 -0.3573844039846536 0.14209753213746781 0 -0.37297402516570349 0.1524583679853265 0 -0.38115419474987189 0.14083981649663521 0 -0.3573844039846536 0.14209753213746781 0 -0.37297402516570349 0.1524583679853265 0 -0.37416538136529881 0.16472317504898909 0 -0.35991308082528972 0.1689261962044922 0 -0.37416538136529881 0.16472317504898909 0 -0.35991308082528972 0.1689261962044922 0 -0.37100330885703803 0.1725038782364812 0 -0.35991308082528972 0.1689261962044922 0 -0.37097276692626829 0.18302760571807669 0 -0.36299297022838201 0.19784055863173039 0 -0.35991308082528972 0.1689261962044922 0 -0.36299297022838201 0.19784055863173039 0 -0.38067620473873198 0.17278676983865149 0 -0.37097276692626829 0.18302760571807669 0 -0.37100330885703803 0.1725038782364812 0 -0.35991308082528972 0.1689261962044922 0 -0.37097276692626829 0.18302760571807669 0 -0.37100330885703803 0.1725038782364812 0 -0.35991308082528972 0.1689261962044922 0 -0.34639364136940681 0.1855935196272562 0 -0.34165393041108971 0.16128929664599331 0 -0.35991308082528972 0.1689261962044922 0 -0.34639364136940681 0.1855935196272562 0 -0.36299297022838201 0.19784055863173039 0 -0.3573844039846536 0.14209753213746781 0 -0.35991308082528972 0.1689261962044922 0 -0.34165393041108971 0.16128929664599331 0 -0.34165393041108971 0.16128929664599331 0 -0.32740649838934799 0.1777713126547506 0 -0.32479047405478018 0.1506428538920164 0 -0.34639364136940681 0.1855935196272562 0 -0.34165393041108971 0.16128929664599331 0 -0.32740649838934799 0.1777713126547506 0 -0.32740649838934799 0.1777713126547506 0 -0.305618138929449 0.16647674137569499 0 -0.30774210079585063 0.18595033612138689 0 -0.32740649838934799 0.1777713126547506 0 -0.32479047405478018 0.1506428538920164 0 -0.32479047405478018 0.1506428538920164 0 -0.30957527900999621 0.15174393504622019 0 -0.305618138929449 0.16647674137569499 0 -0.32740649838934799 0.1777713126547506 0 -0.32479047405478018 0.1506428538920164 0 -0.305618138929449 0.16647674137569499 0 -0.32479047405478018 0.1506428538920164 0 -0.305618138929449 0.16647674137569499 0 -0.32479047405478018 0.1506428538920164 0 -0.32413608608346739 0.14385677898440369 0 -0.30957527900999621 0.15174393504622019 0 -0.32479047405478018 0.1506428538920164 0 -0.32413608608346739 0.14385677898440369 0 -0.33361461321943559 0.14335524777830511 0 -0.32479047405478018 0.1506428538920164 0 -0.32413608608346739 0.14385677898440369 0 -0.32413608608346739 0.14385677898440369 0 -0.33129204423798569 0.13105892619213061 0 -0.32208475727866309 0.122584274690567 0 -0.32413608608346739 0.14385677898440369 0 -0.32208475727866309 0.122584274690567 0 -0.32413608608346739 0.14385677898440369 0 -0.30622320745172521 0.12896916685240051 0 -0.32208475727866309 0.122584274690567 0 -0.32413608608346739 0.14385677898440369 0 -0.33129204423798569 0.13105892619213061 0 -0.33361461321943559 0.14335524777830511 0 -0.35019193150792199 0.12966451105557139 0 -0.33129204423798569 0.13105892619213061 0 -0.33361461321943559 0.14335524777830511 0 -0.35019193150792199 0.12966451105557139 0 -0.33129204423798569 0.13105892619213061 0 -0.33858927493192442 0.12089308754380949 0 -0.35019193150792199 0.12966451105557139 0 -0.33361461321943559 0.14335524777830511 0 -0.34165393041108971 0.16128929664599331 0 -0.32479047405478018 0.1506428538920164 0 -0.33361461321943559 0.14335524777830511 0 -0.32479047405478018 0.1506428538920164 0 -0.33361461321943559 0.14335524777830511 0 -0.32413608608346739 0.14385677898440369 0 -0.33361461321943559 0.14335524777830511 0 -0.35133167286781808 0.2424725474208298 0 -0.36607285963147418 0.22675492105896861 0 -0.36915274903456652 0.25566928348620699 0 -0.37694323688959253 0.23439932673728911 0 -0.36607285963147418 0.22675492105896861 0 -0.36915274903456652 0.25566928348620699 0 -0.36607285963147418 0.22675492105896861 0 -0.36915274903456652 0.25566928348620699 0 -0.37734930586523291 0.20993929110379289 0 -0.37694323688959253 0.23439932673728911 0 -0.36607285963147418 0.22675492105896861 0 -0.35133167286781808 0.2424725474208298 0 -0.36607285963147418 0.22675492105896861 0 -0.34919716985391253 0.2139312670886703 0 -0.35133167286781808 0.2424725474208298 0 -0.34919716985391253 0.2139312670886703 0 -0.33263854705848861 0.23202823018021829 0 -0.36607285963147418 0.22675492105896861 0 -0.34919716985391253 0.2139312670886703 0 -0.36299297022838201 0.19784055863173039 0 -0.37734930586523291 0.20993929110379289 0 -0.36607285963147418 0.22675492105896861 0 -0.36299297022838201 0.19784055863173039 0 -0.36607285963147418 0.22675492105896861 0 -0.36299297022838201 0.19784055863173039 0 -0.37672854268715572 0.19563282632865239 0 -0.37734930586523291 0.20993929110379289 0 -0.36299297022838201 0.19784055863173039 0 -0.37672854268715572 0.19563282632865239 0 -0.37097276692626829 0.18302760571807669 0 -0.36299297022838201 0.19784055863173039 0 -0.34639364136940681 0.1855935196272562 0 -0.34919716985391253 0.2139312670886703 0 -0.36299297022838201 0.19784055863173039 0 -0.32740649838934799 0.1777713126547506 0 -0.3300225227239183 0.20489977141748439 0 -0.34639364136940681 0.1855935196272562 0 -0.32740649838934799 0.1777713126547506 0 -0.3300225227239183 0.20489977141748439 0 -0.34639364136940681 0.1855935196272562 0 -0.34919716985391253 0.2139312670886703 0 -0.3300225227239183 0.20489977141748439 0 -0.32740649838934799 0.1777713126547506 0 -0.3300225227239183 0.20489977141748439 0 -0.30774210079585063 0.18595033612138689 0 -0.3300225227239183 0.20489977141748439 0 -0.30730395823845919 0.21196960038210019 0 -0.30774210079585063 0.18595033612138689 0 -0.3300225227239183 0.20489977141748439 0 -0.33263854705848861 0.23202823018021829 0 -0.30730395823845919 0.21196960038210019 0 -0.34919716985391253 0.2139312670886703 0 -0.3300225227239183 0.20489977141748439 0 -0.33263854705848861 0.23202823018021829 0 -0.3300225227239183 0.20489977141748439 0 -0.33263854705848861 0.23202823018021829 0 -0.33263854705848861 0.23202823018021829 0 -0.30686581568106769 0.23798886464281349 0 -0.30730395823845919 0.21196960038210019 0 -0.33263854705848861 0.23202823018021829 0 -0.30686581568106769 0.23798886464281349 0 -0.31789211441409582 0.25254709093973182 0 -0.35133167286781808 0.2424725474208298 0 -0.33263854705848861 0.23202823018021829 0 -0.33525457139305892 0.25915668894295218 0 -0.33263854705848861 0.23202823018021829 0 -0.33525457139305892 0.25915668894295218 0 -0.31789211441409582 0.25254709093973182 0 -0.33263854705848861 0.23202823018021829 0 -0.33525457139305892 0.25915668894295218 0 -0.2899989795542729 0.24486950085420761 0 -0.29408383653625902 0.2253321871639847 0 -0.2760619365235415 0.23659168646386519 0 -0.2899989795542729 0.24486950085420761 0 -0.30686581568106769 0.23798886464281349 0 -0.29408383653625902 0.2253321871639847 0 -0.2899989795542729 0.24486950085420761 0 -0.30686581568106769 0.23798886464281349 0 -0.2971181007736664 0.25582851233644582 0 -0.30686581568106769 0.23798886464281349 0 -0.30730395823845919 0.21196960038210019 0 -0.30686581568106769 0.23798886464281349 0 -0.29408383653625902 0.2253321871639847 0 -0.30730395823845919 0.21196960038210019 0 -0.29408383653625902 0.2253321871639847 0 -0.27819978129767292 0.22064927273689941 0 -0.2760619365235415 0.23659168646386519 0 -0.29408383653625902 0.2253321871639847 0 -0.30730395823845919 0.21196960038210019 0 -0.28732756943741011 0.2029025851974173 0 -0.29408383653625902 0.2253321871639847 0 -0.28732756943741011 0.2029025851974173 0 -0.27819978129767292 0.22064927273689941 0 -0.30730395823845919 0.21196960038210019 0 -0.29720485806895919 0.19578328764006919 0 -0.28732756943741011 0.2029025851974173 0 -0.30730395823845919 0.21196960038210019 0 -0.30774210079585063 0.18595033612138689 0 -0.29720485806895919 0.19578328764006919 0 -0.30774210079585063 0.18595033612138689 0 -0.28644580380411688 0.18231062885937249 0 -0.30730395823845919 0.21196960038210019 0 -0.29720485806895919 0.19578328764006919 0 -0.30774210079585063 0.18595033612138689 0 -0.29720485806895919 0.19578328764006919 0 -0.28732756943741011 0.2029025851974173 0 -0.28644580380411688 0.18231062885937249 0 -0.26727346867878482 0.19814451634305011 0 -0.28644580380411688 0.18231062885937249 0 -0.2722076947635087 0.18676127759427649 0 -0.28732756943741011 0.2029025851974173 0 -0.26727346867878482 0.19814451634305011 0 -0.28644580380411688 0.18231062885937249 0 -0.26727346867878482 0.19814451634305011 0 -0.28644580380411688 0.18231062885937249 0 -0.26727346867878482 0.19814451634305011 0 -0.25648073665227261 0.18687062157390491 0 -0.24367487473232161 0.19750531195026799 0 -0.26727346867878482 0.19814451634305011 0 -0.2722076947635087 0.18676127759427649 0 -0.25648073665227261 0.18687062157390491 0 -0.26727346867878482 0.19814451634305011 0 -0.24810113355345259 0.21397840382672759 0 -0.26727346867878482 0.19814451634305011 0 -0.24810113355345259 0.21397840382672759 0 -0.24367487473232161 0.19750531195026799 0 -0.26727346867878482 0.19814451634305011 0 -0.26557897206011832 0.21498081459262891 0 -0.24810113355345259 0.21397840382672759 0 -0.26727346867878482 0.19814451634305011 0 -0.26557897206011832 0.21498081459262891 0 -0.27507740570568279 0.20848650486883941 0 -0.28732756943741011 0.2029025851974173 0 -0.26727346867878482 0.19814451634305011 0 -0.27507740570568279 0.20848650486883941 0 -0.26557897206011832 0.21498081459262891 0 -0.27507740570568279 0.20848650486883941 0 -0.27819978129767292 0.22064927273689941 0 -0.28732756943741011 0.2029025851974173 0 -0.27507740570568279 0.20848650486883941 0 -0.27819978129767292 0.22064927273689941 0 -0.27819978129767292 0.22064927273689941 0 -0.26110012984312192 0.22817444719966359 0 -0.2760619365235415 0.23659168646386519 0 -0.26557897206011832 0.21498081459262891 0 -0.27819978129767292 0.22064927273689941 0 -0.26110012984312192 0.22817444719966359 0 -0.26557897206011832 0.21498081459262891 0 -0.26110012984312192 0.22817444719966359 0 -0.24810113355345259 0.21397840382672759 0 -0.26110012984312192 0.22817444719966359 0 -0.2760619365235415 0.23659168646386519 0 -0.25781088981188399 0.25136430228956153 0 -0.26110012984312192 0.22817444719966359 0 -0.25781088981188399 0.25136430228956153 0 -0.23952164582320559 0.2315480128826049 0 -0.2760619365235415 0.23659168646386519 0 -0.27664963471256893 0.25303831249354092 0 -0.25781088981188399 0.25136430228956153 0 -0.2899989795542729 0.24486950085420761 0 -0.2760619365235415 0.23659168646386519 0 -0.27664963471256893 0.25303831249354092 0 -0.29572016603304102 0.14536033227390621 0 -0.26730424598261487 0.14686388556341989 0 -0.29572016603304102 0.14536033227390621 0 -0.26730424598261487 0.14686388556341989 0 -0.28079554064874263 0.15518921445408199 0 -0.29572016603304102 0.14536033227390621 0 -0.29259464440369681 0.15860803806622381 0 -0.28079554064874263 0.15518921445408199 0 -0.29572016603304102 0.14536033227390621 0 -0.29083033965237148 0.13049642626536109 0 -0.27654702216108867 0.13688649240799031 0 -0.32413608608346739 0.14385677898440369 0 -0.29572016603304102 0.14536033227390621 0 -0.30622320745172521 0.12896916685240051 0 -0.29572016603304102 0.14536033227390621 0 -0.29083033965237148 0.13049642626536109 0 -0.30622320745172521 0.12896916685240051 0 -0.29083033965237148 0.13049642626536109 0 -0.30622320745172521 0.12896916685240051 0 -0.295109501307662 0.1163797382113573 0 -0.32413608608346739 0.14385677898440369 0 -0.29572016603304102 0.14536033227390621 0 -0.30957527900999621 0.15174393504622019 0 -0.32413608608346739 0.14385677898440369 0 -0.29572016603304102 0.14536033227390621 0 -0.29572016603304102 0.14536033227390621 0 -0.30957527900999621 0.15174393504622019 0 -0.29259464440369681 0.15860803806622381 0 -0.30957527900999621 0.15174393504622019 0 -0.305618138929449 0.16647674137569499 0 -0.29259464440369681 0.15860803806622381 0 -0.305618138929449 0.16647674137569499 0 -0.30774210079585063 0.18595033612138689 0 -0.28644580380411688 0.18231062885937249 0 -0.305618138929449 0.16647674137569499 0 -0.28644580380411688 0.18231062885937249 0 -0.2882435169675665 0.16920667394388669 0 -0.305618138929449 0.16647674137569499 0 -0.28644580380411688 0.18231062885937249 0 -0.28644580380411688 0.18231062885937249 0 -0.2882435169675665 0.16920667394388669 0 -0.27631513679009168 0.17490147752952259 0 -0.305618138929449 0.16647674137569499 0 -0.29259464440369681 0.15860803806622381 0 -0.2882435169675665 0.16920667394388669 0 -0.2882435169675665 0.16920667394388669 0 -0.28024386091047843 0.16373648388861961 0 -0.27631513679009168 0.17490147752952259 0 -0.29259464440369681 0.15860803806622381 0 -0.2882435169675665 0.16920667394388669 0 -0.28024386091047843 0.16373648388861961 0 -0.29259464440369681 0.15860803806622381 0 -0.28024386091047843 0.16373648388861961 0 -0.28079554064874263 0.15518921445408199 0 -0.28024386091047843 0.16373648388861961 0 -0.26811478591388171 0.16137733247823929 0 -0.28079554064874263 0.15518921445408199 0 -0.28024386091047843 0.16373648388861961 0 -0.26811478591388171 0.16137733247823929 0 -0.27631513679009168 0.17490147752952259 0 -0.26811478591388171 0.16137733247823929 0 -0.27631513679009168 0.17490147752952259 0 -0.26293249437346061 0.17417838828237939 0 -0.28644580380411688 0.18231062885937249 0 -0.27631513679009168 0.17490147752952259 0 -0.2722076947635087 0.18676127759427649 0 -0.27631513679009168 0.17490147752952259 0 -0.2722076947635087 0.18676127759427649 0 -0.26293249437346061 0.17417838828237939 0 -0.2722076947635087 0.18676127759427649 0 -0.26293249437346061 0.17417838828237939 0 -0.25648073665227261 0.18687062157390491 0 -0.26293249437346061 0.17417838828237939 0 -0.23781002699758311 0.17870230866743159 0 -0.2722076947635087 0.18676127759427649 0 -0.25648073665227261 0.18687062157390491 0 -0.26293249437346061 0.17417838828237939 0 -0.26293249437346061 0.17417838828237939 0 -0.2536572939834123 0.1615954989704822 0 -0.23781002699758311 0.17870230866743159 0 -0.26811478591388171 0.16137733247823929 0 -0.2536572939834123 0.1615954989704822 0 -0.26730424598261487 0.14686388556341989 0 -0.26293249437346061 0.17417838828237939 0 -0.2536572939834123 0.1615954989704822 0 -0.26811478591388171 0.16137733247823929 0 -0.26293249437346061 0.17417838828237939 0 -0.2536572939834123 0.1615954989704822 0 -0.26730424598261487 0.14686388556341989 0 -0.25476938840562069 0.1372802280036049 0 -0.24371814192234381 0.14811188190785471 0 -0.26730424598261487 0.14686388556341989 0 -0.24371814192234381 0.14811188190785471 0 -0.2536572939834123 0.1615954989704822 0 -0.26730424598261487 0.14686388556341989 0 -0.24371814192234381 0.14811188190785471 0 -0.2536572939834123 0.1615954989704822 0 -0.26730424598261487 0.14686388556341989 0 -0.26811478591388171 0.16137733247823929 0 -0.26730424598261487 0.14686388556341989 0 -0.28079554064874263 0.15518921445408199 0 -0.29572016603304102 0.14536033227390621 0 -0.26730424598261487 0.14686388556341989 0 -0.27654702216108867 0.13688649240799031 0 -0.26730424598261487 0.14686388556341989 0 -0.27654702216108867 0.13688649240799031 0 -0.27654702216108867 0.13688649240799031 0 -0.26500563460956889 0.13239003497903881 0 -0.27253433668972382 0.1173207152419086 0 -0.29083033965237148 0.13049642626536109 0 -0.27654702216108867 0.13688649240799031 0 -0.27253433668972382 0.1173207152419086 0 -0.26730424598261487 0.14686388556341989 0 -0.27654702216108867 0.13688649240799031 0 -0.26500563460956889 0.13239003497903881 0 -0.26500563460956889 0.13239003497903881 0 -0.25453811914305119 0.12576788457430249 0 -0.27253433668972382 0.1173207152419086 0 -0.26500563460956889 0.13239003497903881 0 -0.25476938840562069 0.1372802280036049 0 -0.25453811914305119 0.12576788457430249 0 -0.26730424598261487 0.14686388556341989 0 -0.26500563460956889 0.13239003497903881 0 -0.25476938840562069 0.1372802280036049 0 -0.25476938840562069 0.1372802280036049 0 -0.25453811914305119 0.12576788457430249 0 -0.2442444782567518 0.12789030222594441 0 -0.25453811914305119 0.12576788457430249 0 -0.27253433668972382 0.1173207152419086 0 -0.24892577662476259 0.1122456537265426 0 -0.25933948796623668 0.096857220817064382 0 -0.27253433668972382 0.1173207152419086 0 -0.24892577662476259 0.1122456537265426 0 -0.25933948796623668 0.096857220817064382 0 -0.27253433668972382 0.1173207152419086 0 -0.28385335015024971 0.10071131876226749 0 -0.29083033965237148 0.13049642626536109 0 -0.27253433668972382 0.1173207152419086 0 -0.295109501307662 0.1163797382113573 0 -0.27253433668972382 0.1173207152419086 0 -0.295109501307662 0.1163797382113573 0 -0.28385335015024971 0.10071131876226749 0 -0.295109501307662 0.1163797382113573 0 -0.28385335015024971 0.10071131876226749 0 -0.30369859037706359 0.1016576551961615 0 -0.28385335015024971 0.10071131876226749 0 -0.30369859037706359 0.1016576551961615 0 -0.29614563577855829 0.087169748212200054 0 -0.30369859037706359 0.1016576551961615 0 -0.30942989697779472 0.11418052106944331 0 -0.32003342847385929 0.1013117703967302 0 -0.30622320745172521 0.12896916685240051 0 -0.295109501307662 0.1163797382113573 0 -0.30942989697779472 0.11418052106944331 0 -0.295109501307662 0.1163797382113573 0 -0.30369859037706359 0.1016576551961615 0 -0.30942989697779472 0.11418052106944331 0 -0.30517264194619143 0.067092280553349995 0 -0.29614563577855829 0.087169748212200054 0 -0.31798209966905411 0.080039266102893442 0 -0.30369859037706359 0.1016576551961615 0 -0.29614563577855829 0.087169748212200054 0 -0.31798209966905411 0.080039266102893442 0 -0.29614563577855829 0.087169748212200054 0 -0.31798209966905411 0.080039266102893442 0 -0.28385335015024971 0.10071131876226749 0 -0.29614563577855829 0.087169748212200054 0 -0.27467601573054778 0.080119922530864585 0 -0.29614563577855829 0.087169748212200054 0 -0.28817896684886601 0.066893501114747608 0 -0.27467601573054778 0.080119922530864585 0 -0.30517264194619143 0.067092280553349995 0 -0.29614563577855829 0.087169748212200054 0 -0.28817896684886601 0.066893501114747608 0 -0.28817896684886601 0.066893501114747608 0 -0.27467601573054778 0.080119922530864585 0 -0.27055438399581078 0.057336971701907359 0 -0.25933948796623668 0.096857220817064382 0 -0.28385335015024971 0.10071131876226749 0 -0.27467601573054778 0.080119922530864585 0 -0.25933948796623668 0.096857220817064382 0 -0.27467601573054778 0.080119922530864585 0 -0.24905342308690939 0.07265575326688023 0 -0.27467601573054778 0.080119922530864585 0 -0.27055438399581078 0.057336971701907359 0 -0.24905342308690939 0.07265575326688023 0 -0.25295519749278128 0.046060126382706901 0 -0.27055438399581078 0.057336971701907359 0 -0.24905342308690939 0.07265575326688023 0 -0.25295519749278128 0.046060126382706901 0 -0.27148554486690663 0.037020516873759242 0 -0.25860103273555779 0.022298115928908981 0 -0.25295519749278128 0.046060126382706901 0 -0.27148554486690663 0.037020516873759242 0 -0.27055438399581078 0.057336971701907359 0 -0.27148554486690663 0.037020516873759242 0 -0.27055438399581078 0.057336971701907359 0 -0.29329849524067791 0.042322372724515951 0 -0.26649498000560651 -0.0041329229669573231 0 -0.25860103273555779 0.022298115928908981 0 -0.2436265138743488 0.0065037479392753318 0 -0.27148554486690663 0.037020516873759242 0 -0.25860103273555779 0.022298115928908981 0 -0.27982590590507278 0.01874199208089131 0 -0.26649498000560651 -0.0041329229669573231 0 -0.27982590590507278 0.01874199208089131 0 -0.28788476338416141 0.0020438274912654162 0 -0.26649498000560651 -0.0041329229669573231 0 -0.25860103273555779 0.022298115928908981 0 -0.27982590590507278 0.01874199208089131 0 -0.27982590590507278 0.01874199208089131 0 -0.28788476338416141 0.0020438274912654162 0 -0.29995924487435471 0.013897476485999869 0 -0.28788476338416141 0.0020438274912654162 0 -0.29995924487435471 0.013897476485999869 0 -0.29990889168979129 0.001231685760085421 0 -0.27982590590507278 0.01874199208089131 0 -0.29995924487435471 0.013897476485999869 0 -0.29329849524067791 0.042322372724515951 0 -0.29995924487435471 0.013897476485999869 0 -0.29329849524067791 0.042322372724515951 0 -0.31276357404145111 0.025922583998714749 0 -0.31015431122765103 -0.0011357570533747129 0 -0.29995924487435471 0.013897476485999869 0 -0.31276357404145111 0.025922583998714749 0 -0.31015431122765103 -0.0011357570533747129 0 -0.31276357404145111 0.025922583998714749 0 -0.31015431122765103 -0.0011357570533747129 0 -0.29995924487435471 0.013897476485999869 0 -0.29990889168979129 0.001231685760085421 0 -0.28817896684886601 0.066893501114747608 0 -0.27055438399581078 0.057336971701907359 0 -0.29329849524067791 0.042322372724515951 0 -0.30517264194619143 0.067092280553349995 0 -0.28817896684886601 0.066893501114747608 0 -0.29329849524067791 0.042322372724515951 0 -0.27148554486690663 0.037020516873759242 0 -0.27982590590507278 0.01874199208089131 0 -0.29329849524067791 0.042322372724515951 0 -0.29329849524067791 0.042322372724515951 0 -0.31537283685525319 0.052980925050804012 0 -0.31276357404145111 0.025922583998714749 0 -0.30517264194619143 0.067092280553349995 0 -0.29329849524067791 0.042322372724515951 0 -0.31537283685525319 0.052980925050804012 0 -0.31537283685525319 0.052980925050804012 0 -0.32994070918408352 0.050608272363797648 0 -0.32845745096709777 0.062868329836740899 0 -0.31537283685525319 0.052980925050804012 0 -0.32580092886811041 0.038670858767216897 0 -0.32994070918408352 0.050608272363797648 0 -0.31537283685525319 0.052980925050804012 0 -0.31276357404145111 0.025922583998714749 0 -0.31537283685525319 0.052980925050804012 0 -0.32580092886811041 0.038670858767216897 0 -0.31276357404145111 0.025922583998714749 0 -0.32580092886811041 0.038670858767216897 0 -0.33657588650589948 0.039208796625667793 0 -0.32994070918408352 0.050608272363797648 0 -0.33657588650589948 0.039208796625667793 0 -0.341200211733929 0.048399627327561839 0 -0.32994070918408352 0.050608272363797648 0 -0.33657588650589948 0.039208796625667793 0 -0.33435163775386478 0.024633715797100251 0 -0.35618221017345042 0.033204771868646253 0 -0.32580092886811041 0.038670858767216897 0 -0.33657588650589948 0.039208796625667793 0 -0.33435163775386478 0.024633715797100251 0 -0.33446751874597103 0.060820647257051663 0 -0.34883473406023902 0.058155648522645369 0 -0.341200211733929 0.048399627327561839 0 -0.33446751874597103 0.060820647257051663 0 -0.34883473406023902 0.058155648522645369 0 -0.33446751874597103 0.060820647257051663 0 -0.34883473406023902 0.058155648522645369 0 -0.33886889152693972 0.066889185511359639 0 -0.33446751874597103 0.060820647257051663 0 -0.32994070918408352 0.050608272363797648 0 -0.32845745096709777 0.062868329836740899 0 -0.341200211733929 0.048399627327561839 0 -0.33446751874597103 0.060820647257051663 0 -0.32994070918408352 0.050608272363797648 0 -0.31015431122765103 -0.0011357570533747129 0 -0.31276357404145111 0.025922583998714749 0 -0.32999606532842318 0.0078641208590209677 0 -0.31015431122765103 -0.0011357570533747129 0 -0.32999606532842318 0.0078641208590209677 0 -0.31276357404145111 0.025922583998714749 0 -0.33435163775386478 0.024633715797100251 0 -0.32999606532842318 0.0078641208590209677 0 -0.32580092886811041 0.038670858767216897 0 -0.31276357404145111 0.025922583998714749 0 -0.33435163775386478 0.024633715797100251 0 -0.33435163775386478 0.024633715797100251 0 -0.32999606532842318 0.0078641208590209677 0 -0.34983781942919512 0.016863998771417581 0 -0.32999606532842318 0.0078641208590209677 0 -0.34983781942919512 0.016863998771417581 0 -0.34000851592018583 -0.0084526036919412573 0 -0.32999606532842318 0.0078641208590209677 0 -0.34983781942919512 0.016863998771417581 0 -0.34000851592018583 -0.0084526036919412573 0 -0.35053270008252568 0.00024745909662373121 0 -0.34983781942919512 0.016863998771417581 0 -0.34000851592018583 -0.0084526036919412573 0 -0.34983781942919512 0.016863998771417581 0 -0.35053270008252568 0.00024745909662373121 0 -0.35568206354986281 0.01074396172471042 0 -0.34983781942919512 0.016863998771417581 0 -0.35707862334528662 0.002397725235558461 0 -0.35053270008252568 0.00024745909662373121 0 -0.35568206354986281 0.01074396172471042 0 -0.35568206354986281 0.01074396172471042 0 -0.34983781942919512 0.016863998771417581 0 -0.36081530526007588 0.017471507513447278 0 -0.35707862334528662 0.002397725235558461 0 -0.36081530526007588 0.017471507513447278 0 -0.35707862334528662 0.002397725235558461 0 -0.35568206354986281 0.01074396172471042 0 -0.36081530526007588 0.017471507513447278 0 -0.34983781942919512 0.016863998771417581 0 -0.35618221017345042 0.033204771868646253 0 -0.34983781942919512 0.016863998771417581 0 -0.35967963209551401 0.021328075484782268 0 -0.35618221017345042 0.033204771868646253 0 -0.33435163775386478 0.024633715797100251 0 -0.34983781942919512 0.016863998771417581 0 -0.35618221017345042 0.033204771868646253 0 -0.34983781942919512 0.016863998771417581 0 -0.35967963209551401 0.021328075484782268 0 -0.36081530526007588 0.017471507513447278 0 -0.34983781942919512 0.016863998771417581 0 -0.35967963209551401 0.021328075484782268 0 -0.35967963209551401 0.021328075484782268 0 -0.35618221017345042 0.033204771868646253 0 -0.36203630467332898 0.022397021575539001 0 -0.35967963209551401 0.021328075484782268 0 -0.35618221017345042 0.033204771868646253 0 -0.36203630467332898 0.022397021575539001 0 -0.36598344244587838 0.038319783202294663 0 -0.38481987753503039 0.032731257808996342 0 -0.36203630467332898 0.022397021575539001 0 -0.36598344244587838 0.038319783202294663 0 -0.38481987753503039 0.032731257808996342 0 -0.37124240922392238 0.0159546708235399 0 -0.36203630467332898 0.022397021575539001 0 -0.38481987753503039 0.032731257808996342 0 -0.36203630467332898 0.022397021575539001 0 -0.37124240922392238 0.0159546708235399 0 -0.36203630467332898 0.022397021575539001 0 -0.36081530526007588 0.017471507513447278 0 -0.36203630467332898 0.022397021575539001 0 -0.36081530526007588 0.017471507513447278 0 -0.36203630467332898 0.022397021575539001 0 -0.35967963209551401 0.021328075484782268 0 -0.36081530526007588 0.017471507513447278 0 -0.36203630467332898 0.022397021575539001 0 -0.35967963209551401 0.021328075484782268 0 -0.35967963209551401 0.021328075484782268 0 -0.36081530526007588 0.017471507513447278 0 -0.37124240922392238 0.0159546708235399 0 -0.36081530526007588 0.017471507513447278 0 -0.36302940953166712 0.0099527566215273158 0 -0.35707862334528662 0.002397725235558461 0 -0.36081530526007588 0.017471507513447278 0 -0.36302940953166712 0.0099527566215273158 0 -0.36081530526007588 0.017471507513447278 0 -0.36302940953166712 0.0099527566215273158 0 -0.37124240922392238 0.0159546708235399 0 -0.36302940953166712 0.0099527566215273158 0 -0.37105926560901481 0.0060949122395229484 0 -0.3726509171759278 -0.0042871194606509278 0 -0.37105926560901481 0.0060949122395229484 0 -0.36524667940101929 0.001494106089630491 0 -0.35707862334528662 0.002397725235558461 0 -0.36302940953166712 0.0099527566215273158 0 -0.36524667940101929 0.001494106089630491 0 -0.36302940953166712 0.0099527566215273158 0 -0.37105926560901481 0.0060949122395229484 0 -0.36524667940101929 0.001494106089630491 0 -0.34883473406023902 0.058155648522645369 0 -0.36472512292145498 0.05520811378622488 0 -0.34883473406023902 0.058155648522645369 0 -0.35618221017345042 0.033204771868646253 0 -0.36472512292145498 0.05520811378622488 0 -0.341200211733929 0.048399627327561839 0 -0.34883473406023902 0.058155648522645369 0 -0.35618221017345042 0.033204771868646253 0 -0.34883473406023902 0.058155648522645369 0 -0.35618221017345042 0.033204771868646253 0 -0.33657588650589948 0.039208796625667793 0 -0.341200211733929 0.048399627327561839 0 -0.35618221017345042 0.033204771868646253 0 -0.36203630467332898 0.022397021575539001 0 -0.35618221017345042 0.033204771868646253 0 -0.36598344244587838 0.038319783202294663 0 -0.36598344244587838 0.038319783202294663 0 -0.36993058021841713 0.054242544829053038 0 -0.35618221017345042 0.033204771868646253 0 -0.36472512292145498 0.05520811378622488 0 -0.35618221017345042 0.033204771868646253 0 -0.36598344244587838 0.038319783202294663 0 -0.36472512292145498 0.05520811378622488 0 -0.37682581693674783 0.044112443563187477 0 -0.36598344244587838 0.038319783202294663 0 -0.36993058021841713 0.054242544829053038 0 -0.36598344244587838 0.038319783202294663 0 -0.36993058021841713 0.054242544829053038 0 -0.36472512292145498 0.05520811378622488 0 -0.34883473406023902 0.058155648522645369 0 -0.36472512292145498 0.05520811378622488 0 -0.36802186081064481 0.063699275188457111 0 -0.36472512292145498 0.05520811378622488 0 -0.36802186081064481 0.063699275188457111 0 -0.36472512292145498 0.05520811378622488 0 -0.36865847862269169 0.058891110035255753 0 -0.36802186081064481 0.063699275188457111 0 -0.36993058021841713 0.054242544829053038 0 -0.37195635054025011 0.062414506337287262 0 -0.36865847862269169 0.058891110035255753 0 -0.37195635054025011 0.062414506337287262 0 -0.36802186081064481 0.063699275188457111 0 -0.36993058021841713 0.054242544829053038 0 -0.36865847862269169 0.058891110035255753 0 -0.37195635054025011 0.062414506337287262 0 -0.36993058021841713 0.054242544829053038 0 -0.36472512292145498 0.05520811378622488 0 -0.36865847862269169 0.058891110035255753 0 -0.36993058021841713 0.054242544829053038 0 -0.36472512292145498 0.05520811378622488 0 -0.37606216253438818 0.078977360089605125 0 -0.37195635054025011 0.062414506337287262 0 -0.37606216253438818 0.078977360089605125 0 -0.36802186081064481 0.063699275188457111 0 -0.37460000895301448 0.080642119746363317 0 -0.37606216253438818 0.078977360089605125 0 -0.37195635054025011 0.062414506337287262 0 -0.36802186081064481 0.063699275188457111 0 -0.36802186081064481 0.063699275188457111 0 -0.35843293601706139 0.068556018033569061 0 -0.37460000895301448 0.080642119746363317 0 -0.36802186081064481 0.063699275188457111 0 -0.37460000895301448 0.080642119746363317 0 -0.37195635054025011 0.062414506337287262 0 -0.36802186081064481 0.063699275188457111 0 -0.36802186081064481 0.063699275188457111 0 -0.35843293601706139 0.068556018033569061 0 -0.34498728279673668 0.071220989658678693 0 -0.36802186081064481 0.063699275188457111 0 -0.34498728279673668 0.071220989658678693 0 -0.34883473406023902 0.058155648522645369 0 -0.36802186081064481 0.063699275188457111 0 -0.34498728279673668 0.071220989658678693 0 -0.35843293601706139 0.068556018033569061 0 -0.35311566184740067 0.075054599765780064 0 -0.34498728279673668 0.071220989658678693 0 -0.35843293601706139 0.068556018033569061 0 -0.35311566184740067 0.075054599765780064 0 -0.35740598056362632 0.080684782047185377 0 -0.34498728279673668 0.071220989658678693 0 -0.35017187856026971 0.080543629712927695 0 -0.34194252599597419 0.081560506277269268 0 -0.35311566184740067 0.075054599765780064 0 -0.34498728279673668 0.071220989658678693 0 -0.35017187856026971 0.080543629712927695 0 -0.34883473406023902 0.058155648522645369 0 -0.34498728279673668 0.071220989658678693 0 -0.33886889152693972 0.066889185511359639 0 -0.34883473406023902 0.058155648522645369 0 -0.34498728279673668 0.071220989658678693 0 -0.3462452771292559 0.087524713609506255 0 -0.36374822244059729 0.092997604573309883 0 -0.3462452771292559 0.087524713609506255 0 -0.35852713286960403 0.087229661451186019 0 -0.36374822244059729 0.092997604573309883 0 -0.3462452771292559 0.087524713609506255 0 -0.34664907259206962 0.098001422197530524 0 -0.33860838109107422 0.092882739515861207 0 -0.3462452771292559 0.087524713609506255 0 -0.35017187856026971 0.080543629712927695 0 -0.34194252599597419 0.081560506277269268 0 -0.3462452771292559 0.087524713609506255 0 -0.34194252599597419 0.081560506277269268 0 -0.35017187856026971 0.080543629712927695 0 -0.35740598056362632 0.080684782047185377 0 -0.35852713286960403 0.087229661451186019 0 -0.3462452771292559 0.087524713609506255 0 -0.35017187856026971 0.080543629712927695 0 -0.35852713286960403 0.087229661451186019 0 -0.35311566184740067 0.075054599765780064 0 -0.35017187856026971 0.080543629712927695 0 -0.35740598056362632 0.080684782047185377 0 -0.35740598056362632 0.080684782047185377 0 -0.35852713286960403 0.087229661451186019 0 -0.36549176259878302 0.091012467476753789 0 -0.35843293601706139 0.068556018033569061 0 -0.36549176259878302 0.091012467476753789 0 -0.38155938747992491 0.098566870914757881 0 -0.37460000895301448 0.080642119746363317 0 -0.36637382163452348 0.093818587433476291 0 -0.35843293601706139 0.068556018033569061 0 -0.35740598056362632 0.080684782047185377 0 -0.36549176259878302 0.091012467476753789 0 -0.35843293601706139 0.068556018033569061 0 -0.36549176259878302 0.091012467476753789 0 -0.37460000895301448 0.080642119746363317 0 -0.35852713286960403 0.087229661451186019 0 -0.36549176259878302 0.091012467476753789 0 -0.36374822244059729 0.092997604573309883 0 -0.36549176259878302 0.091012467476753789 0 -0.36637382163452348 0.093818587433476291 0 -0.36374822244059729 0.092997604573309883 0 -0.36637382163452348 0.093818587433476291 0 -0.36549176259878302 0.091012467476753789 0 -0.36374822244059729 0.092997604573309883 0 -0.36637382163452348 0.093818587433476291 0 -0.36549176259878302 0.091012467476753789 0 -0.36374822244059729 0.092997604573309883 0 -0.36549176259878302 0.091012467476753789 0 -0.37460000895301448 0.080642119746363317 0 -0.36549176259878302 0.091012467476753789 0 -0.37460000895301448 0.080642119746363317 0 -0.36637382163452348 0.093818587433476291 0 -0.38155938747992491 0.098566870914757881 0 -0.36637382163452348 0.093818587433476291 0 -0.38155938747992491 0.098566870914757881 0 -0.36637382163452348 0.093818587433476291 0 -0.3719841621530966 0.1116669262127041 0 -0.36637382163452348 0.093818587433476291 0 -0.36355809500828329 0.10073924107767571 0 -0.3719841621530966 0.1116669262127041 0 -0.36637382163452348 0.093818587433476291 0 -0.3719841621530966 0.1116669262127041 0 -0.36676924979640702 0.1159737743328359 0 -0.35630631988763461 0.1014707084232316 0 -0.36355809500828329 0.10073924107767571 0 -0.36676924979640702 0.1159737743328359 0 -0.35630631988763461 0.1014707084232316 0 -0.36374822244059729 0.092997604573309883 0 -0.35630631988763461 0.1014707084232316 0 -0.36374822244059729 0.092997604573309883 0 -0.36355809500828329 0.10073924107767571 0 -0.35630631988763461 0.1014707084232316 0 -0.36374822244059729 0.092997604573309883 0 -0.36637382163452348 0.093818587433476291 0 -0.36355809500828329 0.10073924107767571 0 -0.37840990618325931 0.1321093317991919 0 -0.36676924979640702 0.1159737743328359 0 -0.37840990618325931 0.1321093317991919 0 -0.3719841621530966 0.1116669262127041 0 -0.36676924979640702 0.1159737743328359 0 -0.36355809500828329 0.10073924107767571 0 -0.3719841621530966 0.1116669262127041 0 -0.36676924979640702 0.1159737743328359 0 -0.3719841621530966 0.1116669262127041 0 -0.36676924979640702 0.1159737743328359 0 -0.35019193150792199 0.12966451105557139 0 -0.34855381493195198 0.1102974538850293 0 -0.33858927493192442 0.12089308754380949 0 -0.35019193150792199 0.12966451105557139 0 -0.36676924979640702 0.1159737743328359 0 -0.35019193150792199 0.12966451105557139 0 -0.36676924979640702 0.1159737743328359 0 -0.34855381493195198 0.1102974538850293 0 -0.36676924979640702 0.1159737743328359 0 -0.34855381493195198 0.1102974538850293 0 -0.35630631988763461 0.1014707084232316 0 -0.3462452771292559 0.087524713609506255 0 -0.36374822244059729 0.092997604573309883 0 -0.35630631988763461 0.1014707084232316 0 -0.34855381493195198 0.1102974538850293 0 -0.35630631988763461 0.1014707084232316 0 -0.34855381493195198 0.1102974538850293 0 -0.35630631988763461 0.1014707084232316 0 -0.34664907259206962 0.098001422197530524 0 -0.34855381493195198 0.1102974538850293 0 -0.34664907259206962 0.098001422197530524 0 -0.33926248694376732 0.1007309928542367 0 -0.3462452771292559 0.087524713609506255 0 -0.35630631988763461 0.1014707084232316 0 -0.3462452771292559 0.087524713609506255 0 -0.35630631988763461 0.1014707084232316 0 -0.34664907259206962 0.098001422197530524 0 -0.34855381493195198 0.1102974538850293 0 -0.33926248694376732 0.1007309928542367 0 -0.33289694241944268 0.1084897048636158 0 -0.34664907259206962 0.098001422197530524 0 -0.33926248694376732 0.1007309928542367 0 -0.33860838109107422 0.092882739515861207 0 -0.33926248694376732 0.1007309928542367 0 -0.32960422368429831 0.09398364380914645 0 -0.33860838109107422 0.092882739515861207 0 -0.33926248694376732 0.1007309928542367 0 -0.33289694241944268 0.1084897048636158 0 -0.32960422368429831 0.09398364380914645 0 -0.34855381493195198 0.1102974538850293 0 -0.33289694241944268 0.1084897048636158 0 -0.33858927493192442 0.12089308754380949 0 -0.33289694241944268 0.1084897048636158 0 -0.33858927493192442 0.12089308754380949 0 -0.32208475727866309 0.122584274690567 0 -0.33129204423798569 0.13105892619213061 0 -0.33858927493192442 0.12089308754380949 0 -0.32208475727866309 0.122584274690567 0 -0.33289694241944268 0.1084897048636158 0 -0.32208475727866309 0.122584274690567 0 -0.32003342847385929 0.1013117703967302 0 -0.30622320745172521 0.12896916685240051 0 -0.30942989697779472 0.11418052106944331 0 -0.32208475727866309 0.122584274690567 0 -0.30942989697779472 0.11418052106944331 0 -0.32208475727866309 0.122584274690567 0 -0.32003342847385929 0.1013117703967302 0 -0.32208475727866309 0.122584274690567 0 -0.32003342847385929 0.1013117703967302 0 -0.30369859037706359 0.1016576551961615 0 -0.32003342847385929 0.1013117703967302 0 -0.31798209966905411 0.080039266102893442 0 -0.33289694241944268 0.1084897048636158 0 -0.32960422368429831 0.09398364380914645 0 -0.32003342847385929 0.1013117703967302 0 -0.32960422368429831 0.09398364380914645 0 -0.32003342847385929 0.1013117703967302 0 -0.31798209966905411 0.080039266102893442 0 -0.32003342847385929 0.1013117703967302 0 -0.31798209966905411 0.080039266102893442 0 -0.32960422368429831 0.09398364380914645 0 -0.31798209966905411 0.080039266102893442 0 -0.33084667094457171 0.083359848560939503 0 -0.31798209966905411 0.080039266102893442 0 -0.33648599541655838 0.073997001281917427 0 -0.30517264194619143 0.067092280553349995 0 -0.31537283685525319 0.052980925050804012 0 -0.31798209966905411 0.080039266102893442 0 -0.31798209966905411 0.080039266102893442 0 -0.32845745096709777 0.062868329836740899 0 -0.33648599541655838 0.073997001281917427 0 -0.31537283685525319 0.052980925050804012 0 -0.31798209966905411 0.080039266102893442 0 -0.32845745096709777 0.062868329836740899 0 -0.31537283685525319 0.052980925050804012 0 -0.31798209966905411 0.080039266102893442 0 -0.32845745096709777 0.062868329836740899 0 -0.33648599541655838 0.073997001281917427 0 -0.32845745096709777 0.062868329836740899 0 -0.33886889152693972 0.066889185511359639 0 -0.33648599541655838 0.073997001281917427 0 -0.33446751874597103 0.060820647257051663 0 -0.32845745096709777 0.062868329836740899 0 -0.33886889152693972 0.066889185511359639 0 -0.34498728279673668 0.071220989658678693 0 -0.34194252599597419 0.081560506277269268 0 -0.34498728279673668 0.071220989658678693 0 -0.33648599541655838 0.073997001281917427 0 -0.34498728279673668 0.071220989658678693 0 -0.33648599541655838 0.073997001281917427 0 -0.34194252599597419 0.081560506277269268 0 -0.34498728279673668 0.071220989658678693 0 -0.33886889152693972 0.066889185511359639 0 -0.33648599541655838 0.073997001281917427 0 -0.33648599541655838 0.073997001281917427 0 -0.34194252599597419 0.081560506277269268 0 -0.31798209966905411 0.080039266102893442 0 -0.33648599541655838 0.073997001281917427 0 -0.33084667094457171 0.083359848560939503 0 -0.33648599541655838 0.073997001281917427 0 -0.34194252599597419 0.081560506277269268 0 -0.33641737633846791 0.081301658344528668 0 -0.34194252599597419 0.081560506277269268 0 -0.33641737633846791 0.081301658344528668 0 -0.33639431299676897 0.08628927725798799 0 -0.34194252599597419 0.081560506277269268 0 -0.34069588012699659 0.085793920150117886 0 -0.33639431299676897 0.08628927725798799 0 -0.34194252599597419 0.081560506277269268 0 -0.34069588012699659 0.085793920150117886 0 -0.3462452771292559 0.087524713609506255 0 -0.34194252599597419 0.081560506277269268 0 -0.34069588012699659 0.085793920150117886 0 -0.3462452771292559 0.087524713609506255 0 -0.34069588012699659 0.085793920150117886 0 -0.33860838109107422 0.092882739515861207 0 -0.3462452771292559 0.087524713609506255 0 -0.34069588012699659 0.085793920150117886 0 -0.34069588012699659 0.085793920150117886 0 -0.33860838109107422 0.092882739515861207 0 -0.33639431299676897 0.08628927725798799 0 -0.34069588012699659 0.085793920150117886 0 -0.33860838109107422 0.092882739515861207 0 -0.32960422368429831 0.09398364380914645 0 -0.33860838109107422 0.092882739515861207 0 -0.33639431299676897 0.08628927725798799 0 -0.32960422368429831 0.09398364380914645 0 -0.33639431299676897 0.08628927725798799 0 -0.33084667094457171 0.083359848560939503 0 -0.33648599541655838 0.073997001281917427 0 -0.33641737633846791 0.081301658344528668 0 -0.33084667094457171 0.083359848560939503 0 -0.33641737633846791 0.081301658344528668 0 -0.33639431299676897 0.08628927725798799 0 -0.33084667094457171 0.083359848560939503 0 -0.40591216649836243 0.47121853768263922 0 -0.3900851720938453 0.48412400869755129 0 -0.38366308331645249 0.4684977888528169 0 -0.40591216649836243 0.47121853768263922 0 -0.3900851720938453 0.48412400869755129 0 -0.41520775514121983 0.48527637178433558 0 -0.40591216649836243 0.47121853768263922 0 -0.38366308331645249 0.4684977888528169 0 -0.39540097155033882 0.5 0 -0.3900851720938453 0.48412400869755129 0 -0.41520775514121983 0.48527637178433558 0 -0.39540097155033882 0.5 0 -0.3900851720938453 0.48412400869755129 0 -0.36853100433466129 0.5 0 -0.3900851720938453 0.48412400869755129 0 -0.37179605172203728 0.47975135386551609 0 -0.36853100433466129 0.5 0 -0.3900851720938453 0.48412400869755129 0 -0.38366308331645249 0.4684977888528169 0 -0.37179605172203728 0.47975135386551609 0 -0.38366308331645249 0.4684977888528169 0 -0.39545293505028201 0.45177528771600378 0 -0.37450065770581231 0.45109209589174709 0 -0.39545293505028201 0.45177528771600378 0 -0.38180541721747591 0.43282878077640491 0 -0.37450065770581231 0.45109209589174709 0 -0.39545293505028201 0.45177528771600378 0 -0.40850377381563591 0.43336325322412173 0 -0.38180541721747591 0.43282878077640491 0 -0.40591216649836243 0.47121853768263922 0 -0.38366308331645249 0.4684977888528169 0 -0.39545293505028201 0.45177528771600378 0 -0.40591216649836243 0.47121853768263922 0 -0.39545293505028201 0.45177528771600378 0 -0.41833251174795311 0.45365126986829368 0 -0.40591216649836243 0.47121853768263922 0 -0.41833251174795311 0.45365126986829368 0 -0.42816124968027192 0.47393928651246497 0 -0.41833251174795311 0.45365126986829368 0 -0.42837119555779579 0.43942969728211262 0 -0.40850377381563591 0.43336325322412173 0 -0.41833251174795311 0.45365126986829368 0 -0.40850377381563591 0.43336325322412173 0 -0.39545293505028201 0.45177528771600378 0 -0.41833251174795311 0.45365126986829368 0 -0.40850377381563591 0.43336325322412173 0 -0.42837119555779579 0.43942969728211262 0 -0.43484073949466079 0.45479180843266398 0 -0.44417716625613662 0.4435113559056425 0 -0.41833251174795311 0.45365126986829368 0 -0.42837119555779579 0.43942969728211262 0 -0.43484073949466079 0.45479180843266398 0 -0.41833251174795311 0.45365126986829368 0 -0.43484073949466079 0.45479180843266398 0 -0.43433474310673847 0.46408147912960779 0 -0.41833251174795311 0.45365126986829368 0 -0.43433474310673847 0.46408147912960779 0 -0.42816124968027192 0.47393928651246497 0 -0.41833251174795311 0.45365126986829368 0 -0.42816124968027192 0.47393928651246497 0 -0.43297715062066688 0.48388004178626831 0 -0.42816124968027192 0.47393928651246497 0 -0.41520775514121983 0.48527637178433558 0 -0.43433474310673847 0.46408147912960779 0 -0.42816124968027192 0.47393928651246497 0 -0.43872169989084903 0.47523068051363909 0 -0.42816124968027192 0.47393928651246497 0 -0.43872169989084903 0.47523068051363909 0 -0.43297715062066688 0.48388004178626831 0 -0.43634305208890922 0.48095892224673231 0 -0.43872169989084903 0.47523068051363909 0 -0.43297715062066688 0.48388004178626831 0 -0.43872169989084903 0.47523068051363909 0 -0.43297715062066688 0.48388004178626831 0 -0.42816124968027192 0.47393928651246497 0 -0.43872169989084903 0.47523068051363909 0 -0.43297715062066688 0.48388004178626831 0 -0.42816124968027192 0.47393928651246497 0 -0.40591216649836243 0.47121853768263922 0 -0.42816124968027192 0.47393928651246497 0 -0.41520775514121983 0.48527637178433558 0 -0.40591216649836243 0.47121853768263922 0 -0.42816124968027192 0.47393928651246497 0 -0.39540097155033882 0.5 0 -0.41520775514121983 0.48527637178433558 0 -0.4222709387660164 0.49999999999999889 0 -0.43297715062066688 0.48388004178626831 0 -0.43634305208890922 0.48095892224673231 0 -0.44078662985866618 0.50000000000000633 0 -0.43297715062066688 0.48388004178626831 0 -0.4222709387660164 0.49999999999999889 0 -0.43297715062066688 0.48388004178626831 0 -0.4222709387660164 0.49999999999999889 0 -0.44078662985866618 0.50000000000000633 0 -0.43297715062066688 0.48388004178626831 0 -0.41520775514121983 0.48527637178433558 0 -0.4222709387660164 0.49999999999999889 0 -0.43297715062066688 0.48388004178626831 0 -0.44078662985866618 0.50000000000000633 0 -0.44078662985866618 0.50000000000000633 0 -0.4431703973245204 0.4757746934169082 0 -0.4715851986622599 0.47924942254876651 0 -0.43634305208890922 0.48095892224673231 0 -0.44078662985866618 0.50000000000000633 0 -0.4431703973245204 0.4757746934169082 0 -0.43872169989084903 0.47523068051363909 0 -0.4431703973245204 0.4757746934169082 0 -0.45170488629281008 0.45568236359985881 0 -0.43872169989084903 0.47523068051363909 0 -0.4431703973245204 0.4757746934169082 0 -0.43634305208890922 0.48095892224673231 0 -0.43872169989084903 0.47523068051363909 0 -0.4431703973245204 0.4757746934169082 0 -0.43634305208890922 0.48095892224673231 0 -0.4431703973245204 0.4757746934169082 0 -0.4431703973245204 0.4757746934169082 0 -0.4715851986622599 0.47924942254876651 0 -0.46211359821634712 0.4613904950493859 0 -0.4431703973245204 0.4757746934169082 0 -0.4715851986622599 0.47924942254876651 0 -0.44078662985866618 0.50000000000000633 0 -0.4715851986622599 0.47924942254876651 0 -0.5 0.5 0 -0.4715851986622599 0.47924942254876651 0 -0.49999999999999961 0.48272415168062321 0 -0.4715851986622599 0.47924942254876651 0 -0.49999999999999961 0.48272415168062321 0 -0.48329933889883148 0.46517778643250829 0 -0.4715851986622599 0.47924942254876651 0 -0.49999999999999961 0.48272415168062321 0 -0.5 0.5 0 -0.5 0.45767312499748258 0 -0.48105679910817428 0.44700629668186431 0 -0.50000000000000111 0.43262209831434217 0 -0.48105679910817428 0.44700629668186431 0 -0.50000000000000111 0.43262209831434217 0 -0.5 0.45767312499748258 0 -0.48329933889883148 0.46517778643250829 0 -0.48105679910817428 0.44700629668186431 0 -0.49999999999999961 0.48272415168062321 0 -0.5 0.45767312499748258 0 -0.48329933889883148 0.46517778643250829 0 -0.4715851986622599 0.47924942254876651 0 -0.48329933889883148 0.46517778643250829 0 -0.46211359821634712 0.4613904950493859 0 -0.48105679910817428 0.44700629668186431 0 -0.46211359821634712 0.4613904950493859 0 -0.48329933889883148 0.46517778643250829 0 -0.48105679910817428 0.44700629668186431 0 -0.46211359821634712 0.4613904950493859 0 -0.48105679910817428 0.44700629668186431 0 -0.46211359821634712 0.4613904950493859 0 -0.46468807269477119 0.43613404668607858 0 -0.48105679910817428 0.44700629668186431 0 -0.46468807269477119 0.43613404668607858 0 -0.47899128972181571 0.43148409700558282 0 -0.45170488629281008 0.45568236359985881 0 -0.44417716625613662 0.4435113559056425 0 -0.46468807269477119 0.43613404668607858 0 -0.46211359821634712 0.4613904950493859 0 -0.45170488629281008 0.45568236359985881 0 -0.46468807269477119 0.43613404668607858 0 -0.45170488629281008 0.45568236359985881 0 -0.46468807269477119 0.43613404668607858 0 -0.4431703973245204 0.4757746934169082 0 -0.46211359821634712 0.4613904950493859 0 -0.43872169989084903 0.47523068051363909 0 -0.45170488629281008 0.45568236359985881 0 -0.4431703973245204 0.4757746934169082 0 -0.46211359821634712 0.4613904950493859 0 -0.45170488629281008 0.45568236359985881 0 -0.43484073949466079 0.45479180843266398 0 -0.43433474310673847 0.46408147912960779 0 -0.45170488629281008 0.45568236359985881 0 -0.43433474310673847 0.46408147912960779 0 -0.43872169989084903 0.47523068051363909 0 -0.45170488629281008 0.45568236359985881 0 -0.43484073949466079 0.45479180843266398 0 -0.45170488629281008 0.45568236359985881 0 -0.44417716625613662 0.4435113559056425 0 -0.44417716625613662 0.4435113559056425 0 -0.4422128632567417 0.42871026723823069 0 -0.46468807269477119 0.43613404668607858 0 -0.42837119555779579 0.43942969728211262 0 -0.44417716625613662 0.4435113559056425 0 -0.4422128632567417 0.42871026723823069 0 -0.4422128632567417 0.42871026723823069 0 -0.44971882089930548 0.41289892947780732 0 -0.46334612709596462 0.42038438372650389 0 -0.4422128632567417 0.42871026723823069 0 -0.44971882089930548 0.41289892947780732 0 -0.43501187433954569 0.41182863643950668 0 -0.44971882089930548 0.41289892947780732 0 -0.44429813081581748 0.40236313553347852 0 -0.43501187433954569 0.41182863643950668 0 -0.44971882089930548 0.41289892947780732 0 -0.46334612709596462 0.42038438372650389 0 -0.46365337087312408 0.40116080503632928 0 -0.4422128632567417 0.42871026723823069 0 -0.46334612709596462 0.42038438372650389 0 -0.46468807269477119 0.43613404668607858 0 -0.46334612709596462 0.42038438372650389 0 -0.47899128972181571 0.43148409700558282 0 -0.48166686572257922 0.41517948732391707 0 -0.46334612709596462 0.42038438372650389 0 -0.46468807269477119 0.43613404668607858 0 -0.47899128972181571 0.43148409700558282 0 -0.46334612709596462 0.42038438372650389 0 -0.48166686572257922 0.41517948732391707 0 -0.46365337087312408 0.40116080503632928 0 -0.48166686572257922 0.41517948732391707 0 -0.50000000000000111 0.43262209831434217 0 -0.5 0.40572802950201581 0 -0.48105679910817428 0.44700629668186431 0 -0.47899128972181571 0.43148409700558282 0 -0.50000000000000111 0.43262209831434217 0 -0.47899128972181571 0.43148409700558282 0 -0.48166686572257922 0.41517948732391707 0 -0.50000000000000111 0.43262209831434217 0 -0.5 0.37883396068968928 0 -0.48447778377132522 0.39741124846539538 0 -0.4785944534045779 0.38243928681820288 0 -0.5 0.37883396068968928 0 -0.5 0.40572802950201581 0 -0.48447778377132522 0.39741124846539538 0 -0.48166686572257922 0.41517948732391707 0 -0.5 0.40572802950201581 0 -0.48447778377132522 0.39741124846539538 0 -0.48447778377132522 0.39741124846539538 0 -0.4785944534045779 0.38243928681820288 0 -0.46365337087312408 0.40116080503632928 0 -0.48166686572257922 0.41517948732391707 0 -0.48447778377132522 0.39741124846539538 0 -0.46365337087312408 0.40116080503632928 0 -0.4785944534045779 0.38243928681820288 0 -0.46142538730717558 0.38508218501067998 0 -0.46449132989062858 0.37211113705061261 0 -0.4785944534045779 0.38243928681820288 0 -0.46142538730717558 0.38508218501067998 0 -0.46365337087312408 0.40116080503632928 0 -0.46142538730717558 0.38508218501067998 0 -0.44916091054100932 0.39142123022997 0 -0.45162643522855522 0.37864538239231271 0 -0.46142538730717558 0.38508218501067998 0 -0.45162643522855522 0.37864538239231271 0 -0.46449132989062858 0.37211113705061261 0 -0.46142538730717558 0.38508218501067998 0 -0.46365337087312408 0.40116080503632928 0 -0.44916091054100932 0.39142123022997 0 -0.44916091054100932 0.39142123022997 0 -0.44429813081581748 0.40236313553347852 0 -0.43173107155441559 0.39905071990029978 0 -0.44971882089930548 0.41289892947780732 0 -0.46365337087312408 0.40116080503632928 0 -0.44429813081581748 0.40236313553347852 0 -0.46365337087312408 0.40116080503632928 0 -0.44916091054100932 0.39142123022997 0 -0.44429813081581748 0.40236313553347852 0 -0.44916091054100932 0.39142123022997 0 -0.44297707497458533 0.38582669377105228 0 -0.43173107155441559 0.39905071990029978 0 -0.44297707497458533 0.38582669377105228 0 -0.43173107155441559 0.39905071990029978 0 -0.43938988257436112 0.37418944256162678 0 -0.44916091054100932 0.39142123022997 0 -0.45162643522855522 0.37864538239231271 0 -0.44297707497458533 0.38582669377105228 0 -0.45162643522855522 0.37864538239231271 0 -0.44297707497458533 0.38582669377105228 0 -0.43938988257436112 0.37418944256162678 0 -0.41512661271195372 0.39381120006418457 0 -0.43173107155441559 0.39905071990029978 0 -0.43157818954058902 0.37454716354841938 0 -0.43173107155441559 0.39905071990029978 0 -0.43938988257436112 0.37418944256162678 0 -0.43173107155441559 0.39905071990029978 0 -0.43157818954058902 0.37454716354841938 0 -0.43938988257436112 0.37418944256162678 0 -0.41512661271195372 0.39381120006418457 0 -0.43157818954058902 0.37454716354841938 0 -0.41626840750436023 0.3769771343170904 0 -0.41512661271195372 0.39381120006418457 0 -0.43157818954058902 0.37454716354841938 0 -0.41626840750436023 0.3769771343170904 0 -0.41512661271195372 0.39381120006418457 0 -0.4029395702150117 0.38623427176189429 0 -0.41626840750436023 0.3769771343170904 0 -0.4029395702150117 0.38623427176189429 0 -0.40612886098313961 0.36857281422699001 0 -0.41512661271195372 0.39381120006418457 0 -0.42052873024311932 0.40739326102076062 0 -0.39867503588331848 0.41307523657994982 0 -0.41512661271195372 0.39381120006418457 0 -0.39867503588331848 0.41307523657994982 0 -0.43173107155441559 0.39905071990029978 0 -0.43501187433954569 0.41182863643950668 0 -0.42052873024311932 0.40739326102076062 0 -0.41512661271195372 0.39381120006418457 0 -0.43173107155441559 0.39905071990029978 0 -0.42052873024311932 0.40739326102076062 0 -0.44429813081581748 0.40236313553347852 0 -0.43173107155441559 0.39905071990029978 0 -0.43501187433954569 0.41182863643950668 0 -0.4422128632567417 0.42871026723823069 0 -0.43501187433954569 0.41182863643950668 0 -0.42216011877564702 0.42255022902372269 0 -0.43501187433954569 0.41182863643950668 0 -0.42216011877564702 0.42255022902372269 0 -0.42052873024311932 0.40739326102076062 0 -0.42837119555779579 0.43942969728211262 0 -0.4422128632567417 0.42871026723823069 0 -0.42216011877564702 0.42255022902372269 0 -0.42837119555779579 0.43942969728211262 0 -0.42216011877564702 0.42255022902372269 0 -0.40850377381563591 0.43336325322412173 0 -0.42216011877564702 0.42255022902372269 0 -0.40850377381563591 0.43336325322412173 0 -0.39867503588331848 0.41307523657994982 0 -0.42216011877564702 0.42255022902372269 0 -0.42052873024311932 0.40739326102076062 0 -0.39867503588331848 0.41307523657994982 0 -0.40850377381563591 0.43336325322412173 0 -0.39867503588331848 0.41307523657994982 0 -0.40850377381563591 0.43336325322412173 0 -0.39867503588331848 0.41307523657994982 0 -0.38180541721747591 0.43282878077640491 0 -0.39867503588331848 0.41307523657994982 0 -0.38180541721747591 0.43282878077640491 0 -0.39867503588331848 0.41307523657994982 0 -0.38180541721747591 0.43282878077640491 0 -0.37322190284057177 0.41294615564915438 0 -0.39867503588331848 0.41307523657994982 0 -0.38698459659072149 0.38894438391309227 0 -0.37322190284057177 0.41294615564915438 0 -0.38698459659072149 0.38894438391309227 0 -0.39433365626134448 0.37559608845177062 0 -0.38116287984602698 0.36833499497316619 0 -0.38698459659072149 0.38894438391309227 0 -0.38116287984602698 0.36833499497316619 0 -0.36713635541863471 0.37988805629222189 0 -0.4029395702150117 0.38623427176189429 0 -0.39433365626134448 0.37559608845177062 0 -0.40612886098313961 0.36857281422699001 0 -0.38698459659072149 0.38894438391309227 0 -0.4029395702150117 0.38623427176189429 0 -0.39433365626134448 0.37559608845177062 0 -0.41512661271195372 0.39381120006418457 0 -0.39867503588331848 0.41307523657994982 0 -0.4029395702150117 0.38623427176189429 0 -0.39867503588331848 0.41307523657994982 0 -0.38698459659072149 0.38894438391309227 0 -0.39867503588331848 0.41307523657994982 0 -0.38698459659072149 0.38894438391309227 0 -0.4029395702150117 0.38623427176189429 0 -0.4032683627576929 0.34866685780209689 0 -0.38137819733938588 0.34833620409166788 0 -0.4032683627576929 0.34866685780209689 0 -0.39274384241668442 0.35980197033986799 0 -0.38137819733938588 0.34833620409166788 0 -0.4032683627576929 0.34866685780209689 0 -0.39274384241668442 0.35980197033986799 0 -0.40612886098313961 0.36857281422699001 0 -0.39433365626134448 0.37559608845177062 0 -0.39274384241668442 0.35980197033986799 0 -0.40612886098313961 0.36857281422699001 0 -0.39433365626134448 0.37559608845177062 0 -0.39274384241668442 0.35980197033986799 0 -0.38116287984602698 0.36833499497316619 0 -0.39274384241668442 0.35980197033986799 0 -0.38116287984602698 0.36833499497316619 0 -0.38137819733938588 0.34833620409166788 0 -0.38116287984602698 0.36833499497316619 0 -0.38137819733938588 0.34833620409166788 0 -0.36483725395653382 0.35929071891222158 0 -0.38137819733938588 0.34833620409166788 0 -0.38527513293225618 0.334152126694921 0 -0.37322105660356142 0.33628553675524953 0 -0.4032683627576929 0.34866685780209689 0 -0.38137819733938588 0.34833620409166788 0 -0.38527513293225618 0.334152126694921 0 -0.38527513293225618 0.334152126694921 0 -0.38078229231771821 0.3219440365254439 0 -0.37322105660356142 0.33628553675524953 0 -0.38527513293225618 0.334152126694921 0 -0.38078229231771821 0.3219440365254439 0 -0.3925720668784608 0.31626176442936499 0 -0.38078229231771821 0.3219440365254439 0 -0.37792134358426438 0.30771882014354618 0 -0.36781009952186722 0.32097177295983498 0 -0.38078229231771821 0.3219440365254439 0 -0.3925720668784608 0.31626176442936499 0 -0.37792134358426438 0.30771882014354618 0 -0.38527513293225618 0.334152126694921 0 -0.3925720668784608 0.31626176442936499 0 -0.41051983945521231 0.32304432306400821 0 -0.3925720668784608 0.31626176442936499 0 -0.41051983945521231 0.32304432306400821 0 -0.40703820616053038 0.30544643295859092 0 -0.38527513293225618 0.334152126694921 0 -0.41051983945521231 0.32304432306400821 0 -0.4032683627576929 0.34866685780209689 0 -0.38527513293225618 0.334152126694921 0 -0.41051983945521231 0.32304432306400821 0 -0.4032683627576929 0.34866685780209689 0 -0.41689170458904851 0.33766218169010559 0 -0.41051983945521231 0.32304432306400821 0 -0.41689170458904851 0.33766218169010559 0 -0.41051983945521231 0.32304432306400821 0 -0.42862008796728912 0.32994003438179142 0 -0.41051983945521231 0.32304432306400821 0 -0.4250856902388806 0.31008113058805459 0 -0.40703820616053038 0.30544643295859092 0 -0.41051983945521231 0.32304432306400821 0 -0.4357645459781686 0.31193651943309542 0 -0.4250856902388806 0.31008113058805459 0 -0.42862008796728912 0.32994003438179142 0 -0.4412829481153272 0.32340545784990432 0 -0.4357645459781686 0.31193651943309542 0 -0.41051983945521231 0.32304432306400821 0 -0.42862008796728912 0.32994003438179142 0 -0.4357645459781686 0.31193651943309542 0 -0.41051983945521231 0.32304432306400821 0 -0.4357645459781686 0.31193651943309542 0 -0.42862008796728912 0.32994003438179142 0 -0.42515852817599981 0.34899751151252589 0 -0.4400278996268584 0.33515064130434041 0 -0.41689170458904851 0.33766218169010559 0 -0.42862008796728912 0.32994003438179142 0 -0.42515852817599981 0.34899751151252589 0 -0.42862008796728912 0.32994003438179142 0 -0.4400278996268584 0.33515064130434041 0 -0.4412829481153272 0.32340545784990432 0 -0.43213031830111609 0.35768466364857859 0 -0.42515852817599981 0.34899751151252589 0 -0.44704869359430682 0.34932816522295379 0 -0.42515852817599981 0.34899751151252589 0 -0.44704869359430682 0.34932816522295379 0 -0.42515852817599981 0.34899751151252589 0 -0.44704869359430682 0.34932816522295379 0 -0.4400278996268584 0.33515064130434041 0 -0.43213031830111609 0.35768466364857859 0 -0.42515852817599981 0.34899751151252589 0 -0.42177862879349443 0.36381835498956078 0 -0.4032683627576929 0.34866685780209689 0 -0.42515852817599981 0.34899751151252589 0 -0.42177862879349443 0.36381835498956078 0 -0.4032683627576929 0.34866685780209689 0 -0.41689170458904851 0.33766218169010559 0 -0.42515852817599981 0.34899751151252589 0 -0.4032683627576929 0.34866685780209689 0 -0.42515852817599981 0.34899751151252589 0 -0.4032683627576929 0.34866685780209689 0 -0.40612886098313961 0.36857281422699001 0 -0.42177862879349443 0.36381835498956078 0 -0.41626840750436023 0.3769771343170904 0 -0.40612886098313961 0.36857281422699001 0 -0.42177862879349443 0.36381835498956078 0 -0.41626840750436023 0.3769771343170904 0 -0.42177862879349443 0.36381835498956078 0 -0.43157818954058902 0.37454716354841938 0 -0.42177862879349443 0.36381835498956078 0 -0.43461310345090198 0.3650224228349338 0 -0.43157818954058902 0.37454716354841938 0 -0.43213031830111609 0.35768466364857859 0 -0.42177862879349443 0.36381835498956078 0 -0.43461310345090198 0.3650224228349338 0 -0.43461310345090198 0.3650224228349338 0 -0.43157818954058902 0.37454716354841938 0 -0.43938988257436112 0.37418944256162678 0 -0.43938988257436112 0.37418944256162678 0 -0.44704869359430682 0.34932816522295379 0 -0.43938988257436112 0.37418944256162678 0 -0.45221763785045532 0.36617762126325809 0 -0.44704869359430682 0.34932816522295379 0 -0.43461310345090198 0.3650224228349338 0 -0.43938988257436112 0.37418944256162678 0 -0.44704869359430682 0.34932816522295379 0 -0.45162643522855522 0.37864538239231271 0 -0.43938988257436112 0.37418944256162678 0 -0.45221763785045532 0.36617762126325809 0 -0.43213031830111609 0.35768466364857859 0 -0.43461310345090198 0.3650224228349338 0 -0.44704869359430682 0.34932816522295379 0 -0.44704869359430682 0.34932816522295379 0 -0.46365553375799862 0.34957901363883909 0 -0.46752354916830158 0.33413757493495111 0 -0.44704869359430682 0.34932816522295379 0 -0.46365553375799862 0.34957901363883909 0 -0.46185066032423122 0.36088787662225619 0 -0.46365553375799862 0.34957901363883909 0 -0.46185066032423122 0.36088787662225619 0 -0.47902853368919351 0.36215760387819229 0 -0.45221763785045532 0.36617762126325809 0 -0.44704869359430682 0.34932816522295379 0 -0.46185066032423122 0.36088787662225619 0 -0.44704869359430682 0.34932816522295379 0 -0.46365553375799862 0.34957901363883909 0 -0.46185066032423122 0.36088787662225619 0 -0.46449132989062858 0.37211113705061261 0 -0.47902853368919351 0.36215760387819229 0 -0.45162643522855522 0.37864538239231271 0 -0.45221763785045532 0.36617762126325809 0 -0.46449132989062858 0.37211113705061261 0 -0.45221763785045532 0.36617762126325809 0 -0.46185066032423122 0.36088787662225619 0 -0.46449132989062858 0.37211113705061261 0 -0.4785944534045779 0.38243928681820288 0 -0.46449132989062858 0.37211113705061261 0 -0.47902853368919351 0.36215760387819229 0 -0.46365553375799862 0.34957901363883909 0 -0.47902853368919351 0.36215760387819229 0 -0.48256992531721382 0.33933431788084861 0 -0.47902853368919351 0.36215760387819229 0 -0.5 0.35193989187736291 0 -0.48256992531721382 0.33933431788084861 0 -0.5 0.37883396068968928 0 -0.47902853368919351 0.36215760387819229 0 -0.5 0.35193989187736291 0 -0.5 0.37883396068968928 0 -0.4785944534045779 0.38243928681820288 0 -0.47902853368919351 0.36215760387819229 0 -0.5 0.32504582306503649 0 -0.47749265431530541 0.31904737632850422 0 -0.48166793777356648 0.30138378919958231 0 -0.5 0.32504582306503649 0 -0.48256992531721382 0.33933431788084861 0 -0.47749265431530541 0.31904737632850422 0 -0.5 0.35193989187736291 0 -0.5 0.32504582306503649 0 -0.48256992531721382 0.33933431788084861 0 -0.48256992531721382 0.33933431788084861 0 -0.47749265431530541 0.31904737632850422 0 -0.46752354916830158 0.33413757493495111 0 -0.46365553375799862 0.34957901363883909 0 -0.48256992531721382 0.33933431788084861 0 -0.46752354916830158 0.33413757493495111 0 -0.47749265431530541 0.31904737632850422 0 -0.46665445653490711 0.31715992860405601 0 -0.46752354916830158 0.33413757493495111 0 -0.47749265431530541 0.31904737632850422 0 -0.46665445653490711 0.31715992860405601 0 -0.47154937673120467 0.3073504917511039 0 -0.4545851320180101 0.32486412174289148 0 -0.46100925250112479 0.30082871580218251 0 -0.46665445653490711 0.31715992860405601 0 -0.4545851320180101 0.32486412174289148 0 -0.46100925250112479 0.30082871580218251 0 -0.4545851320180101 0.32486412174289148 0 -0.44816046965315759 0.31525870370701842 0 -0.46100925250112479 0.30082871580218251 0 -0.46665445653490711 0.31715992860405601 0 -0.4545851320180101 0.32486412174289148 0 -0.46752354916830158 0.33413757493495111 0 -0.44704869359430682 0.34932816522295379 0 -0.4545851320180101 0.32486412174289148 0 -0.46752354916830158 0.33413757493495111 0 -0.44704869359430682 0.34932816522295379 0 -0.4545851320180101 0.32486412174289148 0 -0.4400278996268584 0.33515064130434041 0 -0.44704869359430682 0.34932816522295379 0 -0.4545851320180101 0.32486412174289148 0 -0.4545851320180101 0.32486412174289148 0 -0.44816046965315759 0.31525870370701842 0 -0.4412829481153272 0.32340545784990432 0 -0.4545851320180101 0.32486412174289148 0 -0.4400278996268584 0.33515064130434041 0 -0.4412829481153272 0.32340545784990432 0 -0.44816046965315759 0.31525870370701842 0 -0.4412829481153272 0.32340545784990432 0 -0.4357645459781686 0.31193651943309542 0 -0.44820603211452831 0.30056229436997189 0 -0.46100925250112479 0.30082871580218251 0 -0.4357645459781686 0.31193651943309542 0 -0.46100925250112479 0.30082871580218251 0 -0.4357645459781686 0.31193651943309542 0 -0.44008703198068633 0.3019913432715049 0 -0.44820603211452831 0.30056229436997189 0 -0.4357645459781686 0.31193651943309542 0 -0.44816046965315759 0.31525870370701842 0 -0.46100925250112479 0.30082871580218251 0 -0.4357645459781686 0.31193651943309542 0 -0.44008703198068633 0.3019913432715049 0 -0.44403507263318359 0.29612230755904823 0 -0.43234247719686503 0.29934425172390422 0 -0.44008703198068633 0.3019913432715049 0 -0.44820603211452831 0.30056229436997189 0 -0.44403507263318359 0.29612230755904823 0 -0.43827218426695591 0.28983973378482292 0 -0.44780734442417591 0.28531657534392307 0 -0.44082270347382102 0.27939792036099581 0 -0.43827218426695591 0.28983973378482292 0 -0.44403507263318359 0.29612230755904823 0 -0.44780734442417591 0.28531657534392307 0 -0.43827218426695591 0.28983973378482292 0 -0.44403507263318359 0.29612230755904823 0 -0.43234247719686503 0.29934425172390422 0 -0.44820603211452831 0.30056229436997189 0 -0.44403507263318359 0.29612230755904823 0 -0.45175466328369412 0.29213998784508738 0 -0.44820603211452831 0.30056229436997189 0 -0.45175466328369412 0.29213998784508738 0 -0.45740584064973527 0.29791725979501887 0 -0.44403507263318359 0.29612230755904823 0 -0.45175466328369412 0.29213998784508738 0 -0.44780734442417591 0.28531657534392307 0 -0.45175466328369412 0.29213998784508738 0 -0.44780734442417591 0.28531657534392307 0 -0.45653249857900657 0.28328917510622958 0 -0.46100925250112479 0.30082871580218251 0 -0.47277878562644021 0.29425850393503478 0 -0.46965800886541709 0.27593603478276701 0 -0.46100925250112479 0.30082871580218251 0 -0.46965800886541709 0.27593603478276701 0 -0.45949451636391342 0.28993650715838643 0 -0.46100925250112479 0.30082871580218251 0 -0.46965800886541709 0.27593603478276701 0 -0.45175466328369412 0.29213998784508738 0 -0.45653249857900657 0.28328917510622958 0 -0.45949451636391342 0.28993650715838643 0 -0.45175466328369412 0.29213998784508738 0 -0.45949451636391342 0.28993650715838643 0 -0.45740584064973527 0.29791725979501887 0 -0.45949451636391342 0.28993650715838643 0 -0.45740584064973527 0.29791725979501887 0 -0.46100925250112479 0.30082871580218251 0 -0.45653249857900657 0.28328917510622958 0 -0.45949451636391342 0.28993650715838643 0 -0.46965800886541709 0.27593603478276701 0 -0.46665445653490711 0.31715992860405601 0 -0.46100925250112479 0.30082871580218251 0 -0.47154937673120467 0.3073504917511039 0 -0.44820603211452831 0.30056229436997189 0 -0.45740584064973527 0.29791725979501887 0 -0.46100925250112479 0.30082871580218251 0 -0.46100925250112479 0.30082871580218251 0 -0.47154937673120467 0.3073504917511039 0 -0.47277878562644021 0.29425850393503478 0 -0.47749265431530541 0.31904737632850422 0 -0.47154937673120467 0.3073504917511039 0 -0.48166793777356648 0.30138378919958231 0 -0.47154937673120467 0.3073504917511039 0 -0.48166793777356648 0.30138378919958231 0 -0.47277878562644021 0.29425850393503478 0 -0.47277878562644021 0.29425850393503478 0 -0.4837589705942873 0.28345670584996752 0 -0.46965800886541709 0.27593603478276701 0 -0.48166793777356648 0.30138378919958231 0 -0.47277878562644021 0.29425850393503478 0 -0.4837589705942873 0.28345670584996752 0 -0.4837589705942873 0.28345670584996752 0 -0.5 0.29815175425271012 0 -0.5 0.27125768544038392 0 -0.48166793777356648 0.30138378919958231 0 -0.4837589705942873 0.28345670584996752 0 -0.5 0.29815175425271012 0 -0.5 0.32504582306503649 0 -0.48166793777356648 0.30138378919958231 0 -0.5 0.29815175425271012 0 -0.5 0.24436361662805769 0 -0.5 0.27125768544038392 0 -0.4784490913002995 0.25975246748932668 0 -0.4837589705942873 0.28345670584996752 0 -0.5 0.27125768544038392 0 -0.4784490913002995 0.25975246748932668 0 -0.4837589705942873 0.28345670584996752 0 -0.46965800886541709 0.27593603478276701 0 -0.4784490913002995 0.25975246748932668 0 -0.46965800886541709 0.27593603478276701 0 -0.4784490913002995 0.25975246748932668 0 -0.45856876218142739 0.25899060087044001 0 -0.46399351030847469 0.24395188759928779 0 -0.4784490913002995 0.25975246748932668 0 -0.45856876218142739 0.25899060087044001 0 -0.46965800886541709 0.27593603478276701 0 -0.45856876218142739 0.25899060087044001 0 -0.45193563978493662 0.27220253966738178 0 -0.45653249857900657 0.28328917510622958 0 -0.46965800886541709 0.27593603478276701 0 -0.45193563978493662 0.27220253966738178 0 -0.44780734442417591 0.28531657534392307 0 -0.45193563978493662 0.27220253966738178 0 -0.44082270347382102 0.27939792036099581 0 -0.44780734442417591 0.28531657534392307 0 -0.45653249857900657 0.28328917510622958 0 -0.45193563978493662 0.27220253966738178 0 -0.45193563978493662 0.27220253966738178 0 -0.44214664549818938 0.27075152816123382 0 -0.4424056175277582 0.26089923819517552 0 -0.44214664549818938 0.27075152816123382 0 -0.4424056175277582 0.26089923819517552 0 -0.43191687615512547 0.27129659484580648 0 -0.44214664549818938 0.27075152816123382 0 -0.44082270347382102 0.27939792036099581 0 -0.43191687615512547 0.27129659484580648 0 -0.45193563978493662 0.27220253966738178 0 -0.44214664549818938 0.27075152816123382 0 -0.44082270347382102 0.27939792036099581 0 -0.45856876218142739 0.25899060087044001 0 -0.45193563978493662 0.27220253966738178 0 -0.4424056175277582 0.26089923819517552 0 -0.44784340792963268 0.24566193026528449 0 -0.45856876218142739 0.25899060087044001 0 -0.4424056175277582 0.26089923819517552 0 -0.44784340792963268 0.24566193026528449 0 -0.4424056175277582 0.26089923819517552 0 -0.43772017251073492 0.25071492700109782 0 -0.4424056175277582 0.26089923819517552 0 -0.43772017251073492 0.25071492700109782 0 -0.43001615246040198 0.25947397799694383 0 -0.4282964880421043 0.24988677976854409 0 -0.43772017251073492 0.25071492700109782 0 -0.43001615246040198 0.25947397799694383 0 -0.4424056175277582 0.26089923819517552 0 -0.43001615246040198 0.25947397799694383 0 -0.43191687615512547 0.27129659484580648 0 -0.43001615246040198 0.25947397799694383 0 -0.41967153679695962 0.26468207604811822 0 -0.43191687615512547 0.27129659484580648 0 -0.43001615246040198 0.25947397799694383 0 -0.41843448825728158 0.254975555924362 0 -0.41967153679695962 0.26468207604811822 0 -0.4282964880421043 0.24988677976854409 0 -0.43001615246040198 0.25947397799694383 0 -0.41843448825728158 0.254975555924362 0 -0.41859921477497491 0.24134678005994381 0 -0.41843448825728158 0.254975555924362 0 -0.40550594772209481 0.25500262474814189 0 -0.41843448825728158 0.254975555924362 0 -0.41967153679695962 0.26468207604811822 0 -0.4107147001949103 0.26209398175202903 0 -0.4107147001949103 0.26209398175202903 0 -0.40550594772209481 0.25500262474814189 0 -0.40283639188527243 0.26340634166972238 0 -0.41843448825728158 0.254975555924362 0 -0.4107147001949103 0.26209398175202903 0 -0.40550594772209481 0.25500262474814189 0 -0.40712513631294228 0.27240331036980098 0 -0.42080487865133398 0.27688443368837462 0 -0.41610541327591138 0.29124222047892789 0 -0.4107147001949103 0.26209398175202903 0 -0.40712513631294228 0.27240331036980098 0 -0.40283639188527243 0.26340634166972238 0 -0.41967153679695962 0.26468207604811822 0 -0.40712513631294228 0.27240331036980098 0 -0.41967153679695962 0.26468207604811822 0 -0.4107147001949103 0.26209398175202903 0 -0.40712513631294228 0.27240331036980098 0 -0.41967153679695962 0.26468207604811822 0 -0.40712513631294228 0.27240331036980098 0 -0.42080487865133398 0.27688443368837462 0 -0.42080487865133398 0.27688443368837462 0 -0.43191687615512547 0.27129659484580648 0 -0.42920543071573097 0.28479796669921931 0 -0.41967153679695962 0.26468207604811822 0 -0.42080487865133398 0.27688443368837462 0 -0.43191687615512547 0.27129659484580648 0 -0.44082270347382102 0.27939792036099581 0 -0.43191687615512547 0.27129659484580648 0 -0.42920543071573097 0.28479796669921931 0 -0.43827218426695591 0.28983973378482292 0 -0.44082270347382102 0.27939792036099581 0 -0.42920543071573097 0.28479796669921931 0 -0.42920543071573097 0.28479796669921931 0 -0.43234247719686503 0.29934425172390422 0 -0.41610541327591138 0.29124222047892789 0 -0.43827218426695591 0.28983973378482292 0 -0.42920543071573097 0.28479796669921931 0 -0.43234247719686503 0.29934425172390422 0 -0.42080487865133398 0.27688443368837462 0 -0.42920543071573097 0.28479796669921931 0 -0.41610541327591138 0.29124222047892789 0 -0.43234247719686503 0.29934425172390422 0 -0.4250856902388806 0.31008113058805459 0 -0.41610541327591138 0.29124222047892789 0 -0.4357645459781686 0.31193651943309542 0 -0.43234247719686503 0.29934425172390422 0 -0.4250856902388806 0.31008113058805459 0 -0.44008703198068633 0.3019913432715049 0 -0.4357645459781686 0.31193651943309542 0 -0.43234247719686503 0.29934425172390422 0 -0.4250856902388806 0.31008113058805459 0 -0.41610541327591138 0.29124222047892789 0 -0.4250856902388806 0.31008113058805459 0 -0.40703820616053038 0.30544643295859092 0 -0.41610541327591138 0.29124222047892789 0 -0.40712513631294228 0.27240331036980098 0 -0.41610541327591138 0.29124222047892789 0 -0.40712513631294228 0.27240331036980098 0 -0.41610541327591138 0.29124222047892789 0 -0.40324275153185302 0.2900184552669296 0 -0.40703820616053038 0.30544643295859092 0 -0.41610541327591138 0.29124222047892789 0 -0.40324275153185302 0.2900184552669296 0 -0.40324275153185302 0.2900184552669296 0 -0.39151238543678629 0.2990541237084165 0 -0.3982417198932261 0.27787029190295809 0 -0.39151238543678629 0.2990541237084165 0 -0.3982417198932261 0.27787029190295809 0 -0.3925720668784608 0.31626176442936499 0 -0.40703820616053038 0.30544643295859092 0 -0.39151238543678629 0.2990541237084165 0 -0.40703820616053038 0.30544643295859092 0 -0.40324275153185302 0.2900184552669296 0 -0.39151238543678629 0.2990541237084165 0 -0.3925720668784608 0.31626176442936499 0 -0.39151238543678629 0.2990541237084165 0 -0.37792134358426438 0.30771882014354618 0 -0.39151238543678629 0.2990541237084165 0 -0.37792134358426438 0.30771882014354618 0 -0.37899001994954862 0.28971806342477718 0 -0.37899001994954862 0.28971806342477718 0 -0.38275858679406499 0.27644437170279262 0 -0.3982417198932261 0.27787029190295809 0 -0.39151238543678629 0.2990541237084165 0 -0.37899001994954862 0.28971806342477718 0 -0.3982417198932261 0.27787029190295809 0 -0.37899001994954862 0.28971806342477718 0 -0.3982417198932261 0.27787029190295809 0 -0.38275858679406499 0.27644437170279262 0 -0.37847848403190032 0.26450052083218789 0 -0.3926090041139888 0.26845371057366191 0 -0.37847848403190032 0.26450052083218789 0 -0.37932103441474058 0.25298974324206969 0 -0.36915274903456652 0.25566928348620699 0 -0.37847848403190032 0.26450052083218789 0 -0.37932103441474058 0.25298974324206969 0 -0.38810223377704772 0.25551313542616172 0 -0.38451691437018648 0.2453191000558386 0 -0.37932103441474058 0.25298974324206969 0 -0.38810223377704772 0.25551313542616172 0 -0.37847848403190032 0.26450052083218789 0 -0.38810223377704772 0.25551313542616172 0 -0.3926090041139888 0.26845371057366191 0 -0.39005131953046379 0.23658569573373289 0 -0.38810223377704772 0.25551313542616172 0 -0.40104719784854448 0.25965295346525019 0 -0.40104719784854448 0.25965295346525019 0 -0.3926090041139888 0.26845371057366191 0 -0.38810223377704772 0.25551313542616172 0 -0.40104719784854448 0.25965295346525019 0 -0.3926090041139888 0.26845371057366191 0 -0.40242553196709552 0.24470377531646639 0 -0.40550594772209481 0.25500262474814189 0 -0.40104719784854448 0.25965295346525019 0 -0.40550594772209481 0.25500262474814189 0 -0.40104719784854448 0.25965295346525019 0 -0.40550594772209481 0.25500262474814189 0 -0.40283639188527243 0.26340634166972238 0 -0.40550594772209481 0.25500262474814189 0 -0.40104719784854448 0.25965295346525019 0 -0.40283639188527243 0.26340634166972238 0 -0.40104719784854448 0.25965295346525019 0 -0.40283639188527243 0.26340634166972238 0 -0.3926090041139888 0.26845371057366191 0 -0.40104719784854448 0.25965295346525019 0 -0.40283639188527243 0.26340634166972238 0 -0.40712513631294228 0.27240331036980098 0 -0.40283639188527243 0.26340634166972238 0 -0.3982417198932261 0.27787029190295809 0 -0.40712513631294228 0.27240331036980098 0 -0.40324275153185302 0.2900184552669296 0 -0.3982417198932261 0.27787029190295809 0 -0.40283639188527243 0.26340634166972238 0 -0.3982417198932261 0.27787029190295809 0 -0.40712513631294228 0.27240331036980098 0 -0.40283639188527243 0.26340634166972238 0 -0.40712513631294228 0.27240331036980098 0 -0.3982417198932261 0.27787029190295809 0 -0.38275858679406499 0.27644437170279262 0 -0.3982417198932261 0.27787029190295809 0 -0.3926090041139888 0.26845371057366191 0 -0.40283639188527243 0.26340634166972238 0 -0.3982417198932261 0.27787029190295809 0 -0.3926090041139888 0.26845371057366191 0 -0.35999054911729178 0.27483669957849599 0 -0.33787059572762917 0.28628514770568608 0 -0.33525457139305892 0.25915668894295218 0 -0.35393238560318391 0.25803380485712119 0 -0.35999054911729178 0.27483669957849599 0 -0.33525457139305892 0.25915668894295218 0 -0.35133167286781808 0.2424725474208298 0 -0.35393238560318391 0.25803380485712119 0 -0.36915274903456652 0.25566928348620699 0 -0.35133167286781808 0.2424725474208298 0 -0.35393238560318391 0.25803380485712119 0 -0.33525457139305892 0.25915668894295218 0 -0.35393238560318391 0.25803380485712119 0 -0.36915274903456652 0.25566928348620699 0 -0.35999054911729178 0.27483669957849599 0 -0.37847848403190032 0.26450052083218789 0 -0.36915274903456652 0.25566928348620699 0 -0.35999054911729178 0.27483669957849599 0 -0.38275858679406499 0.27644437170279262 0 -0.37847848403190032 0.26450052083218789 0 -0.35999054911729178 0.27483669957849599 0 -0.37899001994954862 0.28971806342477718 0 -0.38275858679406499 0.27644437170279262 0 -0.35999054911729178 0.27483669957849599 0 -0.37899001994954862 0.28971806342477718 0 -0.35973832000587103 0.30156583494659578 0 -0.37899001994954862 0.28971806342477718 0 -0.35999054911729178 0.27483669957849599 0 -0.35973832000587103 0.30156583494659578 0 -0.37792134358426438 0.30771882014354618 0 -0.35973832000587103 0.30156583494659578 0 -0.36781009952186722 0.32097177295983498 0 -0.37792134358426438 0.30771882014354618 0 -0.37899001994954862 0.28971806342477718 0 -0.35973832000587103 0.30156583494659578 0 -0.35973832000587103 0.30156583494659578 0 -0.33787059572762917 0.28628514770568608 0 -0.34048662006219671 0.3134136064684202 0 -0.35973832000587103 0.30156583494659578 0 -0.34048662006219671 0.3134136064684202 0 -0.35973832000587103 0.30156583494659578 0 -0.34048662006219671 0.3134136064684202 0 -0.35266291753924972 0.3185391377246074 0 -0.35999054911729178 0.27483669957849599 0 -0.35973832000587103 0.30156583494659578 0 -0.33787059572762917 0.28628514770568608 0 -0.33787059572762917 0.28628514770568608 0 -0.32433421784224181 0.29134577093735992 0 -0.32817968546683252 0.27406819037537378 0 -0.33787059572762917 0.28628514770568608 0 -0.32433421784224181 0.29134577093735992 0 -0.34048662006219671 0.3134136064684202 0 -0.33787059572762917 0.28628514770568608 0 -0.34048662006219671 0.3134136064684202 0 -0.32433421784224181 0.29134577093735992 0 -0.34048662006219671 0.3134136064684202 0 -0.33644986083349537 0.31589788583959227 0 -0.32433421784224181 0.29134577093735992 0 -0.33644986083349537 0.31589788583959227 0 -0.31738149316785341 0.31004209536526439 0 -0.32433421784224181 0.29134577093735992 0 -0.30598953056628492 0.2900273931642402 0 -0.31738149316785341 0.31004209536526439 0 -0.32433421784224181 0.29134577093735992 0 -0.33644986083349537 0.31589788583959227 0 -0.32433421784224181 0.29134577093735992 0 -0.31221857485098842 0.26679365603512772 0 -0.30598953056628492 0.2900273931642402 0 -0.32433421784224181 0.29134577093735992 0 -0.32206519125496191 0.27395963304979742 0 -0.32817968546683252 0.27406819037537378 0 -0.32433421784224181 0.29134577093735992 0 -0.31221857485098842 0.26679365603512772 0 -0.32433421784224181 0.29134577093735992 0 -0.32206519125496191 0.27395963304979742 0 -0.31221857485098842 0.26679365603512772 0 -0.32206519125496191 0.27395963304979742 0 -0.32352828685978502 0.263630914851328 0 -0.31221857485098842 0.26679365603512772 0 -0.32206519125496191 0.27395963304979742 0 -0.32817968546683252 0.27406819037537378 0 -0.32352828685978502 0.263630914851328 0 -0.33787059572762917 0.28628514770568608 0 -0.32817968546683252 0.27406819037537378 0 -0.33525457139305892 0.25915668894295218 0 -0.33787059572762917 0.28628514770568608 0 -0.33525457139305892 0.25915668894295218 0 -0.32817968546683252 0.27406819037537378 0 -0.33525457139305892 0.25915668894295218 0 -0.32352828685978502 0.263630914851328 0 -0.33525457139305892 0.25915668894295218 0 -0.32352828685978502 0.263630914851328 0 -0.31789211441409582 0.25254709093973182 0 -0.32352828685978502 0.263630914851328 0 -0.31789211441409582 0.25254709093973182 0 -0.31221857485098842 0.26679365603512772 0 -0.30686581568106769 0.23798886464281349 0 -0.3064276731236763 0.26400812890352687 0 -0.2971181007736664 0.25582851233644582 0 -0.30686581568106769 0.23798886464281349 0 -0.3064276731236763 0.26400812890352687 0 -0.30686581568106769 0.23798886464281349 0 -0.31789211441409582 0.25254709093973182 0 -0.3064276731236763 0.26400812890352687 0 -0.31789211441409582 0.25254709093973182 0 -0.3064276731236763 0.26400812890352687 0 -0.31221857485098842 0.26679365603512772 0 -0.3064276731236763 0.26400812890352687 0 -0.2971181007736664 0.25582851233644582 0 -0.29490124232272652 0.26763141306344801 0 -0.3064276731236763 0.26400812890352687 0 -0.30598953056628492 0.2900273931642402 0 -0.3064276731236763 0.26400812890352687 0 -0.31221857485098842 0.26679365603512772 0 -0.30598953056628492 0.2900273931642402 0 -0.3064276731236763 0.26400812890352687 0 -0.29711207390121108 0.27778464148948068 0 -0.30598953056628492 0.2900273931642402 0 -0.3064276731236763 0.26400812890352687 0 -0.29711207390121108 0.27778464148948068 0 -0.29490124232272652 0.26763141306344801 0 -0.29711207390121108 0.27778464148948068 0 -0.29490124232272652 0.26763141306344801 0 -0.28513065527621212 0.27663699291094179 0 -0.29490124232272652 0.26763141306344801 0 -0.28513065527621212 0.27663699291094179 0 -0.28678069731241562 0.26153799933722338 0 -0.2899989795542729 0.24486950085420761 0 -0.28678069731241562 0.26153799933722338 0 -0.27664963471256893 0.25303831249354092 0 -0.2899989795542729 0.24486950085420761 0 -0.2971181007736664 0.25582851233644582 0 -0.28678069731241562 0.26153799933722338 0 -0.2971181007736664 0.25582851233644582 0 -0.29490124232272652 0.26763141306344801 0 -0.28678069731241562 0.26153799933722338 0 -0.27664963471256893 0.25303831249354092 0 -0.27176687637781488 0.26594099933159138 0 -0.25781088981188399 0.25136430228956153 0 -0.28678069731241562 0.26153799933722338 0 -0.27664963471256893 0.25303831249354092 0 -0.27176687637781488 0.26594099933159138 0 -0.28513065527621212 0.27663699291094179 0 -0.28678069731241562 0.26153799933722338 0 -0.27176687637781488 0.26594099933159138 0 -0.28513065527621212 0.27663699291094179 0 -0.27061990551365378 0.28069100063582608 0 -0.27176687637781488 0.26594099933159138 0 -0.27061990551365378 0.28069100063582608 0 -0.27176687637781488 0.26594099933159138 0 -0.25885919139045821 0.27622043672910479 0 -0.27176687637781488 0.26594099933159138 0 -0.25885919139045821 0.27622043672910479 0 -0.25781088981188399 0.25136430228956153 0 -0.25885919139045821 0.27622043672910479 0 -0.25781088981188399 0.25136430228956153 0 -0.24318641540675509 0.26598013431611689 0 -0.26251024452234489 0.30755485671873128 0 -0.25390348537530832 0.30159134492517048 0 -0.25995098352454249 0.29289474249360747 0 -0.26251024452234489 0.30755485671873128 0 -0.25995098352454249 0.29289474249360747 0 -0.27193141681554911 0.30245577080898761 0 -0.26251024452234489 0.30755485671873128 0 -0.25390348537530832 0.30159134492517048 0 -0.24737018536420399 0.31005157005846951 0 -0.26251024452234489 0.30755485671873128 0 -0.26084625960972418 0.31826249304905613 0 -0.24737018536420399 0.31005157005846951 0 -0.25390348537530832 0.30159134492517048 0 -0.25995098352454249 0.29289474249360747 0 -0.24385652990653359 0.29412839460549112 0 -0.27061990551365378 0.28069100063582608 0 -0.25885919139045821 0.27622043672910479 0 -0.25995098352454249 0.29289474249360747 0 -0.25885919139045821 0.27622043672910479 0 -0.25995098352454249 0.29289474249360747 0 -0.24597402151468839 0.2806104838936751 0 -0.25995098352454249 0.29289474249360747 0 -0.27739182099924131 0.29176183171388498 0 -0.27193141681554911 0.30245577080898761 0 -0.27061990551365378 0.28069100063582608 0 -0.25995098352454249 0.29289474249360747 0 -0.27739182099924131 0.29176183171388498 0 -0.28513065527621212 0.27663699291094179 0 -0.27061990551365378 0.28069100063582608 0 -0.27739182099924131 0.29176183171388498 0 -0.27739182099924131 0.29176183171388498 0 -0.27193141681554911 0.30245577080898761 0 -0.2856150422979728 0.30669139364343001 0 -0.26251024452234489 0.30755485671873128 0 -0.27193141681554911 0.30245577080898761 0 -0.27487324674846247 0.31249061672592732 0 -0.27193141681554911 0.30245577080898761 0 -0.27487324674846247 0.31249061672592732 0 -0.2856150422979728 0.30669139364343001 0 -0.2856150422979728 0.30669139364343001 0 -0.29958878884994639 0.30401832503099713 0 -0.29793511300934611 0.3223945723609607 0 -0.2856150422979728 0.30669139364343001 0 -0.29102276520827491 0.29093617062109028 0 -0.29958878884994639 0.30401832503099713 0 -0.27739182099924131 0.29176183171388498 0 -0.2856150422979728 0.30669139364343001 0 -0.29102276520827491 0.29093617062109028 0 -0.28513065527621212 0.27663699291094179 0 -0.27739182099924131 0.29176183171388498 0 -0.29102276520827491 0.29093617062109028 0 -0.29711207390121108 0.27778464148948068 0 -0.28513065527621212 0.27663699291094179 0 -0.29102276520827491 0.29093617062109028 0 -0.29711207390121108 0.27778464148948068 0 -0.29102276520827491 0.29093617062109028 0 -0.30598953056628492 0.2900273931642402 0 -0.29102276520827491 0.29093617062109028 0 -0.30598953056628492 0.2900273931642402 0 -0.29958878884994639 0.30401832503099713 0 -0.31738149316785341 0.31004209536526439 0 -0.30598953056628492 0.2900273931642402 0 -0.29958878884994639 0.30401832503099713 0 -0.31738149316785341 0.31004209536526439 0 -0.29958878884994639 0.30401832503099713 0 -0.29793511300934611 0.3223945723609607 0 -0.31738149316785341 0.31004209536526439 0 -0.29793511300934611 0.3223945723609607 0 -0.31401678547693629 0.32970352129692032 0 -0.29793511300934611 0.3223945723609607 0 -0.2915837101203767 0.34350915675424731 0 -0.31401678547693629 0.32970352129692032 0 -0.2915837101203767 0.34350915675424731 0 -0.30603458392427202 0.35702152569242063 0 -0.31401678547693629 0.32970352129692032 0 -0.2915837101203767 0.34350915675424731 0 -0.31401678547693629 0.32970352129692032 0 -0.29793511300934611 0.3223945723609607 0 -0.2915837101203767 0.34350915675424731 0 -0.28346280420925851 0.33252340259441998 0 -0.2856150422979728 0.30669139364343001 0 -0.29793511300934611 0.3223945723609607 0 -0.28290465273333792 0.31968552479012452 0 -0.29793511300934611 0.3223945723609607 0 -0.28346280420925851 0.33252340259441998 0 -0.28290465273333792 0.31968552479012452 0 -0.27487324674846247 0.31249061672592732 0 -0.2856150422979728 0.30669139364343001 0 -0.28290465273333792 0.31968552479012452 0 -0.27487324674846247 0.31249061672592732 0 -0.28290465273333792 0.31968552479012452 0 -0.27263705740164962 0.32432763862588471 0 -0.26251024452234489 0.30755485671873128 0 -0.27487324674846247 0.31249061672592732 0 -0.26084625960972418 0.31826249304905613 0 -0.27487324674846247 0.31249061672592732 0 -0.27263705740164962 0.32432763862588471 0 -0.26084625960972418 0.31826249304905613 0 -0.28346280420925851 0.33252340259441998 0 -0.28290465273333792 0.31968552479012452 0 -0.27263705740164962 0.32432763862588471 0 -0.28346280420925851 0.33252340259441998 0 -0.25766285524255678 0.34553439931298741 0 -0.28346280420925851 0.33252340259441998 0 -0.26479619011372157 0.33996796101516841 0 -0.25766285524255678 0.34553439931298741 0 -0.28346280420925851 0.33252340259441998 0 -0.27005166362536392 0.33176600160764191 0 -0.26479619011372157 0.33996796101516841 0 -0.28346280420925851 0.33252340259441998 0 -0.27263705740164962 0.32432763862588471 0 -0.27005166362536392 0.33176600160764191 0 -0.27263705740164962 0.32432763862588471 0 -0.27005166362536392 0.33176600160764191 0 -0.25931060277682583 0.33024500419509423 0 -0.26479619011372157 0.33996796101516841 0 -0.2397708343022697 0.34145750503603151 0 -0.26479619011372157 0.33996796101516841 0 -0.25766285524255678 0.34553439931298741 0 -0.2397708343022697 0.34145750503603151 0 -0.27005166362536392 0.33176600160764191 0 -0.25931060277682583 0.33024500419509423 0 -0.26479619011372157 0.33996796101516841 0 -0.25931060277682583 0.33024500419509423 0 -0.26479619011372157 0.33996796101516841 0 -0.2397708343022697 0.34145750503603151 0 -0.25931060277682583 0.33024500419509423 0 -0.26084625960972418 0.31826249304905613 0 -0.24837622084485819 0.32490527197022989 0 -0.26084625960972418 0.31826249304905613 0 -0.24837622084485819 0.32490527197022989 0 -0.24737018536420399 0.31005157005846951 0 -0.27263705740164962 0.32432763862588471 0 -0.25931060277682583 0.33024500419509423 0 -0.26084625960972418 0.31826249304905613 0 -0.26915063476381701 0.35731479221157447 0 -0.24671755940725729 0.37112042766890158 0 -0.26398098492981259 0.37367706569449322 0 -0.26915063476381701 0.35731479221157447 0 -0.24671755940725729 0.37112042766890158 0 -0.25766285524255678 0.34553439931298741 0 -0.26915063476381701 0.35731479221157447 0 -0.24671755940725729 0.37112042766890158 0 -0.28346280420925851 0.33252340259441998 0 -0.25766285524255678 0.34553439931298741 0 -0.26915063476381701 0.35731479221157447 0 -0.2915837101203767 0.34350915675424731 0 -0.26915063476381701 0.35731479221157447 0 -0.26915063476381701 0.35731479221157447 0 -0.27615908899357527 0.37173649587748508 0 -0.28890843166976199 0.36444796072179098 0 -0.26398098492981259 0.37367706569449322 0 -0.26915063476381701 0.35731479221157447 0 -0.27615908899357527 0.37173649587748508 0 -0.27615908899357527 0.37173649587748508 0 -0.28890843166976199 0.36444796072179098 0 -0.28757894418701191 0.3827715702486516 0 -0.2915837101203767 0.34350915675424731 0 -0.28890843166976199 0.36444796072179098 0 -0.30603458392427202 0.35702152569242063 0 -0.2915837101203767 0.34350915675424731 0 -0.28346280420925851 0.33252340259441998 0 -0.26915063476381701 0.35731479221157447 0 -0.2915837101203767 0.34350915675424731 0 -0.26915063476381701 0.35731479221157447 0 -0.28890843166976199 0.36444796072179098 0 -0.30603458392427202 0.35702152569242063 0 -0.32008223165353078 0.37368509894745322 0 -0.30528003986584412 0.379000951453346 0 -0.28890843166976199 0.36444796072179098 0 -0.30603458392427202 0.35702152569242063 0 -0.30528003986584412 0.379000951453346 0 -0.32008223165353078 0.37368509894745322 0 -0.33147847271882702 0.36562248464096059 0 -0.32365196027875393 0.35225239339610892 0 -0.30603458392427202 0.35702152569242063 0 -0.32008223165353078 0.37368509894745322 0 -0.32365196027875393 0.35225239339610892 0 -0.34513611503776398 0.36162937841111992 0 -0.33306148272375008 0.38328087230433411 0 -0.33147847271882702 0.36562248464096059 0 -0.34513611503776398 0.36162937841111992 0 -0.33306148272375008 0.38328087230433411 0 -0.32008223165353078 0.37368509894745322 0 -0.33147847271882702 0.36562248464096059 0 -0.33306148272375008 0.38328087230433411 0 -0.33147847271882702 0.36562248464096059 0 -0.33569086692572658 0.3542304651413809 0 -0.34513611503776398 0.36162937841111992 0 -0.33419243784792457 0.34447992893214407 0 -0.32365196027875393 0.35225239339610892 0 -0.32976131032854278 0.33580240088629998 0 -0.34345045957638748 0.34414894672404239 0 -0.33569086692572658 0.3542304651413809 0 -0.34513611503776398 0.36162937841111992 0 -0.34345045957638748 0.34414894672404239 0 -0.33569086692572658 0.3542304651413809 0 -0.33419243784792457 0.34447992893214407 0 -0.33147847271882702 0.36562248464096059 0 -0.33569086692572658 0.3542304651413809 0 -0.32365196027875393 0.35225239339610892 0 -0.33569086692572658 0.3542304651413809 0 -0.33419243784792457 0.34447992893214407 0 -0.32365196027875393 0.35225239339610892 0 -0.30603458392427202 0.35702152569242063 0 -0.32365196027875393 0.35225239339610892 0 -0.31401678547693629 0.32970352129692032 0 -0.32365196027875393 0.35225239339610892 0 -0.31401678547693629 0.32970352129692032 0 -0.32976131032854278 0.33580240088629998 0 -0.31401678547693629 0.32970352129692032 0 -0.33644986083349537 0.31589788583959227 0 -0.31738149316785341 0.31004209536526439 0 -0.31401678547693629 0.32970352129692032 0 -0.33644986083349537 0.31589788583959227 0 -0.31401678547693629 0.32970352129692032 0 -0.33644986083349537 0.31589788583959227 0 -0.32976131032854278 0.33580240088629998 0 -0.3417648041150082 0.32666851503696498 0 -0.33644986083349537 0.31589788583959227 0 -0.32976131032854278 0.33580240088629998 0 -0.3417648041150082 0.32666851503696498 0 -0.33644986083349537 0.31589788583959227 0 -0.3417648041150082 0.32666851503696498 0 -0.34048662006219671 0.3134136064684202 0 -0.3417648041150082 0.32666851503696498 0 -0.34048662006219671 0.3134136064684202 0 -0.33644986083349537 0.31589788583959227 0 -0.34048662006219671 0.3134136064684202 0 -0.33644986083349537 0.31589788583959227 0 -0.34345045957638748 0.34414894672404239 0 -0.3417648041150082 0.32666851503696498 0 -0.34345045957638748 0.34414894672404239 0 -0.3417648041150082 0.32666851503696498 0 -0.33729225296696569 0.3377749478948629 0 -0.33419243784792457 0.34447992893214407 0 -0.32976131032854278 0.33580240088629998 0 -0.33729225296696569 0.3377749478948629 0 -0.3417648041150082 0.32666851503696498 0 -0.32976131032854278 0.33580240088629998 0 -0.33729225296696569 0.3377749478948629 0 -0.34345045957638748 0.34414894672404239 0 -0.33419243784792457 0.34447992893214407 0 -0.33729225296696569 0.3377749478948629 0 -0.34345045957638748 0.34414894672404239 0 -0.3417648041150082 0.32666851503696498 0 -0.34954956877772558 0.34244418923138231 0 -0.3417648041150082 0.32666851503696498 0 -0.34954956877772558 0.34244418923138231 0 -0.3417648041150082 0.32666851503696498 0 -0.34954956877772558 0.34244418923138231 0 -0.35351474399130278 0.33007595921122068 0 -0.35351474399130278 0.33007595921122068 0 -0.3564731072798149 0.34130057568547711 0 -0.36781009952186722 0.32097177295983498 0 -0.34954956877772558 0.34244418923138231 0 -0.35351474399130278 0.33007595921122068 0 -0.3564731072798149 0.34130057568547711 0 -0.3417648041150082 0.32666851503696498 0 -0.34048662006219671 0.3134136064684202 0 -0.35266291753924972 0.3185391377246074 0 -0.3417648041150082 0.32666851503696498 0 -0.35351474399130278 0.33007595921122068 0 -0.35266291753924972 0.3185391377246074 0 -0.35351474399130278 0.33007595921122068 0 -0.35266291753924972 0.3185391377246074 0 -0.36781009952186722 0.32097177295983498 0 -0.35973832000587103 0.30156583494659578 0 -0.35266291753924972 0.3185391377246074 0 -0.36781009952186722 0.32097177295983498 0 -0.38078229231771821 0.3219440365254439 0 -0.36781009952186722 0.32097177295983498 0 -0.37322105660356142 0.33628553675524953 0 -0.3564731072798149 0.34130057568547711 0 -0.36781009952186722 0.32097177295983498 0 -0.3564731072798149 0.34130057568547711 0 -0.36781009952186722 0.32097177295983498 0 -0.36600853586120952 0.33637378379081939 0 -0.3564731072798149 0.34130057568547711 0 -0.36600853586120952 0.33637378379081939 0 -0.36652988003959441 0.34693724976271623 0 -0.36781009952186722 0.32097177295983498 0 -0.36600853586120952 0.33637378379081939 0 -0.37322105660356142 0.33628553675524953 0 -0.36600853586120952 0.33637378379081939 0 -0.37322105660356142 0.33628553675524953 0 -0.36652988003959441 0.34693724976271623 0 -0.38137819733938588 0.34833620409166788 0 -0.37322105660356142 0.33628553675524953 0 -0.36652988003959441 0.34693724976271623 0 -0.3564731072798149 0.34130057568547711 0 -0.36483725395653382 0.35929071891222158 0 -0.36652988003959441 0.34693724976271623 0 -0.38137819733938588 0.34833620409166788 0 -0.36483725395653382 0.35929071891222158 0 -0.36652988003959441 0.34693724976271623 0 -0.36483725395653382 0.35929071891222158 0 -0.35618763568117179 0.37210289480082293 0 -0.36713635541863471 0.37988805629222189 0 -0.38116287984602698 0.36833499497316619 0 -0.36483725395653382 0.35929071891222158 0 -0.36713635541863471 0.37988805629222189 0 -0.34513611503776398 0.36162937841111992 0 -0.34764081831175481 0.38760342558772848 0 -0.36483725395653382 0.35929071891222158 0 -0.35618763568117179 0.37210289480082293 0 -0.34513611503776398 0.36162937841111992 0 -0.35618763568117179 0.37210289480082293 0 -0.34513611503776398 0.36162937841111992 0 -0.34764081831175481 0.38760342558772848 0 -0.34954956877772558 0.34244418923138231 0 -0.3564731072798149 0.34130057568547711 0 -0.34513611503776398 0.36162937841111992 0 -0.34345045957638748 0.34414894672404239 0 -0.34513611503776398 0.36162937841111992 0 -0.3564731072798149 0.34130057568547711 0 -0.36483725395653382 0.35929071891222158 0 -0.34513611503776398 0.36162937841111992 0 -0.3564731072798149 0.34130057568547711 0 -0.34513611503776398 0.36162937841111992 0 -0.34345045957638748 0.34414894672404239 0 -0.34954956877772558 0.34244418923138231 0 -0.34513611503776398 0.36162937841111992 0 -0.34764081831175481 0.38760342558772848 0 -0.35014552158574352 0.41357747276433732 0 -0.34764081831175481 0.38760342558772848 0 -0.36242802965926679 0.39718812340102672 0 -0.35014552158574352 0.41357747276433732 0 -0.34764081831175481 0.38760342558772848 0 -0.35014552158574352 0.41357747276433732 0 -0.33658262364515018 0.40185063564488721 0 -0.34764081831175481 0.38760342558772848 0 -0.36713635541863471 0.37988805629222189 0 -0.36242802965926679 0.39718812340102672 0 -0.35618763568117179 0.37210289480082293 0 -0.34764081831175481 0.38760342558772848 0 -0.36713635541863471 0.37988805629222189 0 -0.38698459659072149 0.38894438391309227 0 -0.36713635541863471 0.37988805629222189 0 -0.36242802965926679 0.39718812340102672 0 -0.38698459659072149 0.38894438391309227 0 -0.36242802965926679 0.39718812340102672 0 -0.37322190284057177 0.41294615564915438 0 -0.36242802965926679 0.39718812340102672 0 -0.37322190284057177 0.41294615564915438 0 -0.35014552158574352 0.41357747276433732 0 -0.38180541721747591 0.43282878077640491 0 -0.37322190284057177 0.41294615564915438 0 -0.35554383332002198 0.43972818678570819 0 -0.37322190284057177 0.41294615564915438 0 -0.35014552158574352 0.41357747276433732 0 -0.35554383332002198 0.43972818678570819 0 -0.35014552158574352 0.41357747276433732 0 -0.33173197296577361 0.42505038964415182 0 -0.35554383332002198 0.43972818678570819 0 -0.35014552158574352 0.41357747276433732 0 -0.33173197296577361 0.42505038964415182 0 -0.33658262364515018 0.40185063564488721 0 -0.33173197296577361 0.42505038964415182 0 -0.32098685040973768 0.40493236619754908 0 -0.33658262364515018 0.40185063564488721 0 -0.33173197296577361 0.42505038964415182 0 -0.30891221809572522 0.42658386009076421 0 -0.31650022702331299 0.44141374904889158 0 -0.33173197296577361 0.42505038964415182 0 -0.32098685040973768 0.40493236619754908 0 -0.30891221809572522 0.42658386009076421 0 -0.32098685040973768 0.40493236619754908 0 -0.30891221809572522 0.42658386009076421 0 -0.32098685040973768 0.40493236619754908 0 -0.33306148272375008 0.38328087230433411 0 -0.34764081831175481 0.38760342558772848 0 -0.33658262364515018 0.40185063564488721 0 -0.33306148272375008 0.38328087230433411 0 -0.32098685040973768 0.40493236619754908 0 -0.33658262364515018 0.40185063564488721 0 -0.33306148272375008 0.38328087230433411 0 -0.34513611503776398 0.36162937841111992 0 -0.34764081831175481 0.38760342558772848 0 -0.33306148272375008 0.38328087230433411 0 -0.32008223165353078 0.37368509894745322 0 -0.32098685040973768 0.40493236619754908 0 -0.30528003986584412 0.379000951453346 0 -0.32008223165353078 0.37368509894745322 0 -0.32098685040973768 0.40493236619754908 0 -0.33306148272375008 0.38328087230433411 0 -0.30528003986584412 0.379000951453346 0 -0.29639178158679103 0.40331696854082399 0 -0.32098685040973768 0.40493236619754908 0 -0.30528003986584412 0.379000951453346 0 -0.29639178158679103 0.40331696854082399 0 -0.29639178158679103 0.40331696854082399 0 -0.28757894418701191 0.3827715702486516 0 -0.27736753582445678 0.40532148389608319 0 -0.28890843166976199 0.36444796072179098 0 -0.30528003986584412 0.379000951453346 0 -0.28757894418701191 0.3827715702486516 0 -0.30528003986584412 0.379000951453346 0 -0.29639178158679103 0.40331696854082399 0 -0.28757894418701191 0.3827715702486516 0 -0.27615908899357527 0.37173649587748508 0 -0.28757894418701191 0.3827715702486516 0 -0.27114218936186107 0.38567972447071569 0 -0.26398098492981259 0.37367706569449322 0 -0.27615908899357527 0.37173649587748508 0 -0.27114218936186107 0.38567972447071569 0 -0.28757894418701191 0.3827715702486516 0 -0.27114218936186107 0.38567972447071569 0 -0.27736753582445678 0.40532148389608319 0 -0.27114218936186107 0.38567972447071569 0 -0.27736753582445678 0.40532148389608319 0 -0.25538148803559219 0.40700429440734032 0 -0.2561736030810719 0.38574787471070882 0 -0.25538148803559219 0.40700429440734032 0 -0.24364579367083641 0.391257861312093 0 -0.27114218936186107 0.38567972447071569 0 -0.2561736030810719 0.38574787471070882 0 -0.25538148803559219 0.40700429440734032 0 -0.26398098492981259 0.37367706569449322 0 -0.2561736030810719 0.38574787471070882 0 -0.24671755940725729 0.37112042766890158 0 -0.26398098492981259 0.37367706569449322 0 -0.27114218936186107 0.38567972447071569 0 -0.2561736030810719 0.38574787471070882 0 -0.25439072692998921 0.43735816918465492 0 -0.27028644385088563 0.42341681979000362 0 -0.27204136912890442 0.43838626340568948 0 -0.25439072692998921 0.43735816918465492 0 -0.25538148803559219 0.40700429440734032 0 -0.27028644385088563 0.42341681979000362 0 -0.27736753582445678 0.40532148389608319 0 -0.25538148803559219 0.40700429440734032 0 -0.27028644385088563 0.42341681979000362 0 -0.27736753582445678 0.40532148389608319 0 -0.27028644385088563 0.42341681979000362 0 -0.28750352330773787 0.42763298562830199 0 -0.27028644385088563 0.42341681979000362 0 -0.28750352330773787 0.42763298562830199 0 -0.27204136912890442 0.43838626340568948 0 -0.29639178158679103 0.40331696854082399 0 -0.27736753582445678 0.40532148389608319 0 -0.28750352330773787 0.42763298562830199 0 -0.29639178158679103 0.40331696854082399 0 -0.28750352330773787 0.42763298562830199 0 -0.29639178158679103 0.40331696854082399 0 -0.28750352330773787 0.42763298562830199 0 -0.30891221809572522 0.42658386009076421 0 -0.32098685040973768 0.40493236619754908 0 -0.29639178158679103 0.40331696854082399 0 -0.30891221809572522 0.42658386009076421 0 -0.28750352330773787 0.42763298562830199 0 -0.30891221809572522 0.42658386009076421 0 -0.29683758578171271 0.44823535398397929 0 -0.30891221809572522 0.42658386009076421 0 -0.29683758578171271 0.44823535398397929 0 -0.30891221809572522 0.42658386009076421 0 -0.29683758578171271 0.44823535398397929 0 -0.31650022702331299 0.44141374904889158 0 -0.29683758578171271 0.44823535398397929 0 -0.31359383579068889 0.45601195409579393 0 -0.31650022702331299 0.44141374904889158 0 -0.29906983941227921 0.46147488640095219 0 -0.29683758578171271 0.44823535398397929 0 -0.31359383579068889 0.45601195409579393 0 -0.29906983941227921 0.46147488640095219 0 -0.2892981220331125 0.47216667118746047 0 -0.3068368573637138 0.47213638860447199 0 -0.29906983941227921 0.46147488640095219 0 -0.3068368573637138 0.47213638860447199 0 -0.31359383579068889 0.45601195409579393 0 -0.29906983941227921 0.46147488640095219 0 -0.27861526502868478 0.45194900271577992 0 -0.2892981220331125 0.47216667118746047 0 -0.29906983941227921 0.46147488640095219 0 -0.29683758578171271 0.44823535398397929 0 -0.27861526502868478 0.45194900271577992 0 -0.28750352330773787 0.42763298562830199 0 -0.27861526502868478 0.45194900271577992 0 -0.28750352330773787 0.42763298562830199 0 -0.29683758578171271 0.44823535398397929 0 -0.27861526502868478 0.45194900271577992 0 -0.28750352330773787 0.42763298562830199 0 -0.27204136912890442 0.43838626340568948 0 -0.27861526502868478 0.45194900271577992 0 -0.27204136912890442 0.43838626340568948 0 -0.27861526502868478 0.45194900271577992 0 -0.26608919691189048 0.46115281194443059 0 -0.27861526502868478 0.45194900271577992 0 -0.26608919691189048 0.46115281194443059 0 -0.26972700674963129 0.47626501980325781 0 -0.27861526502868478 0.45194900271577992 0 -0.26972700674963129 0.47626501980325781 0 -0.27861526502868478 0.45194900271577992 0 -0.26972700674963129 0.47626501980325781 0 -0.2892981220331125 0.47216667118746047 0 -0.26608919691189048 0.46115281194443059 0 -0.25055130607769349 0.46158459338051833 0 -0.26972700674963129 0.47626501980325781 0 -0.25439072692998921 0.43735816918465492 0 -0.26608919691189048 0.46115281194443059 0 -0.25055130607769349 0.46158459338051833 0 -0.25439072692998921 0.43735816918465492 0 -0.27204136912890442 0.43838626340568948 0 -0.26608919691189048 0.46115281194443059 0 -0.26105113547195158 0.49999999999999872 0 -0.26972700674963129 0.47626501980325781 0 -0.26105113547195158 0.49999999999999872 0 -0.25242825451887929 0.4800797258947026 0 -0.26972700674963129 0.47626501980325781 0 -0.26105113547195158 0.49999999999999872 0 -0.25242825451887929 0.4800797258947026 0 -0.24368512317136681 0.48873686798064059 0 -0.25055130607769349 0.46158459338051833 0 -0.25242825451887929 0.4800797258947026 0 -0.26972700674963129 0.47626501980325781 0 -0.25055130607769349 0.46158459338051833 0 -0.26972700674963129 0.47626501980325781 0 -0.26972700674963129 0.47626501980325781 0 -0.283940359743723 0.48714639965059492 0 -0.2892981220331125 0.47216667118746047 0 -0.26972700674963129 0.47626501980325781 0 -0.283940359743723 0.48714639965059492 0 -0.26105113547195158 0.49999999999999872 0 -0.26972700674963129 0.47626501980325781 0 -0.283940359743723 0.48714639965059492 0 -0.26105113547195158 0.49999999999999872 0 -0.28792110268762899 0.5 0 -0.283940359743723 0.48714639965059492 0 -0.283940359743723 0.48714639965059492 0 -0.2977024742274752 0.4837874470098511 0 -0.29815371273781471 0.49802777949793192 0 -0.283940359743723 0.48714639965059492 0 -0.29815371273781471 0.49802777949793192 0 -0.28792110268762899 0.5 0 -0.283940359743723 0.48714639965059492 0 -0.29815371273781471 0.49802777949793192 0 -0.283940359743723 0.48714639965059492 0 -0.2892981220331125 0.47216667118746047 0 -0.2977024742274752 0.4837874470098511 0 -0.2892981220331125 0.47216667118746047 0 -0.2977024742274752 0.4837874470098511 0 -0.3068368573637138 0.47213638860447199 0 -0.2977024742274752 0.4837874470098511 0 -0.3068368573637138 0.47213638860447199 0 -0.31243653771451391 0.48682080416557633 0 -0.29815371273781471 0.49802777949793192 0 -0.31243653771451391 0.48682080416557633 0 -0.31479106990330641 0.5 0 -0.28792110268762899 0.5 0 -0.29815371273781471 0.49802777949793192 0 -0.31479106990330641 0.5 0 -0.2977024742274752 0.4837874470098511 0 -0.29815371273781471 0.49802777949793192 0 -0.31243653771451391 0.48682080416557633 0 -0.31243653771451391 0.48682080416557633 0 -0.31479106990330641 0.5 0 -0.32580198630172558 0.49028710366385242 0 -0.31243653771451391 0.48682080416557633 0 -0.32580198630172558 0.49028710366385242 0 -0.3313331257530473 0.47668610621735019 0 -0.31479106990330641 0.5 0 -0.32580198630172558 0.49028710366385242 0 -0.34166103711898388 0.5 0 -0.34166103711898388 0.5 0 -0.3313331257530473 0.47668610621735019 0 -0.35217744050578209 0.48159778823032279 0 -0.32580198630172558 0.49028710366385242 0 -0.34166103711898388 0.5 0 -0.3313331257530473 0.47668610621735019 0 -0.3313331257530473 0.47668610621735019 0 -0.34374424930373998 0.46398145180759248 0 -0.35217744050578209 0.48159778823032279 0 -0.3068368573637138 0.47213638860447199 0 -0.31243653771451391 0.48682080416557633 0 -0.3313331257530473 0.47668610621735019 0 -0.3313331257530473 0.47668610621735019 0 -0.31359383579068889 0.45601195409579393 0 -0.33142552248266471 0.45118718742976888 0 -0.3068368573637138 0.47213638860447199 0 -0.3313331257530473 0.47668610621735019 0 -0.31359383579068889 0.45601195409579393 0 -0.33173197296577361 0.42505038964415182 0 -0.31650022702331299 0.44141374904889158 0 -0.33142552248266471 0.45118718742976888 0 -0.31359383579068889 0.45601195409579393 0 -0.31650022702331299 0.44141374904889158 0 -0.33142552248266471 0.45118718742976888 0 -0.33173197296577361 0.42505038964415182 0 -0.33142552248266471 0.45118718742976888 0 -0.35554383332002198 0.43972818678570819 0 -0.33142552248266471 0.45118718742976888 0 -0.34374424930373998 0.46398145180759248 0 -0.35554383332002198 0.43972818678570819 0 -0.3313331257530473 0.47668610621735019 0 -0.33142552248266471 0.45118718742976888 0 -0.34374424930373998 0.46398145180759248 0 -0.34374424930373998 0.46398145180759248 0 -0.35554383332002198 0.43972818678570819 0 -0.3614140001345425 0.46577704002299458 0 -0.35554383332002198 0.43972818678570819 0 -0.37450065770581231 0.45109209589174709 0 -0.3614140001345425 0.46577704002299458 0 -0.38180541721747591 0.43282878077640491 0 -0.35554383332002198 0.43972818678570819 0 -0.37450065770581231 0.45109209589174709 0 -0.38366308331645249 0.4684977888528169 0 -0.37450065770581231 0.45109209589174709 0 -0.3614140001345425 0.46577704002299458 0 -0.38366308331645249 0.4684977888528169 0 -0.3614140001345425 0.46577704002299458 0 -0.3614140001345425 0.46577704002299458 0 -0.37179605172203728 0.47975135386551609 0 -0.35217744050578209 0.48159778823032279 0 -0.38366308331645249 0.4684977888528169 0 -0.3614140001345425 0.46577704002299458 0 -0.37179605172203728 0.47975135386551609 0 -0.37179605172203728 0.47975135386551609 0 -0.36853100433466129 0.5 0 -0.35217744050578209 0.48159778823032279 0 -0.34166103711898388 0.5 0 -0.36853100433466129 0.5 0 -0.35217744050578209 0.48159778823032279 0 -0.34374424930373998 0.46398145180759248 0 -0.3614140001345425 0.46577704002299458 0 -0.35217744050578209 0.48159778823032279 0 -0.1511546090444357 0.47065052989068928 0 -0.14890910936129981 0.49999999999999672 0 -0.16315296092408429 0.47561126680233762 0 -0.1511546090444357 0.47065052989068928 0 -0.14890910936129981 0.49999999999999672 0 -0.13288363243512979 0.48493883485054889 0 -0.1511546090444357 0.47065052989068928 0 -0.14890910936129981 0.49999999999999672 0 -0.14890910936129981 0.49999999999999672 0 -0.13288363243512979 0.48493883485054889 0 -0.12163651972145099 0.5 0 -0.13288363243512979 0.48493883485054889 0 -0.12527370250384759 0.47078387733216209 0 -0.1174442215446152 0.48325976702989631 0 -0.1511546090444357 0.47065052989068928 0 -0.13288363243512979 0.48493883485054889 0 -0.12527370250384759 0.47078387733216209 0 -0.1511546090444357 0.47065052989068928 0 -0.12527370250384759 0.47078387733216209 0 -0.13236885841004919 0.44889332693852801 0 -0.13236885841004919 0.44889332693852801 0 -0.15340010872757201 0.44130105978138201 0 -0.14546892619245869 0.42593361708303712 0 -0.1511546090444357 0.47065052989068928 0 -0.15340010872757201 0.44130105978138201 0 -0.1511546090444357 0.47065052989068928 0 -0.13236885841004919 0.44889332693852801 0 -0.15340010872757201 0.44130105978138201 0 -0.1511546090444357 0.47065052989068928 0 -0.1669351908150471 0.4512225336046784 0 -0.16315296092408429 0.47561126680233762 0 -0.1511546090444357 0.47065052989068928 0 -0.15340010872757201 0.44130105978138201 0 -0.1669351908150471 0.4512225336046784 0 -0.1669351908150471 0.4512225336046784 0 -0.16315296092408429 0.47561126680233762 0 -0.15340010872757201 0.44130105978138201 0 -0.1669351908150471 0.4512225336046784 0 -0.17071742070600859 0.42683380040701913 0 -0.1669351908150471 0.4512225336046784 0 -0.17071742070600859 0.42683380040701913 0 -0.1669351908150471 0.4512225336046784 0 -0.19119844805207409 0.44705717892716551 0 -0.17071742070600859 0.42683380040701913 0 -0.1669351908150471 0.4512225336046784 0 -0.19193063858030601 0.47500262008915889 0 -0.19119844805207409 0.44705717892716551 0 -0.1669351908150471 0.4512225336046784 0 -0.16315296092408429 0.47561126680233762 0 -0.19193063858030601 0.47500262008915889 0 -0.16315296092408429 0.47561126680233762 0 -0.18479083214282929 0.5 0 -0.19193063858030601 0.47500262008915889 0 -0.14890910936129981 0.49999999999999672 0 -0.16315296092408429 0.47561126680233762 0 -0.15937073103312191 0.49999999999999672 0 -0.16315296092408429 0.47561126680233762 0 -0.15937073103312191 0.49999999999999672 0 -0.18479083214282929 0.5 0 -0.16315296092408429 0.47561126680233762 0 -0.15937073103312191 0.49999999999999672 0 -0.18479083214282929 0.5 0 -0.19193063858030601 0.47500262008915889 0 -0.2102109332525367 0.5 0 -0.19193063858030601 0.47500262008915889 0 -0.215546629477429 0.48384680384262069 0 -0.2116794753981413 0.46728055744731012 0 -0.19193063858030601 0.47500262008915889 0 -0.215546629477429 0.48384680384262069 0 -0.2102109332525367 0.5 0 -0.215546629477429 0.48384680384262069 0 -0.2102109332525367 0.5 0 -0.23216050274420841 0.48750393596745489 0 -0.2102109332525367 0.5 0 -0.23216050274420841 0.48750393596745489 0 -0.23563103436224411 0.5 0 -0.215546629477429 0.48384680384262069 0 -0.23216050274420841 0.48750393596745489 0 -0.2116794753981413 0.46728055744731012 0 -0.23216050274420841 0.48750393596745489 0 -0.2116794753981413 0.46728055744731012 0 -0.23216050274420841 0.48750393596745489 0 -0.23709871348795661 0.47152361857714681 0 -0.2116794753981413 0.46728055744731012 0 -0.23216050274420841 0.48750393596745489 0 -0.23709871348795661 0.47152361857714681 0 -0.24368512317136681 0.48873686798064059 0 -0.25242825451887929 0.4800797258947026 0 -0.23709871348795661 0.47152361857714681 0 -0.24368512317136681 0.48873686798064059 0 -0.25055130607769349 0.46158459338051833 0 -0.25242825451887929 0.4800797258947026 0 -0.23709871348795661 0.47152361857714681 0 -0.26105113547195158 0.49999999999999872 0 -0.24368512317136681 0.48873686798064059 0 -0.23563103436224411 0.5 0 -0.23216050274420841 0.48750393596745489 0 -0.24368512317136681 0.48873686798064059 0 -0.23563103436224411 0.5 0 -0.25439072692998921 0.43735816918465492 0 -0.25055130607769349 0.46158459338051833 0 -0.23137560540575561 0.44690416695777863 0 -0.25055130607769349 0.46158459338051833 0 -0.23137560540575561 0.44690416695777863 0 -0.25055130607769349 0.46158459338051833 0 -0.23709871348795661 0.47152361857714681 0 -0.23137560540575561 0.44690416695777863 0 -0.23709871348795661 0.47152361857714681 0 -0.23137560540575561 0.44690416695777863 0 -0.2116794753981413 0.46728055744731012 0 -0.23137560540575561 0.44690416695777863 0 -0.21219990473381789 0.43222374053503892 0 -0.23137560540575561 0.44690416695777863 0 -0.2116794753981413 0.46728055744731012 0 -0.21219990473381789 0.43222374053503892 0 -0.2116794753981413 0.46728055744731012 0 -0.19119844805207409 0.44705717892716551 0 -0.21219990473381789 0.43222374053503892 0 -0.19193063858030601 0.47500262008915889 0 -0.2116794753981413 0.46728055744731012 0 -0.19119844805207409 0.44705717892716551 0 -0.2116794753981413 0.46728055744731012 0 -0.19119844805207409 0.44705717892716551 0 -0.19119844805207409 0.44705717892716551 0 -0.19603875288963629 0.43020876358935711 0 -0.21219990473381789 0.43222374053503892 0 -0.19603875288963629 0.43020876358935711 0 -0.20071960476155959 0.41567743311107069 0 -0.21219990473381789 0.43222374053503892 0 -0.18994597227098811 0.40759757381842932 0 -0.1878311249556556 0.41690644311094371 0 -0.20071960476155959 0.41567743311107069 0 -0.19603875288963629 0.43020876358935711 0 -0.1878311249556556 0.41690644311094371 0 -0.20071960476155959 0.41567743311107069 0 -0.18994597227098811 0.40759757381842932 0 -0.20071960476155959 0.41567743311107069 0 -0.19824147186975161 0.40220494357118219 0 -0.20071960476155959 0.41567743311107069 0 -0.2062792483181688 0.40644478584013649 0 -0.19824147186975161 0.40220494357118219 0 -0.20071960476155959 0.41567743311107069 0 -0.21448645356515009 0.41363927408699352 0 -0.21219990473381789 0.43222374053503892 0 -0.20071960476155959 0.41567743311107069 0 -0.2062792483181688 0.40644478584013649 0 -0.21448645356515009 0.41363927408699352 0 -0.2062792483181688 0.40644478584013649 0 -0.21448645356515009 0.41363927408699352 0 -0.21609730270024419 0.40197057984788098 0 -0.23137560540575561 0.44690416695777863 0 -0.21219990473381789 0.43222374053503892 0 -0.23500967909920281 0.4230582344068235 0 -0.21448645356515009 0.41363927408699352 0 -0.21219990473381789 0.43222374053503892 0 -0.23500967909920281 0.4230582344068235 0 -0.21448645356515009 0.41363927408699352 0 -0.23500967909920281 0.4230582344068235 0 -0.2314842001869539 0.40364271786456002 0 -0.21448645356515009 0.41363927408699352 0 -0.2314842001869539 0.40364271786456002 0 -0.21609730270024419 0.40197057984788098 0 -0.25538148803559219 0.40700429440734032 0 -0.23500967909920281 0.4230582344068235 0 -0.2314842001869539 0.40364271786456002 0 -0.25439072692998921 0.43735816918465492 0 -0.23137560540575561 0.44690416695777863 0 -0.23500967909920281 0.4230582344068235 0 -0.25439072692998921 0.43735816918465492 0 -0.25538148803559219 0.40700429440734032 0 -0.23500967909920281 0.4230582344068235 0 -0.2242844840506977 0.38492606312622868 0 -0.24671755940725729 0.37112042766890158 0 -0.24364579367083641 0.391257861312093 0 -0.2242844840506977 0.38492606312622868 0 -0.24671755940725729 0.37112042766890158 0 -0.2561736030810719 0.38574787471070882 0 -0.24364579367083641 0.391257861312093 0 -0.24671755940725729 0.37112042766890158 0 -0.25538148803559219 0.40700429440734032 0 -0.24364579367083641 0.391257861312093 0 -0.2314842001869539 0.40364271786456002 0 -0.2314842001869539 0.40364271786456002 0 -0.2242844840506977 0.38492606312622868 0 -0.21609730270024419 0.40197057984788098 0 -0.24364579367083641 0.391257861312093 0 -0.2314842001869539 0.40364271786456002 0 -0.2242844840506977 0.38492606312622868 0 -0.2242844840506977 0.38492606312622868 0 -0.21708600187296359 0.37563497947309987 0 -0.20874900078239991 0.38406486387092947 0 -0.2242844840506977 0.38492606312622868 0 -0.20874900078239991 0.38406486387092947 0 -0.2018514086941382 0.39873169858355578 0 -0.20874900078239991 0.38406486387092947 0 -0.19897164618784671 0.3796998223317965 0 -0.20606295730915339 0.37155639275012209 0 -0.21708600187296359 0.37563497947309987 0 -0.20874900078239991 0.38406486387092947 0 -0.20606295730915339 0.37155639275012209 0 -0.2242844840506977 0.38492606312622868 0 -0.2018514086941382 0.39873169858355578 0 -0.2242844840506977 0.38492606312622868 0 -0.21609730270024419 0.40197057984788098 0 -0.2018514086941382 0.39873169858355578 0 -0.20874900078239991 0.38406486387092947 0 -0.2018514086941382 0.39873169858355578 0 -0.19898257804050631 0.3900298340742942 0 -0.2062792483181688 0.40644478584013649 0 -0.21609730270024419 0.40197057984788098 0 -0.2018514086941382 0.39873169858355578 0 -0.19824147186975161 0.40220494357118219 0 -0.18887785000547699 0.38612947054885283 0 -0.19824147186975161 0.40220494357118219 0 -0.19083618562567159 0.39858494107959552 0 -0.18887785000547699 0.38612947054885283 0 -0.19824147186975161 0.40220494357118219 0 -0.19898257804050631 0.3900298340742942 0 -0.18887785000547699 0.38612947054885283 0 -0.2062792483181688 0.40644478584013649 0 -0.19824147186975161 0.40220494357118219 0 -0.2018514086941382 0.39873169858355578 0 -0.19824147186975161 0.40220494357118219 0 -0.2018514086941382 0.39873169858355578 0 -0.19898257804050631 0.3900298340742942 0 -0.19083618562567159 0.39858494107959552 0 -0.18887785000547699 0.38612947054885283 0 -0.1862794483564699 0.39840777637991748 0 -0.18994597227098811 0.40759757381842932 0 -0.19824147186975161 0.40220494357118219 0 -0.19083618562567159 0.39858494107959552 0 -0.18994597227098811 0.40759757381842932 0 -0.19083618562567159 0.39858494107959552 0 -0.1862794483564699 0.39840777637991748 0 -0.18887785000547699 0.38612947054885283 0 -0.19086272228137019 0.36787808732741428 0 -0.1975832296913779 0.37213942212584561 0 -0.20874900078239991 0.38406486387092947 0 -0.19897164618784671 0.3796998223317965 0 -0.19898257804050631 0.3900298340742942 0 -0.19897164618784671 0.3796998223317965 0 -0.19898257804050631 0.3900298340742942 0 -0.18887785000547699 0.38612947054885283 0 -0.19897164618784671 0.3796998223317965 0 -0.18887785000547699 0.38612947054885283 0 -0.19897164618784671 0.3796998223317965 0 -0.18887785000547699 0.38612947054885283 0 -0.1975832296913779 0.37213942212584561 0 -0.18887785000547699 0.38612947054885283 0 -0.17424489273100999 0.38219302825736362 0 -0.17244886726984709 0.39659456986785652 0 -0.18887785000547699 0.38612947054885283 0 -0.17424489273100999 0.38219302825736362 0 -0.17544961412908061 0.3630758651494348 0 -0.17424489273100999 0.38219302825736362 0 -0.1597046161021777 0.3836410258763413 0 -0.17544961412908061 0.3630758651494348 0 -0.17424489273100999 0.38219302825736362 0 -0.1597046161021777 0.3836410258763413 0 -0.17244886726984709 0.39659456986785652 0 -0.1567817272485961 0.39710211713657129 0 -0.17244886726984709 0.39659456986785652 0 -0.15601988453421539 0.40705966918685738 0 -0.17244886726984709 0.39659456986785652 0 -0.15601988453421539 0.40705966918685738 0 -0.1597046161021777 0.3836410258763413 0 -0.1567817272485961 0.39710211713657129 0 -0.17244886726984709 0.39659456986785652 0 -0.17244886726984709 0.39659456986785652 0 -0.16585993357214501 0.40901790321736298 0 -0.15601988453421539 0.40705966918685738 0 -0.1567817272485961 0.39710211713657129 0 -0.15601988453421539 0.40705966918685738 0 -0.17446788693994289 0.40264988695300741 0 -0.17244886726984709 0.39659456986785652 0 -0.16585993357214501 0.40901790321736298 0 -0.18887785000547699 0.38612947054885283 0 -0.17244886726984709 0.39659456986785652 0 -0.18887785000547699 0.38612947054885283 0 -0.17244886726984709 0.39659456986785652 0 -0.18031308354274589 0.39820632993495719 0 -0.17446788693994289 0.40264988695300741 0 -0.18031308354274589 0.39820632993495719 0 -0.18143086451427831 0.40834258208720758 0 -0.17446788693994289 0.40264988695300741 0 -0.17244886726984709 0.39659456986785652 0 -0.18031308354274589 0.39820632993495719 0 -0.18887785000547699 0.38612947054885283 0 -0.1862794483564699 0.39840777637991748 0 -0.18031308354274589 0.39820632993495719 0 -0.18994597227098811 0.40759757381842932 0 -0.1862794483564699 0.39840777637991748 0 -0.18143086451427831 0.40834258208720758 0 -0.1862794483564699 0.39840777637991748 0 -0.18031308354274589 0.39820632993495719 0 -0.18143086451427831 0.40834258208720758 0 -0.17446788693994289 0.40264988695300741 0 -0.18143086451427831 0.40834258208720758 0 -0.17071742070600859 0.42683380040701913 0 -0.18994597227098811 0.40759757381842932 0 -0.1878311249556556 0.41690644311094371 0 -0.18143086451427831 0.40834258208720758 0 -0.17446788693994289 0.40264988695300741 0 -0.17071742070600859 0.42683380040701913 0 -0.1878311249556556 0.41690644311094371 0 -0.18143086451427831 0.40834258208720758 0 -0.17071742070600859 0.42683380040701913 0 -0.19603875288963629 0.43020876358935711 0 -0.1878311249556556 0.41690644311094371 0 -0.17071742070600859 0.42683380040701913 0 -0.19119844805207409 0.44705717892716551 0 -0.19603875288963629 0.43020876358935711 0 -0.17071742070600859 0.42683380040701913 0 -0.19119844805207409 0.44705717892716551 0 -0.17071742070600859 0.42683380040701913 0 -0.15340010872757201 0.44130105978138201 0 -0.17071742070600859 0.42683380040701913 0 -0.1556456084107091 0.41195158967207468 0 -0.17071742070600859 0.42683380040701913 0 -0.16585993357214501 0.40901790321736298 0 -0.1556456084107091 0.41195158967207468 0 -0.17446788693994289 0.40264988695300741 0 -0.17071742070600859 0.42683380040701913 0 -0.16585993357214501 0.40901790321736298 0 -0.17071742070600859 0.42683380040701913 0 -0.1556456084107091 0.41195158967207468 0 -0.16585993357214501 0.40901790321736298 0 -0.15601988453421539 0.40705966918685738 0 -0.1556456084107091 0.41195158967207468 0 -0.15601988453421539 0.40705966918685738 0 -0.1527808700311036 0.40912288935186852 0 -0.15096559699279591 0.40733045222697228 0 -0.1527808700311036 0.40912288935186852 0 -0.12821462004837761 0.42477134733015898 0 -0.14395961807527691 0.40420618660324947 0 -0.1527808700311036 0.40912288935186852 0 -0.15096559699279591 0.40733045222697228 0 -0.14395961807527691 0.40420618660324947 0 -0.15601988453421539 0.40705966918685738 0 -0.1527808700311036 0.40912288935186852 0 -0.15601988453421539 0.40705966918685738 0 -0.1527808700311036 0.40912288935186852 0 -0.1556456084107091 0.41195158967207468 0 -0.1527808700311036 0.40912288935186852 0 -0.1556456084107091 0.41195158967207468 0 -0.14546892619245869 0.42593361708303712 0 -0.15601988453421539 0.40705966918685738 0 -0.1556456084107091 0.41195158967207468 0 -0.1527808700311036 0.40912288935186852 0 -0.14546892619245869 0.42593361708303712 0 -0.12821462004837761 0.42477134733015898 0 -0.1527808700311036 0.40912288935186852 0 -0.15096559699279591 0.40733045222697228 0 -0.1527808700311036 0.40912288935186852 0 -0.1556456084107091 0.41195158967207468 0 -0.15340010872757201 0.44130105978138201 0 -0.1556456084107091 0.41195158967207468 0 -0.15340010872757201 0.44130105978138201 0 -0.1556456084107091 0.41195158967207468 0 -0.14546892619245869 0.42593361708303712 0 -0.13236885841004919 0.44889332693852801 0 -0.14546892619245869 0.42593361708303712 0 -0.12821462004837761 0.42477134733015898 0 -0.1527808700311036 0.40912288935186852 0 -0.12821462004837761 0.42477134733015898 0 -0.12821462004837761 0.42477134733015898 0 -0.14395961807527691 0.40420618660324947 0 -0.12821462004837761 0.42477134733015898 0 -0.1262731161424494 0.41098458453742581 0 -0.14395961807527691 0.40420618660324947 0 -0.1262731161424494 0.41098458453742581 0 -0.13816492322289389 0.38391863095226642 0 -0.14395961807527691 0.40420618660324947 0 -0.1262731161424494 0.41098458453742581 0 -0.13816492322289389 0.38391863095226642 0 -0.122032766010996 0.38150440727375001 0 -0.1262731161424494 0.41098458453742581 0 -0.13816492322289389 0.38391863095226642 0 -0.13816492322289389 0.38391863095226642 0 -0.1290658169321201 0.36495796629032212 0 -0.122032766010996 0.38150440727375001 0 -0.1597046161021777 0.3836410258763413 0 -0.13816492322289389 0.38391863095226642 0 -0.1607513297849115 0.36813252104814131 0 -0.1597046161021777 0.3836410258763413 0 -0.13816492322289389 0.38391863095226642 0 -0.14395961807527691 0.40420618660324947 0 -0.1597046161021777 0.3836410258763413 0 -0.14395961807527691 0.40420618660324947 0 -0.1597046161021777 0.3836410258763413 0 -0.1567817272485961 0.39710211713657129 0 -0.14395961807527691 0.40420618660324947 0 -0.1567817272485961 0.39710211713657129 0 -0.15601988453421539 0.40705966918685738 0 -0.15096559699279591 0.40733045222697228 0 -0.1567817272485961 0.39710211713657129 0 -0.15096559699279591 0.40733045222697228 0 -0.14395961807527691 0.40420618660324947 0 -0.14908148329927451 0.34685546147510238 0 -0.1500567303033371 0.35685267736710657 0 -0.13842036534356561 0.35166003176750132 0 -0.14191127326869721 0.3445779631257424 0 -0.14908148329927451 0.34685546147510238 0 -0.13842036534356561 0.35166003176750132 0 -0.14191127326869721 0.3445779631257424 0 -0.14908148329927451 0.34685546147510238 0 -0.14578397102900689 0.34020051894764602 0 -0.14908148329927451 0.34685546147510238 0 -0.15526578015964401 0.34499679199327132 0 -0.14578397102900689 0.34020051894764602 0 -0.15459328994518681 0.34652739106941172 0 -0.1500567303033371 0.35685267736710657 0 -0.1562533125524618 0.34645673416805328 0 -0.14908148329927451 0.34685546147510238 0 -0.15459328994518681 0.34652739106941172 0 -0.1500567303033371 0.35685267736710657 0 -0.14908148329927451 0.34685546147510238 0 -0.15459328994518681 0.34652739106941172 0 -0.14908148329927451 0.34685546147510238 0 -0.15459328994518681 0.34652739106941172 0 -0.15526578015964401 0.34499679199327132 0 -0.15459328994518681 0.34652739106941172 0 -0.15526578015964401 0.34499679199327132 0 -0.1562533125524618 0.34645673416805328 0 -0.15459328994518681 0.34652739106941172 0 -0.1562533125524618 0.34645673416805328 0 -0.15526578015964401 0.34499679199327132 0 -0.1562533125524618 0.34645673416805328 0 -0.15459328994518681 0.34652739106941172 0 -0.15526578015964401 0.34499679199327132 0 -0.15459328994518681 0.34652739106941172 0 -0.1500567303033371 0.35685267736710657 0 -0.13816492322289389 0.38391863095226642 0 -0.1500567303033371 0.35685267736710657 0 -0.13816492322289389 0.38391863095226642 0 -0.1500567303033371 0.35685267736710657 0 -0.1607513297849115 0.36813252104814131 0 -0.13816492322289389 0.38391863095226642 0 -0.1500567303033371 0.35685267736710657 0 -0.1290658169321201 0.36495796629032212 0 -0.1500567303033371 0.35685267736710657 0 -0.1290658169321201 0.36495796629032212 0 -0.1290658169321201 0.36495796629032212 0 -0.12872796564695019 0.35422374996017819 0 -0.13842036534356561 0.35166003176750132 0 -0.1500567303033371 0.35685267736710657 0 -0.1290658169321201 0.36495796629032212 0 -0.13842036534356561 0.35166003176750132 0 -0.1290658169321201 0.36495796629032212 0 -0.12872796564695019 0.35422374996017819 0 -0.12127429260353501 0.35545287990242752 0 -0.13842036534356561 0.35166003176750132 0 -0.130052656455029 0.34584555208888018 0 -0.1364338911989057 0.34288096057973388 0 -0.14191127326869721 0.3445779631257424 0 -0.13842036534356561 0.35166003176750132 0 -0.1364338911989057 0.34288096057973388 0 -0.130052656455029 0.34584555208888018 0 -0.1228238987695868 0.33949768061628921 0 -0.1224637287728801 0.34854477401553458 0 -0.12872796564695019 0.35422374996017819 0 -0.13842036534356561 0.35166003176750132 0 -0.130052656455029 0.34584555208888018 0 -0.12872796564695019 0.35422374996017819 0 -0.130052656455029 0.34584555208888018 0 -0.1224637287728801 0.34854477401553458 0 -0.130052656455029 0.34584555208888018 0 -0.13302956064605331 0.33760289982824132 0 -0.1228238987695868 0.33949768061628921 0 -0.13302956064605331 0.33760289982824132 0 -0.13180756484683989 0.32749830201113239 0 -0.1228238987695868 0.33949768061628921 0 -0.13687461097757789 0.332418394995872 0 -0.1397340550145201 0.33781652803634588 0 -0.1429272634028983 0.32675585010776842 0 -0.13687461097757789 0.332418394995872 0 -0.13302956064605331 0.33760289982824132 0 -0.13180756484683989 0.32749830201113239 0 -0.13687461097757789 0.332418394995872 0 -0.13180756484683989 0.32749830201113239 0 -0.1429272634028983 0.32675585010776842 0 -0.130052656455029 0.34584555208888018 0 -0.1364338911989057 0.34288096057973388 0 -0.13302956064605331 0.33760289982824132 0 -0.14191127326869721 0.3445779631257424 0 -0.1397340550145201 0.33781652803634588 0 -0.1364338911989057 0.34288096057973388 0 -0.1397340550145201 0.33781652803634588 0 -0.1364338911989057 0.34288096057973388 0 -0.13302956064605331 0.33760289982824132 0 -0.13687461097757789 0.332418394995872 0 -0.1397340550145201 0.33781652803634588 0 -0.13302956064605331 0.33760289982824132 0 -0.12686481346268949 0.32037137393547221 0 -0.1429272634028983 0.32675585010776842 0 -0.13058874664615211 0.30851490822226579 0 -0.1429272634028983 0.32675585010776842 0 -0.13058874664615211 0.30851490822226579 0 -0.1429272634028983 0.32675585010776842 0 -0.1467750539168142 0.31115915167834979 0 -0.13058874664615211 0.30851490822226579 0 -0.12686481346268949 0.32037137393547221 0 -0.13180756484683989 0.32749830201113239 0 -0.1429272634028983 0.32675585010776842 0 -0.12686481346268949 0.32037137393547221 0 -0.13058874664615211 0.30851490822226579 0 -0.1249871204044478 0.31179850293020489 0 -0.1429272634028983 0.32675585010776842 0 -0.15366720224144401 0.3205281219140535 0 -0.1467750539168142 0.31115915167834979 0 -0.1429272634028983 0.32675585010776842 0 -0.15366720224144401 0.3205281219140535 0 -0.1523394303107817 0.33113409600751559 0 -0.15366720224144401 0.3205281219140535 0 -0.1523394303107817 0.33113409600751559 0 -0.15749747543914031 0.33225562001496978 0 -0.15366720224144401 0.3205281219140535 0 -0.15869479675611001 0.30981759603412529 0 -0.1467750539168142 0.31115915167834979 0 -0.15526578015964401 0.34499679199327132 0 -0.1429272634028983 0.32675585010776842 0 -0.1523394303107817 0.33113409600751559 0 -0.15526578015964401 0.34499679199327132 0 -0.1429272634028983 0.32675585010776842 0 -0.15526578015964401 0.34499679199327132 0 -0.1429272634028983 0.32675585010776842 0 -0.14578397102900689 0.34020051894764602 0 -0.14191127326869721 0.3445779631257424 0 -0.1397340550145201 0.33781652803634588 0 -0.14578397102900689 0.34020051894764602 0 -0.1397340550145201 0.33781652803634588 0 -0.1429272634028983 0.32675585010776842 0 -0.14578397102900689 0.34020051894764602 0 -0.15526578015964401 0.34499679199327132 0 -0.1523394303107817 0.33113409600751559 0 -0.15749747543914031 0.33225562001496978 0 -0.15526578015964401 0.34499679199327132 0 -0.15749747543914031 0.33225562001496978 0 -0.15941636996096159 0.33554997956572408 0 -0.15526578015964401 0.34499679199327132 0 -0.15941636996096159 0.33554997956572408 0 -0.15526578015964401 0.34499679199327132 0 -0.15941636996096159 0.33554997956572408 0 -0.16543461114720109 0.3458821005370285 0 -0.15941636996096159 0.33554997956572408 0 -0.16543461114720109 0.3458821005370285 0 -0.15749747543914031 0.33225562001496978 0 -0.15941636996096159 0.33554997956572408 0 -0.15941636996096159 0.33554997956572408 0 -0.1739160139182897 0.33255295366919918 0 -0.16543461114720109 0.3458821005370285 0 -0.15366720224144401 0.3205281219140535 0 -0.1693274482682107 0.3129921980924586 0 -0.15869479675611001 0.30981759603412529 0 -0.15941636996096159 0.33554997956572408 0 -0.1693274482682107 0.3129921980924586 0 -0.1739160139182897 0.33255295366919918 0 -0.15366720224144401 0.3205281219140535 0 -0.15749747543914031 0.33225562001496978 0 -0.1693274482682107 0.3129921980924586 0 -0.15941636996096159 0.33554997956572408 0 -0.1693274482682107 0.3129921980924586 0 -0.15749747543914031 0.33225562001496978 0 -0.15941636996096159 0.33554997956572408 0 -0.1693274482682107 0.3129921980924586 0 -0.1693274482682107 0.3129921980924586 0 -0.18487538969692671 0.32172445498253649 0 -0.1739160139182897 0.33255295366919918 0 -0.1693274482682107 0.3129921980924586 0 -0.18487538969692671 0.32172445498253649 0 -0.1712157713371375 0.30869434292279468 0 -0.1693274482682107 0.3129921980924586 0 -0.18487538969692671 0.32172445498253649 0 -0.1739160139182897 0.33255295366919918 0 -0.18084331905695539 0.3449649527885954 0 -0.16543461114720109 0.3458821005370285 0 -0.18487538969692671 0.32172445498253649 0 -0.1739160139182897 0.33255295366919918 0 -0.1843764759982891 0.33415194175978957 0 -0.1843764759982891 0.33415194175978957 0 -0.18084331905695539 0.3449649527885954 0 -0.19287148122563119 0.34032047982697361 0 -0.18084331905695539 0.3449649527885954 0 -0.19287148122563119 0.34032047982697361 0 -0.1739160139182897 0.33255295366919918 0 -0.1843764759982891 0.33415194175978957 0 -0.18084331905695539 0.3449649527885954 0 -0.17544961412908061 0.3630758651494348 0 -0.18972012267936569 0.34443659307775848 0 -0.18084331905695539 0.3449649527885954 0 -0.17544961412908061 0.3630758651494348 0 -0.18972012267936569 0.34443659307775848 0 -0.18084331905695539 0.3449649527885954 0 -0.1678277753166168 0.34999068657361931 0 -0.17544961412908061 0.3630758651494348 0 -0.17544961412908061 0.3630758651494348 0 -0.18972012267936569 0.34443659307775848 0 -0.192683118888576 0.35701328452959752 0 -0.18084331905695539 0.3449649527885954 0 -0.18972012267936569 0.34443659307775848 0 -0.18084331905695539 0.3449649527885954 0 -0.1678277753166168 0.34999068657361931 0 -0.18084331905695539 0.3449649527885954 0 -0.16543461114720109 0.3458821005370285 0 -0.18084331905695539 0.3449649527885954 0 -0.16543461114720109 0.3458821005370285 0 -0.1678277753166168 0.34999068657361931 0 -0.1500567303033371 0.35685267736710657 0 -0.1678277753166168 0.34999068657361931 0 -0.1562533125524618 0.34645673416805328 0 -0.1500567303033371 0.35685267736710657 0 -0.1678277753166168 0.34999068657361931 0 -0.1500567303033371 0.35685267736710657 0 -0.1678277753166168 0.34999068657361931 0 -0.1607513297849115 0.36813252104814131 0 -0.16543461114720109 0.3458821005370285 0 -0.1678277753166168 0.34999068657361931 0 -0.1678277753166168 0.34999068657361931 0 -0.17544961412908061 0.3630758651494348 0 -0.15526578015964401 0.34499679199327132 0 -0.16543461114720109 0.3458821005370285 0 -0.1562533125524618 0.34645673416805328 0 -0.16543461114720109 0.3458821005370285 0 -0.1562533125524618 0.34645673416805328 0 -0.16543461114720109 0.3458821005370285 0 -0.1678277753166168 0.34999068657361931 0 -0.1562533125524618 0.34645673416805328 0 -0.1597046161021777 0.3836410258763413 0 -0.1607513297849115 0.36813252104814131 0 -0.17544961412908061 0.3630758651494348 0 -0.1678277753166168 0.34999068657361931 0 -0.1607513297849115 0.36813252104814131 0 -0.17544961412908061 0.3630758651494348 0 -0.1597046161021777 0.3836410258763413 0 -0.17544961412908061 0.3630758651494348 0 -0.17544961412908061 0.3630758651494348 0 -0.19086272228137019 0.36787808732741428 0 -0.192683118888576 0.35701328452959752 0 -0.18887785000547699 0.38612947054885283 0 -0.17544961412908061 0.3630758651494348 0 -0.18887785000547699 0.38612947054885283 0 -0.17544961412908061 0.3630758651494348 0 -0.19086272228137019 0.36787808732741428 0 -0.19086272228137019 0.36787808732741428 0 -0.19956114265848451 0.36379483255704659 0 -0.192683118888576 0.35701328452959752 0 -0.19086272228137019 0.36787808732741428 0 -0.19956114265848451 0.36379483255704659 0 -0.1975832296913779 0.37213942212584561 0 -0.19897164618784671 0.3796998223317965 0 -0.1975832296913779 0.37213942212584561 0 -0.20606295730915339 0.37155639275012209 0 -0.19956114265848451 0.36379483255704659 0 -0.1975832296913779 0.37213942212584561 0 -0.20606295730915339 0.37155639275012209 0 -0.18972012267936569 0.34443659307775848 0 -0.20307972867182639 0.3491579142826845 0 -0.21474547849081771 0.34294704905689449 0 -0.18972012267936569 0.34443659307775848 0 -0.192683118888576 0.35701328452959752 0 -0.1973619709950957 0.35109231525788698 0 -0.19956114265848451 0.36379483255704659 0 -0.192683118888576 0.35701328452959752 0 -0.2025188031450299 0.35480596512635038 0 -0.192683118888576 0.35701328452959752 0 -0.2025188031450299 0.35480596512635038 0 -0.1973619709950957 0.35109231525788698 0 -0.2025188031450299 0.35480596512635038 0 -0.1973619709950957 0.35109231525788698 0 -0.20307972867182639 0.3491579142826845 0 -0.18972012267936569 0.34443659307775848 0 -0.1973619709950957 0.35109231525788698 0 -0.20307972867182639 0.3491579142826845 0 -0.20307972867182639 0.3491579142826845 0 -0.21105226804882271 0.35250764889453179 0 -0.21474547849081771 0.34294704905689449 0 -0.2025188031450299 0.35480596512635038 0 -0.21105226804882271 0.35250764889453179 0 -0.2074040658787438 0.35996434959823748 0 -0.2025188031450299 0.35480596512635038 0 -0.20307972867182639 0.3491579142826845 0 -0.21105226804882271 0.35250764889453179 0 -0.21731484030645609 0.35731886141561991 0 -0.21105226804882271 0.35250764889453179 0 -0.2074040658787438 0.35996434959823748 0 -0.21731484030645609 0.35731886141561991 0 -0.21105226804882271 0.35250764889453179 0 -0.21686853622897789 0.35068047991815271 0 -0.21105226804882271 0.35250764889453179 0 -0.21686853622897789 0.35068047991815271 0 -0.21474547849081771 0.34294704905689449 0 -0.21686853622897789 0.35068047991815271 0 -0.22436155806981509 0.34994836030556481 0 -0.21474547849081771 0.34294704905689449 0 -0.21731484030645609 0.35731886141561991 0 -0.20606295730915339 0.37155639275012209 0 -0.23186290627585529 0.35854539603155472 0 -0.21708600187296359 0.37563497947309987 0 -0.20606295730915339 0.37155639275012209 0 -0.23186290627585529 0.35854539603155472 0 -0.19956114265848451 0.36379483255704659 0 -0.20606295730915339 0.37155639275012209 0 -0.2074040658787438 0.35996434959823748 0 -0.19956114265848451 0.36379483255704659 0 -0.2025188031450299 0.35480596512635038 0 -0.2074040658787438 0.35996434959823748 0 -0.21731484030645609 0.35731886141561991 0 -0.20606295730915339 0.37155639275012209 0 -0.2074040658787438 0.35996434959823748 0 -0.2242844840506977 0.38492606312622868 0 -0.21708600187296359 0.37563497947309987 0 -0.23186290627585529 0.35854539603155472 0 -0.2242844840506977 0.38492606312622868 0 -0.23186290627585529 0.35854539603155472 0 -0.24671755940725729 0.37112042766890158 0 -0.20606295730915339 0.37155639275012209 0 -0.23186290627585529 0.35854539603155472 0 -0.22436155806981509 0.34994836030556481 0 -0.23186290627585529 0.35854539603155472 0 -0.2397708343022697 0.34145750503603151 0 -0.22436155806981509 0.34994836030556481 0 -0.2397708343022697 0.34145750503603151 0 -0.21474547849081771 0.34294704905689449 0 -0.21731484030645609 0.35731886141561991 0 -0.22436155806981509 0.34994836030556481 0 -0.23186290627585529 0.35854539603155472 0 -0.21731484030645609 0.35731886141561991 0 -0.21686853622897789 0.35068047991815271 0 -0.22436155806981509 0.34994836030556481 0 -0.25766285524255678 0.34553439931298741 0 -0.23186290627585529 0.35854539603155472 0 -0.2397708343022697 0.34145750503603151 0 -0.25766285524255678 0.34553439931298741 0 -0.23186290627585529 0.35854539603155472 0 -0.24671755940725729 0.37112042766890158 0 -0.25766285524255678 0.34553439931298741 0 -0.23186290627585529 0.35854539603155472 0 -0.23311087986532561 0.32478271135051789 0 -0.2311113264311421 0.30768563759304102 0 -0.24737018536420399 0.31005157005846951 0 -0.24837622084485819 0.32490527197022989 0 -0.23311087986532561 0.32478271135051789 0 -0.24737018536420399 0.31005157005846951 0 -0.25931060277682583 0.33024500419509423 0 -0.24837622084485819 0.32490527197022989 0 -0.2397708343022697 0.34145750503603151 0 -0.24837622084485819 0.32490527197022989 0 -0.2397708343022697 0.34145750503603151 0 -0.23311087986532561 0.32478271135051789 0 -0.2255439334354685 0.33689429486020489 0 -0.23311087986532561 0.32478271135051789 0 -0.214548541083461 0.33838991399737578 0 -0.2397708343022697 0.34145750503603151 0 -0.2255439334354685 0.33689429486020489 0 -0.23311087986532561 0.32478271135051789 0 -0.2397708343022697 0.34145750503603151 0 -0.21474547849081771 0.34294704905689449 0 -0.23311087986532561 0.32478271135051789 0 -0.20775397695291259 0.33457385386387711 0 -0.2397708343022697 0.34145750503603151 0 -0.2255439334354685 0.33689429486020489 0 -0.21474547849081771 0.34294704905689449 0 -0.23311087986532561 0.32478271135051789 0 -0.21765664721451361 0.31965622881232081 0 -0.20775397695291259 0.33457385386387711 0 -0.23311087986532561 0.32478271135051789 0 -0.21765664721451361 0.31965622881232081 0 -0.2311113264311421 0.30768563759304102 0 -0.21765664721451361 0.31965622881232081 0 -0.20560126308134999 0.32369361144414172 0 -0.21947990143239071 0.30556617644083489 0 -0.20560126308134999 0.32369361144414172 0 -0.21947990143239071 0.30556617644083489 0 -0.21765664721451361 0.31965622881232081 0 -0.20611286055041811 0.32542727859168308 0 -0.20775397695291259 0.33457385386387711 0 -0.21765664721451361 0.31965622881232081 0 -0.20611286055041811 0.32542727859168308 0 -0.20560126308134999 0.32369361144414172 0 -0.20611286055041811 0.32542727859168308 0 -0.20560126308134999 0.32369361144414172 0 -0.20042333112564101 0.33045671187261749 0 -0.20611286055041811 0.32542727859168308 0 -0.20560126308134999 0.32369361144414172 0 -0.23311087986532561 0.32478271135051789 0 -0.214548541083461 0.33838991399737578 0 -0.20775397695291259 0.33457385386387711 0 -0.21474547849081771 0.34294704905689449 0 -0.20775397695291259 0.33457385386387711 0 -0.19287148122563119 0.34032047982697361 0 -0.21474547849081771 0.34294704905689449 0 -0.214548541083461 0.33838991399737578 0 -0.20775397695291259 0.33457385386387711 0 -0.2255439334354685 0.33689429486020489 0 -0.21474547849081771 0.34294704905689449 0 -0.214548541083461 0.33838991399737578 0 -0.214548541083461 0.33838991399737578 0 -0.20775397695291259 0.33457385386387711 0 -0.20611286055041811 0.32542727859168308 0 -0.20775397695291259 0.33457385386387711 0 -0.20042333112564101 0.33045671187261749 0 -0.20775397695291259 0.33457385386387711 0 -0.20042333112564101 0.33045671187261749 0 -0.18487538969692671 0.32172445498253649 0 -0.1843764759982891 0.33415194175978957 0 -0.20042333112564101 0.33045671187261749 0 -0.18972012267936569 0.34443659307775848 0 -0.21474547849081771 0.34294704905689449 0 -0.18972012267936569 0.34443659307775848 0 -0.21474547849081771 0.34294704905689449 0 -0.19287148122563119 0.34032047982697361 0 -0.1843764759982891 0.33415194175978957 0 -0.20042333112564101 0.33045671187261749 0 -0.19287148122563119 0.34032047982697361 0 -0.20775397695291259 0.33457385386387711 0 -0.19287148122563119 0.34032047982697361 0 -0.20042333112564101 0.33045671187261749 0 -0.19287148122563119 0.34032047982697361 0 -0.20775397695291259 0.33457385386387711 0 -0.20042333112564101 0.33045671187261749 0 -0.19287148122563119 0.34032047982697361 0 -0.18084331905695539 0.3449649527885954 0 -0.18972012267936569 0.34443659307775848 0 -0.19287148122563119 0.34032047982697361 0 -0.18972012267936569 0.34443659307775848 0 -0.19287148122563119 0.34032047982697361 0 -0.18487538969692671 0.32172445498253649 0 -0.20560126308134999 0.32369361144414172 0 -0.20042333112564101 0.33045671187261749 0 -0.18487538969692671 0.32172445498253649 0 -0.20560126308134999 0.32369361144414172 0 -0.19816086107332509 0.2984800767692935 0 -0.20560126308134999 0.32369361144414172 0 -0.20042333112564101 0.33045671187261749 0 -0.18487538969692671 0.32172445498253649 0 -0.20042333112564101 0.33045671187261749 0 -0.20560126308134999 0.32369361144414172 0 -0.19816086107332509 0.2984800767692935 0 -0.18487538969692671 0.32172445498253649 0 -0.19816086107332509 0.2984800767692935 0 -0.1847732194029568 0.30381118328155282 0 -0.19816086107332509 0.2984800767692935 0 -0.18352807862801501 0.29137716181417889 0 -0.1847732194029568 0.30381118328155282 0 -0.19816086107332509 0.2984800767692935 0 -0.19072045906529689 0.27326654209444612 0 -0.19816086107332509 0.2984800767692935 0 -0.19072045906529689 0.27326654209444612 0 -0.18352807862801501 0.29137716181417889 0 -0.19816086107332509 0.2984800767692935 0 -0.2007089780434983 0.28054732028121382 0 -0.19072045906529689 0.27326654209444612 0 -0.19816086107332509 0.2984800767692935 0 -0.2127021967223672 0.28334979342423933 0 -0.2007089780434983 0.28054732028121382 0 -0.19816086107332509 0.2984800767692935 0 -0.2127021967223672 0.28334979342423933 0 -0.21947990143239071 0.30556617644083489 0 -0.20560126308134999 0.32369361144414172 0 -0.19816086107332509 0.2984800767692935 0 -0.21947990143239071 0.30556617644083489 0 -0.21765664721451361 0.31965622881232081 0 -0.21947990143239071 0.30556617644083489 0 -0.2311113264311421 0.30768563759304102 0 -0.2311113264311421 0.30768563759304102 0 -0.22519381480388551 0.29192874429061211 0 -0.24385652990653359 0.29412839460549112 0 -0.21947990143239071 0.30556617644083489 0 -0.2311113264311421 0.30768563759304102 0 -0.22519381480388551 0.29192874429061211 0 -0.22519381480388551 0.29192874429061211 0 -0.24385652990653359 0.29412839460549112 0 -0.23135965527792329 0.27759169268623762 0 -0.2127021967223672 0.28334979342423933 0 -0.21947990143239071 0.30556617644083489 0 -0.22519381480388551 0.29192874429061211 0 -0.2127021967223672 0.28334979342423933 0 -0.22519381480388551 0.29192874429061211 0 -0.23135965527792329 0.27759169268623762 0 -0.25995098352454249 0.29289474249360747 0 -0.24385652990653359 0.29412839460549112 0 -0.24597402151468839 0.2806104838936751 0 -0.24385652990653359 0.29412839460549112 0 -0.24597402151468839 0.2806104838936751 0 -0.23135965527792329 0.27759169268623762 0 -0.2311113264311421 0.30768563759304102 0 -0.24385652990653359 0.29412839460549112 0 -0.24737018536420399 0.31005157005846951 0 -0.25390348537530832 0.30159134492517048 0 -0.24385652990653359 0.29412839460549112 0 -0.24737018536420399 0.31005157005846951 0 -0.25781088981188399 0.25136430228956153 0 -0.24318641540675509 0.26598013431611689 0 -0.23372259705565049 0.24851436387078391 0 -0.24318641540675509 0.26598013431611689 0 -0.23149713267528779 0.26237681172678717 0 -0.23372259705565049 0.24851436387078391 0 -0.25885919139045821 0.27622043672910479 0 -0.24318641540675509 0.26598013431611689 0 -0.24597402151468839 0.2806104838936751 0 -0.24318641540675509 0.26598013431611689 0 -0.24597402151468839 0.2806104838936751 0 -0.23135965527792329 0.27759169268623762 0 -0.24318641540675509 0.26598013431611689 0 -0.23135965527792329 0.27759169268623762 0 -0.23149713267528779 0.26237681172678717 0 -0.2127021967223672 0.28334979342423933 0 -0.23135965527792329 0.27759169268623762 0 -0.2184523100715052 0.26298291828296338 0 -0.23135965527792329 0.27759169268623762 0 -0.23149713267528779 0.26237681172678717 0 -0.2184523100715052 0.26298291828296338 0 -0.2184523100715052 0.26298291828296338 0 -0.22277595510907569 0.24180466171435519 0 -0.23372259705565049 0.24851436387078391 0 -0.23149713267528779 0.26237681172678717 0 -0.2184523100715052 0.26298291828296338 0 -0.23372259705565049 0.24851436387078391 0 -0.2184523100715052 0.26298291828296338 0 -0.2080355030213131 0.25794714878442282 0 -0.21118785677136451 0.24749749729373921 0 -0.2184523100715052 0.26298291828296338 0 -0.22277595510907569 0.24180466171435519 0 -0.21118785677136451 0.24749749729373921 0 -0.2184523100715052 0.26298291828296338 0 -0.2080355030213131 0.25794714878442282 0 -0.20125239531300429 0.26709286883687622 0 -0.2080355030213131 0.25794714878442282 0 -0.20125239531300429 0.26709286883687622 0 -0.20046331167089321 0.25247574909317411 0 -0.2080355030213131 0.25794714878442282 0 -0.20046331167089321 0.25247574909317411 0 -0.21118785677136451 0.24749749729373921 0 -0.2127021967223672 0.28334979342423933 0 -0.2184523100715052 0.26298291828296338 0 -0.20125239531300429 0.26709286883687622 0 -0.2127021967223672 0.28334979342423933 0 -0.2007089780434983 0.28054732028121382 0 -0.20125239531300429 0.26709286883687622 0 -0.2007089780434983 0.28054732028121382 0 -0.20125239531300429 0.26709286883687622 0 -0.19072045906529689 0.27326654209444612 0 -0.20125239531300429 0.26709286883687622 0 -0.19072045906529689 0.27326654209444612 0 -0.19072045906529689 0.27326654209444612 0 -0.1857497979664898 0.25642229956071261 0 -0.20125239531300429 0.26709286883687622 0 -0.19072045906529689 0.27326654209444612 0 -0.1857497979664898 0.25642229956071261 0 -0.20125239531300429 0.26709286883687622 0 -0.20046331167089321 0.25247574909317411 0 -0.1857497979664898 0.25642229956071261 0 -0.1857497979664898 0.25642229956071261 0 -0.17088819938583719 0.25139470107571699 0 -0.16788710449019381 0.26688902485965399 0 -0.17088819938583719 0.25139470107571699 0 -0.1579895210430797 0.25382037719868611 0 -0.16788710449019381 0.26688902485965399 0 -0.1579895210430797 0.25382037719868611 0 -0.16788710449019381 0.26688902485965399 0 -0.15256521181676849 0.2673322447420417 0 -0.16579833362209251 0.2878755423534507 0 -0.15256521181676849 0.2673322447420417 0 -0.16788710449019381 0.26688902485965399 0 -0.16579833362209251 0.2878755423534507 0 -0.15256521181676849 0.2673322447420417 0 -0.16788710449019381 0.26688902485965399 0 -0.1727726625909177 0.2837872885669035 0 -0.16579833362209251 0.2878755423534507 0 -0.1857497979664898 0.25642229956071261 0 -0.1727726625909177 0.2837872885669035 0 -0.1857497979664898 0.25642229956071261 0 -0.16788710449019381 0.26688902485965399 0 -0.1727726625909177 0.2837872885669035 0 -0.19072045906529689 0.27326654209444612 0 -0.1857497979664898 0.25642229956071261 0 -0.1727726625909177 0.2837872885669035 0 -0.19072045906529689 0.27326654209444612 0 -0.1727726625909177 0.2837872885669035 0 -0.19072045906529689 0.27326654209444612 0 -0.18352807862801501 0.29137716181417889 0 -0.1727726625909177 0.2837872885669035 0 -0.18352807862801501 0.29137716181417889 0 -0.17516386798026831 0.29249972778452182 0 -0.17854264770397371 0.29789962764795741 0 -0.18352807862801501 0.29137716181417889 0 -0.17516386798026831 0.29249972778452182 0 -0.1727726625909177 0.2837872885669035 0 -0.17516386798026831 0.29249972778452182 0 -0.1727726625909177 0.2837872885669035 0 -0.1686986921373258 0.29237810259847652 0 -0.17516386798026831 0.29249972778452182 0 -0.17854264770397371 0.29789962764795741 0 -0.1718966102883574 0.29734259890403658 0 -0.17516386798026831 0.29249972778452182 0 -0.1718966102883574 0.29734259890403658 0 -0.1686986921373258 0.29237810259847652 0 -0.18487538969692671 0.32172445498253649 0 -0.1773514622202709 0.30446746645549672 0 -0.1712157713371375 0.30869434292279468 0 -0.18487538969692671 0.32172445498253649 0 -0.1847732194029568 0.30381118328155282 0 -0.1773514622202709 0.30446746645549672 0 -0.18352807862801501 0.29137716181417889 0 -0.1847732194029568 0.30381118328155282 0 -0.17854264770397371 0.29789962764795741 0 -0.1847732194029568 0.30381118328155282 0 -0.17854264770397371 0.29789962764795741 0 -0.1773514622202709 0.30446746645549672 0 -0.17854264770397371 0.29789962764795741 0 -0.1718966102883574 0.29734259890403658 0 -0.1773514622202709 0.30446746645549672 0 -0.1718966102883574 0.29734259890403658 0 -0.1773514622202709 0.30446746645549672 0 -0.17120131600681229 0.30301768126317769 0 -0.1773514622202709 0.30446746645549672 0 -0.1712157713371375 0.30869434292279468 0 -0.17120131600681229 0.30301768126317769 0 -0.16434142018148321 0.30156631677038298 0 -0.16579833362209251 0.2878755423534507 0 -0.1491292133175362 0.30164817694830409 0 -0.1693274482682107 0.3129921980924586 0 -0.15869479675611001 0.30981759603412529 0 -0.1491292133175362 0.30164817694830409 0 -0.1693274482682107 0.3129921980924586 0 -0.1491292133175362 0.30164817694830409 0 -0.1693274482682107 0.3129921980924586 0 -0.16434142018148321 0.30156631677038298 0 -0.1491292133175362 0.30164817694830409 0 -0.1693274482682107 0.3129921980924586 0 -0.1712157713371375 0.30869434292279468 0 -0.16434142018148321 0.30156631677038298 0 -0.1693274482682107 0.3129921980924586 0 -0.1712157713371375 0.30869434292279468 0 -0.16434142018148321 0.30156631677038298 0 -0.1686986921373258 0.29237810259847652 0 -0.1718966102883574 0.29734259890403658 0 -0.16434142018148321 0.30156631677038298 0 -0.1686986921373258 0.29237810259847652 0 -0.1712157713371375 0.30869434292279468 0 -0.16434142018148321 0.30156631677038298 0 -0.17120131600681229 0.30301768126317769 0 -0.1718966102883574 0.29734259890403658 0 -0.16434142018148321 0.30156631677038298 0 -0.17120131600681229 0.30301768126317769 0 -0.1727726625909177 0.2837872885669035 0 -0.16579833362209251 0.2878755423534507 0 -0.1686986921373258 0.29237810259847652 0 -0.1727726625909177 0.2837872885669035 0 -0.1686986921373258 0.29237810259847652 0 -0.1727726625909177 0.2837872885669035 0 -0.16579833362209251 0.2878755423534507 0 -0.16434142018148321 0.30156631677038298 0 -0.16579833362209251 0.2878755423534507 0 -0.1686986921373258 0.29237810259847652 0 -0.1718966102883574 0.29734259890403658 0 -0.1686986921373258 0.29237810259847652 0 -0.16579833362209251 0.2878755423534507 0 -0.1686986921373258 0.29237810259847652 0 -0.16579833362209251 0.2878755423534507 0 -0.1491292133175362 0.30164817694830409 0 -0.14564310113674489 0.29969025684358203 0 -0.16579833362209251 0.2878755423534507 0 -0.14564310113674489 0.29969025684358203 0 -0.16579833362209251 0.2878755423534507 0 -0.1462896056576696 0.28333727742209941 0 -0.14564310113674489 0.29969025684358203 0 -0.1462896056576696 0.28333727742209941 0 -0.14564310113674489 0.29969025684358203 0 -0.1311784050374501 0.28631741571340918 0 -0.14564310113674489 0.29969025684358203 0 -0.1467750539168142 0.31115915167834979 0 -0.13058874664615211 0.30851490822226579 0 -0.15869479675611001 0.30981759603412529 0 -0.1491292133175362 0.30164817694830409 0 -0.1467750539168142 0.31115915167834979 0 -0.15869479675611001 0.30981759603412529 0 -0.1491292133175362 0.30164817694830409 0 -0.1491292133175362 0.30164817694830409 0 -0.14564310113674489 0.29969025684358203 0 -0.1467750539168142 0.31115915167834979 0 -0.1491292133175362 0.30164817694830409 0 -0.14564310113674489 0.29969025684358203 0 -0.14564310113674489 0.29969025684358203 0 -0.12520465146527859 0.30055520210551251 0 -0.13058874664615211 0.30851490822226579 0 -0.14564310113674489 0.29969025684358203 0 -0.12520465146527859 0.30055520210551251 0 -0.1293960864909712 0.29056537647056352 0 -0.14564310113674489 0.29969025684358203 0 -0.13058874664615211 0.30851490822226579 0 -0.12520465146527859 0.30055520210551251 0 -0.13058874664615211 0.30851490822226579 0 -0.12520465146527859 0.30055520210551251 0 -0.13058874664615211 0.30851490822226579 0 -0.1249871204044478 0.31179850293020489 0 -0.13058874664615211 0.30851490822226579 0 -0.1249871204044478 0.31179850293020489 0 -0.14564310113674489 0.29969025684358203 0 -0.1293960864909712 0.29056537647056352 0 -0.14564310113674489 0.29969025684358203 0 -0.1293960864909712 0.29056537647056352 0 -0.1311784050374501 0.28631741571340918 0 -0.1462896056576696 0.28333727742209941 0 -0.1311784050374501 0.28631741571340918 0 -0.13555519376042829 0.27588581987199517 0 -0.14564310113674489 0.29969025684358203 0 -0.1311784050374501 0.28631741571340918 0 -0.12520465146527859 0.30055520210551251 0 -0.1293960864909712 0.29056537647056352 0 -0.1293960864909712 0.29056537647056352 0 -0.1311784050374501 0.28631741571340918 0 -0.1311784050374501 0.28631741571340918 0 -0.12705740691669151 0.27441748871378518 0 -0.13555519376042829 0.27588581987199517 0 -0.1311784050374501 0.28631741571340918 0 -0.13555519376042829 0.27588581987199517 0 -0.13555519376042829 0.27588581987199517 0 -0.12695895990637571 0.26336171928790891 0 -0.13860286387375431 0.26334218275814458 0 -0.12705740691669151 0.27441748871378518 0 -0.13555519376042829 0.27588581987199517 0 -0.12695895990637571 0.26336171928790891 0 -0.12695895990637571 0.26336171928790891 0 -0.11823488744769579 0.25092633060682701 0 -0.1393320900114447 0.24678894713063271 0 -0.12695895990637571 0.26336171928790891 0 -0.13860286387375431 0.26334218275814458 0 -0.1393320900114447 0.24678894713063271 0 -0.13860286387375431 0.26334218275814458 0 -0.15256521181676849 0.2673322447420417 0 -0.1393320900114447 0.24678894713063271 0 -0.1579895210430797 0.25382037719868611 0 -0.15256521181676849 0.2673322447420417 0 -0.1393320900114447 0.24678894713063271 0 -0.15256521181676849 0.2673322447420417 0 -0.1393320900114447 0.24678894713063271 0 -0.1462896056576696 0.28333727742209941 0 -0.13555519376042829 0.27588581987199517 0 -0.15256521181676849 0.2673322447420417 0 -0.16579833362209251 0.2878755423534507 0 -0.1462896056576696 0.28333727742209941 0 -0.15256521181676849 0.2673322447420417 0 -0.13555519376042829 0.27588581987199517 0 -0.13860286387375431 0.26334218275814458 0 -0.15256521181676849 0.2673322447420417 0 -0.10423742952929969 0.27643541228167678 0 -0.092707684156425052 0.28318632630892249 0 -0.085552412738088612 0.27208796664488177 0 -0.10423742952929969 0.27643541228167678 0 -0.09789573288757461 0.25789258425024503 0 -0.085552412738088612 0.27208796664488177 0 -0.10423742952929969 0.27643541228167678 0 -0.09789573288757461 0.25789258425024503 0 -0.1145370689625122 0.2721049999818273 0 -0.10423742952929969 0.27643541228167678 0 -0.1117622716700207 0.28068233784781449 0 -0.10380643213930479 0.2858565710296081 0 -0.10423742952929969 0.27643541228167678 0 -0.1117622716700207 0.28068233784781449 0 -0.09789573288757461 0.25789258425024503 0 -0.1145370689625122 0.2721049999818273 0 -0.09789573288757461 0.25789258425024503 0 -0.11823488744769579 0.25092633060682701 0 -0.1145370689625122 0.2721049999818273 0 -0.12695895990637571 0.26336171928790891 0 -0.11823488744769579 0.25092633060682701 0 -0.1145370689625122 0.2721049999818273 0 -0.1311784050374501 0.28631741571340918 0 -0.12705740691669151 0.27441748871378518 0 -0.1145370689625122 0.2721049999818273 0 -0.1311784050374501 0.28631741571340918 0 -0.1145370689625122 0.2721049999818273 0 -0.1311784050374501 0.28631741571340918 0 -0.1145370689625122 0.2721049999818273 0 -0.1117622716700207 0.28068233784781449 0 -0.12705740691669151 0.27441748871378518 0 -0.12695895990637571 0.26336171928790891 0 -0.1145370689625122 0.2721049999818273 0 -0.10423742952929969 0.27643541228167678 0 -0.1145370689625122 0.2721049999818273 0 -0.1117622716700207 0.28068233784781449 0 -0.12520465146527859 0.30055520210551251 0 -0.1117622716700207 0.28068233784781449 0 -0.1102903171838598 0.29366253947088389 0 -0.12520465146527859 0.30055520210551251 0 -0.1117622716700207 0.28068233784781449 0 -0.1293960864909712 0.29056537647056352 0 -0.1117622716700207 0.28068233784781449 0 -0.1293960864909712 0.29056537647056352 0 -0.1311784050374501 0.28631741571340918 0 -0.1117622716700207 0.28068233784781449 0 -0.12520465146527859 0.30055520210551251 0 -0.1293960864909712 0.29056537647056352 0 -0.1117622716700207 0.28068233784781449 0 -0.12520465146527859 0.30055520210551251 0 -0.1102343850254253 0.30649537274910321 0 -0.1186942789803616 0.31607196081566019 0 -0.12520465146527859 0.30055520210551251 0 -0.1186942789803616 0.31607196081566019 0 -0.12520465146527859 0.30055520210551251 0 -0.1249871204044478 0.31179850293020489 0 -0.1186942789803616 0.31607196081566019 0 -0.12520465146527859 0.30055520210551251 0 -0.1102903171838598 0.29366253947088389 0 -0.1102343850254253 0.30649537274910321 0 -0.1102903171838598 0.29366253947088389 0 -0.1102343850254253 0.30649537274910321 0 -0.10003445815691871 0.29531623923874267 0 -0.1102343850254253 0.30649537274910321 0 -0.09792429575500744 0.30992211272751269 0 -0.10003445815691871 0.29531623923874267 0 -0.1117622716700207 0.28068233784781449 0 -0.1102903171838598 0.29366253947088389 0 -0.10380643213930479 0.2858565710296081 0 -0.1102903171838598 0.29366253947088389 0 -0.10380643213930479 0.2858565710296081 0 -0.10003445815691871 0.29531623923874267 0 -0.10380643213930479 0.2858565710296081 0 -0.10003445815691871 0.29531623923874267 0 -0.092707684156425052 0.28318632630892249 0 -0.10423742952929969 0.27643541228167678 0 -0.10380643213930479 0.2858565710296081 0 -0.092707684156425052 0.28318632630892249 0 -0.10003445815691871 0.29531623923874267 0 -0.092707684156425052 0.28318632630892249 0 -0.081798475142581359 0.29946938126670619 0 -0.092707684156425052 0.28318632630892249 0 -0.081798475142581359 0.29946938126670619 0 -0.07414382223800918 0.28528008582003161 0 -0.09792429575500744 0.30992211272751269 0 -0.081798475142581359 0.29946938126670619 0 -0.070590858673911197 0.32055724092449073 0 -0.09792429575500744 0.30992211272751269 0 -0.10003445815691871 0.29531623923874267 0 -0.081798475142581359 0.29946938126670619 0 -0.081798475142581359 0.29946938126670619 0 -0.063035229320694788 0.30163295666733109 0 -0.070590858673911197 0.32055724092449073 0 -0.063035229320694788 0.30163295666733109 0 -0.07414382223800918 0.28528008582003161 0 -0.051741149937484597 0.28655091637347307 0 -0.081798475142581359 0.29946938126670619 0 -0.063035229320694788 0.30163295666733109 0 -0.07414382223800918 0.28528008582003161 0 -0.07414382223800918 0.28528008582003161 0 -0.065511558334821196 0.26748830257642009 0 -0.051741149937484597 0.28655091637347307 0 -0.07414382223800918 0.28528008582003161 0 -0.065511558334821196 0.26748830257642009 0 -0.085552412738088612 0.27208796664488177 0 -0.092707684156425052 0.28318632630892249 0 -0.07414382223800918 0.28528008582003161 0 -0.085552412738088612 0.27208796664488177 0 -0.09789573288757461 0.25789258425024503 0 -0.079453131267273241 0.2572859628985697 0 -0.084512925013609158 0.23954854694493499 0 -0.09789573288757461 0.25789258425024503 0 -0.085552412738088612 0.27208796664488177 0 -0.079453131267273241 0.2572859628985697 0 -0.065511558334821196 0.26748830257642009 0 -0.085552412738088612 0.27208796664488177 0 -0.079453131267273241 0.2572859628985697 0 -0.065511558334821196 0.26748830257642009 0 -0.079453131267273241 0.2572859628985697 0 -0.063793027362272589 0.24941241407636661 0 -0.065511558334821196 0.26748830257642009 0 -0.040169454585322457 0.2728121738197144 0 -0.044386290936714409 0.25359228382257271 0 -0.065511558334821196 0.26748830257642009 0 -0.044386290936714409 0.25359228382257271 0 -0.063793027362272589 0.24941241407636661 0 -0.065511558334821196 0.26748830257642009 0 -0.040169454585322457 0.2728121738197144 0 -0.051741149937484597 0.28655091637347307 0 -0.040169454585322457 0.2728121738197144 0 -0.044386290936714409 0.25359228382257271 0 -0.02290087045232821 0.26206178737561919 0 -0.044386290936714409 0.25359228382257271 0 -0.02290087045232821 0.26206178737561919 0 -0.02914888987534385 0.24174449408076551 0 -0.040169454585322457 0.2728121738197144 0 -0.02290087045232821 0.26206178737561919 0 -0.018947801064055751 0.29622408540376988 0 -0.02290087045232821 0.26206178737561919 0 -0.0046185520507155808 0.27097983876130521 0 -0.018947801064055751 0.29622408540376988 0 -0.02290087045232821 0.26206178737561919 0 -0.0046185520507155808 0.27097983876130521 0 -0.01212773407442894 0.2433893394835768 0 -0.0046185520507155808 0.27097983876130521 0 -0.01212773407442894 0.2433893394835768 0 0.009710696962624589 0.24573559211884061 0 -0.003114773589655063 0.30739282621521957 0 -0.018947801064055751 0.29622408540376988 0 0.0051691312004334532 0.28902472209096208 0 -0.003114773589655063 0.30739282621521957 0 -0.018947801064055751 0.29622408540376988 0 -0.018501941473524151 0.31294191789729542 0 -0.0046185520507155808 0.27097983876130521 0 -0.018947801064055751 0.29622408540376988 0 0.0051691312004334532 0.28902472209096208 0 -0.0046185520507155808 0.27097983876130521 0 -0.018947801064055751 0.29622408540376988 0 -0.018947801064055751 0.29622408540376988 0 -0.035003005170033623 0.31440891787164488 0 -0.018501941473524151 0.31294191789729542 0 -0.018947801064055751 0.29622408540376988 0 -0.047533057840261947 0.30359657267684959 0 -0.035003005170033623 0.31440891787164488 0 -0.040169454585322457 0.2728121738197144 0 -0.018947801064055751 0.29622408540376988 0 -0.051741149937484597 0.28655091637347307 0 -0.047533057840261947 0.30359657267684959 0 -0.052339143928342338 0.31479684851695211 0 -0.035003005170033623 0.31440891787164488 0 -0.018947801064055751 0.29622408540376988 0 -0.051741149937484597 0.28655091637347307 0 -0.047533057840261947 0.30359657267684959 0 -0.063035229320694788 0.30163295666733109 0 -0.051741149937484597 0.28655091637347307 0 -0.047533057840261947 0.30359657267684959 0 -0.063035229320694788 0.30163295666733109 0 -0.052339143928342338 0.31479684851695211 0 -0.070590858673911197 0.32055724092449073 0 -0.063035229320694788 0.30163295666733109 0 -0.047533057840261947 0.30359657267684959 0 -0.052339143928342338 0.31479684851695211 0 -0.052339143928342338 0.31479684851695211 0 -0.043257421592815003 0.33119236912146871 0 -0.070590858673911197 0.32055724092449073 0 -0.043257421592815003 0.33119236912146871 0 -0.070590858673911197 0.32055724092449073 0 -0.043257421592815003 0.33119236912146871 0 -0.040938388586196701 0.34643936098516059 0 -0.064686894555943508 0.34148914716537432 0 -0.043257421592815003 0.33119236912146871 0 -0.064686894555943508 0.34148914716537432 0 -0.070590858673911197 0.32055724092449073 0 -0.043257421592815003 0.33119236912146871 0 -0.015923984511718801 0.34182749731844658 0 -0.040938388586196701 0.34643936098516059 0 -0.052339143928342338 0.31479684851695211 0 -0.043257421592815003 0.33119236912146871 0 -0.035003005170033623 0.31440891787164488 0 -0.043257421592815003 0.33119236912146871 0 -0.035003005170033623 0.31440891787164488 0 -0.025356584840526931 0.32562778853951968 0 -0.035003005170033623 0.31440891787164488 0 -0.018501941473524151 0.31294191789729542 0 -0.025356584840526931 0.32562778853951968 0 -0.018501941473524151 0.31294191789729542 0 -0.025356584840526931 0.32562778853951968 0 -0.01008754270334938 0.32105597145632259 0 -0.025356584840526931 0.32562778853951968 0 -0.01523252004345889 0.33057886518561153 0 -0.01008754270334938 0.32105597145632259 0 -0.043257421592815003 0.33119236912146871 0 -0.015923984511718801 0.34182749731844658 0 -0.025356584840526931 0.32562778853951968 0 -0.015923984511718801 0.34182749731844658 0 -0.01523252004345889 0.33057886518561153 0 -0.043257421592815003 0.33119236912146871 0 -0.025356584840526931 0.32562778853951968 0 -0.015923984511718801 0.34182749731844658 0 -0.01523252004345889 0.33057886518561153 0 -0.008383304618223994 0.33748981764053099 0 -0.003615850522113911 0.33278336917249962 0 -0.015923984511718801 0.34182749731844658 0 -0.008383304618223994 0.33748981764053099 0 0.0012391366043956341 0.34476953888556638 0 -0.01523252004345889 0.33057886518561153 0 -0.003615850522113911 0.33278336917249962 0 -0.01008754270334938 0.32105597145632259 0 -0.015923984511718801 0.34182749731844658 0 -0.01523252004345889 0.33057886518561153 0 -0.008383304618223994 0.33748981764053099 0 -0.008383304618223994 0.33748981764053099 0 -0.003615850522113911 0.33278336917249962 0 0.0012391366043956341 0.34476953888556638 0 -0.003615850522113911 0.33278336917249962 0 -0.01008754270334938 0.32105597145632259 0 0.0045161698998515626 0.32060316832622621 0 -0.003114773589655063 0.30739282621521957 0 -0.01008754270334938 0.32105597145632259 0 0.0045161698998515626 0.32060316832622621 0 -0.003114773589655063 0.30739282621521957 0 -0.018501941473524151 0.31294191789729542 0 -0.01008754270334938 0.32105597145632259 0 -0.010954278063915499 0.37033747279110729 0 0.0065586233532973284 0.35633978862473098 0 -0.01718988261644994 0.35138957480494692 0 0.0065586233532973284 0.35633978862473098 0 -0.015923984511718801 0.34182749731844658 0 -0.01718988261644994 0.35138957480494692 0 0.0065586233532973284 0.35633978862473098 0 -0.015923984511718801 0.34182749731844658 0 0.01140945256937767 0.35246262551542368 0 -0.015923984511718801 0.34182749731844658 0 0.01140945256937767 0.35246262551542368 0 0.0012391366043956341 0.34476953888556638 0 -0.010954278063915499 0.37033747279110729 0 -0.01718988261644994 0.35138957480494692 0 0.0065586233532973284 0.35633978862473098 0 -0.01718988261644994 0.35138957480494692 0 -0.040938388586196701 0.34643936098516059 0 -0.015923984511718801 0.34182749731844658 0 -0.01718988261644994 0.35138957480494692 0 -0.040938388586196701 0.34643936098516059 0 -0.01718988261644994 0.35138957480494692 0 -0.027443601079069801 0.3644786794351218 0 -0.040938388586196701 0.34643936098516059 0 -0.010954278063915499 0.37033747279110729 0 -0.027443601079069801 0.3644786794351218 0 -0.028467179481127439 0.3843351569574846 0 -0.010954278063915499 0.37033747279110729 0 -0.01718988261644994 0.35138957480494692 0 -0.027443601079069801 0.3644786794351218 0 -0.027443601079069801 0.3644786794351218 0 -0.043173694451059827 0.36947482329391279 0 -0.028467179481127439 0.3843351569574846 0 -0.027443601079069801 0.3644786794351218 0 -0.043173694451059827 0.36947482329391279 0 -0.040938388586196701 0.34643936098516059 0 -0.040938388586196701 0.34643936098516059 0 -0.058339399132582091 0.35905233331470982 0 -0.064686894555943508 0.34148914716537432 0 -0.043173694451059827 0.36947482329391279 0 -0.040938388586196701 0.34643936098516059 0 -0.058339399132582091 0.35905233331470982 0 -0.040938388586196701 0.34643936098516059 0 -0.064686894555943508 0.34148914716537432 0 -0.058339399132582091 0.35905233331470982 0 -0.067114711103181818 0.36798499447345517 0 -0.058752093590522712 0.37772278829444161 0 -0.043173694451059827 0.36947482329391279 0 -0.058339399132582091 0.35905233331470982 0 -0.058752093590522712 0.37772278829444161 0 -0.058339399132582091 0.35905233331470982 0 -0.067114711103181818 0.36798499447345517 0 -0.076842724802886508 0.36157882198566121 0 -0.067114711103181818 0.36798499447345517 0 -0.069190165400850281 0.3768181674638208 0 -0.058752093590522712 0.37772278829444161 0 -0.067114711103181818 0.36798499447345517 0 -0.076842724802886508 0.36157882198566121 0 -0.076172817777349647 0.37170506831921402 0 -0.067114711103181818 0.36798499447345517 0 -0.076172817777349647 0.37170506831921402 0 -0.069190165400850281 0.3768181674638208 0 -0.098881300543857673 0.36329402167942948 0 -0.087083990189687474 0.38116854413675633 0 -0.092019777066918509 0.36666573699979821 0 -0.098881300543857673 0.36329402167942948 0 -0.087083990189687474 0.38116854413675633 0 -0.076172817777349647 0.37170506831921402 0 -0.085297082696017948 0.36930492118839231 0 -0.081382964510692907 0.37725096997131152 0 -0.076842724802886508 0.36157882198566121 0 -0.076172817777349647 0.37170506831921402 0 -0.085297082696017948 0.36930492118839231 0 -0.076842724802886508 0.36157882198566121 0 -0.085297082696017948 0.36930492118839231 0 -0.089073558681350626 0.35930476984493259 0 -0.085297082696017948 0.36930492118839231 0 -0.092019777066918509 0.36666573699979821 0 -0.089073558681350626 0.35930476984493259 0 -0.092019777066918509 0.36666573699979821 0 -0.089073558681350626 0.35930476984493259 0 -0.094712610892292118 0.36140891867821839 0 -0.085297082696017948 0.36930492118839231 0 -0.092019777066918509 0.36666573699979821 0 -0.087083990189687474 0.38116854413675633 0 -0.090332785152182252 0.34974267026082762 0 -0.088435400525690294 0.33653893334558788 0 -0.095078286566869535 0.34702914396245232 0 -0.090332785152182252 0.34974267026082762 0 -0.089073558681350626 0.35930476984493259 0 -0.096012357069954771 0.35439360164077499 0 -0.089073558681350626 0.35930476984493259 0 -0.094712610892292118 0.36140891867821839 0 -0.096012357069954771 0.35439360164077499 0 -0.090332785152182252 0.34974267026082762 0 -0.089073558681350626 0.35930476984493259 0 -0.077678436564552394 0.34841774024015443 0 -0.076842724802886508 0.36157882198566121 0 -0.089073558681350626 0.35930476984493259 0 -0.077678436564552394 0.34841774024015443 0 -0.090332785152182252 0.34974267026082762 0 -0.077678436564552394 0.34841774024015443 0 -0.088435400525690294 0.33653893334558788 0 -0.058339399132582091 0.35905233331470982 0 -0.077678436564552394 0.34841774024015443 0 -0.064686894555943508 0.34148914716537432 0 -0.058339399132582091 0.35905233331470982 0 -0.076842724802886508 0.36157882198566121 0 -0.077678436564552394 0.34841774024015443 0 -0.064686894555943508 0.34148914716537432 0 -0.070590858673911197 0.32055724092449073 0 -0.088435400525690294 0.33653893334558788 0 -0.077678436564552394 0.34841774024015443 0 -0.064686894555943508 0.34148914716537432 0 -0.088435400525690294 0.33653893334558788 0 -0.064686894555943508 0.34148914716537432 0 -0.088435400525690294 0.33653893334558788 0 -0.09792429575500744 0.30992211272751269 0 -0.070590858673911197 0.32055724092449073 0 -0.098442600443441899 0.32510669397140579 0 -0.070590858673911197 0.32055724092449073 0 -0.088435400525690294 0.33653893334558788 0 -0.098442600443441899 0.32510669397140579 0 -0.09792429575500744 0.30992211272751269 0 -0.070590858673911197 0.32055724092449073 0 -0.088435400525690294 0.33653893334558788 0 -0.1121839064954379 0.33158871952580532 0 -0.1055326035196508 0.34744137060261859 0 -0.088435400525690294 0.33653893334558788 0 -0.095078286566869535 0.34702914396245232 0 -0.1055326035196508 0.34744137060261859 0 -0.088435400525690294 0.33653893334558788 0 -0.1121839064954379 0.33158871952580532 0 -0.088435400525690294 0.33653893334558788 0 -0.098442600443441899 0.32510669397140579 0 -0.1121839064954379 0.33158871952580532 0 -0.1121839064954379 0.33158871952580532 0 -0.1055326035196508 0.34744137060261859 0 -0.1102343850254253 0.30649537274910321 0 -0.09792429575500744 0.30992211272751269 0 -0.098442600443441899 0.32510669397140579 0 -0.1102343850254253 0.30649537274910321 0 -0.098442600443441899 0.32510669397140579 0 -0.1186942789803616 0.31607196081566019 0 -0.12686481346268949 0.32037137393547221 0 -0.13180756484683989 0.32749830201113239 0 -0.1121839064954379 0.33158871952580532 0 -0.098442600443441899 0.32510669397140579 0 -0.1186942789803616 0.31607196081566019 0 -0.1121839064954379 0.33158871952580532 0 -0.1186942789803616 0.31607196081566019 0 -0.1121839064954379 0.33158871952580532 0 -0.12686481346268949 0.32037137393547221 0 -0.1186942789803616 0.31607196081566019 0 -0.1121839064954379 0.33158871952580532 0 -0.12686481346268949 0.32037137393547221 0 -0.1249871204044478 0.31179850293020489 0 -0.1186942789803616 0.31607196081566019 0 -0.1121839064954379 0.33158871952580532 0 -0.11302727532836319 0.34775738954463498 0 -0.1055326035196508 0.34744137060261859 0 -0.1121839064954379 0.33158871952580532 0 -0.1228238987695868 0.33949768061628921 0 -0.11302727532836319 0.34775738954463498 0 -0.13180756484683989 0.32749830201113239 0 -0.1121839064954379 0.33158871952580532 0 -0.13180756484683989 0.32749830201113239 0 -0.1121839064954379 0.33158871952580532 0 -0.1228238987695868 0.33949768061628921 0 -0.1228238987695868 0.33949768061628921 0 -0.1224637287728801 0.34854477401553458 0 -0.11302727532836319 0.34775738954463498 0 -0.1224637287728801 0.34854477401553458 0 -0.11302727532836319 0.34775738954463498 0 -0.12127429260353501 0.35545287990242752 0 -0.11302727532836319 0.34775738954463498 0 -0.12127429260353501 0.35545287990242752 0 -0.11259439131077351 0.3608101976730872 0 -0.12872796564695019 0.35422374996017819 0 -0.1224637287728801 0.34854477401553458 0 -0.12127429260353501 0.35545287990242752 0 -0.1290658169321201 0.36495796629032212 0 -0.10807490356090391 0.37306325521353928 0 -0.1290658169321201 0.36495796629032212 0 -0.12127429260353501 0.35545287990242752 0 -0.11259439131077351 0.3608101976730872 0 -0.1290658169321201 0.36495796629032212 0 -0.10807490356090391 0.37306325521353928 0 -0.122032766010996 0.38150440727375001 0 -0.1290658169321201 0.36495796629032212 0 -0.11259439131077351 0.3608101976730872 0 -0.10807490356090391 0.37306325521353928 0 -0.11259439131077351 0.3608101976730872 0 -0.10807490356090391 0.37306325521353928 0 -0.098881300543857673 0.36329402167942948 0 -0.10807490356090391 0.37306325521353928 0 -0.098881300543857673 0.36329402167942948 0 -0.087083990189687474 0.38116854413675633 0 -0.092019777066918509 0.36666573699979821 0 -0.098881300543857673 0.36329402167942948 0 -0.096417330315523381 0.3639579110495354 0 -0.092019777066918509 0.36666573699979821 0 -0.096417330315523381 0.3639579110495354 0 -0.094712610892292118 0.36140891867821839 0 -0.098881300543857673 0.36329402167942948 0 -0.096417330315523381 0.3639579110495354 0 -0.094712610892292118 0.36140891867821839 0 -0.098881300543857673 0.36329402167942948 0 -0.094712610892292118 0.36140891867821839 0 -0.098784718006438843 0.35663447815026039 0 -0.098881300543857673 0.36329402167942948 0 -0.1055326035196508 0.34744137060261859 0 -0.098784718006438843 0.35663447815026039 0 -0.096012357069954771 0.35439360164077499 0 -0.1055326035196508 0.34744137060261859 0 -0.11302727532836319 0.34775738954463498 0 -0.098881300543857673 0.36329402167942948 0 -0.1055326035196508 0.34744137060261859 0 -0.098881300543857673 0.36329402167942948 0 -0.098784718006438843 0.35663447815026039 0 -0.1055326035196508 0.34744137060261859 0 -0.094712610892292118 0.36140891867821839 0 -0.098784718006438843 0.35663447815026039 0 -0.096012357069954771 0.35439360164077499 0 -0.096012357069954771 0.35439360164077499 0 -0.095078286566869535 0.34702914396245232 0 -0.1055326035196508 0.34744137060261859 0 -0.090332785152182252 0.34974267026082762 0 -0.096012357069954771 0.35439360164077499 0 -0.095078286566869535 0.34702914396245232 0 -0.11302727532836319 0.34775738954463498 0 -0.11259439131077351 0.3608101976730872 0 -0.098881300543857673 0.36329402167942948 0 -0.11302727532836319 0.34775738954463498 0 -0.098881300543857673 0.36329402167942948 0 -0.1121125111107924 0.39445290197368699 0 -0.10087673053248231 0.41260920951270391 0 -0.093143840664603961 0.39644475912066129 0 -0.10050239583344089 0.38468569378737999 0 -0.1121125111107924 0.39445290197368699 0 -0.093143840664603961 0.39644475912066129 0 -0.1121125111107924 0.39445290197368699 0 -0.11301603810985229 0.40882789566496669 0 -0.10087673053248231 0.41260920951270391 0 -0.10807490356090391 0.37306325521353928 0 -0.087083990189687474 0.38116854413675633 0 -0.10807490356090391 0.37306325521353928 0 -0.10050239583344089 0.38468569378737999 0 -0.087083990189687474 0.38116854413675633 0 -0.10050239583344089 0.38468569378737999 0 -0.122032766010996 0.38150440727375001 0 -0.1121125111107924 0.39445290197368699 0 -0.10807490356090391 0.37306325521353928 0 -0.10050239583344089 0.38468569378737999 0 -0.122032766010996 0.38150440727375001 0 -0.1262731161424494 0.41098458453742581 0 -0.122032766010996 0.38150440727375001 0 -0.1121125111107924 0.39445290197368699 0 -0.1262731161424494 0.41098458453742581 0 -0.1121125111107924 0.39445290197368699 0 -0.11301603810985229 0.40882789566496669 0 -0.1262731161424494 0.41098458453742581 0 -0.11280179465368501 0.41726488663605033 0 -0.11301603810985229 0.40882789566496669 0 -0.12821462004837761 0.42477134733015898 0 -0.1262731161424494 0.41098458453742581 0 -0.11280179465368501 0.41726488663605033 0 -0.12821462004837761 0.42477134733015898 0 -0.1121811897595958 0.44571324077016239 0 -0.12821462004837761 0.42477134733015898 0 -0.1183548661446933 0.43105191293323952 0 -0.1121811897595958 0.44571324077016239 0 -0.1183548661446933 0.43105191293323952 0 -0.1084687133128505 0.42702197682461862 0 -0.1121811897595958 0.44571324077016239 0 -0.12821462004837761 0.42477134733015898 0 -0.11280179465368501 0.41726488663605033 0 -0.1183548661446933 0.43105191293323952 0 -0.12821462004837761 0.42477134733015898 0 -0.1183548661446933 0.43105191293323952 0 -0.11280179465368501 0.41726488663605033 0 -0.1183548661446933 0.43105191293323952 0 -0.1084687133128505 0.42702197682461862 0 -0.097144229395107445 0.43078677648785008 0 -0.1084687133128505 0.42702197682461862 0 -0.1121811897595958 0.44571324077016239 0 -0.097144229395107445 0.43078677648785008 0 -0.1084687133128505 0.42702197682461862 0 -0.10087673053248231 0.41260920951270391 0 -0.097144229395107445 0.43078677648785008 0 -0.10087673053248231 0.41260920951270391 0 -0.089318864857090202 0.42005097307992678 0 -0.11280179465368501 0.41726488663605033 0 -0.11301603810985229 0.40882789566496669 0 -0.10087673053248231 0.41260920951270391 0 -0.11280179465368501 0.41726488663605033 0 -0.1084687133128505 0.42702197682461862 0 -0.10087673053248231 0.41260920951270391 0 -0.10087673053248231 0.41260920951270391 0 -0.082804407347877279 0.40955799157020922 0 -0.089318864857090202 0.42005097307992678 0 -0.082804407347877279 0.40955799157020922 0 -0.089318864857090202 0.42005097307992678 0 -0.076450092152893778 0.42724991474894441 0 -0.097144229395107445 0.43078677648785008 0 -0.076450092152893778 0.42724991474894441 0 -0.086298925811852931 0.44695252447955602 0 -0.097144229395107445 0.43078677648785008 0 -0.089318864857090202 0.42005097307992678 0 -0.076450092152893778 0.42724991474894441 0 -0.076450092152893778 0.42724991474894441 0 -0.086298925811852931 0.44695252447955602 0 -0.076450092152893778 0.42724991474894441 0 -0.0517036111859513 0.42673329455687081 0 -0.065985674566322233 0.4396882970943734 0 -0.076450092152893778 0.42724991474894441 0 -0.066601258493934806 0.40754730501833247 0 -0.0517036111859513 0.42673329455687081 0 -0.082804407347877279 0.40955799157020922 0 -0.076450092152893778 0.42724991474894441 0 -0.066601258493934806 0.40754730501833247 0 -0.076450092152893778 0.42724991474894441 0 -0.066601258493934806 0.40754730501833247 0 -0.066601258493934806 0.40754730501833247 0 -0.064481472138903678 0.40330666854180341 0 -0.076842624341811161 0.39435792457754443 0 -0.082804407347877279 0.40955799157020922 0 -0.066601258493934806 0.40754730501833247 0 -0.076842624341811161 0.39435792457754443 0 -0.066601258493934806 0.40754730501833247 0 -0.064481472138903678 0.40330666854180341 0 -0.064481472138903678 0.40330666854180341 0 -0.066293182289212021 0.39440876345830489 0 -0.076842624341811161 0.39435792457754443 0 -0.064481472138903678 0.40330666854180341 0 -0.066293182289212021 0.39440876345830489 0 -0.061074169294915312 0.39722859185827192 0 -0.066293182289212021 0.39440876345830489 0 -0.076842624341811161 0.39435792457754443 0 -0.067974919712441809 0.38556934130802373 0 -0.066601258493934806 0.40754730501833247 0 -0.076842624341811161 0.39435792457754443 0 -0.10087673053248231 0.41260920951270391 0 -0.082804407347877279 0.40955799157020922 0 -0.093143840664603961 0.39644475912066129 0 -0.076842624341811161 0.39435792457754443 0 -0.093143840664603961 0.39644475912066129 0 -0.087083990189687474 0.38116854413675633 0 -0.082804407347877279 0.40955799157020922 0 -0.076842624341811161 0.39435792457754443 0 -0.093143840664603961 0.39644475912066129 0 -0.10050239583344089 0.38468569378737999 0 -0.093143840664603961 0.39644475912066129 0 -0.087083990189687474 0.38116854413675633 0 -0.076842624341811161 0.39435792457754443 0 -0.082424647069653911 0.38296767128822512 0 -0.075936284820755443 0.3811086449239694 0 -0.076842624341811161 0.39435792457754443 0 -0.087083990189687474 0.38116854413675633 0 -0.076842624341811161 0.39435792457754443 0 -0.087083990189687474 0.38116854413675633 0 -0.082424647069653911 0.38296767128822512 0 -0.085297082696017948 0.36930492118839231 0 -0.087083990189687474 0.38116854413675633 0 -0.081382964510692907 0.37725096997131152 0 -0.082424647069653911 0.38296767128822512 0 -0.081382964510692907 0.37725096997131152 0 -0.075936284820755443 0.3811086449239694 0 -0.087083990189687474 0.38116854413675633 0 -0.082424647069653911 0.38296767128822512 0 -0.081382964510692907 0.37725096997131152 0 -0.087083990189687474 0.38116854413675633 0 -0.082424647069653911 0.38296767128822512 0 -0.076172817777349647 0.37170506831921402 0 -0.075936284820755443 0.3811086449239694 0 -0.069190165400850281 0.3768181674638208 0 -0.076172817777349647 0.37170506831921402 0 -0.081382964510692907 0.37725096997131152 0 -0.075936284820755443 0.3811086449239694 0 -0.075936284820755443 0.3811086449239694 0 -0.067974919712441809 0.38556934130802373 0 -0.069190165400850281 0.3768181674638208 0 -0.076842624341811161 0.39435792457754443 0 -0.075936284820755443 0.3811086449239694 0 -0.067974919712441809 0.38556934130802373 0 -0.066293182289212021 0.39440876345830489 0 -0.067974919712441809 0.38556934130802373 0 -0.058083410261434848 0.39115227831731297 0 -0.067974919712441809 0.38556934130802373 0 -0.069190165400850281 0.3768181674638208 0 -0.058752093590522712 0.37772278829444161 0 -0.067974919712441809 0.38556934130802373 0 -0.058752093590522712 0.37772278829444161 0 -0.058083410261434848 0.39115227831731297 0 -0.058752093590522712 0.37772278829444161 0 -0.046891291736496837 0.38420357759740281 0 -0.058083410261434848 0.39115227831731297 0 -0.043173694451059827 0.36947482329391279 0 -0.058752093590522712 0.37772278829444161 0 -0.046891291736496837 0.38420357759740281 0 -0.064481472138903678 0.40330666854180341 0 -0.055438612490110707 0.40004665711566628 0 -0.061074169294915312 0.39722859185827192 0 -0.064481472138903678 0.40330666854180341 0 -0.055438612490110707 0.40004665711566628 0 -0.052188240142402767 0.4095027834779903 0 -0.055438612490110707 0.40004665711566628 0 -0.058083410261434848 0.39115227831731297 0 -0.061074169294915312 0.39722859185827192 0 -0.066293182289212021 0.39440876345830489 0 -0.058083410261434848 0.39115227831731297 0 -0.061074169294915312 0.39722859185827192 0 -0.055438612490110707 0.40004665711566628 0 -0.058083410261434848 0.39115227831731297 0 -0.045980080898339368 0.39833284112386191 0 -0.046891291736496837 0.38420357759740281 0 -0.058083410261434848 0.39115227831731297 0 -0.045980080898339368 0.39833284112386191 0 -0.055438612490110707 0.40004665711566628 0 -0.045980080898339368 0.39833284112386191 0 -0.052188240142402767 0.4095027834779903 0 -0.045980080898339368 0.39833284112386191 0 -0.028467179481127439 0.3843351569574846 0 -0.02316083955968434 0.39721755620085841 0 -0.045980080898339368 0.39833284112386191 0 -0.028467179481127439 0.3843351569574846 0 -0.045980080898339368 0.39833284112386191 0 -0.02316083955968434 0.39721755620085841 0 -0.02823023306316667 0.4151591151711303 0 -0.043173694451059827 0.36947482329391279 0 -0.046891291736496837 0.38420357759740281 0 -0.028467179481127439 0.3843351569574846 0 -0.046891291736496837 0.38420357759740281 0 -0.045980080898339368 0.39833284112386191 0 -0.028467179481127439 0.3843351569574846 0 -0.028467179481127439 0.3843351569574846 0 -0.02316083955968434 0.39721755620085841 0 -0.01211447001889495 0.38713196162391839 0 -0.010954278063915499 0.37033747279110729 0 -0.028467179481127439 0.3843351569574846 0 -0.010954278063915499 0.37033747279110729 0 -0.028467179481127439 0.3843351569574846 0 -0.01211447001889495 0.38713196162391839 0 -0.02316083955968434 0.39721755620085841 0 -0.0010122343368932541 0.40112870612789647 0 -0.02823023306316667 0.4151591151711303 0 -0.02316083955968434 0.39721755620085841 0 -0.0010122343368932541 0.40112870612789647 0 -0.01211447001889495 0.38713196162391839 0 -0.0010122343368932541 0.40112870612789647 0 -0.01211447001889495 0.38713196162391839 0 0.01034740095667388 0.38009490616324237 0 -0.010954278063915499 0.37033747279110729 0 -0.01211447001889495 0.38713196162391839 0 0.01034740095667388 0.38009490616324237 0 -0.0010122343368932541 0.40112870612789647 0 -0.0080186453672848532 0.42893127256557118 0 -0.0010122343368932541 0.40112870612789647 0 -0.0080186453672848532 0.42893127256557118 0 -0.02823023306316667 0.4151591151711303 0 -0.0080186453672848532 0.42893127256557118 0 -0.02823023306316667 0.4151591151711303 0 -0.031749237617660707 0.43995667333040062 0 -0.02823023306316667 0.4151591151711303 0 -0.0517036111859513 0.42673329455687081 0 -0.031749237617660707 0.43995667333040062 0 -0.02823023306316667 0.4151591151711303 0 -0.052188240142402767 0.4095027834779903 0 -0.0517036111859513 0.42673329455687081 0 -0.045980080898339368 0.39833284112386191 0 -0.02823023306316667 0.4151591151711303 0 -0.052188240142402767 0.4095027834779903 0 -0.066601258493934806 0.40754730501833247 0 -0.052188240142402767 0.4095027834779903 0 -0.0517036111859513 0.42673329455687081 0 -0.066601258493934806 0.40754730501833247 0 -0.0517036111859513 0.42673329455687081 0 -0.066601258493934806 0.40754730501833247 0 -0.064481472138903678 0.40330666854180341 0 -0.052188240142402767 0.4095027834779903 0 -0.0517036111859513 0.42673329455687081 0 -0.05234396499474709 0.45140140094962777 0 -0.065985674566322233 0.4396882970943734 0 -0.05234396499474709 0.45140140094962777 0 -0.064437130842654511 0.46674117540456789 0 -0.069403293087356821 0.45368359392228552 0 -0.05234396499474709 0.45140140094962777 0 -0.049789519804618841 0.47322379930157182 0 -0.064437130842654511 0.46674117540456789 0 -0.05234396499474709 0.45140140094962777 0 -0.035662241103750339 0.46185266499253352 0 -0.049789519804618841 0.47322379930157182 0 -0.0517036111859513 0.42673329455687081 0 -0.05234396499474709 0.45140140094962777 0 -0.031749237617660707 0.43995667333040062 0 -0.05234396499474709 0.45140140094962777 0 -0.035662241103750339 0.46185266499253352 0 -0.031749237617660707 0.43995667333040062 0 -0.035662241103750339 0.46185266499253352 0 -0.031749237617660707 0.43995667333040062 0 -0.015025056397676449 0.45673383900324588 0 -0.0080186453672848532 0.42893127256557118 0 -0.031749237617660707 0.43995667333040062 0 -0.015025056397676449 0.45673383900324588 0 -0.035662241103750339 0.46185266499253352 0 -0.015025056397676449 0.45673383900324588 0 -0.027343812887595659 0.4697634224915912 0 -0.015025056397676449 0.45673383900324588 0 -0.0068561275227281646 0.48291830256328661 0 0.0089292086152718345 0.46542327678520612 0 -0.015025056397676449 0.45673383900324588 0 0.0032429327191542219 0.44588261561992137 0 0.0089292086152718345 0.46542327678520612 0 -0.0080186453672848532 0.42893127256557118 0 -0.015025056397676449 0.45673383900324588 0 0.0032429327191542219 0.44588261561992137 0 -0.0080186453672848532 0.42893127256557118 0 -0.015025056397676449 0.45673383900324588 0 -0.01254616116205531 0.5 0 -0.0068561275227281646 0.48291830256328661 0 -0.0178678027101755 0.49512263825686748 0 -0.01254616116205531 0.5 0 -0.0068561275227281646 0.48291830256328661 0 0.014726428477793711 0.5 0 -0.0068561275227281646 0.48291830256328661 0 -0.0220314674280679 0.48453640544092069 0 -0.0178678027101755 0.49512263825686748 0 -0.0068561275227281646 0.48291830256328661 0 -0.0178678027101755 0.49512263825686748 0 -0.015025056397676449 0.45673383900324588 0 -0.0068561275227281646 0.48291830256328661 0 -0.0220314674280679 0.48453640544092069 0 -0.0068561275227281646 0.48291830256328661 0 -0.0220314674280679 0.48453640544092069 0 -0.015025056397676449 0.45673383900324588 0 -0.027343812887595659 0.4697634224915912 0 -0.0220314674280679 0.48453640544092069 0 -0.015025056397676449 0.45673383900324588 0 -0.0220314674280679 0.48453640544092069 0 -0.027343812887595659 0.4697634224915912 0 -0.0220314674280679 0.48453640544092069 0 -0.036656486620887961 0.47593078052966481 0 -0.01254616116205531 0.5 0 -0.024788340737123198 0.4954761223662883 0 -0.039818750801904328 0.5 0 -0.0220314674280679 0.48453640544092069 0 -0.024788340737123198 0.4954761223662883 0 -0.0220314674280679 0.48453640544092069 0 -0.0178678027101755 0.49512263825686748 0 -0.024788340737123198 0.4954761223662883 0 -0.01254616116205531 0.5 0 -0.0178678027101755 0.49512263825686748 0 -0.024788340737123198 0.4954761223662883 0 -0.024788340737123198 0.4954761223662883 0 -0.039818750801904328 0.5 0 -0.048999331444829868 0.48741191127086042 0 -0.0220314674280679 0.48453640544092069 0 -0.048999331444829868 0.48741191127086042 0 -0.0220314674280679 0.48453640544092069 0 -0.024788340737123198 0.4954761223662883 0 -0.048999331444829868 0.48741191127086042 0 -0.0220314674280679 0.48453640544092069 0 -0.036656486620887961 0.47593078052966481 0 -0.048999331444829868 0.48741191127086042 0 -0.035662241103750339 0.46185266499253352 0 -0.027343812887595659 0.4697634224915912 0 -0.036656486620887961 0.47593078052966481 0 -0.036656486620887961 0.47593078052966481 0 -0.049789519804618841 0.47322379930157182 0 -0.048999331444829868 0.48741191127086042 0 -0.035662241103750339 0.46185266499253352 0 -0.036656486620887961 0.47593078052966481 0 -0.049789519804618841 0.47322379930157182 0 -0.049789519804618841 0.47322379930157182 0 -0.048999331444829868 0.48741191127086042 0 -0.062540451367922814 0.47893819029993151 0 -0.049789519804618841 0.47322379930157182 0 -0.062540451367922814 0.47893819029993151 0 -0.064437130842654511 0.46674117540456789 0 -0.039818750801904328 0.5 0 -0.048999331444829868 0.48741191127086042 0 -0.067091340441753244 0.5 0 -0.048999331444829868 0.48741191127086042 0 -0.075967195461592016 0.49028741710079959 0 -0.048999331444829868 0.48741191127086042 0 -0.067091340441753244 0.5 0 -0.075967195461592016 0.49028741710079959 0 -0.048999331444829868 0.48741191127086042 0 -0.075967195461592016 0.49028741710079959 0 -0.062540451367922814 0.47893819029993151 0 -0.075967195461592016 0.49028741710079959 0 -0.086319205879252833 0.4794925943342131 0 -0.094363930081602043 0.5 0 -0.067091340441753244 0.5 0 -0.075967195461592016 0.49028741710079959 0 -0.094363930081602043 0.5 0 -0.086319205879252833 0.4794925943342131 0 -0.079257334721455464 0.4652135806802643 0 -0.096147759470814678 0.46665513421016641 0 -0.086319205879252833 0.4794925943342131 0 -0.096147759470814678 0.46665513421016641 0 -0.075967195461592016 0.49028741710079959 0 -0.086319205879252833 0.4794925943342131 0 -0.073509079285918821 0.4770266484218576 0 -0.086319205879252833 0.4794925943342131 0 -0.073509079285918821 0.4770266484218576 0 -0.079257334721455464 0.4652135806802643 0 -0.073509079285918821 0.4770266484218576 0 -0.064437130842654511 0.46674117540456789 0 -0.079257334721455464 0.4652135806802643 0 -0.075967195461592016 0.49028741710079959 0 -0.073509079285918821 0.4770266484218576 0 -0.062540451367922814 0.47893819029993151 0 -0.073509079285918821 0.4770266484218576 0 -0.062540451367922814 0.47893819029993151 0 -0.064437130842654511 0.46674117540456789 0 -0.064437130842654511 0.46674117540456789 0 -0.069403293087356821 0.45368359392228552 0 -0.079257334721455464 0.4652135806802643 0 -0.076450092152893778 0.42724991474894441 0 -0.065985674566322233 0.4396882970943734 0 -0.086298925811852931 0.44695252447955602 0 -0.05234396499474709 0.45140140094962777 0 -0.069403293087356821 0.45368359392228552 0 -0.065985674566322233 0.4396882970943734 0 -0.069403293087356821 0.45368359392228552 0 -0.065985674566322233 0.4396882970943734 0 -0.086298925811852931 0.44695252447955602 0 -0.086298925811852931 0.44695252447955602 0 -0.096147759470814678 0.46665513421016641 0 -0.069403293087356821 0.45368359392228552 0 -0.086298925811852931 0.44695252447955602 0 -0.079257334721455464 0.4652135806802643 0 -0.086298925811852931 0.44695252447955602 0 -0.079257334721455464 0.4652135806802643 0 -0.096147759470814678 0.46665513421016641 0 -0.096147759470814678 0.46665513421016641 0 -0.1121811897595958 0.44571324077016239 0 -0.1108888525940587 0.46309961638210573 0 -0.096147759470814678 0.46665513421016641 0 -0.1121811897595958 0.44571324077016239 0 -0.096147759470814678 0.46665513421016641 0 -0.1108888525940587 0.46309961638210573 0 -0.099197844109434413 0.47275683410286962 0 -0.086298925811852931 0.44695252447955602 0 -0.096147759470814678 0.46665513421016641 0 -0.1121811897595958 0.44571324077016239 0 -0.097144229395107445 0.43078677648785008 0 -0.086298925811852931 0.44695252447955602 0 -0.1121811897595958 0.44571324077016239 0 -0.13236885841004919 0.44889332693852801 0 -0.1121811897595958 0.44571324077016239 0 -0.1108888525940587 0.46309961638210573 0 -0.13236885841004919 0.44889332693852801 0 -0.12821462004837761 0.42477134733015898 0 -0.1121811897595958 0.44571324077016239 0 -0.12527370250384759 0.47078387733216209 0 -0.13236885841004919 0.44889332693852801 0 -0.1108888525940587 0.46309961638210573 0 -0.12527370250384759 0.47078387733216209 0 -0.11074996269016819 0.47464969688835501 0 -0.1174442215446152 0.48325976702989631 0 -0.12527370250384759 0.47078387733216209 0 -0.1108888525940587 0.46309961638210573 0 -0.11074996269016819 0.47464969688835501 0 -0.11074996269016819 0.47464969688835501 0 -0.1174442215446152 0.48325976702989631 0 -0.1029218808243297 0.48536747574233369 0 -0.13288363243512979 0.48493883485054889 0 -0.1174442215446152 0.48325976702989631 0 -0.12163651972145099 0.5 0 -0.1174442215446152 0.48325976702989631 0 -0.12163651972145099 0.5 0 -0.1029218808243297 0.48536747574233369 0 -0.12163651972145099 0.5 0 -0.1029218808243297 0.48536747574233369 0 -0.094363930081602043 0.5 0 -0.086319205879252833 0.4794925943342131 0 -0.1029218808243297 0.48536747574233369 0 -0.094363930081602043 0.5 0 -0.086319205879252833 0.4794925943342131 0 -0.1029218808243297 0.48536747574233369 0 -0.099197844109434413 0.47275683410286962 0 -0.086319205879252833 0.4794925943342131 0 -0.096147759470814678 0.46665513421016641 0 -0.099197844109434413 0.47275683410286962 0 -0.096147759470814678 0.46665513421016641 0 -0.099197844109434413 0.47275683410286962 0 -0.1108888525940587 0.46309961638210573 0 -0.11074996269016819 0.47464969688835501 0 -0.099197844109434413 0.47275683410286962 0 -0.11074996269016819 0.47464969688835501 0 -0.1029218808243297 0.48536747574233369 0 -0.099197844109434413 0.47275683410286962 0 -0.16370888638691411 0.075802750630241209 0 -0.17114726203359029 0.10144930866055581 0 -0.1454883385722196 0.1013617490471926 0 -0.16370888638691411 0.075802750630241209 0 -0.18828380872556369 0.083211985006550054 0 -0.1902937906571768 0.063123741571656039 0 -0.16370888638691411 0.075802750630241209 0 -0.17114726203359029 0.10144930866055581 0 -0.18828380872556369 0.083211985006550054 0 -0.17114726203359029 0.10144930866055581 0 -0.18807497235121851 0.11104803042481109 0 -0.19744038054594151 0.098274150272661287 0 -0.17114726203359029 0.10144930866055581 0 -0.18828380872556369 0.083211985006550054 0 -0.19744038054594151 0.098274150272661287 0 -0.1754553970277172 0.12033603672573789 0 -0.17114726203359029 0.10144930866055581 0 -0.18807497235121851 0.11104803042481109 0 -0.1754553970277172 0.12033603672573789 0 -0.19212583708804479 0.1243415970786777 0 -0.18807497235121851 0.11104803042481109 0 -0.1754553970277172 0.12033603672573789 0 -0.15662730128622021 0.1201098577388274 0 -0.17114726203359029 0.10144930866055581 0 -0.17114726203359029 0.10144930866055581 0 -0.1454883385722196 0.1013617490471926 0 -0.15662730128622021 0.1201098577388274 0 -0.17114726203359029 0.10144930866055581 0 -0.1454883385722196 0.1013617490471926 0 -0.15662730128622021 0.1201098577388274 0 -0.1454883385722196 0.1013617490471926 0 -0.13525827670093529 0.1213048707276082 0 -0.1454883385722196 0.1013617490471926 0 -0.13269411571008291 0.0814134514373486 0 -0.1198294151108488 0.1012741894338294 0 -0.1454883385722196 0.1013617490471926 0 -0.1198294151108488 0.1012741894338294 0 -0.1454883385722196 0.1013617490471926 0 -0.13525827670093529 0.1213048707276082 0 -0.1198294151108488 0.1012741894338294 0 -0.16370888638691411 0.075802750630241209 0 -0.1454883385722196 0.1013617490471926 0 -0.13269411571008291 0.0814134514373486 0 -0.16370888638691411 0.075802750630241209 0 -0.13269411571008291 0.0814134514373486 0 -0.14318432961239319 0.052194176919895093 0 -0.13269411571008291 0.0814134514373486 0 -0.14318432961239319 0.052194176919895093 0 -0.1143827619903883 0.06642533080049022 0 -0.14318432961239319 0.052194176919895093 0 -0.13842431561494539 0.027441210035773659 0 -0.1155815900124991 0.038046831391001068 0 -0.14318432961239319 0.052194176919895093 0 -0.13842431561494539 0.027441210035773659 0 -0.1593143481152508 0.03174481861334523 0 -0.13518087730504541 0.0058338015274088072 0 -0.13842431561494539 0.027441210035773659 0 -0.1167804180346098 0.0096683319815117214 0 -0.13842431561494539 0.027441210035773659 0 -0.15716480579668429 0.0096173806601869243 0 -0.1593143481152508 0.03174481861334523 0 -0.14179680904898881 -0.01103102019700854 0 -0.13518087730504541 0.0058338015274088072 0 -0.15716480579668429 0.0096173806601869243 0 -0.13518087730504541 0.0058338015274088072 0 -0.13842431561494539 0.027441210035773659 0 -0.15716480579668429 0.0096173806601869243 0 -0.15716480579668429 0.0096173806601869243 0 -0.1845974065193681 0.020887203464375632 0 -0.1593143481152508 0.03174481861334523 0 -0.17618077961913581 -0.0035985267045714349 0 -0.19893365398983109 -0.0041071238595800259 0 -0.1845974065193681 0.020887203464375632 0 -0.17618077961913581 -0.0035985267045714349 0 -0.15716480579668429 0.0096173806601869243 0 -0.1845974065193681 0.020887203464375632 0 -0.14318432961239319 0.052194176919895093 0 -0.1593143481152508 0.03174481861334523 0 -0.1748705593973722 0.047864841768490159 0 -0.16370888638691411 0.075802750630241209 0 -0.14318432961239319 0.052194176919895093 0 -0.1748705593973722 0.047864841768490159 0 -0.1845974065193681 0.020887203464375632 0 -0.1593143481152508 0.03174481861334523 0 -0.1748705593973722 0.047864841768490159 0 -0.16370888638691411 0.075802750630241209 0 -0.1748705593973722 0.047864841768490159 0 -0.1902937906571768 0.063123741571656039 0 -0.1845974065193681 0.020887203464375632 0 -0.1748705593973722 0.047864841768490159 0 -0.20742001979030911 0.047084692655145838 0 -0.1748705593973722 0.047864841768490159 0 -0.20742001979030911 0.047084692655145838 0 -0.1902937906571768 0.063123741571656039 0 -0.19893365398983109 -0.0041071238595800259 0 -0.1845974065193681 0.020887203464375632 0 -0.21769789989898911 0.01431085616150183 0 -0.1845974065193681 0.020887203464375632 0 -0.20742001979030911 0.047084692655145838 0 -0.21769789989898911 0.01431085616150183 0 -0.19893365398983109 -0.0041071238595800259 0 -0.21769789989898911 0.01431085616150183 0 -0.2342347475845421 -0.01565714949806642 0 -0.21769789989898911 0.01431085616150183 0 -0.2436265138743488 0.0065037479392753318 0 -0.21769789989898911 0.01431085616150183 0 -0.2364621458081472 0.032728836182583682 0 -0.21769789989898911 0.01431085616150183 0 -0.2436265138743488 0.0065037479392753318 0 -0.2364621458081472 0.032728836182583682 0 -0.25860103273555779 0.022298115928908981 0 -0.2436265138743488 0.0065037479392753318 0 -0.2364621458081472 0.032728836182583682 0 -0.20742001979030911 0.047084692655145838 0 -0.21769789989898911 0.01431085616150183 0 -0.2364621458081472 0.032728836182583682 0 -0.20742001979030911 0.047084692655145838 0 -0.23047829998104019 0.055149061567269092 0 -0.2184589209980792 0.078765536940044983 0 -0.20742001979030911 0.047084692655145838 0 -0.23047829998104019 0.055149061567269092 0 -0.2364621458081472 0.032728836182583682 0 -0.25295519749278128 0.046060126382706901 0 -0.23047829998104019 0.055149061567269092 0 -0.2364621458081472 0.032728836182583682 0 -0.25295519749278128 0.046060126382706901 0 -0.25860103273555779 0.022298115928908981 0 -0.2364621458081472 0.032728836182583682 0 -0.25295519749278128 0.046060126382706901 0 -0.23047829998104019 0.055149061567269092 0 -0.24905342308690939 0.07265575326688023 0 -0.24905342308690939 0.07265575326688023 0 -0.2184589209980792 0.078765536940044983 0 -0.2376984033185271 0.096277969671681424 0 -0.25933948796623668 0.096857220817064382 0 -0.24905342308690939 0.07265575326688023 0 -0.2376984033185271 0.096277969671681424 0 -0.2184589209980792 0.078765536940044983 0 -0.2237555238899808 0.10083682662498709 0 -0.2376984033185271 0.096277969671681424 0 -0.23047829998104019 0.055149061567269092 0 -0.24905342308690939 0.07265575326688023 0 -0.2184589209980792 0.078765536940044983 0 -0.20742001979030911 0.047084692655145838 0 -0.2184589209980792 0.078765536940044983 0 -0.1902937906571768 0.063123741571656039 0 -0.2184589209980792 0.078765536940044983 0 -0.21261321834377109 0.1035301336204818 0 -0.2184589209980792 0.078765536940044983 0 -0.19744038054594151 0.098274150272661287 0 -0.21261321834377109 0.1035301336204818 0 -0.2184589209980792 0.078765536940044983 0 -0.18828380872556369 0.083211985006550054 0 -0.19744038054594151 0.098274150272661287 0 -0.2184589209980792 0.078765536940044983 0 -0.18828380872556369 0.083211985006550054 0 -0.1902937906571768 0.063123741571656039 0 -0.1994043848036878 0.1130977283395101 0 -0.19212583708804479 0.1243415970786777 0 -0.206767515689463 0.1282947303009187 0 -0.1994043848036878 0.1130977283395101 0 -0.19212583708804479 0.1243415970786777 0 -0.18807497235121851 0.11104803042481109 0 -0.1994043848036878 0.1130977283395101 0 -0.18807497235121851 0.11104803042481109 0 -0.19744038054594151 0.098274150272661287 0 -0.2184589209980792 0.078765536940044983 0 -0.21261321834377109 0.1035301336204818 0 -0.2237555238899808 0.10083682662498709 0 -0.1994043848036878 0.1130977283395101 0 -0.19744038054594151 0.098274150272661287 0 -0.21261321834377109 0.1035301336204818 0 -0.21261321834377109 0.1035301336204818 0 -0.21670140861193149 0.111460537406586 0 -0.2237555238899808 0.10083682662498709 0 -0.21261321834377109 0.1035301336204818 0 -0.21670140861193149 0.111460537406586 0 -0.206767515689463 0.1282947303009187 0 -0.1994043848036878 0.1130977283395101 0 -0.21261321834377109 0.1035301336204818 0 -0.206767515689463 0.1282947303009187 0 -0.21670140861193149 0.111460537406586 0 -0.23020977526713751 0.12978620965722029 0 -0.206767515689463 0.1282947303009187 0 -0.21261321834377109 0.1035301336204818 0 -0.206767515689463 0.1282947303009187 0 -0.21670140861193149 0.111460537406586 0 -0.2333056681775951 0.11414995548614131 0 -0.23020977526713751 0.12978620965722029 0 -0.21670140861193149 0.111460537406586 0 -0.23020977526713751 0.12978620965722029 0 -0.21670140861193149 0.111460537406586 0 -0.2333056681775951 0.11414995548614131 0 -0.2237555238899808 0.10083682662498709 0 -0.2333056681775951 0.11414995548614131 0 -0.2237555238899808 0.10083682662498709 0 -0.2376984033185271 0.096277969671681424 0 -0.25933948796623668 0.096857220817064382 0 -0.2376984033185271 0.096277969671681424 0 -0.24892577662476259 0.1122456537265426 0 -0.2333056681775951 0.11414995548614131 0 -0.2376984033185271 0.096277969671681424 0 -0.24892577662476259 0.1122456537265426 0 -0.25453811914305119 0.12576788457430249 0 -0.24892577662476259 0.1122456537265426 0 -0.2442444782567518 0.12789030222594441 0 -0.2333056681775951 0.11414995548614131 0 -0.2442444782567518 0.12789030222594441 0 -0.23020977526713751 0.12978620965722029 0 -0.2333056681775951 0.11414995548614131 0 -0.24892577662476259 0.1122456537265426 0 -0.2442444782567518 0.12789030222594441 0 -0.23020977526713751 0.12978620965722029 0 -0.24371814192234381 0.14811188190785471 0 -0.25476938840562069 0.1372802280036049 0 -0.2442444782567518 0.12789030222594441 0 -0.24371814192234381 0.14811188190785471 0 -0.2442444782567518 0.12789030222594441 0 -0.23020977526713751 0.12978620965722029 0 -0.24371814192234381 0.14811188190785471 0 -0.23020977526713751 0.12978620965722029 0 -0.22428597385317489 0.1491400837106098 0 -0.21652926764844529 0.13934732729552851 0 -0.23020977526713751 0.12978620965722029 0 -0.22428597385317489 0.1491400837106098 0 -0.24371814192234381 0.14811188190785471 0 -0.22428597385317489 0.1491400837106098 0 -0.24371814192234381 0.14811188190785471 0 -0.2308657170905162 0.16391246460332479 0 -0.22428597385317489 0.1491400837106098 0 -0.24371814192234381 0.14811188190785471 0 -0.2536572939834123 0.1615954989704822 0 -0.24371814192234381 0.14811188190785471 0 -0.2536572939834123 0.1615954989704822 0 -0.23781002699758311 0.17870230866743159 0 -0.2536572939834123 0.1615954989704822 0 -0.24371814192234381 0.14811188190785471 0 -0.2308657170905162 0.16391246460332479 0 -0.2536572939834123 0.1615954989704822 0 -0.23781002699758311 0.17870230866743159 0 -0.2308657170905162 0.16391246460332479 0 -0.23781002699758311 0.17870230866743159 0 -0.2223374722570419 0.18026012050165141 0 -0.221962760011754 0.195809118364381 0 -0.23781002699758311 0.17870230866743159 0 -0.221962760011754 0.195809118364381 0 -0.23781002699758311 0.17870230866743159 0 -0.2223374722570419 0.18026012050165141 0 -0.2308657170905162 0.16391246460332479 0 -0.2308657170905162 0.16391246460332479 0 -0.21636775043803971 0.15857299379113371 0 -0.21470599432576751 0.16926409218562899 0 -0.2223374722570419 0.18026012050165141 0 -0.2308657170905162 0.16391246460332479 0 -0.21470599432576751 0.16926409218562899 0 -0.22428597385317489 0.1491400837106098 0 -0.2308657170905162 0.16391246460332479 0 -0.21636775043803971 0.15857299379113371 0 -0.21636775043803971 0.15857299379113371 0 -0.21470599432576751 0.16926409218562899 0 -0.20712726113673369 0.1603800429427398 0 -0.21470599432576751 0.16926409218562899 0 -0.20712726113673369 0.1603800429427398 0 -0.2012524579172334 0.1696737238621906 0 -0.21636775043803971 0.15857299379113371 0 -0.20712726113673369 0.1603800429427398 0 -0.20485380578400589 0.15016828551336511 0 -0.2223374722570419 0.18026012050165141 0 -0.20928714055013001 0.18206802434580449 0 -0.221962760011754 0.195809118364381 0 -0.2223374722570419 0.18026012050165141 0 -0.21470599432576751 0.16926409218562899 0 -0.20928714055013001 0.18206802434580449 0 -0.21470599432576751 0.16926409218562899 0 -0.20928714055013001 0.18206802434580449 0 -0.2012524579172334 0.1696737238621906 0 -0.19642049273232279 0.1813540608711384 0 -0.18382793315299331 0.1876569488741093 0 -0.18510512116445399 0.1711182689090899 0 -0.19642049273232279 0.1813540608711384 0 -0.2012524579172334 0.1696737238621906 0 -0.18510512116445399 0.1711182689090899 0 -0.20928714055013001 0.18206802434580449 0 -0.19642049273232279 0.1813540608711384 0 -0.2003336104961139 0.19384034462240371 0 -0.20928714055013001 0.18206802434580449 0 -0.19642049273232279 0.1813540608711384 0 -0.2012524579172334 0.1696737238621906 0 -0.2012524579172334 0.1696737238621906 0 -0.19309310732031401 0.1606228952257015 0 -0.18510512116445399 0.1711182689090899 0 -0.20712726113673369 0.1603800429427398 0 -0.200598659852359 0.1609339972529969 0 -0.2012524579172334 0.1696737238621906 0 -0.200598659852359 0.1609339972529969 0 -0.2012524579172334 0.1696737238621906 0 -0.19309310732031401 0.1606228952257015 0 -0.200598659852359 0.1609339972529969 0 -0.19309310732031401 0.1606228952257015 0 -0.20092181303515491 0.15305932698135569 0 -0.20712726113673369 0.1603800429427398 0 -0.200598659852359 0.1609339972529969 0 -0.20092181303515491 0.15305932698135569 0 -0.19309310732031401 0.1606228952257015 0 -0.1869585438686692 0.14946788246332571 0 -0.18279220707304569 0.16025901001241549 0 -0.19479198079359661 0.14856222422402099 0 -0.19421338885225181 0.15264283761407199 0 -0.1869585438686692 0.14946788246332571 0 -0.19309310732031401 0.1606228952257015 0 -0.19421338885225181 0.15264283761407199 0 -0.1869585438686692 0.14946788246332571 0 -0.19309310732031401 0.1606228952257015 0 -0.19421338885225181 0.15264283761407199 0 -0.20092181303515491 0.15305932698135569 0 -0.19479198079359661 0.14856222422402099 0 -0.19421338885225181 0.15264283761407199 0 -0.20092181303515491 0.15305932698135569 0 -0.19479198079359661 0.14856222422402099 0 -0.20092181303515491 0.15305932698135569 0 -0.19707417741831049 0.13907884983733079 0 -0.19479198079359661 0.14856222422402099 0 -0.19707417741831049 0.13907884983733079 0 -0.1869585438686692 0.14946788246332571 0 -0.19707417741831049 0.13907884983733079 0 -0.18249198004016079 0.13743482787919281 0 -0.1869585438686692 0.14946788246332571 0 -0.20092181303515491 0.15305932698135569 0 -0.19707417741831049 0.13907884983733079 0 -0.206767515689463 0.1282947303009187 0 -0.19212583708804479 0.1243415970786777 0 -0.19707417741831049 0.13907884983733079 0 -0.18249198004016079 0.13743482787919281 0 -0.19212583708804479 0.1243415970786777 0 -0.19707417741831049 0.13907884983733079 0 -0.206767515689463 0.1282947303009187 0 -0.21652926764844529 0.13934732729552851 0 -0.206767515689463 0.1282947303009187 0 -0.20485380578400589 0.15016828551336511 0 -0.23020977526713751 0.12978620965722029 0 -0.21652926764844529 0.13934732729552851 0 -0.206767515689463 0.1282947303009187 0 -0.20092181303515491 0.15305932698135569 0 -0.206767515689463 0.1282947303009187 0 -0.20485380578400589 0.15016828551336511 0 -0.22428597385317489 0.1491400837106098 0 -0.20485380578400589 0.15016828551336511 0 -0.22428597385317489 0.1491400837106098 0 -0.21652926764844529 0.13934732729552851 0 -0.20485380578400589 0.15016828551336511 0 -0.20092181303515491 0.15305932698135569 0 -0.206767515689463 0.1282947303009187 0 -0.22428597385317489 0.1491400837106098 0 -0.21636775043803971 0.15857299379113371 0 -0.20485380578400589 0.15016828551336511 0 -0.20712726113673369 0.1603800429427398 0 -0.20092181303515491 0.15305932698135569 0 -0.20485380578400589 0.15016828551336511 0 -0.22277595510907569 0.24180466171435519 0 -0.23372259705565049 0.24851436387078391 0 -0.23952164582320559 0.2315480128826049 0 -0.25781088981188399 0.25136430228956153 0 -0.23372259705565049 0.24851436387078391 0 -0.23952164582320559 0.2315480128826049 0 -0.26110012984312192 0.22817444719966359 0 -0.23952164582320559 0.2315480128826049 0 -0.24810113355345259 0.21397840382672759 0 -0.23952164582320559 0.2315480128826049 0 -0.2304211225000827 0.21152690292611309 0 -0.24810113355345259 0.21397840382672759 0 -0.22277595510907569 0.24180466171435519 0 -0.23952164582320559 0.2315480128826049 0 -0.222519743973569 0.22623374850487771 0 -0.23952164582320559 0.2315480128826049 0 -0.222519743973569 0.22623374850487771 0 -0.2304211225000827 0.21152690292611309 0 -0.22277595510907569 0.24180466171435519 0 -0.222519743973569 0.22623374850487771 0 -0.21125157695915939 0.2340514294511625 0 -0.2304211225000827 0.21152690292611309 0 -0.221962760011754 0.195809118364381 0 -0.20611549302592491 0.21291592806133039 0 -0.222519743973569 0.22623374850487771 0 -0.2304211225000827 0.21152690292611309 0 -0.20611549302592491 0.21291592806133039 0 -0.2304211225000827 0.21152690292611309 0 -0.24810113355345259 0.21397840382672759 0 -0.24367487473232161 0.19750531195026799 0 -0.25648073665227261 0.18687062157390491 0 -0.23781002699758311 0.17870230866743159 0 -0.24367487473232161 0.19750531195026799 0 -0.23781002699758311 0.17870230866743159 0 -0.24367487473232161 0.19750531195026799 0 -0.221962760011754 0.195809118364381 0 -0.2304211225000827 0.21152690292611309 0 -0.24367487473232161 0.19750531195026799 0 -0.221962760011754 0.195809118364381 0 -0.20928714055013001 0.18206802434580449 0 -0.221962760011754 0.195809118364381 0 -0.2003336104961139 0.19384034462240371 0 -0.221962760011754 0.195809118364381 0 -0.2003336104961139 0.19384034462240371 0 -0.20611549302592491 0.21291592806133039 0 -0.2003336104961139 0.19384034462240371 0 -0.18683081466198309 0.20362583398079809 0 -0.18382793315299331 0.1876569488741093 0 -0.19642049273232279 0.1813540608711384 0 -0.2003336104961139 0.19384034462240371 0 -0.18382793315299331 0.1876569488741093 0 -0.2003336104961139 0.19384034462240371 0 -0.20611549302592491 0.21291592806133039 0 -0.18683081466198309 0.20362583398079809 0 -0.18822134577153571 0.2176104325969169 0 -0.20611549302592491 0.21291592806133039 0 -0.18683081466198309 0.20362583398079809 0 -0.221962760011754 0.195809118364381 0 -0.20611549302592491 0.21291592806133039 0 -0.222519743973569 0.22623374850487771 0 -0.20611549302592491 0.21291592806133039 0 -0.21125157695915939 0.2340514294511625 0 -0.20611549302592491 0.21291592806133039 0 -0.21125157695915939 0.2340514294511625 0 -0.1981212573248321 0.2303345044091884 0 -0.18822134577153571 0.2176104325969169 0 -0.20611549302592491 0.21291592806133039 0 -0.1981212573248321 0.2303345044091884 0 -0.18822134577153571 0.2176104325969169 0 -0.1981212573248321 0.2303345044091884 0 -0.17679012993229179 0.22606037820060459 0 -0.1857497979664898 0.25642229956071261 0 -0.1981212573248321 0.2303345044091884 0 -0.18126996394939029 0.24124133888065871 0 -0.20046331167089321 0.25247574909317411 0 -0.1857497979664898 0.25642229956071261 0 -0.1981212573248321 0.2303345044091884 0 -0.1857497979664898 0.25642229956071261 0 -0.1981212573248321 0.2303345044091884 0 -0.20046331167089321 0.25247574909317411 0 -0.1981212573248321 0.2303345044091884 0 -0.21118785677136451 0.24749749729373921 0 -0.21125157695915939 0.2340514294511625 0 -0.1981212573248321 0.2303345044091884 0 -0.21118785677136451 0.24749749729373921 0 -0.22277595510907569 0.24180466171435519 0 -0.21125157695915939 0.2340514294511625 0 -0.21118785677136451 0.24749749729373921 0 -0.17088819938583719 0.25139470107571699 0 -0.16154460948003191 0.23860046487887329 0 -0.18126996394939029 0.24124133888065871 0 -0.17088819938583719 0.25139470107571699 0 -0.1579895210430797 0.25382037719868611 0 -0.16154460948003191 0.23860046487887329 0 -0.16154460948003191 0.23860046487887329 0 -0.18126996394939029 0.24124133888065871 0 -0.17679012993229179 0.22606037820060459 0 -0.1857497979664898 0.25642229956071261 0 -0.17088819938583719 0.25139470107571699 0 -0.18126996394939029 0.24124133888065871 0 -0.1857497979664898 0.25642229956071261 0 -0.18126996394939029 0.24124133888065871 0 -0.18126996394939029 0.24124133888065871 0 -0.17679012993229179 0.22606037820060459 0 -0.1981212573248321 0.2303345044091884 0 -0.18126996394939029 0.24124133888065871 0 -0.17679012993229179 0.22606037820060459 0 -0.16154460948003191 0.23860046487887329 0 -0.17679012993229179 0.22606037820060459 0 -0.156763639745061 0.21851577920012649 0 -0.17679012993229179 0.22606037820060459 0 -0.156763639745061 0.21851577920012649 0 -0.1712831847482835 0.211394945695667 0 -0.156763639745061 0.21851577920012649 0 -0.1712831847482835 0.211394945695667 0 -0.1514910981309214 0.20080049225832561 0 -0.18822134577153571 0.2176104325969169 0 -0.1712831847482835 0.211394945695667 0 -0.18683081466198309 0.20362583398079809 0 -0.18822134577153571 0.2176104325969169 0 -0.17679012993229179 0.22606037820060459 0 -0.1712831847482835 0.211394945695667 0 -0.1712831847482835 0.211394945695667 0 -0.18683081466198309 0.20362583398079809 0 -0.16772410192977569 0.19320153366723941 0 -0.18683081466198309 0.20362583398079809 0 -0.18382793315299331 0.1876569488741093 0 -0.16772410192977569 0.19320153366723941 0 -0.1712831847482835 0.211394945695667 0 -0.16772410192977569 0.19320153366723941 0 -0.1514910981309214 0.20080049225832561 0 -0.1514910981309214 0.20080049225832561 0 -0.14717572861377709 0.1807084670668517 0 -0.13010954049247381 0.18671478833220739 0 -0.1514910981309214 0.20080049225832561 0 -0.13010954049247381 0.18671478833220739 0 -0.16772410192977569 0.19320153366723941 0 -0.1514910981309214 0.20080049225832561 0 -0.14717572861377709 0.1807084670668517 0 -0.1362316186626826 0.2073040340304417 0 -0.13010954049247381 0.18671478833220739 0 -0.1175259083851323 0.20447534247552571 0 -0.1514910981309214 0.20080049225832561 0 -0.1362316186626826 0.2073040340304417 0 -0.13010954049247381 0.18671478833220739 0 -0.1362316186626826 0.2073040340304417 0 -0.12609896820612071 0.22624564951922349 0 -0.1175259083851323 0.20447534247552571 0 -0.156763639745061 0.21851577920012649 0 -0.1514910981309214 0.20080049225832561 0 -0.1362316186626826 0.2073040340304417 0 -0.156763639745061 0.21851577920012649 0 -0.1362316186626826 0.2073040340304417 0 -0.14496681372551201 0.23063192408172389 0 -0.16154460948003191 0.23860046487887329 0 -0.156763639745061 0.21851577920012649 0 -0.14496681372551201 0.23063192408172389 0 -0.1362316186626826 0.2073040340304417 0 -0.14496681372551201 0.23063192408172389 0 -0.12609896820612071 0.22624564951922349 0 -0.11823488744769579 0.25092633060682701 0 -0.12609896820612071 0.22624564951922349 0 -0.1393320900114447 0.24678894713063271 0 -0.14496681372551201 0.23063192408172389 0 -0.12609896820612071 0.22624564951922349 0 -0.1393320900114447 0.24678894713063271 0 -0.12609896820612071 0.22624564951922349 0 -0.1393320900114447 0.24678894713063271 0 -0.16154460948003191 0.23860046487887329 0 -0.14496681372551201 0.23063192408172389 0 -0.1393320900114447 0.24678894713063271 0 -0.1579895210430797 0.25382037719868611 0 -0.16154460948003191 0.23860046487887329 0 -0.1393320900114447 0.24678894713063271 0 -0.16119777415788331 0.15605993714616559 0 -0.16665653722895429 0.13840318380028149 0 -0.14821682194926239 0.1430007822828932 0 -0.16119777415788331 0.15605993714616559 0 -0.16665653722895429 0.13840318380028149 0 -0.17510919268122219 0.1509700316657292 0 -0.1754553970277172 0.12033603672573789 0 -0.15662730128622021 0.1201098577388274 0 -0.16665653722895429 0.13840318380028149 0 -0.15662730128622021 0.1201098577388274 0 -0.16665653722895429 0.13840318380028149 0 -0.14821682194926239 0.1430007822828932 0 -0.1754553970277172 0.12033603672573789 0 -0.16665653722895429 0.13840318380028149 0 -0.18249198004016079 0.13743482787919281 0 -0.1754553970277172 0.12033603672573789 0 -0.19212583708804479 0.1243415970786777 0 -0.18249198004016079 0.13743482787919281 0 -0.16665653722895429 0.13840318380028149 0 -0.18249198004016079 0.13743482787919281 0 -0.17510919268122219 0.1509700316657292 0 -0.18249198004016079 0.13743482787919281 0 -0.17510919268122219 0.1509700316657292 0 -0.1869585438686692 0.14946788246332571 0 -0.17510919268122219 0.1509700316657292 0 -0.1869585438686692 0.14946788246332571 0 -0.18279220707304569 0.16025901001241549 0 -0.19309310732031401 0.1606228952257015 0 -0.18279220707304569 0.16025901001241549 0 -0.18510512116445399 0.1711182689090899 0 -0.18510512116445399 0.1711182689090899 0 -0.1725489899316609 0.16363140358517961 0 -0.1658006600236078 0.17462983993289469 0 -0.18279220707304569 0.16025901001241549 0 -0.18510512116445399 0.1711182689090899 0 -0.1725489899316609 0.16363140358517961 0 -0.17510919268122219 0.1509700316657292 0 -0.18279220707304569 0.16025901001241549 0 -0.1725489899316609 0.16363140358517961 0 -0.18382793315299331 0.1876569488741093 0 -0.16772410192977569 0.19320153366723941 0 -0.1658006600236078 0.17462983993289469 0 -0.18382793315299331 0.1876569488741093 0 -0.18510512116445399 0.1711182689090899 0 -0.1658006600236078 0.17462983993289469 0 -0.16772410192977569 0.19320153366723941 0 -0.1658006600236078 0.17462983993289469 0 -0.14717572861377709 0.1807084670668517 0 -0.16119777415788331 0.15605993714616559 0 -0.1725489899316609 0.16363140358517961 0 -0.1658006600236078 0.17462983993289469 0 -0.16119777415788331 0.15605993714616559 0 -0.17510919268122219 0.1509700316657292 0 -0.1725489899316609 0.16363140358517961 0 -0.16119777415788331 0.15605993714616559 0 -0.1658006600236078 0.17462983993289469 0 -0.14133466985692059 0.162968191625805 0 -0.1658006600236078 0.17462983993289469 0 -0.14133466985692059 0.162968191625805 0 -0.14717572861377709 0.1807084670668517 0 -0.14133466985692059 0.162968191625805 0 -0.14717572861377709 0.1807084670668517 0 -0.1294561438266193 0.17195529458951769 0 -0.14717572861377709 0.1807084670668517 0 -0.13010954049247381 0.18671478833220739 0 -0.1294561438266193 0.17195529458951769 0 -0.14133466985692059 0.162968191625805 0 -0.1294561438266193 0.17195529458951769 0 -0.1199327973158998 0.15675594151663391 0 -0.14133466985692059 0.162968191625805 0 -0.12953502497488101 0.140992887301783 0 -0.1199327973158998 0.15675594151663391 0 -0.14133466985692059 0.162968191625805 0 -0.12953502497488101 0.140992887301783 0 -0.14821682194926239 0.1430007822828932 0 -0.16119777415788331 0.15605993714616559 0 -0.14133466985692059 0.162968191625805 0 -0.14821682194926239 0.1430007822828932 0 -0.15662730128622021 0.1201098577388274 0 -0.13525827670093529 0.1213048707276082 0 -0.14821682194926239 0.1430007822828932 0 -0.13525827670093529 0.1213048707276082 0 -0.12953502497488101 0.140992887301783 0 -0.1118527583121799 0.1210897585611234 0 -0.13525827670093529 0.1213048707276082 0 -0.12953502497488101 0.140992887301783 0 -0.14821682194926239 0.1430007822828932 0 -0.12953502497488101 0.140992887301783 0 -0.1118527583121799 0.1210897585611234 0 -0.12953502497488101 0.140992887301783 0 -0.11197979591548191 0.1392515461470559 0 -0.1118527583121799 0.1210897585611234 0 -0.11197979591548191 0.1392515461470559 0 -0.096919953399380337 0.1298870139061426 0 -0.1118527583121799 0.1210897585611234 0 -0.11197979591548191 0.1392515461470559 0 -0.096919953399380337 0.1298870139061426 0 -0.1028239681267013 0.1512580491561171 0 -0.096919953399380337 0.1298870139061426 0 -0.1028239681267013 0.1512580491561171 0 -0.096919953399380337 0.1298870139061426 0 -0.1028239681267013 0.1512580491561171 0 -0.086769469438017804 0.1423613123004854 0 -0.12953502497488101 0.140992887301783 0 -0.11197979591548191 0.1392515461470559 0 -0.1199327973158998 0.15675594151663391 0 -0.11197979591548191 0.1392515461470559 0 -0.1028239681267013 0.1512580491561171 0 -0.1199327973158998 0.15675594151663391 0 -0.1028239681267013 0.1512580491561171 0 -0.1199327973158998 0.15675594151663391 0 -0.108727982854025 0.17262908440609079 0 -0.1294561438266193 0.17195529458951769 0 -0.1199327973158998 0.15675594151663391 0 -0.108727982854025 0.17262908440609079 0 -0.108727982854025 0.17262908440609079 0 -0.1131269456195773 0.18855221344080861 0 -0.13010954049247381 0.18671478833220739 0 -0.1294561438266193 0.17195529458951769 0 -0.108727982854025 0.17262908440609079 0 -0.13010954049247381 0.18671478833220739 0 -0.108727982854025 0.17262908440609079 0 -0.1131269456195773 0.18855221344080861 0 -0.13010954049247381 0.18671478833220739 0 -0.108727982854025 0.17262908440609079 0 -0.108727982854025 0.17262908440609079 0 -0.091406841854779791 0.18166999720331359 0 -0.1131269456195773 0.18855221344080861 0 -0.108727982854025 0.17262908440609079 0 -0.087186764884325169 0.15843819973529299 0 -0.1028239681267013 0.1512580491561171 0 -0.108727982854025 0.17262908440609079 0 -0.108727982854025 0.17262908440609079 0 -0.087186764884325169 0.15843819973529299 0 -0.091406841854779791 0.18166999720331359 0 -0.1028239681267013 0.1512580491561171 0 -0.108727982854025 0.17262908440609079 0 -0.087186764884325169 0.15843819973529299 0 -0.087186764884325169 0.15843819973529299 0 -0.091406841854779791 0.18166999720331359 0 -0.07354276525200272 0.1705049952588869 0 -0.091406841854779791 0.18166999720331359 0 -0.07354276525200272 0.1705049952588869 0 -0.070292852622092672 0.1968074681980469 0 -0.07354276525200272 0.1705049952588869 0 -0.070292852622092672 0.1968074681980469 0 -0.053998276837012603 0.1792871329677572 0 -0.07354276525200272 0.1705049952588869 0 -0.070292852622092672 0.1968074681980469 0 -0.07354276525200272 0.1705049952588869 0 -0.064450501199886392 0.15999635115773231 0 -0.053998276837012603 0.1792871329677572 0 -0.087186764884325169 0.15843819973529299 0 -0.07354276525200272 0.1705049952588869 0 -0.064450501199886392 0.15999635115773231 0 -0.087186764884325169 0.15843819973529299 0 -0.064450501199886392 0.15999635115773231 0 -0.065645546914624209 0.14424731506449709 0 -0.087186764884325169 0.15843819973529299 0 -0.065645546914624209 0.14424731506449709 0 -0.065645546914624209 0.14424731506449709 0 -0.07813283263880999 0.12879484813772171 0 -0.061768589919067869 0.12659298458602891 0 -0.065645546914624209 0.14424731506449709 0 -0.07813283263880999 0.12879484813772171 0 -0.086769469438017804 0.1423613123004854 0 -0.096919953399380337 0.1298870139061426 0 -0.07813283263880999 0.12879484813772171 0 -0.086769469438017804 0.1423613123004854 0 -0.096919953399380337 0.1298870139061426 0 -0.07813283263880999 0.12879484813772171 0 -0.088091985792771277 0.118503916156941 0 -0.1028239681267013 0.1512580491561171 0 -0.087186764884325169 0.15843819973529299 0 -0.086769469438017804 0.1423613123004854 0 -0.087186764884325169 0.15843819973529299 0 -0.065645546914624209 0.14424731506449709 0 -0.086769469438017804 0.1423613123004854 0 -0.09789573288757461 0.25789258425024503 0 -0.11823488744769579 0.25092633060682701 0 -0.1051678422620468 0.23792273631104341 0 -0.09789573288757461 0.25789258425024503 0 -0.1051678422620468 0.23792273631104341 0 -0.084512925013609158 0.23954854694493499 0 -0.11823488744769579 0.25092633060682701 0 -0.12609896820612071 0.22624564951922349 0 -0.1051678422620468 0.23792273631104341 0 -0.12609896820612071 0.22624564951922349 0 -0.1051678422620468 0.23792273631104341 0 -0.11151873583086221 0.21941411484770801 0 -0.1051678422620468 0.23792273631104341 0 -0.09653718458850695 0.22531378979276559 0 -0.084512925013609158 0.23954854694493499 0 -0.1051678422620468 0.23792273631104341 0 -0.11151873583086221 0.21941411484770801 0 -0.09653718458850695 0.22531378979276559 0 -0.11151873583086221 0.21941411484770801 0 -0.1175259083851323 0.20447534247552571 0 -0.095563739896656022 0.20308802218075539 0 -0.11151873583086221 0.21941411484770801 0 -0.09653718458850695 0.22531378979276559 0 -0.095563739896656022 0.20308802218075539 0 -0.12609896820612071 0.22624564951922349 0 -0.11151873583086221 0.21941411484770801 0 -0.1175259083851323 0.20447534247552571 0 -0.1175259083851323 0.20447534247552571 0 -0.1131269456195773 0.18855221344080861 0 -0.13010954049247381 0.18671478833220739 0 -0.1175259083851323 0.20447534247552571 0 -0.1131269456195773 0.18855221344080861 0 -0.091406841854779791 0.18166999720331359 0 -0.1131269456195773 0.18855221344080861 0 -0.095563739896656022 0.20308802218075539 0 -0.1175259083851323 0.20447534247552571 0 -0.1131269456195773 0.18855221344080861 0 -0.095563739896656022 0.20308802218075539 0 -0.091406841854779791 0.18166999720331359 0 -0.095563739896656022 0.20308802218075539 0 -0.070292852622092672 0.1968074681980469 0 -0.070292852622092672 0.1968074681980469 0 -0.067042939992182624 0.22310994113720681 0 -0.070292852622092672 0.1968074681980469 0 -0.082482444092426069 0.21494567644010881 0 -0.067042939992182624 0.22310994113720681 0 -0.09653718458850695 0.22531378979276559 0 -0.095563739896656022 0.20308802218075539 0 -0.082482444092426069 0.21494567644010881 0 -0.095563739896656022 0.20308802218075539 0 -0.070292852622092672 0.1968074681980469 0 -0.082482444092426069 0.21494567644010881 0 -0.09653718458850695 0.22531378979276559 0 -0.082482444092426069 0.21494567644010881 0 -0.084512925013609158 0.23954854694493499 0 -0.082482444092426069 0.21494567644010881 0 -0.067042939992182624 0.22310994113720681 0 -0.084512925013609158 0.23954854694493499 0 -0.079453131267273241 0.2572859628985697 0 -0.063793027362272589 0.24941241407636661 0 -0.084512925013609158 0.23954854694493499 0 -0.067042939992182624 0.22310994113720681 0 -0.063793027362272589 0.24941241407636661 0 -0.067042939992182624 0.22310994113720681 0 -0.063793027362272589 0.24941241407636661 0 -0.084512925013609158 0.23954854694493499 0 -0.044386290936714409 0.25359228382257271 0 -0.046896008305284023 0.23267294425450061 0 -0.02914888987534385 0.24174449408076551 0 -0.067042939992182624 0.22310994113720681 0 -0.063793027362272589 0.24941241407636661 0 -0.046896008305284023 0.23267294425450061 0 -0.044386290936714409 0.25359228382257271 0 -0.063793027362272589 0.24941241407636661 0 -0.046896008305284023 0.23267294425450061 0 -0.067042939992182624 0.22310994113720681 0 -0.046896008305284023 0.23267294425450061 0 -0.046701834982941982 0.20637870382643039 0 -0.046896008305284023 0.23267294425450061 0 -0.046701834982941982 0.20637870382643039 0 -0.02532064660254953 0.2225768129891065 0 -0.046896008305284023 0.23267294425450061 0 -0.02532064660254953 0.2225768129891065 0 -0.02914888987534385 0.24174449408076551 0 -0.070292852622092672 0.1968074681980469 0 -0.067042939992182624 0.22310994113720681 0 -0.046701834982941982 0.20637870382643039 0 -0.070292852622092672 0.1968074681980469 0 -0.046701834982941982 0.20637870382643039 0 -0.053998276837012603 0.1792871329677572 0 -0.046701834982941982 0.20637870382643039 0 -0.034846359881975528 0.18866265169937721 0 -0.020355470694717569 0.2004758844278417 0 -0.046701834982941982 0.20637870382643039 0 -0.034846359881975528 0.18866265169937721 0 -0.053998276837012603 0.1792871329677572 0 -0.034846359881975528 0.18866265169937721 0 -0.020355470694717569 0.2004758844278417 0 -0.014991354609794699 0.17948178895510611 0 -0.020355470694717569 0.2004758844278417 0 -0.00048814242826103899 0.21723751157582399 0 0.0042412746412692189 0.18989592029497029 0 -0.020355470694717569 0.2004758844278417 0 -0.014991354609794699 0.17948178895510611 0 0.0042412746412692189 0.18989592029497029 0 -0.020355470694717569 0.2004758844278417 0 -0.00048814242826103899 0.21723751157582399 0 -0.02532064660254953 0.2225768129891065 0 -0.046701834982941982 0.20637870382643039 0 -0.020355470694717569 0.2004758844278417 0 -0.02532064660254953 0.2225768129891065 0 -0.00048814242826103899 0.21723751157582399 0 -0.02532064660254953 0.2225768129891065 0 -0.01212773407442894 0.2433893394835768 0 -0.00048814242826103899 0.21723751157582399 0 -0.01212773407442894 0.2433893394835768 0 0.009710696962624589 0.24573559211884061 0 -0.02290087045232821 0.26206178737561919 0 -0.01212773407442894 0.2433893394835768 0 -0.02914888987534385 0.24174449408076551 0 -0.02532064660254953 0.2225768129891065 0 -0.01212773407442894 0.2433893394835768 0 -0.02914888987534385 0.24174449408076551 0 -0.042345233689464752 0.15394517702541161 0 -0.03432092813925091 0.14069121093775419 0 -0.026676530171916329 0.15952906589542129 0 -0.042345233689464752 0.15394517702541161 0 -0.03432092813925091 0.14069121093775419 0 -0.049552486746319083 0.1388536016433935 0 -0.049552486746319083 0.1388536016433935 0 -0.024405707955745828 0.1289837093156366 0 -0.049552486746319083 0.1388536016433935 0 -0.037644943143971848 0.12316619797238069 0 -0.04788051183926726 0.1198166198789002 0 -0.03432092813925091 0.14069121093775419 0 -0.049552486746319083 0.1388536016433935 0 -0.024405707955745828 0.1289837093156366 0 -0.049552486746319083 0.1388536016433935 0 -0.02828894468120283 0.1260212842434664 0 -0.037644943143971848 0.12316619797238069 0 -0.049552486746319083 0.1388536016433935 0 -0.024405707955745828 0.1289837093156366 0 -0.02828894468120283 0.1260212842434664 0 -0.065645546914624209 0.14424731506449709 0 -0.049552486746319083 0.1388536016433935 0 -0.061768589919067869 0.12659298458602891 0 -0.049552486746319083 0.1388536016433935 0 -0.061768589919067869 0.12659298458602891 0 -0.04788051183926726 0.1198166198789002 0 -0.064450501199886392 0.15999635115773231 0 -0.065645546914624209 0.14424731506449709 0 -0.054955403313377567 0.15143430367820351 0 -0.065645546914624209 0.14424731506449709 0 -0.049552486746319083 0.1388536016433935 0 -0.054955403313377567 0.15143430367820351 0 -0.042345233689464752 0.15394517702541161 0 -0.049552486746319083 0.1388536016433935 0 -0.054955403313377567 0.15143430367820351 0 -0.042345233689464752 0.15394517702541161 0 -0.054955403313377567 0.15143430367820351 0 -0.050416069503565149 0.16298200179957781 0 -0.064450501199886392 0.15999635115773231 0 -0.050416069503565149 0.16298200179957781 0 -0.053998276837012603 0.1792871329677572 0 -0.050416069503565149 0.16298200179957781 0 -0.053998276837012603 0.1792871329677572 0 -0.037656822072145241 0.1707752382605349 0 -0.064450501199886392 0.15999635115773231 0 -0.054955403313377567 0.15143430367820351 0 -0.050416069503565149 0.16298200179957781 0 -0.034846359881975528 0.18866265169937721 0 -0.053998276837012603 0.1792871329677572 0 -0.037656822072145241 0.1707752382605349 0 -0.042345233689464752 0.15394517702541161 0 -0.050416069503565149 0.16298200179957781 0 -0.037656822072145241 0.1707752382605349 0 -0.042345233689464752 0.15394517702541161 0 -0.037656822072145241 0.1707752382605349 0 -0.026676530171916329 0.15952906589542129 0 -0.026676530171916329 0.15952906589542129 0 -0.01182080676009792 0.16417551145435541 0 -0.019697580841174959 0.14533178194993851 0 -0.037656822072145241 0.1707752382605349 0 -0.026676530171916329 0.15952906589542129 0 -0.014991354609794699 0.17948178895510611 0 -0.026676530171916329 0.15952906589542129 0 -0.014991354609794699 0.17948178895510611 0 -0.01182080676009792 0.16417551145435541 0 -0.034846359881975528 0.18866265169937721 0 -0.037656822072145241 0.1707752382605349 0 -0.014991354609794699 0.17948178895510611 0 -0.014991354609794699 0.17948178895510611 0 0.0050070707957726238 0.16765803364862131 0 0.0042412746412692189 0.18989592029497029 0 -0.01182080676009792 0.16417551145435541 0 -0.0036681157307635868 0.1524260454369869 0 0.0050070707957726238 0.16765803364862131 0 -0.014991354609794699 0.17948178895510611 0 -0.01182080676009792 0.16417551145435541 0 0.0050070707957726238 0.16765803364862131 0 -0.0036681157307635868 0.1524260454369869 0 -0.0096102303011759461 0.14218213131791471 0 -0.019697580841174959 0.14533178194993851 0 -0.0036681157307635868 0.1524260454369869 0 -0.0096102303011759461 0.14218213131791471 0 0.006713219380602424 0.1383015912013329 0 -0.01182080676009792 0.16417551145435541 0 -0.0036681157307635868 0.1524260454369869 0 -0.019697580841174959 0.14533178194993851 0 -0.03432092813925091 0.14069121093775419 0 -0.026676530171916329 0.15952906589542129 0 -0.019697580841174959 0.14533178194993851 0 -0.0096102303011759461 0.14218213131791471 0 -0.019697580841174959 0.14533178194993851 0 -0.01775132540299491 0.13738045819216541 0 -0.03432092813925091 0.14069121093775419 0 -0.019697580841174959 0.14533178194993851 0 -0.024652064448042049 0.13793764762966179 0 -0.024405707955745828 0.1289837093156366 0 -0.01775132540299491 0.13738045819216541 0 -0.0085089402991380403 0.13251615622957449 0 -0.03432092813925091 0.14069121093775419 0 -0.024405707955745828 0.1289837093156366 0 -0.024652064448042049 0.13793764762966179 0 -0.024405707955745828 0.1289837093156366 0 -0.024652064448042049 0.13793764762966179 0 -0.01775132540299491 0.13738045819216541 0 -0.019697580841174959 0.14533178194993851 0 -0.024652064448042049 0.13793764762966179 0 -0.01775132540299491 0.13738045819216541 0 -0.024405707955745828 0.1289837093156366 0 -0.0085089402991380403 0.13251615622957449 0 0.0007410708348276028 0.11911381698787971 0 -0.0096102303011759461 0.14218213131791471 0 -0.0085089402991380403 0.13251615622957449 0 0.006713219380602424 0.1383015912013329 0 -0.0096102303011759461 0.14218213131791471 0 -0.01775132540299491 0.13738045819216541 0 -0.0085089402991380403 0.13251615622957449 0 -0.0085089402991380403 0.13251615622957449 0 0.00056212382691866059 0.12881435641206609 0 0.006713219380602424 0.1383015912013329 0 -0.0085089402991380403 0.13251615622957449 0 0.0007410708348276028 0.11911381698787971 0 0.00056212382691866059 0.12881435641206609 0 -0.024405707955745828 0.1289837093156366 0 -0.0074465128385103234 0.1152613033256259 0 0.0007410708348276028 0.11911381698787971 0 -0.024405707955745828 0.1289837093156366 0 0.0007410708348276028 0.11911381698787971 0 -0.0074465128385103234 0.1152613033256259 0 -0.011225002387721041 0.1065841442885854 0 -0.01598236591708423 0.1132846731781179 0 -0.00085215776453518373 0.1058897622738819 0 -0.0031273369336706478 0.1010262542884455 0 -0.011225002387721041 0.1065841442885854 0 -0.0074465128385103234 0.1152613033256259 0 -0.00085215776453518373 0.1058897622738819 0 -0.011225002387721041 0.1065841442885854 0 -0.0031273369336706478 0.1010262542884455 0 -0.0069860965502948971 0.095520655059115667 0 0.0098686901731930184 0.09436412890815235 0 -0.0031273369336706478 0.1010262542884455 0 -0.0069860965502948971 0.095520655059115667 0 -0.0098413164082908691 0.1002637507916788 0 -0.0069860965502948971 0.095520655059115667 0 -0.0098413164082908691 0.1002637507916788 0 -0.0170928090131648 0.096480550664196141 0 -0.0098413164082908691 0.1002637507916788 0 -0.011225002387721041 0.1065841442885854 0 -0.0170928090131648 0.096480550664196141 0 -0.0031273369336706478 0.1010262542884455 0 -0.0098413164082908691 0.1002637507916788 0 -0.011225002387721041 0.1065841442885854 0 -0.011225002387721041 0.1065841442885854 0 -0.018751327420817931 0.1059759144271802 0 -0.01598236591708423 0.1132846731781179 0 -0.018751327420817931 0.1059759144271802 0 -0.027096309761066611 0.10095774299902011 0 -0.022406278534759041 0.11359895097498091 0 -0.011225002387721041 0.1065841442885854 0 -0.018751327420817931 0.1059759144271802 0 -0.0170928090131648 0.096480550664196141 0 -0.018751327420817931 0.1059759144271802 0 -0.0170928090131648 0.096480550664196141 0 -0.027096309761066611 0.10095774299902011 0 -0.027096309761066611 0.10095774299902011 0 -0.022406278534759041 0.11359895097498091 0 -0.034756563499140532 0.11286584235413979 0 -0.030774182464768561 0.11891306888624199 0 -0.022406278534759041 0.11359895097498091 0 -0.034756563499140532 0.11286584235413979 0 -0.024405707955745828 0.1289837093156366 0 -0.02828894468120283 0.1260212842434664 0 -0.0074465128385103234 0.1152613033256259 0 -0.02828894468120283 0.1260212842434664 0 -0.0074465128385103234 0.1152613033256259 0 -0.01598236591708423 0.1132846731781179 0 -0.02828894468120283 0.1260212842434664 0 -0.0074465128385103234 0.1152613033256259 0 -0.02828894468120283 0.1260212842434664 0 -0.030774182464768561 0.11891306888624199 0 -0.022406278534759041 0.11359895097498091 0 -0.02828894468120283 0.1260212842434664 0 -0.01598236591708423 0.1132846731781179 0 -0.022406278534759041 0.11359895097498091 0 -0.018751327420817931 0.1059759144271802 0 -0.01598236591708423 0.1132846731781179 0 -0.022406278534759041 0.11359895097498091 0 -0.017041114139938991 0.069291930274799532 0 -0.0037825856943133661 0.055130602642442419 0 0.0013331037480066789 0.06983300394548736 0 -0.010464629370286921 0.086457433232338371 0 -0.017041114139938991 0.069291930274799532 0 0.0013331037480066789 0.06983300394548736 0 -0.0069860965502948971 0.095520655059115667 0 -0.010464629370286921 0.086457433232338371 0 0.0098686901731930184 0.09436412890815235 0 -0.010464629370286921 0.086457433232338371 0 0.0013331037480066789 0.06983300394548736 0 -0.010464629370286921 0.086457433232338371 0 0.0098686901731930184 0.09436412890815235 0 -0.0069860965502948971 0.095520655059115667 0 -0.0170928090131648 0.096480550664196141 0 -0.010464629370286921 0.086457433232338371 0 -0.0170928090131648 0.096480550664196141 0 -0.010464629370286921 0.086457433232338371 0 -0.031959384403173433 0.080032035305190763 0 -0.010464629370286921 0.086457433232338371 0 -0.017041114139938991 0.069291930274799532 0 -0.031959384403173433 0.080032035305190763 0 -0.0170928090131648 0.096480550664196141 0 -0.027096309761066611 0.10095774299902011 0 -0.031959384403173433 0.080032035305190763 0 -0.010464629370286921 0.086457433232338371 0 -0.031959384403173433 0.080032035305190763 0 -0.017041114139938991 0.069291930274799532 0 -0.031959384403173433 0.080032035305190763 0 -0.040516101631821622 0.051015801456774729 0 -0.052624013436015707 0.07605098692390759 0 -0.040516101631821622 0.051015801456774729 0 -0.031959384403173433 0.080032035305190763 0 -0.052624013436015707 0.07605098692390759 0 -0.040516101631821622 0.051015801456774729 0 -0.031959384403173433 0.080032035305190763 0 -0.052624013436015707 0.07605098692390759 0 -0.045914117500638077 0.10102195769503031 0 -0.052624013436015707 0.07605098692390759 0 -0.064731925240209612 0.1010861723910404 0 -0.052624013436015707 0.07605098692390759 0 -0.064731925240209612 0.1010861723910404 0 -0.069058810763592313 0.086966886578907637 0 -0.052624013436015707 0.07605098692390759 0 -0.045914117500638077 0.10102195769503031 0 -0.064731925240209612 0.1010861723910404 0 -0.034756563499140532 0.11286584235413979 0 -0.045914117500638077 0.10102195769503031 0 -0.04788051183926726 0.1198166198789002 0 -0.037644943143971848 0.12316619797238069 0 -0.034756563499140532 0.11286584235413979 0 -0.04788051183926726 0.1198166198789002 0 -0.02828894468120283 0.1260212842434664 0 -0.030774182464768561 0.11891306888624199 0 -0.037644943143971848 0.12316619797238069 0 -0.030774182464768561 0.11891306888624199 0 -0.037644943143971848 0.12316619797238069 0 -0.034756563499140532 0.11286584235413979 0 -0.027096309761066611 0.10095774299902011 0 -0.045914117500638077 0.10102195769503031 0 -0.027096309761066611 0.10095774299902011 0 -0.034756563499140532 0.11286584235413979 0 -0.045914117500638077 0.10102195769503031 0 -0.027096309761066611 0.10095774299902011 0 -0.031959384403173433 0.080032035305190763 0 -0.045914117500638077 0.10102195769503031 0 -0.045914117500638077 0.10102195769503031 0 -0.058345504687738539 0.1126916489630761 0 -0.064731925240209612 0.1010861723910404 0 -0.045914117500638077 0.10102195769503031 0 -0.064731925240209612 0.1010861723910404 0 -0.045914117500638077 0.10102195769503031 0 -0.058345504687738539 0.1126916489630761 0 -0.04788051183926726 0.1198166198789002 0 -0.061768589919067869 0.12659298458602891 0 -0.058345504687738539 0.1126916489630761 0 -0.04788051183926726 0.1198166198789002 0 -0.061768589919067869 0.12659298458602891 0 -0.058345504687738539 0.1126916489630761 0 -0.071432378939509864 0.114940510264381 0 -0.07813283263880999 0.12879484813772171 0 -0.061768589919067869 0.12659298458602891 0 -0.071432378939509864 0.114940510264381 0 -0.058345504687738539 0.1126916489630761 0 -0.071432378939509864 0.114940510264381 0 -0.064731925240209612 0.1010861723910404 0 -0.07813283263880999 0.12879484813772171 0 -0.071432378939509864 0.114940510264381 0 -0.071432378939509864 0.114940510264381 0 -0.088091985792771277 0.118503916156941 0 -0.094170491649478105 0.1011866298204646 0 -0.088091985792771277 0.118503916156941 0 -0.097758797288452395 0.11766682961116789 0 -0.094170491649478105 0.1011866298204646 0 -0.07813283263880999 0.12879484813772171 0 -0.071432378939509864 0.114940510264381 0 -0.088091985792771277 0.118503916156941 0 -0.064731925240209612 0.1010861723910404 0 -0.083480206903481097 0.089153663819406939 0 -0.094170491649478105 0.1011866298204646 0 -0.064731925240209612 0.1010861723910404 0 -0.094170491649478105 0.1011866298204646 0 -0.083480206903481097 0.089153663819406939 0 -0.094170491649478105 0.1011866298204646 0 -0.071432378939509864 0.114940510264381 0 -0.064731925240209612 0.1010861723910404 0 -0.094170491649478105 0.1011866298204646 0 -0.071432378939509864 0.114940510264381 0 -0.064731925240209612 0.1010861723910404 0 -0.052624013436015707 0.07605098692390759 0 -0.069058810763592313 0.086966886578907637 0 -0.072789922157483283 0.077120697818350029 0 -0.064731925240209612 0.1010861723910404 0 -0.069058810763592313 0.086966886578907637 0 -0.083480206903481097 0.089153663819406939 0 -0.069058810763592313 0.086966886578907637 0 -0.072789922157483283 0.077120697818350029 0 -0.083480206903481097 0.089153663819406939 0 -0.052624013436015707 0.07605098692390759 0 -0.072789922157483283 0.077120697818350029 0 -0.062752654984247772 0.057653373950896938 0 -0.072789922157483283 0.077120697818350029 0 -0.078571823351542947 0.062483828144281162 0 -0.062752654984247772 0.057653373950896938 0 -0.08537360698586581 0.076396642145524052 0 -0.094444592832663141 0.067413449075391638 0 -0.078571823351542947 0.062483828144281162 0 -0.08537360698586581 0.076396642145524052 0 -0.099123267583345373 0.085203814295893271 0 -0.094444592832663141 0.067413449075391638 0 -0.072789922157483283 0.077120697818350029 0 -0.08537360698586581 0.076396642145524052 0 -0.078571823351542947 0.062483828144281162 0 -0.08537360698586581 0.076396642145524052 0 -0.083480206903481097 0.089153663819406939 0 -0.099123267583345373 0.085203814295893271 0 -0.083480206903481097 0.089153663819406939 0 -0.099123267583345373 0.085203814295893271 0 -0.094170491649478105 0.1011866298204646 0 -0.072789922157483283 0.077120697818350029 0 -0.08537360698586581 0.076396642145524052 0 -0.083480206903481097 0.089153663819406939 0 -0.072789922157483283 0.077120697818350029 0 -0.083480206903481097 0.089153663819406939 0 -0.099123267583345373 0.085203814295893271 0 -0.1143827619903883 0.06642533080049022 0 -0.1131839339682776 0.09480383020997929 0 -0.099123267583345373 0.085203814295893271 0 -0.1131839339682776 0.09480383020997929 0 -0.1055078094663405 0.095580100587896663 0 -0.099123267583345373 0.085203814295893271 0 -0.094444592832663141 0.067413449075391638 0 -0.1143827619903883 0.06642533080049022 0 -0.1143827619903883 0.06642533080049022 0 -0.1131839339682776 0.09480383020997929 0 -0.13269411571008291 0.0814134514373486 0 -0.1198294151108488 0.1012741894338294 0 -0.1131839339682776 0.09480383020997929 0 -0.13269411571008291 0.0814134514373486 0 -0.1143827619903883 0.06642533080049022 0 -0.1131839339682776 0.09480383020997929 0 -0.1198294151108488 0.1012741894338294 0 -0.1131839339682776 0.09480383020997929 0 -0.1055078094663405 0.095580100587896663 0 -0.13525827670093529 0.1213048707276082 0 -0.1198294151108488 0.1012741894338294 0 -0.1118527583121799 0.1210897585611234 0 -0.1118527583121799 0.1210897585611234 0 -0.097758797288452395 0.11766682961116789 0 -0.094170491649478105 0.1011866298204646 0 -0.1118527583121799 0.1210897585611234 0 -0.094170491649478105 0.1011866298204646 0 -0.096919953399380337 0.1298870139061426 0 -0.1118527583121799 0.1210897585611234 0 -0.097758797288452395 0.11766682961116789 0 -0.096919953399380337 0.1298870139061426 0 -0.088091985792771277 0.118503916156941 0 -0.097758797288452395 0.11766682961116789 0 -0.1198294151108488 0.1012741894338294 0 -0.094170491649478105 0.1011866298204646 0 -0.1198294151108488 0.1012741894338294 0 -0.1118527583121799 0.1210897585611234 0 -0.094170491649478105 0.1011866298204646 0 -0.1198294151108488 0.1012741894338294 0 -0.094170491649478105 0.1011866298204646 0 -0.1055078094663405 0.095580100587896663 0 -0.099123267583345373 0.085203814295893271 0 -0.094170491649478105 0.1011866298204646 0 -0.1055078094663405 0.095580100587896663 0 -0.093781696071152901 0.024090392313075651 0 -0.1167804180346098 0.0096683319815117214 0 -0.1155815900124991 0.038046831391001068 0 -0.097274239274747376 -0.0046019085417796646 0 -0.093781696071152901 0.024090392313075651 0 -0.1167804180346098 0.0096683319815117214 0 -0.13842431561494539 0.027441210035773659 0 -0.1167804180346098 0.0096683319815117214 0 -0.1155815900124991 0.038046831391001068 0 -0.1167804180346098 0.0096683319815117214 0 -0.1155815900124991 0.038046831391001068 0 -0.14318432961239319 0.052194176919895093 0 -0.1143827619903883 0.06642533080049022 0 -0.1155815900124991 0.038046831391001068 0 -0.1143827619903883 0.06642533080049022 0 -0.1155815900124991 0.038046831391001068 0 -0.1143827619903883 0.06642533080049022 0 -0.1155815900124991 0.038046831391001068 0 -0.095561869308206773 0.047655195898222411 0 -0.094444592832663141 0.067413449075391638 0 -0.1143827619903883 0.06642533080049022 0 -0.095561869308206773 0.047655195898222411 0 -0.093781696071152901 0.024090392313075651 0 -0.1155815900124991 0.038046831391001068 0 -0.095561869308206773 0.047655195898222411 0 -0.093781696071152901 0.024090392313075651 0 -0.095561869308206773 0.047655195898222411 0 -0.076641457777881963 0.042304034719855187 0 -0.095561869308206773 0.047655195898222411 0 -0.078571823351542947 0.062483828144281162 0 -0.076641457777881963 0.042304034719855187 0 -0.094444592832663141 0.067413449075391638 0 -0.095561869308206773 0.047655195898222411 0 -0.078571823351542947 0.062483828144281162 0 -0.078571823351542947 0.062483828144281162 0 -0.062752654984247772 0.057653373950896938 0 -0.076641457777881963 0.042304034719855187 0 -0.076641457777881963 0.042304034719855187 0 -0.070167799237903949 0.023626666910915271 0 -0.056818265718601879 0.03664441848159055 0 -0.062752654984247772 0.057653373950896938 0 -0.076641457777881963 0.042304034719855187 0 -0.056818265718601879 0.03664441848159055 0 -0.058869682475428689 -0.0077817525749057908 0 -0.070167799237903949 0.023626666910915271 0 -0.081981731323709672 0.0092292092104944434 0 -0.093781696071152901 0.024090392313075651 0 -0.076641457777881963 0.042304034719855187 0 -0.070167799237903949 0.023626666910915271 0 -0.093781696071152901 0.024090392313075651 0 -0.070167799237903949 0.023626666910915271 0 -0.081981731323709672 0.0092292092104944434 0 -0.097274239274747376 -0.0046019085417796646 0 -0.093781696071152901 0.024090392313075651 0 -0.081981731323709672 0.0092292092104944434 0 -0.058869682475428689 -0.0077817525749057908 0 -0.049742620471238078 0.015900509578415989 0 -0.058869682475428689 -0.0077817525749057908 0 -0.040135715836543677 -0.0043694999882779141 0 -0.049742620471238078 0.015900509578415989 0 -0.058869682475428689 -0.0077817525749057908 0 -0.070167799237903949 0.023626666910915271 0 -0.049742620471238078 0.015900509578415989 0 -0.070167799237903949 0.023626666910915271 0 -0.049742620471238078 0.015900509578415989 0 -0.056818265718601879 0.03664441848159055 0 -0.049742620471238078 0.015900509578415989 0 -0.056818265718601879 0.03664441848159055 0 -0.039450089038901293 0.034605149463275441 0 -0.049742620471238078 0.015900509578415989 0 -0.027208590888315939 0.0084929312031133842 0 -0.028578309293241989 0.024187646623798981 0 -0.049742620471238078 0.015900509578415989 0 -0.039450089038901293 0.034605149463275441 0 -0.028578309293241989 0.024187646623798981 0 -0.040135715836543677 -0.0043694999882779141 0 -0.049742620471238078 0.015900509578415989 0 -0.027208590888315939 0.0084929312031133842 0 -0.052624013436015707 0.07605098692390759 0 -0.062752654984247772 0.057653373950896938 0 -0.040516101631821622 0.051015801456774729 0 -0.062752654984247772 0.057653373950896938 0 -0.056818265718601879 0.03664441848159055 0 -0.040516101631821622 0.051015801456774729 0 -0.039450089038901293 0.034605149463275441 0 -0.040516101631821622 0.051015801456774729 0 -0.024768851542285589 0.037657965931397343 0 -0.056818265718601879 0.03664441848159055 0 -0.039450089038901293 0.034605149463275441 0 -0.040516101631821622 0.051015801456774729 0 -0.017041114139938991 0.069291930274799532 0 -0.040516101631821622 0.051015801456774729 0 -0.01925178640572044 0.051376550916156102 0 -0.01925178640572044 0.051376550916156102 0 -0.024768851542285589 0.037657965931397343 0 -0.0088982751366374208 0.040428201339398853 0 -0.040516101631821622 0.051015801456774729 0 -0.01925178640572044 0.051376550916156102 0 -0.024768851542285589 0.037657965931397343 0 -0.039450089038901293 0.034605149463275441 0 -0.024768851542285589 0.037657965931397343 0 -0.028578309293241989 0.024187646623798981 0 -0.024768851542285589 0.037657965931397343 0 -0.0088982751366374208 0.040428201339398853 0 -0.011918547747390811 0.024334445788979909 0 -0.0088982751366374208 0.040428201339398853 0 -0.0037825856943133661 0.055130602642442419 0 0.0057302808675212353 0.037209221645991768 0 -0.0088982751366374208 0.040428201339398853 0 -0.011918547747390811 0.024334445788979909 0 0.0057302808675212353 0.037209221645991768 0 -0.017041114139938991 0.069291930274799532 0 -0.01925178640572044 0.051376550916156102 0 -0.0037825856943133661 0.055130602642442419 0 -0.01925178640572044 0.051376550916156102 0 -0.0088982751366374208 0.040428201339398853 0 -0.0037825856943133661 0.055130602642442419 0 -0.0088982751366374208 0.040428201339398853 0 -0.0037825856943133661 0.055130602642442419 0 -0.0037825856943133661 0.055130602642442419 0 0.0013331037480066789 0.06983300394548736 0 -0.027208590888315939 0.0084929312031133842 0 -0.011918547747390811 0.024334445788979909 0 -0.01042188962313418 0.0033145873257822219 0 -0.024768851542285589 0.037657965931397343 0 -0.028578309293241989 0.024187646623798981 0 -0.011918547747390811 0.024334445788979909 0 -0.027208590888315939 0.0084929312031133842 0 -0.028578309293241989 0.024187646623798981 0 -0.011918547747390811 0.024334445788979909 0 -0.011918547747390811 0.024334445788979909 0 0.0057730275692631453 0.01927876013167381 0 0.0057302808675212353 0.037209221645991768 0 -0.011918547747390811 0.024334445788979909 0 -0.01042188962313418 0.0033145873257822219 0 0.0057730275692631453 0.01927876013167381 0 0.0057730275692631453 0.01927876013167381 0 0.02034891951406631 0.012404285822207961 0 0.005904608835726727 -0.00024378440871443069 0 -0.01042188962313418 0.0033145873257822219 0 0.0057730275692631453 0.01927876013167381 0 0.005904608835726727 -0.00024378440871443069 0 0.0057730275692631453 0.01927876013167381 0 0.0057302808675212353 0.037209221645991768 0 0.025348416658753651 0.03599253075598953 0 0.02034891951406631 0.012404285822207961 0 0.025348416658753651 0.03599253075598953 0 0.037356073114122583 0.019072294161237419 0 0.0057730275692631453 0.01927876013167381 0 0.02034891951406631 0.012404285822207961 0 0.025348416658753651 0.03599253075598953 0 0.02034891951406631 0.012404285822207961 0 0.02504876253596517 -0.0076388332716327279 0 0.005904608835726727 -0.00024378440871443069 0 0.02034891951406631 0.012404285822207961 0 0.037356073114122583 0.019072294161237419 0 0.02504876253596517 -0.0076388332716327279 0 0.037356073114122583 0.019072294161237419 0 0.02504876253596517 -0.0076388332716327279 0 -0.0037825856943133661 0.055130602642442419 0 0.01334076020337915 0.052912767350737758 0 0.0057302808675212353 0.037209221645991768 0 -0.0037825856943133661 0.055130602642442419 0 0.01334076020337915 0.052912767350737758 0 0.0013331037480066789 0.06983300394548736 0 0.01334076020337915 0.052912767350737758 0 0.0013331037480066789 0.06983300394548736 0 0.01334076020337915 0.052912767350737758 0 0.0057302808675212353 0.037209221645991768 0 0.025348416658753651 0.03599253075598953 0 0.01334076020337915 0.052912767350737758 0 0.025348416658753651 0.03599253075598953 0 0.01334076020337915 0.052912767350737758 0 0.035033638511915301 0.054704627333407918 0 0.02611931296442729 0.07101701423444258 0 0.01334076020337915 0.052912767350737758 0 0.025348416658753651 0.03599253075598953 0 0.035033638511915301 0.054704627333407918 0 0.035033638511915301 0.054704627333407918 0 0.046420753482894803 0.038745790733137088 0 0.055485433851670138 0.058419287305035428 0 0.035033638511915301 0.054704627333407918 0 0.055485433851670138 0.058419287305035428 0 0.044295671270877843 0.070645022008273259 0 0.025348416658753651 0.03599253075598953 0 0.046420753482894803 0.038745790733137088 0 0.037356073114122583 0.019072294161237419 0 0.025348416658753651 0.03599253075598953 0 0.035033638511915301 0.054704627333407918 0 0.046420753482894803 0.038745790733137088 0 0.046420753482894803 0.038745790733137088 0 0.055725210896024002 0.049526270596602633 0 0.055858467317662072 0.023364974990402399 0 0.055725210896024002 0.049526270596602633 0 0.055858467317662072 0.023364974990402399 0 0.073941000657911218 0.02912411665209794 0 0.046420753482894803 0.038745790733137088 0 0.055725210896024002 0.049526270596602633 0 0.055485433851670138 0.058419287305035428 0 0.055725210896024002 0.049526270596602633 0 0.055485433851670138 0.058419287305035428 0 0.072522627417362678 0.051528449608179039 0 0.046420753482894803 0.038745790733137088 0 0.055485433851670138 0.058419287305035428 0 0.037356073114122583 0.019072294161237419 0 0.050151009438654581 0.0010426852504346359 0 0.02504876253596517 -0.0076388332716327279 0 0.037356073114122583 0.019072294161237419 0 0.050151009438654581 0.0010426852504346359 0 0.046420753482894803 0.038745790733137088 0 0.037356073114122583 0.019072294161237419 0 0.055858467317662072 0.023364974990402399 0 0.046420753482894803 0.038745790733137088 0 0.037356073114122583 0.019072294161237419 0 0.025348416658753651 0.03599253075598953 0 0.037356073114122583 0.019072294161237419 0 0.037356073114122583 0.019072294161237419 0 0.055858467317662072 0.023364974990402399 0 0.050151009438654581 0.0010426852504346359 0 0.055858467317662072 0.023364974990402399 0 0.050151009438654581 0.0010426852504346359 0 0.070155026607187643 0.0048614903205909579 0 0.092156790419798434 0.0087219627075932581 0 0.073941000657911218 0.02912411665209794 0 0.093722426825215505 0.041748078793696568 0 0.070155026607187643 0.0048614903205909579 0 0.092156790419798434 0.0087219627075932581 0 0.073941000657911218 0.02912411665209794 0 0.092156790419798434 0.0087219627075932581 0 0.073941000657911218 0.02912411665209794 0 0.055858467317662072 0.023364974990402399 0 0.070155026607187643 0.0048614903205909579 0 0.073941000657911218 0.02912411665209794 0 0.055725210896024002 0.049526270596602633 0 0.073941000657911218 0.02912411665209794 0 0.072522627417362678 0.051528449608179039 0 0.055725210896024002 0.049526270596602633 0 0.073941000657911218 0.02912411665209794 0 0.072522627417362678 0.051528449608179039 0 0.089646058435828374 0.065136911792963256 0 0.070551058481326645 0.063294358145777843 0 0.055485433851670138 0.058419287305035428 0 0.072522627417362678 0.051528449608179039 0 0.070551058481326645 0.063294358145777843 0 0.072522627417362678 0.051528449608179039 0 0.093722426825215505 0.041748078793696568 0 0.089646058435828374 0.065136911792963256 0 0.073941000657911218 0.02912411665209794 0 0.072522627417362678 0.051528449608179039 0 0.093722426825215505 0.041748078793696568 0 0.093722426825215505 0.041748078793696568 0 0.11474200265121311 0.05218103970899602 0 0.1159414042888644 0.02438483761899482 0 0.11474200265121311 0.05218103970899602 0 0.089646058435828374 0.065136911792963256 0 0.093722426825215505 0.041748078793696568 0 0.11474200265121311 0.05218103970899602 0 0.089646058435828374 0.065136911792963256 0 0.11474200265121311 0.05218103970899602 0 0.123273405455276 0.071939874845635993 0 0.13291151280292901 0.057182010238565097 0 0.11474200265121311 0.05218103970899602 0 0.1159414042888644 0.02438483761899482 0 0.13983794686659781 0.039225167625028791 0 0.092156790419798434 0.0087219627075932581 0 0.093722426825215505 0.041748078793696568 0 0.1159414042888644 0.02438483761899482 0 0.1159414042888644 0.02438483761899482 0 0.1116446037739722 0.0061415384342651189 0 0.13309451229529609 0.009536296927083663 0 0.1116446037739722 0.0061415384342651189 0 0.13309451229529609 0.009536296927083663 0 0.12546205171341571 -0.0034538947084765959 0 0.092156790419798434 0.0087219627075932581 0 0.1159414042888644 0.02438483761899482 0 0.1116446037739722 0.0061415384342651189 0 0.092156790419798434 0.0087219627075932581 0 0.1116446037739722 0.0061415384342651189 0 0.11037258018168571 -0.01168019123691148 0 0.10933971890238491 0.095098874189737725 0 0.093864407723658075 0.1016135218941448 0 0.088041246006302573 0.085859826960768104 0 0.10933971890238491 0.095098874189737725 0 0.093864407723658075 0.1016135218941448 0 0.1095106900313416 0.11714285620299621 0 0.10933971890238491 0.095098874189737725 0 0.093864407723658075 0.1016135218941448 0 0.093864407723658075 0.1016135218941448 0 0.095030326296870915 0.1179583786793718 0 0.1095106900313416 0.11714285620299621 0 0.095030326296870915 0.1179583786793718 0 0.1095106900313416 0.11714285620299621 0 0.1045412814489695 0.13208373514194599 0 0.1095106900313416 0.11714285620299621 0 0.12968998538624341 0.13206281451736329 0 0.13370195957752121 0.1172790119602122 0 0.1095106900313416 0.11714285620299621 0 0.1208337936217098 0.10600116734878511 0 0.13370195957752121 0.1172790119602122 0 0.10933971890238491 0.095098874189737725 0 0.1208337936217098 0.10600116734878511 0 0.125672499204592 0.096152775552308861 0 0.10933971890238491 0.095098874189737725 0 0.1095106900313416 0.11714285620299621 0 0.1208337936217098 0.10600116734878511 0 0.10933971890238491 0.095098874189737725 0 0.1192795670199716 0.084806347150453792 0 0.125672499204592 0.096152775552308861 0 0.10933971890238491 0.095098874189737725 0 0.1192795670199716 0.084806347150453792 0 0.1073573182404059 0.076306758877513842 0 0.1192795670199716 0.084806347150453792 0 0.123273405455276 0.071939874845635993 0 0.13075489329719889 0.084533452287072569 0 0.11474200265121311 0.05218103970899602 0 0.123273405455276 0.071939874845635993 0 0.1073573182404059 0.076306758877513842 0 0.1192795670199716 0.084806347150453792 0 0.123273405455276 0.071939874845635993 0 0.1073573182404059 0.076306758877513842 0 0.1073573182404059 0.076306758877513842 0 0.088041246006302573 0.085859826960768104 0 0.089646058435828374 0.065136911792963256 0 0.11474200265121311 0.05218103970899602 0 0.1073573182404059 0.076306758877513842 0 0.089646058435828374 0.065136911792963256 0 0.10933971890238491 0.095098874189737725 0 0.1073573182404059 0.076306758877513842 0 0.088041246006302573 0.085859826960768104 0 0.088041246006302573 0.085859826960768104 0 0.071469605382686721 0.093110476737738479 0 0.082941088914393779 0.097177998797798704 0 0.088041246006302573 0.085859826960768104 0 0.089646058435828374 0.065136911792963256 0 0.064550114220445265 0.078092783876933719 0 0.089646058435828374 0.065136911792963256 0 0.064550114220445265 0.078092783876933719 0 0.055485433851670138 0.058419287305035428 0 0.070551058481326645 0.063294358145777843 0 0.064550114220445265 0.078092783876933719 0 0.089646058435828374 0.065136911792963256 0 0.070551058481326645 0.063294358145777843 0 0.064550114220445265 0.078092783876933719 0 0.064550114220445265 0.078092783876933719 0 0.071469605382686721 0.093110476737738479 0 0.057966146734014568 0.09679335803864908 0 0.088041246006302573 0.085859826960768104 0 0.064550114220445265 0.078092783876933719 0 0.071469605382686721 0.093110476737738479 0 0.064550114220445265 0.078092783876933719 0 0.071469605382686721 0.093110476737738479 0 0.067008356948569742 0.1024111849547913 0 0.078389096544927761 0.1081281695985435 0 0.060208579132649938 0.11161273544423431 0 0.071469605382686721 0.093110476737738479 0 0.067008356948569742 0.1024111849547913 0 0.057966146734014568 0.09679335803864908 0 0.071469605382686721 0.093110476737738479 0 0.078389096544927761 0.1081281695985435 0 0.071469605382686721 0.093110476737738479 0 0.082941088914393779 0.097177998797798704 0 0.078389096544927761 0.1081281695985435 0 0.071469605382686721 0.093110476737738479 0 0.067008356948569742 0.1024111849547913 0 0.078389096544927761 0.1081281695985435 0 0.093864407723658075 0.1016135218941448 0 0.088041246006302573 0.085859826960768104 0 0.082941088914393779 0.097177998797798704 0 0.093864407723658075 0.1016135218941448 0 0.095030326296870915 0.1179583786793718 0 0.078389096544927761 0.1081281695985435 0 0.093864407723658075 0.1016135218941448 0 0.082941088914393779 0.097177998797798704 0 0.078389096544927761 0.1081281695985435 0 0.093864407723658075 0.1016135218941448 0 0.078389096544927761 0.1081281695985435 0 0.095030326296870915 0.1179583786793718 0 0.078389096544927761 0.1081281695985435 0 0.088846155735457719 0.13082361055922859 0 0.078389096544927761 0.1081281695985435 0 0.088846155735457719 0.13082361055922859 0 0.078389096544927761 0.1081281695985435 0 0.07096094267982371 0.1165915153497734 0 0.088846155735457719 0.13082361055922859 0 0.078389096544927761 0.1081281695985435 0 0.054497137490154939 0.1181859767994788 0 0.078389096544927761 0.1081281695985435 0 0.054497137490154939 0.1181859767994788 0 0.060208579132649938 0.11161273544423431 0 0.078389096544927761 0.1081281695985435 0 0.07096094267982371 0.1165915153497734 0 0.054497137490154939 0.1181859767994788 0 0.07096094267982371 0.1165915153497734 0 0.054497137490154939 0.1181859767994788 0 0.054634124027646683 0.1300610800624572 0 0.060208579132649938 0.11161273544423431 0 0.04199997259248707 0.1053736853336044 0 0.045597993738048979 0.11436520010584229 0 0.054497137490154939 0.1181859767994788 0 0.060208579132649938 0.11161273544423431 0 0.045597993738048979 0.11436520010584229 0 0.067008356948569742 0.1024111849547913 0 0.060208579132649938 0.11161273544423431 0 0.057966146734014568 0.09679335803864908 0 0.060208579132649938 0.11161273544423431 0 0.057966146734014568 0.09679335803864908 0 0.04199997259248707 0.1053736853336044 0 0.060208579132649938 0.11161273544423431 0 0.04199997259248707 0.1053736853336044 0 0.057966146734014568 0.09679335803864908 0 0.04199997259248707 0.1053736853336044 0 0.044170740136384078 0.088613709549953429 0 0.04199997259248707 0.1053736853336044 0 0.023791366052323921 0.099134635222975317 0 0.044170740136384078 0.088613709549953429 0 0.023791366052323921 0.099134635222975317 0 0.04199997259248707 0.1053736853336044 0 0.044170740136384078 0.088613709549953429 0 0.023791366052323921 0.099134635222975317 0 0.054497137490154939 0.1181859767994788 0 0.045597993738048979 0.11436520010584229 0 0.030605178435378591 0.1282437840004059 0 0.054497137490154939 0.1181859767994788 0 0.030605178435378591 0.1282437840004059 0 0.04199997259248707 0.1053736853336044 0 0.034023883034387442 0.1153042323455588 0 0.02588784962540092 0.10924392466012291 0 0.034023883034387442 0.1153042323455588 0 0.045597993738048979 0.11436520010584229 0 0.030605178435378591 0.1282437840004059 0 0.04199997259248707 0.1053736853336044 0 0.034023883034387442 0.1153042323455588 0 0.045597993738048979 0.11436520010584229 0 0.055485433851670138 0.058419287305035428 0 0.064550114220445265 0.078092783876933719 0 0.044295671270877843 0.070645022008273259 0 0.055485433851670138 0.058419287305035428 0 0.064550114220445265 0.078092783876933719 0 0.064550114220445265 0.078092783876933719 0 0.044170740136384078 0.088613709549953429 0 0.044295671270877843 0.070645022008273259 0 0.064550114220445265 0.078092783876933719 0 0.057966146734014568 0.09679335803864908 0 0.044170740136384078 0.088613709549953429 0 0.064550114220445265 0.078092783876933719 0 0.044170740136384078 0.088613709549953429 0 0.044170740136384078 0.088613709549953429 0 0.044295671270877843 0.070645022008273259 0 0.02611931296442729 0.07101701423444258 0 0.035033638511915301 0.054704627333407918 0 0.044295671270877843 0.070645022008273259 0 0.02611931296442729 0.07101701423444258 0 0.02611931296442729 0.07101701423444258 0 0.021056642614866641 0.084592498372201785 0 0.0013331037480066789 0.06983300394548736 0 0.044170740136384078 0.088613709549953429 0 0.021056642614866641 0.084592498372201785 0 0.023791366052323921 0.099134635222975317 0 0.044170740136384078 0.088613709549953429 0 0.02611931296442729 0.07101701423444258 0 0.021056642614866641 0.084592498372201785 0 0.021056642614866641 0.084592498372201785 0 0.023791366052323921 0.099134635222975317 0 0.0098686901731930184 0.09436412890815235 0 0.0013331037480066789 0.06983300394548736 0 0.0098686901731930184 0.09436412890815235 0 -0.010464629370286921 0.086457433232338371 0 0.0013331037480066789 0.06983300394548736 0 0.0098686901731930184 0.09436412890815235 0 0.021056642614866641 0.084592498372201785 0 0.0013331037480066789 0.06983300394548736 0 0.0098686901731930184 0.09436412890815235 0 0.01334076020337915 0.052912767350737758 0 0.02611931296442729 0.07101701423444258 0 0.0013331037480066789 0.06983300394548736 0 0.016355381591438359 0.1129853355937675 0 0.016213278026203939 0.1236320205270825 0 0.02588784962540092 0.10924392466012291 0 0.016355381591438359 0.1129853355937675 0 0.02588784962540092 0.10924392466012291 0 0.01959063221335507 0.1070076206644901 0 0.016355381591438359 0.1129853355937675 0 0.02588784962540092 0.10924392466012291 0 0.016213278026203939 0.1236320205270825 0 0.026682547280342719 0.1191059903832925 0 0.02588784962540092 0.10924392466012291 0 0.016213278026203939 0.1236320205270825 0 0.026682547280342719 0.1191059903832925 0 0.030605178435378591 0.1282437840004059 0 0.034023883034387442 0.1153042323455588 0 0.026682547280342719 0.1191059903832925 0 0.030605178435378591 0.1282437840004059 0 0.034023883034387442 0.1153042323455588 0 0.026682547280342719 0.1191059903832925 0 0.02588784962540092 0.10924392466012291 0 0.04199997259248707 0.1053736853336044 0 0.02588784962540092 0.10924392466012291 0 0.023791366052323921 0.099134635222975317 0 0.023791366052323921 0.099134635222975317 0 0.0098686901731930184 0.09436412890815235 0 0.023791366052323921 0.099134635222975317 0 0.01339591900418245 0.1045013224077857 0 0.0098686901731930184 0.09436412890815235 0 0.016355381591438359 0.1129853355937675 0 0.01959063221335507 0.1070076206644901 0 0.01339591900418245 0.1045013224077857 0 0.023791366052323921 0.099134635222975317 0 0.01959063221335507 0.1070076206644901 0 0.01339591900418245 0.1045013224077857 0 0.02588784962540092 0.10924392466012291 0 0.023791366052323921 0.099134635222975317 0 0.01959063221335507 0.1070076206644901 0 0.023791366052323921 0.099134635222975317 0 0.01339591900418245 0.1045013224077857 0 0.016355381591438359 0.1129853355937675 0 0.01339591900418245 0.1045013224077857 0 -0.0074465128385103234 0.1152613033256259 0 -0.00085215776453518373 0.1058897622738819 0 0.01339591900418245 0.1045013224077857 0 0.01339591900418245 0.1045013224077857 0 0.0098686901731930184 0.09436412890815235 0 0.01339591900418245 0.1045013224077857 0 0.0098686901731930184 0.09436412890815235 0 0.0041421443330435827 0.10207578705896719 0 -0.0031273369336706478 0.1010262542884455 0 0.0098686901731930184 0.09436412890815235 0 0.0041421443330435827 0.10207578705896719 0 -0.00085215776453518373 0.1058897622738819 0 0.01339591900418245 0.1045013224077857 0 0.0041421443330435827 0.10207578705896719 0 -0.00085215776453518373 0.1058897622738819 0 -0.0031273369336706478 0.1010262542884455 0 0.0041421443330435827 0.10207578705896719 0 -0.0074465128385103234 0.1152613033256259 0 0.01339591900418245 0.1045013224077857 0 -0.0074465128385103234 0.1152613033256259 0 0.01339591900418245 0.1045013224077857 0 0.0007410708348276028 0.11911381698787971 0 0.016355381591438359 0.1129853355937675 0 0.0007410708348276028 0.11911381698787971 0 0.016355381591438359 0.1129853355937675 0 0.01339591900418245 0.1045013224077857 0 0.0007410708348276028 0.11911381698787971 0 0.016355381591438359 0.1129853355937675 0 0.016213278026203939 0.1236320205270825 0 0.0007410708348276028 0.11911381698787971 0 0.016213278026203939 0.1236320205270825 0 0.0007410708348276028 0.11911381698787971 0 0.0064195210494593889 0.12736598853478259 0 0.0007410708348276028 0.11911381698787971 0 0.0064195210494593889 0.12736598853478259 0 0.00056212382691866059 0.12881435641206609 0 0.0064195210494593889 0.12736598853478259 0 0.00056212382691866059 0.12881435641206609 0 0.006713219380602424 0.1383015912013329 0 0.016213278026203939 0.1236320205270825 0 0.0064195210494593889 0.12736598853478259 0 0.006713219380602424 0.1383015912013329 0 0.006713219380602424 0.1383015912013329 0 0.030605178435378591 0.1282437840004059 0 0.016213278026203939 0.1236320205270825 0 0.006713219380602424 0.1383015912013329 0 0.030605178435378591 0.1282437840004059 0 0.006713219380602424 0.1383015912013329 0 0.030605178435378591 0.1282437840004059 0 0.025370041052057781 0.14921405161054579 0 0.030605178435378591 0.1282437840004059 0 0.025370041052057781 0.14921405161054579 0 0.036513289676064667 0.1396814590985313 0 0.025370041052057781 0.14921405161054579 0 0.010505623843013999 0.15463744584166711 0 0.019255125730490961 0.16296368672759329 0 0.006713219380602424 0.1383015912013329 0 0.025370041052057781 0.14921405161054579 0 0.010505623843013999 0.15463744584166711 0 -0.0036681157307635868 0.1524260454369869 0 0.006713219380602424 0.1383015912013329 0 0.010505623843013999 0.15463744584166711 0 -0.0036681157307635868 0.1524260454369869 0 0.010505623843013999 0.15463744584166711 0 0.0050070707957726238 0.16765803364862131 0 0.0050070707957726238 0.16765803364862131 0 0.02211762158487441 0.17924966404178999 0 0.019255125730490961 0.16296368672759329 0 0.010505623843013999 0.15463744584166711 0 0.0050070707957726238 0.16765803364862131 0 0.019255125730490961 0.16296368672759329 0 0.0050070707957726238 0.16765803364862131 0 0.02211762158487441 0.17924966404178999 0 0.0050070707957726238 0.16765803364862131 0 0.02211762158487441 0.17924966404178999 0 0.0042412746412692189 0.18989592029497029 0 0.02211762158487441 0.17924966404178999 0 0.039228172373977938 0.19084129443495609 0 0.02211762158487441 0.17924966404178999 0 0.0042412746412692189 0.18989592029497029 0 0.02477909734260491 0.19186626437858589 0 0.02211762158487441 0.17924966404178999 0 0.02477909734260491 0.19186626437858589 0 0.039228172373977938 0.19084129443495609 0 0.02211762158487441 0.17924966404178999 0 0.033275271376735999 0.16405923849534229 0 0.036360114802090553 0.1744674560514165 0 0.02211762158487441 0.17924966404178999 0 0.019255125730490961 0.16296368672759329 0 0.033275271376735999 0.16405923849534229 0 0.025370041052057781 0.14921405161054579 0 0.019255125730490961 0.16296368672759329 0 0.033275271376735999 0.16405923849534229 0 0.033275271376735999 0.16405923849534229 0 0.050819393872772872 0.16371962723357719 0 0.046965777696531541 0.14832920933891691 0 0.033275271376735999 0.16405923849534229 0 0.036360114802090553 0.1744674560514165 0 0.050819393872772872 0.16371962723357719 0 0.02211762158487441 0.17924966404178999 0 0.036360114802090553 0.1744674560514165 0 0.039228172373977938 0.19084129443495609 0 0.050819393872772872 0.16371962723357719 0 0.039228172373977938 0.19084129443495609 0 0.036360114802090553 0.1744674560514165 0 0.050819393872772872 0.16371962723357719 0 0.039228172373977938 0.19084129443495609 0 0.056092461592787107 0.1847789938353227 0 0.050819393872772872 0.16371962723357719 0 0.056092461592787107 0.1847789938353227 0 0.050819393872772872 0.16371962723357719 0 0.072887212838098278 0.17816813705570311 0 0.056092461592787107 0.1847789938353227 0 0.050819393872772872 0.16371962723357719 0 0.039228172373977938 0.19084129443495609 0 0.050819393872772872 0.16371962723357719 0 0.046965777696531541 0.14832920933891691 0 0.060890168276298492 0.14015557129167541 0 0.050819393872772872 0.16371962723357719 0 0.060890168276298492 0.14015557129167541 0 0.050819393872772872 0.16371962723357719 0 0.060890168276298492 0.14015557129167541 0 0.075414248171067136 0.16029689789389759 0 0.050819393872772872 0.16371962723357719 0 0.046965777696531541 0.14832920933891691 0 0.07096094267982371 0.1165915153497734 0 0.060890168276298492 0.14015557129167541 0 0.054634124027646683 0.1300610800624572 0 0.046965777696531541 0.14832920933891691 0 0.054634124027646683 0.1300610800624572 0 0.043112161520290751 0.1329387914442566 0 0.046965777696531541 0.14832920933891691 0 0.060890168276298492 0.14015557129167541 0 0.054634124027646683 0.1300610800624572 0 0.054497137490154939 0.1181859767994788 0 0.054634124027646683 0.1300610800624572 0 0.043112161520290751 0.1329387914442566 0 0.054497137490154939 0.1181859767994788 0 0.030605178435378591 0.1282437840004059 0 0.043112161520290751 0.1329387914442566 0 0.046965777696531541 0.14832920933891691 0 0.043112161520290751 0.1329387914442566 0 0.036513289676064667 0.1396814590985313 0 0.030605178435378591 0.1282437840004059 0 0.043112161520290751 0.1329387914442566 0 0.036513289676064667 0.1396814590985313 0 0.025370041052057781 0.14921405161054579 0 0.046965777696531541 0.14832920933891691 0 0.036513289676064667 0.1396814590985313 0 0.025370041052057781 0.14921405161054579 0 0.033275271376735999 0.16405923849534229 0 0.046965777696531541 0.14832920933891691 0 0.046965777696531541 0.14832920933891691 0 0.043112161520290751 0.1329387914442566 0 0.009710696962624589 0.24573559211884061 0 0.02403994597596476 0.22049134547637589 0 0.032913974457118397 0.24825870951913431 0 -0.00048814242826103899 0.21723751157582399 0 0.009710696962624589 0.24573559211884061 0 0.02403994597596476 0.22049134547637589 0 0.009710696962624589 0.24573559211884061 0 0.02403994597596476 0.22049134547637589 0 0.02403994597596476 0.22049134547637589 0 0.027517850333767559 0.2046320803553498 0 0.015924431701734919 0.20430790772202581 0 -0.00048814242826103899 0.21723751157582399 0 0.02403994597596476 0.22049134547637589 0 0.015924431701734919 0.20430790772202581 0 -0.00048814242826103899 0.21723751157582399 0 0.015924431701734919 0.20430790772202581 0 0.0042412746412692189 0.18989592029497029 0 0.015924431701734919 0.20430790772202581 0 0.0042412746412692189 0.18989592029497029 0 0.02477909734260491 0.19186626437858589 0 0.027517850333767559 0.2046320803553498 0 0.015924431701734919 0.20430790772202581 0 0.02477909734260491 0.19186626437858589 0 0.027517850333767559 0.2046320803553498 0 0.02477909734260491 0.19186626437858589 0 0.036831094036191073 0.19645008734257741 0 0.036831094036191073 0.19645008734257741 0 0.039228172373977938 0.19084129443495609 0 0.061365529312804597 0.20583836043706741 0 0.02477909734260491 0.19186626437858589 0 0.036831094036191073 0.19645008734257741 0 0.039228172373977938 0.19084129443495609 0 0.036831094036191073 0.19645008734257741 0 0.039228172373977938 0.19084129443495609 0 0.056092461592787107 0.1847789938353227 0 0.061365529312804597 0.20583836043706741 0 0.039228172373977938 0.19084129443495609 0 0.061365529312804597 0.20583836043706741 0 0.056092461592787107 0.1847789938353227 0 0.039228172373977938 0.19084129443495609 0 0.061365529312804597 0.20583836043706741 0 0.061365529312804597 0.20583836043706741 0 0.044187775312527142 0.21456956559146309 0 0.066731256590113461 0.22726778706646339 0 0.036831094036191073 0.19645008734257741 0 0.061365529312804597 0.20583836043706741 0 0.044187775312527142 0.21456956559146309 0 0.02403994597596476 0.22049134547637589 0 0.027517850333767559 0.2046320803553498 0 0.044187775312527142 0.21456956559146309 0 0.027517850333767559 0.2046320803553498 0 0.036831094036191073 0.19645008734257741 0 0.044187775312527142 0.21456956559146309 0 0.02403994597596476 0.22049134547637589 0 0.044187775312527142 0.21456956559146309 0 0.049216221452628363 0.23305619913884351 0 0.02403994597596476 0.22049134547637589 0 0.049216221452628363 0.23305619913884351 0 0.032913974457118397 0.24825870951913431 0 0.044187775312527142 0.21456956559146309 0 0.049216221452628363 0.23305619913884351 0 0.066731256590113461 0.22726778706646339 0 0.049216221452628363 0.23305619913884351 0 0.064629992886827539 0.23970192726429701 0 0.066731256590113461 0.22726778706646339 0 0.049216221452628363 0.23305619913884351 0 0.064629992886827539 0.23970192726429701 0 0.053830772677006637 0.251528665263758 0 0.049216221452628363 0.23305619913884351 0 0.032913974457118397 0.24825870951913431 0 0.053830772677006637 0.251528665263758 0 0.081619819198608015 0.24230997661115911 0 0.070364450115838459 0.25098671079286661 0 0.091132763279519829 0.25396422720250672 0 0.081619819198608015 0.24230997661115911 0 0.078390634282387864 0.23109912953554451 0 0.1001754642490533 0.23213034991822501 0 0.081619819198608015 0.24230997661115911 0 0.1001754642490533 0.23213034991822501 0 0.091132763279519829 0.25396422720250672 0 0.081619819198608015 0.24230997661115911 0 0.064629992886827539 0.23970192726429701 0 0.078390634282387864 0.23109912953554451 0 0.064629992886827539 0.23970192726429701 0 0.053830772677006637 0.251528665263758 0 0.070364450115838459 0.25098671079286661 0 0.081619819198608015 0.24230997661115911 0 0.064629992886827539 0.23970192726429701 0 0.070364450115838459 0.25098671079286661 0 0.064629992886827539 0.23970192726429701 0 0.066731256590113461 0.22726778706646339 0 0.078390634282387864 0.23109912953554451 0 0.066731256590113461 0.22726778706646339 0 0.080770496780929568 0.21898435517764539 0 0.078390634282387864 0.23109912953554451 0 0.080770496780929568 0.21898435517764539 0 0.1001754642490533 0.23213034991822501 0 0.080770496780929568 0.21898435517764539 0 0.078390634282387864 0.23109912953554451 0 0.1001754642490533 0.23213034991822501 0 0.080770496780929568 0.21898435517764539 0 0.097290185885891195 0.20798320297700379 0 0.1001754642490533 0.23213034991822501 0 0.080770496780929568 0.21898435517764539 0 0.076246718277870121 0.199517248914408 0 0.097290185885891195 0.20798320297700379 0 0.061365529312804597 0.20583836043706741 0 0.080770496780929568 0.21898435517764539 0 0.061365529312804597 0.20583836043706741 0 0.066731256590113461 0.22726778706646339 0 0.061365529312804597 0.20583836043706741 0 0.080770496780929568 0.21898435517764539 0 0.076246718277870121 0.199517248914408 0 0.061365529312804597 0.20583836043706741 0 0.066731256590113461 0.22726778706646339 0 0.080770496780929568 0.21898435517764539 0 0.056092461592787107 0.1847789938353227 0 0.061365529312804597 0.20583836043706741 0 0.076246718277870121 0.199517248914408 0 0.076246718277870121 0.199517248914408 0 0.087691428122200127 0.19079248304898791 0 0.072887212838098278 0.17816813705570311 0 0.076246718277870121 0.199517248914408 0 0.087691428122200127 0.19079248304898791 0 0.097290185885891195 0.20798320297700379 0 0.087691428122200127 0.19079248304898791 0 0.1023392023780556 0.1912661583956573 0 0.097290185885891195 0.20798320297700379 0 0.1023392023780556 0.1912661583956573 0 0.1202173333070469 0.19890993344128491 0 0.097290185885891195 0.20798320297700379 0 0.1202173333070469 0.19890993344128491 0 0.1097602741165172 0.17621449248059939 0 0.1023392023780556 0.1912661583956573 0 0.1202173333070469 0.19890993344128491 0 0.1097602741165172 0.17621449248059939 0 0.1202173333070469 0.19890993344128491 0 0.1123646243437232 0.22085362539682471 0 0.1306743924975767 0.2216053744019704 0 0.1202173333070469 0.19890993344128491 0 0.097290185885891195 0.20798320297700379 0 0.1123646243437232 0.22085362539682471 0 0.097290185885891195 0.20798320297700379 0 0.1001754642490533 0.23213034991822501 0 0.1123646243437232 0.22085362539682471 0 0.1001754642490533 0.23213034991822501 0 0.1123646243437232 0.22085362539682471 0 0.11346574577904781 0.24363926624563939 0 0.1123646243437232 0.22085362539682471 0 0.11346574577904781 0.24363926624563939 0 0.1306743924975767 0.2216053744019704 0 0.1001754642490533 0.23213034991822501 0 0.11346574577904781 0.24363926624563939 0 0.091132763279519829 0.25396422720250672 0 0.08198544501442849 0.1454942839192932 0 0.088846155735457719 0.13082361055922859 0 0.099303214925987426 0.15351905151991399 0 0.08198544501442849 0.1454942839192932 0 0.075414248171067136 0.16029689789389759 0 0.099303214925987426 0.15351905151991399 0 0.07096094267982371 0.1165915153497734 0 0.088846155735457719 0.13082361055922859 0 0.075074929679763119 0.1328036795735498 0 0.08198544501442849 0.1454942839192932 0 0.088846155735457719 0.13082361055922859 0 0.075074929679763119 0.1328036795735498 0 0.07096094267982371 0.1165915153497734 0 0.060890168276298492 0.14015557129167541 0 0.07096094267982371 0.1165915153497734 0 0.060890168276298492 0.14015557129167541 0 0.075074929679763119 0.1328036795735498 0 0.060890168276298492 0.14015557129167541 0 0.08198544501442849 0.1454942839192932 0 0.075074929679763119 0.1328036795735498 0 0.060890168276298492 0.14015557129167541 0 0.08198544501442849 0.1454942839192932 0 0.075414248171067136 0.16029689789389759 0 0.050819393872772872 0.16371962723357719 0 0.075414248171067136 0.16029689789389759 0 0.072887212838098278 0.17816813705570311 0 0.056092461592787107 0.1847789938353227 0 0.076246718277870121 0.199517248914408 0 0.072887212838098278 0.17816813705570311 0 0.087691428122200127 0.19079248304898791 0 0.072887212838098278 0.17816813705570311 0 0.091232596758654277 0.17504287006579319 0 0.075414248171067136 0.16029689789389759 0 0.091232596758654277 0.17504287006579319 0 0.099303214925987426 0.15351905151991399 0 0.075414248171067136 0.16029689789389759 0 0.072887212838098278 0.17816813705570311 0 0.091232596758654277 0.17504287006579319 0 0.091232596758654277 0.17504287006579319 0 0.1097602741165172 0.17621449248059939 0 0.099303214925987426 0.15351905151991399 0 0.1097602741165172 0.17621449248059939 0 0.11731776907422441 0.15764673846292651 0 0.099303214925987426 0.15351905151991399 0 0.1097602741165172 0.17621449248059939 0 0.099303214925987426 0.15351905151991399 0 0.1023392023780556 0.1912661583956573 0 0.091232596758654277 0.17504287006579319 0 0.1097602741165172 0.17621449248059939 0 0.087691428122200127 0.19079248304898791 0 0.1023392023780556 0.1912661583956573 0 0.091232596758654277 0.17504287006579319 0 0.1202173333070469 0.19890993344128491 0 0.1097602741165172 0.17621449248059939 0 0.129175941386688 0.17729428950783291 0 0.1097602741165172 0.17621449248059939 0 0.11731776907422441 0.15764673846292651 0 0.129175941386688 0.17729428950783291 0 0.11731776907422441 0.15764673846292651 0 0.099303214925987426 0.15351905151991399 0 0.11737105234340731 0.13998227704061181 0 0.11731776907422441 0.15764673846292651 0 0.11737105234340731 0.13998227704061181 0 0.13502266012128819 0.15659894750972569 0 0.088846155735457719 0.13082361055922859 0 0.099303214925987426 0.15351905151991399 0 0.099303214925987426 0.15351905151991399 0 0.1045412814489695 0.13208373514194599 0 0.11737105234340731 0.13998227704061181 0 0.095030326296870915 0.1179583786793718 0 0.088846155735457719 0.13082361055922859 0 0.1045412814489695 0.13208373514194599 0 0.088846155735457719 0.13082361055922859 0 0.099303214925987426 0.15351905151991399 0 0.1045412814489695 0.13208373514194599 0 0.1095106900313416 0.11714285620299621 0 0.1045412814489695 0.13208373514194599 0 0.11737105234340731 0.13998227704061181 0 0.1095106900313416 0.11714285620299621 0 0.11737105234340731 0.13998227704061181 0 0.12968998538624341 0.13206281451736329 0 0.12968998538624341 0.13206281451736329 0 0.1438045009248167 0.13640432297486199 0 0.13370195957752121 0.1172790119602122 0 0.1438045009248167 0.13640432297486199 0 0.13370195957752121 0.1172790119602122 0 0.14931491928294019 0.1234726129541123 0 0.1438045009248167 0.13640432297486199 0 0.15514197246110231 0.13287913137048321 0 0.15378412009743839 0.14348234096096221 0 0.1438045009248167 0.13640432297486199 0 0.15514197246110231 0.13287913137048321 0 0.14931491928294019 0.1234726129541123 0 0.15514197246110231 0.13287913137048321 0 0.14931491928294019 0.1234726129541123 0 0.15961716160753031 0.122859133032495 0 0.1438045009248167 0.13640432297486199 0 0.15378412009743839 0.14348234096096221 0 0.1475281017976775 0.15288682183773569 0 0.1438045009248167 0.13640432297486199 0 0.1475281017976775 0.15288682183773569 0 0.13502266012128819 0.15659894750972569 0 0.15378412009743839 0.14348234096096221 0 0.1475281017976775 0.15288682183773569 0 0.16049101095451199 0.1554110053237269 0 0.11737105234340731 0.13998227704061181 0 0.12968998538624341 0.13206281451736329 0 0.13502266012128819 0.15659894750972569 0 0.12968998538624341 0.13206281451736329 0 0.1438045009248167 0.13640432297486199 0 0.13502266012128819 0.15659894750972569 0 0.13502266012128819 0.15659894750972569 0 0.14558757626151789 0.1743596851258549 0 0.13502266012128819 0.15659894750972569 0 0.129175941386688 0.17729428950783291 0 0.14558757626151789 0.1743596851258549 0 0.11731776907422441 0.15764673846292651 0 0.13502266012128819 0.15659894750972569 0 0.129175941386688 0.17729428950783291 0 0.129175941386688 0.17729428950783291 0 0.14558757626151789 0.1743596851258549 0 0.14314188446850451 0.18617060984090941 0 0.129175941386688 0.17729428950783291 0 0.14314188446850451 0.18617060984090941 0 0.13346874167660519 0.1922417822599746 0 0.14558757626151789 0.1743596851258549 0 0.15706193977944591 0.1915978578459995 0 0.14558757626151789 0.1743596851258549 0 0.1586007060565269 0.17813563213127989 0 0.15706193977944591 0.1915978578459995 0 0.14558757626151789 0.1743596851258549 0 0.14314188446850451 0.18617060984090941 0 0.15706193977944591 0.1915978578459995 0 0.1475281017976775 0.15288682183773569 0 0.14558757626151789 0.1743596851258549 0 0.16049101095451199 0.1554110053237269 0 0.1475281017976775 0.15288682183773569 0 0.13502266012128819 0.15659894750972569 0 0.14558757626151789 0.1743596851258549 0 0.14558757626151789 0.1743596851258549 0 0.1586007060565269 0.17813563213127989 0 0.16049101095451199 0.1554110053237269 0 0.17146154094558749 0.1738696915777965 0 0.1729850295203354 0.15802950436412519 0 0.16049101095451199 0.1554110053237269 0 0.17146154094558749 0.1738696915777965 0 0.1586007060565269 0.17813563213127989 0 0.16049101095451199 0.1554110053237269 0 0.17146154094558749 0.1738696915777965 0 0.15706193977944591 0.1915978578459995 0 0.17146154094558749 0.1738696915777965 0 0.17518689295258769 0.1811833308465603 0 0.15706193977944591 0.1915978578459995 0 0.17518689295258769 0.1811833308465603 0 0.15706193977944591 0.1915978578459995 0 0.17146154094558749 0.1738696915777965 0 0.1586007060565269 0.17813563213127989 0 0.15706193977944591 0.1915978578459995 0 0.17146154094558749 0.1738696915777965 0 0.17518689295258769 0.1811833308465603 0 0.19331184612573091 0.1707688038471237 0 0.17518689295258769 0.1811833308465603 0 0.19331184612573091 0.1707688038471237 0 0.17518689295258769 0.1811833308465603 0 0.1884661859246676 0.19222639657974441 0 0.19331184612573091 0.1707688038471237 0 0.17146154094558749 0.1738696915777965 0 0.1729850295203354 0.15802950436412519 0 0.1858611421117301 0.15614152530959441 0 0.17146154094558749 0.1738696915777965 0 0.1858611421117301 0.15614152530959441 0 0.19331184612573091 0.1707688038471237 0 0.17146154094558749 0.1738696915777965 0 0.1858611421117301 0.15614152530959441 0 0.1858611421117301 0.15614152530959441 0 0.18208311562145041 0.148724475096395 0 0.18772122273126821 0.1538514744870072 0 0.1858611421117301 0.15614152530959441 0 0.18772122273126821 0.1538514744870072 0 0.1729850295203354 0.15802950436412519 0 0.1858611421117301 0.15614152530959441 0 0.18208311562145041 0.148724475096395 0 0.1858611421117301 0.15614152530959441 0 0.18208311562145041 0.148724475096395 0 0.18208311562145041 0.148724475096395 0 0.18772122273126821 0.1538514744870072 0 0.1729850295203354 0.15802950436412519 0 0.18208311562145041 0.148724475096395 0 0.16932298969345319 0.1462324833423243 0 0.18208311562145041 0.148724475096395 0 0.1858915578374325 0.13471991915655601 0 0.17232435567747939 0.1295660036803836 0 0.18208311562145041 0.148724475096395 0 0.17232435567747939 0.1295660036803836 0 0.16410262899810779 0.13237396203142579 0 0.18208311562145041 0.148724475096395 0 0.17232435567747939 0.1295660036803836 0 0.18208311562145041 0.148724475096395 0 0.16410262899810779 0.13237396203142579 0 0.1858915578374325 0.13471991915655601 0 0.17232435567747939 0.1295660036803836 0 0.18207676088177391 0.1245133883559869 0 0.1858915578374325 0.13471991915655601 0 0.1944913365898609 0.12431010188622001 0 0.18207676088177391 0.1245133883559869 0 0.16410262899810779 0.13237396203142579 0 0.16185165873762031 0.14137765091414631 0 0.16932298969345319 0.1462324833423243 0 0.17232435567747939 0.1295660036803836 0 0.16410262899810779 0.13237396203142579 0 0.15961716160753031 0.122859133032495 0 0.15514197246110231 0.13287913137048321 0 0.16410262899810779 0.13237396203142579 0 0.15961716160753031 0.122859133032495 0 0.15514197246110231 0.13287913137048321 0 0.16410262899810779 0.13237396203142579 0 0.16185165873762031 0.14137765091414631 0 0.15514197246110231 0.13287913137048321 0 0.15378412009743839 0.14348234096096221 0 0.16185165873762031 0.14137765091414631 0 0.15378412009743839 0.14348234096096221 0 0.16185165873762031 0.14137765091414631 0 0.16049101095451199 0.1554110053237269 0 0.18208311562145041 0.148724475096395 0 0.16410262899810779 0.13237396203142579 0 0.16932298969345319 0.1462324833423243 0 0.16185165873762031 0.14137765091414631 0 0.16049101095451199 0.1554110053237269 0 0.16932298969345319 0.1462324833423243 0 0.1729850295203354 0.15802950436412519 0 0.16049101095451199 0.1554110053237269 0 0.16932298969345319 0.1462324833423243 0 0.14427708077002729 0.2415946305782159 0 0.1310625925440391 0.2490093817752059 0 0.14683181586188079 0.2572377035261933 0 0.14427708077002729 0.2415946305782159 0 0.15706625914255179 0.2474196668040588 0 0.14683181586188079 0.2572377035261933 0 0.14427708077002729 0.2415946305782159 0 0.1557503438040882 0.23270102638365081 0 0.15706625914255179 0.2474196668040588 0 0.11346574577904781 0.24363926624563939 0 0.1310625925440391 0.2490093817752059 0 0.1306743924975767 0.2216053744019704 0 0.14427708077002729 0.2415946305782159 0 0.1310625925440391 0.2490093817752059 0 0.1306743924975767 0.2216053744019704 0 0.1557503438040882 0.23270102638365081 0 0.15526989285845119 0.21102695436639851 0 0.14455774620894829 0.2151252335563292 0 0.14427708077002729 0.2415946305782159 0 0.1306743924975767 0.2216053744019704 0 0.1557503438040882 0.23270102638365081 0 0.1306743924975767 0.2216053744019704 0 0.1557503438040882 0.23270102638365081 0 0.14455774620894829 0.2151252335563292 0 0.15526989285845119 0.21102695436639851 0 0.14624907919518201 0.20542549668484561 0 0.1507959489302004 0.19931227481691111 0 0.15526989285845119 0.21102695436639851 0 0.14624907919518201 0.20542549668484561 0 0.14455774620894829 0.2151252335563292 0 0.14624907919518201 0.20542549668484561 0 0.14455774620894829 0.2151252335563292 0 0.1369849356021472 0.20513921513661049 0 0.1202173333070469 0.19890993344128491 0 0.1306743924975767 0.2216053744019704 0 0.1306743924975767 0.2216053744019704 0 0.14455774620894829 0.2151252335563292 0 0.1369849356021472 0.20513921513661049 0 0.1202173333070469 0.19890993344128491 0 0.1306743924975767 0.2216053744019704 0 0.1369849356021472 0.20513921513661049 0 0.1202173333070469 0.19890993344128491 0 0.129175941386688 0.17729428950783291 0 0.13346874167660519 0.1922417822599746 0 0.1369849356021472 0.20513921513661049 0 0.13346874167660519 0.1922417822599746 0 0.14674232072752419 0.19752747047525829 0 0.1202173333070469 0.19890993344128491 0 0.1369849356021472 0.20513921513661049 0 0.13346874167660519 0.1922417822599746 0 0.15526989285845119 0.21102695436639851 0 0.1507959489302004 0.19931227481691111 0 0.15706193977944591 0.1915978578459995 0 0.14314188446850451 0.18617060984090941 0 0.13346874167660519 0.1922417822599746 0 0.14674232072752419 0.19752747047525829 0 0.14624907919518201 0.20542549668484561 0 0.14674232072752419 0.19752747047525829 0 0.1507959489302004 0.19931227481691111 0 0.14624907919518201 0.20542549668484561 0 0.1369849356021472 0.20513921513661049 0 0.14674232072752419 0.19752747047525829 0 0.14674232072752419 0.19752747047525829 0 0.1507959489302004 0.19931227481691111 0 0.15706193977944591 0.1915978578459995 0 0.1507959489302004 0.19931227481691111 0 0.15706193977944591 0.1915978578459995 0 0.14674232072752419 0.19752747047525829 0 0.15706193977944591 0.1915978578459995 0 0.14314188446850451 0.18617060984090941 0 0.14674232072752419 0.19752747047525829 0 0.15706193977944591 0.1915978578459995 0 0.17518689295258769 0.1811833308465603 0 0.15706193977944591 0.1915978578459995 0 0.1730869825904815 0.1985079172731998 0 0.15706193977944591 0.1915978578459995 0 0.1730869825904815 0.1985079172731998 0 0.17018882217828049 0.2157169725816164 0 0.17518689295258769 0.1811833308465603 0 0.1730869825904815 0.1985079172731998 0 0.1884661859246676 0.19222639657974441 0 0.1730869825904815 0.1985079172731998 0 0.19253459587037561 0.21530030575622611 0 0.1884661859246676 0.19222639657974441 0 0.1730869825904815 0.1985079172731998 0 0.17018882217828049 0.2157169725816164 0 0.19253459587037561 0.21530030575622611 0 0.15526989285845119 0.21102695436639851 0 0.15706193977944591 0.1915978578459995 0 0.17018882217828049 0.2157169725816164 0 0.15706193977944591 0.1915978578459995 0 0.17018882217828049 0.2157169725816164 0 0.1557503438040882 0.23270102638365081 0 0.17018882217828049 0.2157169725816164 0 0.1840201197994239 0.2389688417568275 0 0.1557503438040882 0.23270102638365081 0 0.15526989285845119 0.21102695436639851 0 0.17018882217828049 0.2157169725816164 0 0.17018882217828049 0.2157169725816164 0 0.1840201197994239 0.2389688417568275 0 0.19253459587037561 0.21530030575622611 0 0.17018882217828049 0.2157169725816164 0 0.1840201197994239 0.2389688417568275 0 0.18551140280300901 0.24943314608306449 0 0.18605553154242191 0.24501017323853599 0 0.18003979482582949 0.24492117431349819 0 0.1840201197994239 0.2389688417568275 0 0.18605553154242191 0.24501017323853599 0 0.18003979482582949 0.24492117431349819 0 0.18003979482582949 0.24492117431349819 0 0.17262296461252361 0.24598002663571639 0 0.17959405283110921 0.25593233694228879 0 0.1840201197994239 0.2389688417568275 0 0.18003979482582949 0.24492117431349819 0 0.17262296461252361 0.24598002663571639 0 0.1557503438040882 0.23270102638365081 0 0.1840201197994239 0.2389688417568275 0 0.17262296461252361 0.24598002663571639 0 0.1557503438040882 0.23270102638365081 0 0.17262296461252361 0.24598002663571639 0 0.15706625914255179 0.2474196668040588 0 0.1557503438040882 0.23270102638365081 0 0.1840201197994239 0.2389688417568275 0 0.2052185662472745 0.243668841804765 0 0.22641701269512471 0.2483688418527038 0 0.2052185662472745 0.243668841804765 0 0.2194625814231897 0.22210812539827449 0 0.22641701269512471 0.2483688418527038 0 0.21472772664601869 0.24949759380759701 0 0.2052185662472745 0.243668841804765 0 0.22641701269512471 0.2483688418527038 0 0.1840201197994239 0.2389688417568275 0 0.2052185662472745 0.243668841804765 0 0.19412740356769359 0.24583763153471019 0 0.2052185662472745 0.243668841804765 0 0.19412740356769359 0.24583763153471019 0 0.1976370905295432 0.25658005378983773 0 0.1840201197994239 0.2389688417568275 0 0.2052185662472745 0.243668841804765 0 0.18551140280300901 0.24943314608306449 0 0.18605553154242191 0.24501017323853599 0 0.19412740356769359 0.24583763153471019 0 0.1840201197994239 0.2389688417568275 0 0.18605553154242191 0.24501017323853599 0 0.19412740356769359 0.24583763153471019 0 0.1840201197994239 0.2389688417568275 0 0.2052185662472745 0.243668841804765 0 0.19253459587037561 0.21530030575622611 0 0.2052185662472745 0.243668841804765 0 0.19253459587037561 0.21530030575622611 0 0.2194625814231897 0.22210812539827449 0 0.2063872137744604 0.19643846462269909 0 0.22087938362966619 0.20552533776198911 0 0.2194625814231897 0.22210812539827449 0 0.2063872137744604 0.19643846462269909 0 0.2194625814231897 0.22210812539827449 0 0.19253459587037561 0.21530030575622611 0 0.2063872137744604 0.19643846462269909 0 0.2194625814231897 0.22210812539827449 0 0.19253459587037561 0.21530030575622611 0 0.1884661859246676 0.19222639657974441 0 0.2063872137744604 0.19643846462269909 0 0.2063872137744604 0.19643846462269909 0 0.22268287517001381 0.1960442731624506 0 0.21900189351488961 0.18229647862080181 0 0.2063872137744604 0.19643846462269909 0 0.22268287517001381 0.1960442731624506 0 0.22087938362966619 0.20552533776198911 0 0.22268287517001381 0.1960442731624506 0 0.23682968213640779 0.19771741623476249 0 0.21900189351488961 0.18229647862080181 0 0.23682968213640779 0.19771741623476249 0 0.21900189351488961 0.18229647862080181 0 0.22268287517001381 0.1960442731624506 0 0.2285474454865106 0.2029894267051045 0 0.22087938362966619 0.20552533776198911 0 0.2285474454865106 0.2029894267051045 0 0.23682968213640779 0.19771741623476249 0 0.23383079528880099 0.20675131170476441 0 0.22268287517001381 0.1960442731624506 0 0.2285474454865106 0.2029894267051045 0 0.23682968213640779 0.19771741623476249 0 0.24548936342069699 0.19231342481619851 0 0.23682968213640779 0.19771741623476249 0 0.2474019298591503 0.17387946955918709 0 0.24760788764735389 0.19903277919595219 0 0.24110040210048889 0.19872724996041921 0 0.25057929885876817 0.2057594910493151 0 0.23682968213640779 0.19771741623476249 0 0.24110040210048889 0.19872724996041921 0 0.25057929885876817 0.2057594910493151 0 0.24548936342069699 0.19231342481619851 0 0.24760788764735389 0.19903277919595219 0 0.25304543763118209 0.19749312617351619 0 0.24548936342069699 0.19231342481619851 0 0.24760788764735389 0.19903277919595219 0 0.24110040210048889 0.19872724996041921 0 0.24548936342069699 0.19231342481619851 0 0.23682968213640779 0.19771741623476249 0 0.24110040210048889 0.19872724996041921 0 0.23682968213640779 0.19771741623476249 0 0.25443325784045501 0.21451590612855209 0 0.25057929885876817 0.2057594910493151 0 0.23682968213640779 0.19771741623476249 0 0.2418409932789107 0.2096759307525165 0 0.25443325784045501 0.21451590612855209 0 0.2418409932789107 0.2096759307525165 0 0.25801040321428848 0.21976354130464401 0 0.2418409932789107 0.2096759307525165 0 0.2335136115975559 0.21475946029052931 0 0.23383079528880099 0.20675131170476441 0 0.23682968213640779 0.19771741623476249 0 0.2418409932789107 0.2096759307525165 0 0.23383079528880099 0.20675131170476441 0 0.2418409932789107 0.2096759307525165 0 0.24751370097796499 0.22007352975431149 0 0.25801040321428848 0.21976354130464401 0 0.23682968213640779 0.19771741623476249 0 0.25443325784045501 0.21451590612855209 0 0.2418409932789107 0.2096759307525165 0 0.23941287662296609 0.22236608446423309 0 0.24751370097796499 0.22007352975431149 0 0.2418409932789107 0.2096759307525165 0 0.2335136115975559 0.21475946029052931 0 0.23941287662296609 0.22236608446423309 0 0.22731680229415671 0.21004639892141699 0 0.22087938362966619 0.20552533776198911 0 0.2194625814231897 0.22210812539827449 0 0.2335136115975559 0.21475946029052931 0 0.22800358219992689 0.21921040547035131 0 0.2320828297155432 0.22086548084001159 0 0.2335136115975559 0.21475946029052931 0 0.22731680229415671 0.21004639892141699 0 0.22800358219992689 0.21921040547035131 0 0.2335136115975559 0.21475946029052931 0 0.23383079528880099 0.20675131170476441 0 0.22731680229415671 0.21004639892141699 0 0.2285474454865106 0.2029894267051045 0 0.23383079528880099 0.20675131170476441 0 0.22731680229415671 0.21004639892141699 0 0.2285474454865106 0.2029894267051045 0 0.22731680229415671 0.21004639892141699 0 0.22087938362966619 0.20552533776198911 0 0.22731680229415671 0.21004639892141699 0 0.2194625814231897 0.22210812539827449 0 0.22800358219992689 0.21921040547035131 0 0.2194625814231897 0.22210812539827449 0 0.22740124844172371 0.2271259731349328 0 0.2325379490719196 0.2477777861738498 0 0.2194625814231897 0.22210812539827449 0 0.22740124844172371 0.2271259731349328 0 0.22800358219992689 0.21921040547035131 0 0.22740124844172371 0.2271259731349328 0 0.22800358219992689 0.21921040547035131 0 0.2320828297155432 0.22086548084001159 0 0.22740124844172371 0.2271259731349328 0 0.2320828297155432 0.22086548084001159 0 0.23941287662296609 0.22236608446423309 0 0.2335136115975559 0.21475946029052931 0 0.2320828297155432 0.22086548084001159 0 0.23941287662296609 0.22236608446423309 0 0.22740124844172371 0.2271259731349328 0 0.23941287662296609 0.22236608446423309 0 0.25079053079569491 0.2284885624958525 0 0.22740124844172371 0.2271259731349328 0 0.2386599483339866 0.2352903394513341 0 0.25079053079569491 0.2284885624958525 0 0.22740124844172371 0.2271259731349328 0 0.25079053079569491 0.2284885624958525 0 0.23941287662296609 0.22236608446423309 0 0.24751370097796499 0.22007352975431149 0 0.25079053079569491 0.2284885624958525 0 0.2386599483339866 0.2352903394513341 0 0.24793550767579481 0.23761478161865879 0 0.25079053079569491 0.2284885624958525 0 0.2325379490719196 0.2477777861738498 0 0.25285246646408488 0.245816156428219 0 0.24793550767579481 0.23761478161865879 0 0.2325379490719196 0.2477777861738498 0 0.25285246646408488 0.245816156428219 0 0.23365661848589789 0.24997396643801059 0 0.2325379490719196 0.2477777861738498 0 0.25285246646408488 0.245816156428219 0 0.2386599483339866 0.2352903394513341 0 0.24793550767579481 0.23761478161865879 0 0.2325379490719196 0.2477777861738498 0 0.2194625814231897 0.22210812539827449 0 0.2325379490719196 0.2477777861738498 0 0.23365661848589789 0.24997396643801059 0 0.2325379490719196 0.2477777861738498 0 0.23365661848589789 0.24997396643801059 0 0.2325379490719196 0.2477777861738498 0 0.22641701269512471 0.2483688418527038 0 0.22740124844172371 0.2271259731349328 0 0.2386599483339866 0.2352903394513341 0 0.2325379490719196 0.2477777861738498 0 0.2194625814231897 0.22210812539827449 0 0.2325379490719196 0.2477777861738498 0 0.22641701269512471 0.2483688418527038 0 0.2325379490719196 0.2477777861738498 0 0.22641701269512471 0.2483688418527038 0 0.23365661848589789 0.24997396643801059 0 0.22641701269512471 0.2483688418527038 0 0.21472772664601869 0.24949759380759701 0 0.22641701269512471 0.2483688418527038 0 0.2053364082297599 0.1505752734750046 0 0.2164688249130188 0.13761012785930929 0 0.22229613437108101 0.15411454551016299 0 0.2053364082297599 0.1505752734750046 0 0.2164688249130188 0.13761012785930929 0 0.1997437625616974 0.13904984334314671 0 0.2164688249130188 0.13761012785930929 0 0.1997437625616974 0.13904984334314671 0 0.2117663023921266 0.12424821219928631 0 0.2164688249130188 0.13761012785930929 0 0.22467911501244259 0.1245726420611219 0 0.2117663023921266 0.12424821219928631 0 0.1997437625616974 0.13904984334314671 0 0.2117663023921266 0.12424821219928631 0 0.1997437625616974 0.13904984334314671 0 0.2117663023921266 0.12424821219928631 0 0.1944913365898609 0.12431010188622001 0 0.1858915578374325 0.13471991915655601 0 0.1997437625616974 0.13904984334314671 0 0.1944913365898609 0.12431010188622001 0 0.18208311562145041 0.148724475096395 0 0.1858915578374325 0.13471991915655601 0 0.1997437625616974 0.13904984334314671 0 0.2053364082297599 0.1505752734750046 0 0.1997437625616974 0.13904984334314671 0 0.18772122273126821 0.1538514744870072 0 0.18208311562145041 0.148724475096395 0 0.1997437625616974 0.13904984334314671 0 0.18772122273126821 0.1538514744870072 0 0.1997437625616974 0.13904984334314671 0 0.18772122273126821 0.1538514744870072 0 0.1858611421117301 0.15614152530959441 0 0.19331184612573091 0.1707688038471237 0 0.2053364082297599 0.1505752734750046 0 0.18772122273126821 0.1538514744870072 0 0.20128621135210659 0.16618676486692679 0 0.1858611421117301 0.15614152530959441 0 0.18772122273126821 0.1538514744870072 0 0.20128621135210659 0.16618676486692679 0 0.18772122273126821 0.1538514744870072 0 0.20128621135210659 0.16618676486692679 0 0.1858611421117301 0.15614152530959441 0 0.19331184612573091 0.1707688038471237 0 0.20128621135210659 0.16618676486692679 0 0.19331184612573091 0.1707688038471237 0 0.20128621135210659 0.16618676486692679 0 0.1884661859246676 0.19222639657974441 0 0.2063872137744604 0.19643846462269909 0 0.19331184612573091 0.1707688038471237 0 0.2063872137744604 0.19643846462269909 0 0.19331184612573091 0.1707688038471237 0 0.2063872137744604 0.19643846462269909 0 0.19331184612573091 0.1707688038471237 0 0.21900189351488961 0.18229647862080181 0 0.19331184612573091 0.1707688038471237 0 0.20128621135210659 0.16618676486692679 0 0.21900189351488961 0.18229647862080181 0 0.20128621135210659 0.16618676486692679 0 0.21611492713802141 0.1676755138591921 0 0.21900189351488961 0.18229647862080181 0 0.20128621135210659 0.16618676486692679 0 0.21900189351488961 0.18229647862080181 0 0.2053364082297599 0.1505752734750046 0 0.20128621135210659 0.16618676486692679 0 0.22229613437108101 0.15411454551016299 0 0.20128621135210659 0.16618676486692679 0 0.21611492713802141 0.1676755138591921 0 0.22229613437108101 0.15411454551016299 0 0.20128621135210659 0.16618676486692679 0 0.22229613437108101 0.15411454551016299 0 0.21611492713802141 0.1676755138591921 0 0.2303921353308078 0.1676739091078949 0 0.22229613437108101 0.15411454551016299 0 0.2303921353308078 0.1676739091078949 0 0.23992294290485591 0.15021913287623359 0 0.22229613437108101 0.15411454551016299 0 0.23682968213640779 0.19771741623476249 0 0.21900189351488961 0.18229647862080181 0 0.23380344549206239 0.18015280855435309 0 0.21611492713802141 0.1676755138591921 0 0.2303921353308078 0.1676739091078949 0 0.21900189351488961 0.18229647862080181 0 0.2303921353308078 0.1676739091078949 0 0.21900189351488961 0.18229647862080181 0 0.23380344549206239 0.18015280855435309 0 0.23682968213640779 0.19771741623476249 0 0.2474019298591503 0.17387946955918709 0 0.24548936342069699 0.19231342481619851 0 0.2474019298591503 0.17387946955918709 0 0.25474503326088982 0.1861184732965159 0 0.2303921353308078 0.1676739091078949 0 0.23380344549206239 0.18015280855435309 0 0.2474019298591503 0.17387946955918709 0 0.23682968213640779 0.19771741623476249 0 0.23380344549206239 0.18015280855435309 0 0.2474019298591503 0.17387946955918709 0 0.2474019298591503 0.17387946955918709 0 0.23992294290485591 0.15021913287623359 0 0.25797417758189278 0.15004152288361169 0 0.2303921353308078 0.1676739091078949 0 0.2474019298591503 0.17387946955918709 0 0.23992294290485591 0.15021913287623359 0 0.23992294290485591 0.15021913287623359 0 0.25061981405273631 0.12899540641112561 0 0.25797417758189278 0.15004152288361169 0 0.23992294290485591 0.15021913287623359 0 0.22229613437108101 0.15411454551016299 0 0.23492447015194151 0.13287283964645941 0 0.2164688249130188 0.13761012785930929 0 0.22229613437108101 0.15411454551016299 0 0.23492447015194151 0.13287283964645941 0 0.2164688249130188 0.13761012785930929 0 0.23492447015194151 0.13287283964645941 0 0.22467911501244259 0.1245726420611219 0 0.23992294290485591 0.15021913287623359 0 0.23492447015194151 0.13287283964645941 0 0.25061981405273631 0.12899540641112561 0 0.23492447015194151 0.13287283964645941 0 0.2386627856131423 0.1147532752348412 0 0.25061981405273631 0.12899540641112561 0 0.2386627856131423 0.1147532752348412 0 0.25937949052831832 0.1074303572544361 0 0.25061981405273631 0.12899540641112561 0 0.2386627856131423 0.1147532752348412 0 0.24283763363987129 0.095528518601897372 0 0.22868131209133119 0.099567461337718793 0 0.2386627856131423 0.1147532752348412 0 0.24283763363987129 0.095528518601897372 0 0.25937949052831832 0.1074303572544361 0 0.2386627856131423 0.1147532752348412 0 0.22868131209133119 0.099567461337718793 0 0.22125275954847851 0.1122871829464797 0 0.22868131209133119 0.099567461337718793 0 0.22125275954847851 0.1122871829464797 0 0.21507435397964891 0.098827665868541373 0 0.22868131209133119 0.099567461337718793 0 0.21507435397964891 0.098827665868541373 0 0.22157032101221941 0.088583271434062638 0 0.23492447015194151 0.13287283964645941 0 0.2386627856131423 0.1147532752348412 0 0.22467911501244259 0.1245726420611219 0 0.2386627856131423 0.1147532752348412 0 0.22125275954847851 0.1122871829464797 0 0.22467911501244259 0.1245726420611219 0 0.22125275954847851 0.1122871829464797 0 0.22467911501244259 0.1245726420611219 0 0.2117663023921266 0.12424821219928631 0 0.22125275954847851 0.1122871829464797 0 0.2117663023921266 0.12424821219928631 0 0.19843745162883189 0.1052744755804393 0 0.21507435397964891 0.098827665868541373 0 0.19843745162883189 0.1052744755804393 0 0.20542992561738341 0.088425938044006475 0 0.22125275954847851 0.1122871829464797 0 0.21507435397964891 0.098827665868541373 0 0.19843745162883189 0.1052744755804393 0 0.22125275954847851 0.1122871829464797 0 0.19843745162883189 0.1052744755804393 0 0.19843745162883189 0.1052744755804393 0 0.18863279083125661 0.08692275546202613 0 0.1756221437091853 0.098261768214399026 0 0.2117663023921266 0.12424821219928631 0 0.19843745162883189 0.1052744755804393 0 0.1944913365898609 0.12431010188622001 0 0.19843745162883189 0.1052744755804393 0 0.1944913365898609 0.12431010188622001 0 0.18492498166591601 0.1144178775791536 0 0.1974475775842445 0.075524515013366142 0 0.18863279083125661 0.08692275546202613 0 0.18055666207174831 0.067242596343277103 0 0.1974475775842445 0.075524515013366142 0 0.19566357000761569 0.05998428209482496 0 0.18055666207174831 0.067242596343277103 0 0.1974475775842445 0.075524515013366142 0 0.21087156430215639 0.071291919188861061 0 0.19566357000761569 0.05998428209482496 0 0.1974475775842445 0.075524515013366142 0 0.18863279083125661 0.08692275546202613 0 0.20542992561738341 0.088425938044006475 0 0.19843745162883189 0.1052744755804393 0 0.18863279083125661 0.08692275546202613 0 0.20542992561738341 0.088425938044006475 0 0.21507435397964891 0.098827665868541373 0 0.20542992561738341 0.088425938044006475 0 0.22157032101221941 0.088583271434062638 0 0.1974475775842445 0.075524515013366142 0 0.20542992561738341 0.088425938044006475 0 0.21087156430215639 0.071291919188861061 0 0.20542992561738341 0.088425938044006475 0 0.21087156430215639 0.071291919188861061 0 0.22157032101221941 0.088583271434062638 0 0.21087156430215639 0.071291919188861061 0 0.22771163054630289 0.072598457492362989 0 0.21214969921666529 0.053685741932211213 0 0.21087156430215639 0.071291919188861061 0 0.22771163054630289 0.072598457492362989 0 0.22157032101221941 0.088583271434062638 0 0.22771163054630289 0.072598457492362989 0 0.22157032101221941 0.088583271434062638 0 0.23444887093892511 0.084723935195998745 0 0.22868131209133119 0.099567461337718793 0 0.22157032101221941 0.088583271434062638 0 0.23444887093892511 0.084723935195998745 0 0.24283763363987129 0.095528518601897372 0 0.23444887093892511 0.084723935195998745 0 0.24696601928917619 0.076776904553700356 0 0.24283763363987129 0.095528518601897372 0 0.24696601928917619 0.076776904553700356 0 0.25731853712911512 0.092848459011842521 0 0.24283763363987129 0.095528518601897372 0 0.22868131209133119 0.099567461337718793 0 0.23444887093892511 0.084723935195998745 0 0.24696601928917619 0.076776904553700356 0 0.2388873701332716 0.058022005438154063 0 0.26302529382698681 0.056584333474032002 0 0.22771163054630289 0.072598457492362989 0 0.24696601928917619 0.076776904553700356 0 0.2388873701332716 0.058022005438154063 0 0.22771163054630289 0.072598457492362989 0 0.23444887093892511 0.084723935195998745 0 0.24696601928917619 0.076776904553700356 0 0.2388873701332716 0.058022005438154063 0 0.24968230040100081 0.04538417143822867 0 0.23238867143006381 0.040750262375138069 0 0.24968230040100081 0.04538417143822867 0 0.24534079437703801 0.033006220773063581 0 0.23238867143006381 0.040750262375138069 0 0.24534079437703801 0.033006220773063581 0 0.23238867143006381 0.040750262375138069 0 0.236243059452937 0.02688188934608458 0 0.23238867143006381 0.040750262375138069 0 0.236243059452937 0.02688188934608458 0 0.21001509539203619 0.028582370422055341 0 0.22771163054630289 0.072598457492362989 0 0.2388873701332716 0.058022005438154063 0 0.21214969921666529 0.053685741932211213 0 0.2388873701332716 0.058022005438154063 0 0.23238867143006381 0.040750262375138069 0 0.21214969921666529 0.053685741932211213 0 0.23716813797051731 0.0073742097263363804 0 0.2469899307744319 0.0074925096759543008 0 0.248186192367364 -0.0029083560372354569 0 0.2469899307744319 0.0074925096759543008 0 0.24036217039978069 0.01498835319363997 0 0.2482519118440181 0.019735389054711491 0 0.23716813797051731 0.0073742097263363804 0 0.2469899307744319 0.0074925096759543008 0 0.24036217039978069 0.01498835319363997 0 0.23716813797051731 0.0073742097263363804 0 0.24036217039978069 0.01498835319363997 0 0.23315781195699939 0.01345776816511309 0 0.24036217039978069 0.01498835319363997 0 0.236243059452937 0.02688188934608458 0 0.23315781195699939 0.01345776816511309 0 0.24036217039978069 0.01498835319363997 0 0.2482519118440181 0.019735389054711491 0 0.236243059452937 0.02688188934608458 0 0.24534079437703801 0.033006220773063581 0 0.2482519118440181 0.019735389054711491 0 0.236243059452937 0.02688188934608458 0 0.23315781195699939 0.01345776816511309 0 0.21569159781210159 0.014286098011058431 0 0.21001509539203619 0.028582370422055341 0 0.23315781195699939 0.01345776816511309 0 0.21001509539203619 0.028582370422055341 0 0.236243059452937 0.02688188934608458 0 0.23315781195699939 0.01345776816511309 0 0.21001509539203619 0.028582370422055341 0 0.23315781195699939 0.01345776816511309 0 0.22764494036157859 0.0046275227758226962 0 0.21569159781210159 0.014286098011058431 0 0.23716813797051731 0.0073742097263363804 0 0.23315781195699939 0.01345776816511309 0 0.22764494036157859 0.0046275227758226962 0 0.22764494036157859 0.0046275227758226962 0 0.21512577951275161 0.0003575513731272871 0 0.21569159781210159 0.014286098011058431 0 0.21512577951275161 0.0003575513731272871 0 0.21569159781210159 0.014286098011058431 0 0.19002983529736711 0.013313423457094461 0 0.21569159781210159 0.014286098011058431 0 0.21001509539203619 0.028582370422055341 0 0.19002983529736711 0.013313423457094461 0 0.21001509539203619 0.028582370422055341 0 0.19002983529736711 0.013313423457094461 0 0.186872378827073 0.04370697267899766 0 0.21512577951275161 0.0003575513731272871 0 0.19002983529736711 0.013313423457094461 0 0.21512577951275161 0.0003575513731272871 0 0.19002983529736711 0.013313423457094461 0 0.19323724650424601 -0.0056727131426336716 0 0.21087156430215639 0.071291919188861061 0 0.21214969921666529 0.053685741932211213 0 0.19566357000761569 0.05998428209482496 0 0.23238867143006381 0.040750262375138069 0 0.21001509539203619 0.028582370422055341 0 0.21214969921666529 0.053685741932211213 0 0.21001509539203619 0.028582370422055341 0 0.21214969921666529 0.053685741932211213 0 0.186872378827073 0.04370697267899766 0 0.21001509539203619 0.028582370422055341 0 0.186872378827073 0.04370697267899766 0 0.21214969921666529 0.053685741932211213 0 0.19566357000761569 0.05998428209482496 0 0.186872378827073 0.04370697267899766 0 0.19566357000761569 0.05998428209482496 0 0.186872378827073 0.04370697267899766 0 0.18055666207174831 0.067242596343277103 0 0.186872378827073 0.04370697267899766 0 0.16372966226210989 0.058831574935939858 0 0.186872378827073 0.04370697267899766 0 0.16372966226210989 0.058831574935939858 0 0.18055666207174831 0.067242596343277103 0 0.186872378827073 0.04370697267899766 0 0.16372966226210989 0.058831574935939858 0 0.16493389108198239 0.02626929554106161 0 0.19002983529736711 0.013313423457094461 0 0.16493389108198239 0.02626929554106161 0 0.17155948924044981 0.0029446891077993861 0 0.19002983529736711 0.013313423457094461 0 0.17155948924044981 0.0029446891077993861 0 0.19323724650424601 -0.0056727131426336716 0 0.19002983529736711 0.013313423457094461 0 0.186872378827073 0.04370697267899766 0 0.16493389108198239 0.02626929554106161 0 0.19002983529736711 0.013313423457094461 0 0.16493389108198239 0.02626929554106161 0 0.17155948924044981 0.0029446891077993861 0 0.15307386238851481 0.01116058996460848 0 0.16113444179630981 -0.0069783374875720203 0 0.16493389108198239 0.02626929554106161 0 0.17155948924044981 0.0029446891077993861 0 0.15307386238851481 0.01116058996460848 0 0.15307386238851481 0.01116058996460848 0 0.13309451229529609 0.009536296927083663 0 0.14820201300634539 -0.003718295740844159 0 0.15307386238851481 0.01116058996460848 0 0.14820201300634539 -0.003718295740844159 0 0.16113444179630981 -0.0069783374875720203 0 0.15307386238851481 0.01116058996460848 0 0.13309451229529609 0.009536296927083663 0 0.13983794686659781 0.039225167625028791 0 0.16493389108198239 0.02626929554106161 0 0.15307386238851481 0.01116058996460848 0 0.13983794686659781 0.039225167625028791 0 0.1159414042888644 0.02438483761899482 0 0.13309451229529609 0.009536296927083663 0 0.13983794686659781 0.039225167625028791 0 0.16372966226210989 0.058831574935939858 0 0.16493389108198239 0.02626929554106161 0 0.13983794686659781 0.039225167625028791 0 0.16372966226210989 0.058831574935939858 0 0.13983794686659781 0.039225167625028791 0 0.13291151280292901 0.057182010238565097 0 0.16372966226210989 0.058831574935939858 0 0.13291151280292901 0.057182010238565097 0 0.1473607706316773 0.069279933762429705 0 0.16493389108198239 0.02626929554106161 0 0.13983794686659781 0.039225167625028791 0 0.11474200265121311 0.05218103970899602 0 0.13983794686659781 0.039225167625028791 0 0.11474200265121311 0.05218103970899602 0 0.13983794686659781 0.039225167625028791 0 0.13291151280292901 0.057182010238565097 0 0.13291151280292901 0.057182010238565097 0 0.13676460935753601 0.074008285790642489 0 0.1473607706316773 0.069279933762429705 0 0.123273405455276 0.071939874845635993 0 0.13291151280292901 0.057182010238565097 0 0.13676460935753601 0.074008285790642489 0 0.123273405455276 0.071939874845635993 0 0.13676460935753601 0.074008285790642489 0 0.13075489329719889 0.084533452287072569 0 0.16372966226210989 0.058831574935939858 0 0.1473607706316773 0.069279933762429705 0 0.1572719476738422 0.075609930362782213 0 0.13676460935753601 0.074008285790642489 0 0.1473607706316773 0.069279933762429705 0 0.14711835672307499 0.079246211156749805 0 0.1473607706316773 0.069279933762429705 0 0.14711835672307499 0.079246211156749805 0 0.1572719476738422 0.075609930362782213 0 0.1513021462035796 0.088295042859596246 0 0.15280683578953799 0.091249060848360625 0 0.1424995781019785 0.088080934335939998 0 0.1513021462035796 0.088295042859596246 0 0.15280683578953799 0.091249060848360625 0 0.1601039383478188 0.085671900924556149 0 0.1513021462035796 0.088295042859596246 0 0.15280683578953799 0.091249060848360625 0 0.1513021462035796 0.088295042859596246 0 0.15394909723707889 0.082205771325921106 0 0.14711835672307499 0.079246211156749805 0 0.1513021462035796 0.088295042859596246 0 0.15394909723707889 0.082205771325921106 0 0.1601039383478188 0.085671900924556149 0 0.15394909723707889 0.082205771325921106 0 0.14711835672307499 0.079246211156749805 0 0.1572719476738422 0.075609930362782213 0 0.13676460935753601 0.074008285790642489 0 0.14711835672307499 0.079246211156749805 0 0.1424995781019785 0.088080934335939998 0 0.1513021462035796 0.088295042859596246 0 0.14711835672307499 0.079246211156749805 0 0.1424995781019785 0.088080934335939998 0 0.15280683578953799 0.091249060848360625 0 0.1424995781019785 0.088080934335939998 0 0.1424995781019785 0.088080934335939998 0 0.13625629738450501 0.095091664892346578 0 0.14557345573306271 0.096680917353582252 0 0.15280683578953799 0.091249060848360625 0 0.1424995781019785 0.088080934335939998 0 0.14557345573306271 0.096680917353582252 0 0.1424995781019785 0.088080934335939998 0 0.13075489329719889 0.084533452287072569 0 0.13625629738450501 0.095091664892346578 0 0.13676460935753601 0.074008285790642489 0 0.1424995781019785 0.088080934335939998 0 0.13075489329719889 0.084533452287072569 0 0.1192795670199716 0.084806347150453792 0 0.13075489329719889 0.084533452287072569 0 0.125672499204592 0.096152775552308861 0 0.13075489329719889 0.084533452287072569 0 0.125672499204592 0.096152775552308861 0 0.13625629738450501 0.095091664892346578 0 0.125672499204592 0.096152775552308861 0 0.13224429508570859 0.1040110137220422 0 0.13625629738450501 0.095091664892346578 0 0.1208337936217098 0.10600116734878511 0 0.125672499204592 0.096152775552308861 0 0.13224429508570859 0.1040110137220422 0 0.1208337936217098 0.10600116734878511 0 0.13224429508570859 0.1040110137220422 0 0.13370195957752121 0.1172790119602122 0 0.13224429508570859 0.1040110137220422 0 0.13370195957752121 0.1172790119602122 0 0.14254661395905011 0.10512756453148681 0 0.13224429508570859 0.1040110137220422 0 0.13625629738450501 0.095091664892346578 0 0.14254661395905011 0.10512756453148681 0 0.13370195957752121 0.1172790119602122 0 0.14933386822454789 0.1126060166048168 0 0.14931491928294019 0.1234726129541123 0 0.13370195957752121 0.1172790119602122 0 0.14933386822454789 0.1126060166048168 0 0.14254661395905011 0.10512756453148681 0 0.14933386822454789 0.1126060166048168 0 0.14931491928294019 0.1234726129541123 0 0.15961716160753031 0.122859133032495 0 0.15280683578953799 0.091249060848360625 0 0.15056527388794139 0.1032142183205238 0 0.16256559573350809 0.1104075322643724 0 0.13625629738450501 0.095091664892346578 0 0.14557345573306271 0.096680917353582252 0 0.14254661395905011 0.10512756453148681 0 0.14933386822454789 0.1126060166048168 0 0.14254661395905011 0.10512756453148681 0 0.15056527388794139 0.1032142183205238 0 0.14557345573306271 0.096680917353582252 0 0.14254661395905011 0.10512756453148681 0 0.15056527388794139 0.1032142183205238 0 0.14933386822454789 0.1126060166048168 0 0.15056527388794139 0.1032142183205238 0 0.16256559573350809 0.1104075322643724 0 0.15280683578953799 0.091249060848360625 0 0.14557345573306271 0.096680917353582252 0 0.15056527388794139 0.1032142183205238 0 0.15280683578953799 0.091249060848360625 0 0.1756221437091853 0.098261768214399026 0 0.15280683578953799 0.091249060848360625 0 0.16256559573350809 0.1104075322643724 0 0.1756221437091853 0.098261768214399026 0 0.15280683578953799 0.091249060848360625 0 0.16256559573350809 0.1104075322643724 0 0.16256559573350809 0.1104075322643724 0 0.1740460282748742 0.1165165598742475 0 0.1756221437091853 0.098261768214399026 0 0.17232435567747939 0.1295660036803836 0 0.16256559573350809 0.1104075322643724 0 0.17232435567747939 0.1295660036803836 0 0.15961716160753031 0.122859133032495 0 0.16256559573350809 0.1104075322643724 0 0.17232435567747939 0.1295660036803836 0 0.16256559573350809 0.1104075322643724 0 0.1740460282748742 0.1165165598742475 0 0.14933386822454789 0.1126060166048168 0 0.15961716160753031 0.122859133032495 0 0.16256559573350809 0.1104075322643724 0 0.1740460282748742 0.1165165598742475 0 0.18492498166591601 0.1144178775791536 0 0.1756221437091853 0.098261768214399026 0 0.17232435567747939 0.1295660036803836 0 0.1740460282748742 0.1165165598742475 0 0.18207676088177391 0.1245133883559869 0 0.1944913365898609 0.12431010188622001 0 0.18492498166591601 0.1144178775791536 0 0.18207676088177391 0.1245133883559869 0 0.1740460282748742 0.1165165598742475 0 0.18492498166591601 0.1144178775791536 0 0.18207676088177391 0.1245133883559869 0 0.19843745162883189 0.1052744755804393 0 0.18492498166591601 0.1144178775791536 0 0.1756221437091853 0.098261768214399026 0 0.19843745162883189 0.1052744755804393 0 0.1756221437091853 0.098261768214399026 0 0.18863279083125661 0.08692275546202613 0 0.1756221437091853 0.098261768214399026 0 0.17124377436232921 0.079108669225725042 0 0.18863279083125661 0.08692275546202613 0 0.18055666207174831 0.067242596343277103 0 0.17124377436232921 0.079108669225725042 0 0.16372966226210989 0.058831574935939858 0 0.18055666207174831 0.067242596343277103 0 0.17124377436232921 0.079108669225725042 0 0.16372966226210989 0.058831574935939858 0 0.1572719476738422 0.075609930362782213 0 0.17124377436232921 0.079108669225725042 0 0.15280683578953799 0.091249060848360625 0 0.1756221437091853 0.098261768214399026 0 0.1601039383478188 0.085671900924556149 0 0.1572719476738422 0.075609930362782213 0 0.1601039383478188 0.085671900924556149 0 0.17124377436232921 0.079108669225725042 0 0.1756221437091853 0.098261768214399026 0 0.1601039383478188 0.085671900924556149 0 0.17124377436232921 0.079108669225725042 0 0.15394909723707889 0.082205771325921106 0 0.1572719476738422 0.075609930362782213 0 0.1601039383478188 0.085671900924556149 0 0.098637243337517111 0.47198055329829658 0 0.1132003623853813 0.48296788376105532 0 0.1134257047395352 0.46151749508085382 0 0.098637243337517111 0.47198055329829658 0 0.098075618047146984 0.5 0 0.1132003623853813 0.48296788376105532 0 0.098075618047146984 0.5 0 0.1132003623853813 0.48296788376105532 0 0.1268796283368023 0.5 0 0.1132003623853813 0.48296788376105532 0 0.12704858122339069 0.47639866836220968 0 0.1268796283368023 0.5 0 0.1132003623853813 0.48296788376105532 0 0.1134257047395352 0.46151749508085382 0 0.12704858122339069 0.47639866836220968 0 0.1134257047395352 0.46151749508085382 0 0.12732762568223649 0.45427249207276249 0 0.12704858122339069 0.47639866836220968 0 0.11257114482495589 0.43557742458635162 0 0.13386762170456001 0.4297873695656203 0 0.12732762568223649 0.45427249207276249 0 0.11257114482495589 0.43557742458635162 0 0.12732762568223649 0.45427249207276249 0 0.1134257047395352 0.46151749508085382 0 0.11257114482495589 0.43557742458635162 0 0.12732762568223649 0.45427249207276249 0 0.10031218128496459 0.45363210883008742 0 0.092196008472032465 0.43849183100859501 0 0.11257114482495589 0.43557742458635162 0 0.1134257047395352 0.46151749508085382 0 0.10031218128496459 0.45363210883008742 0 0.11257114482495589 0.43557742458635162 0 0.098637243337517111 0.47198055329829658 0 0.1134257047395352 0.46151749508085382 0 0.10031218128496459 0.45363210883008742 0 0.098637243337517111 0.47198055329829658 0 0.10031218128496459 0.45363210883008742 0 0.084176197507672815 0.45765596060776309 0 0.084176197507672815 0.45765596060776309 0 0.072987317404394556 0.46702010413852141 0 0.082902588522914614 0.47777614886672948 0 0.084176197507672815 0.45765596060776309 0 0.092196008472032465 0.43849183100859501 0 0.075654459853943326 0.44155983020632378 0 0.10031218128496459 0.45363210883008742 0 0.084176197507672815 0.45765596060776309 0 0.092196008472032465 0.43849183100859501 0 0.075654459853943326 0.44155983020632378 0 0.068267950439062794 0.45391040584005138 0 0.059022027855971222 0.43679178638555149 0 0.084176197507672815 0.45765596060776309 0 0.075654459853943326 0.44155983020632378 0 0.068267950439062794 0.45391040584005138 0 0.084176197507672815 0.45765596060776309 0 0.072987317404394556 0.46702010413852141 0 0.068267950439062794 0.45391040584005138 0 0.072987317404394556 0.46702010413852141 0 0.068267950439062794 0.45391040584005138 0 0.062537926437964797 0.46584335605705279 0 0.062537926437964797 0.46584335605705279 0 0.068680038528260323 0.477814204849701 0 0.057993399539775323 0.47600358388104103 0 0.072987317404394556 0.46702010413852141 0 0.062537926437964797 0.46584335605705279 0 0.068680038528260323 0.477814204849701 0 0.068680038528260323 0.477814204849701 0 0.082902588522914614 0.47777614886672948 0 0.075664335866439503 0.488808863375082 0 0.072987317404394556 0.46702010413852141 0 0.068680038528260323 0.477814204849701 0 0.082902588522914614 0.47777614886672948 0 0.098637243337517111 0.47198055329829658 0 0.084176197507672815 0.45765596060776309 0 0.082902588522914614 0.47777614886672948 0 0.098637243337517111 0.47198055329829658 0 0.098075618047146984 0.5 0 0.082902588522914614 0.47777614886672948 0 0.098075618047146984 0.5 0 0.082902588522914614 0.47777614886672948 0 0.075664335866439503 0.488808863375082 0 0.098075618047146984 0.5 0 0.075664335866439503 0.488808863375082 0 0.069271607757491749 0.49999999999999989 0 0.075664335866439503 0.488808863375082 0 0.069271607757491749 0.49999999999999989 0 0.059391826476383719 0.48845396315897949 0 0.068680038528260323 0.477814204849701 0 0.075664335866439503 0.488808863375082 0 0.059391826476383719 0.48845396315897949 0 0.069271607757491749 0.49999999999999989 0 0.059391826476383719 0.48845396315897949 0 0.059391826476383719 0.48845396315897949 0 0.049512045195275689 0.47690792631795909 0 0.041999018117642728 0.5 0 0.069271607757491749 0.49999999999999989 0 0.059391826476383719 0.48845396315897949 0 0.041999018117642728 0.5 0 0.062537926437964797 0.46584335605705279 0 0.057993399539775323 0.47600358388104103 0 0.053793445902985459 0.46649969792216939 0 0.059391826476383719 0.48845396315897949 0 0.057993399539775323 0.47600358388104103 0 0.049512045195275689 0.47690792631795909 0 0.068680038528260323 0.477814204849701 0 0.059391826476383719 0.48845396315897949 0 0.057993399539775323 0.47600358388104103 0 0.059391826476383719 0.48845396315897949 0 0.049512045195275689 0.47690792631795909 0 0.057993399539775323 0.47600358388104103 0 0.049512045195275689 0.47690792631795909 0 0.053793445902985459 0.46649969792216939 0 0.057993399539775323 0.47600358388104103 0 0.049512045195275689 0.47690792631795909 0 0.049512045195275689 0.47690792631795909 0 0.021327958836273791 0.47991311444062401 0 0.028153554277597199 0.46472547422127392 0 0.049512045195275689 0.47690792631795909 0 0.021327958836273791 0.47991311444062401 0 0.049512045195275689 0.47690792631795909 0 0.041999018117642728 0.5 0 0.021327958836273791 0.47991311444062401 0 0.041999018117642728 0.5 0 0.021327958836273791 0.47991311444062401 0 0.014726428477793711 0.5 0 0.021327958836273791 0.47991311444062401 0 0.0089292086152718345 0.46542327678520612 0 0.028153554277597199 0.46472547422127392 0 -0.0068561275227281646 0.48291830256328661 0 0.0089292086152718345 0.46542327678520612 0 -0.0068561275227281646 0.48291830256328661 0 0.021327958836273791 0.47991311444062401 0 -0.0068561275227281646 0.48291830256328661 0 0.021327958836273791 0.47991311444062401 0 0.0089292086152718345 0.46542327678520612 0 -0.0068561275227281646 0.48291830256328661 0 0.021327958836273791 0.47991311444062401 0 0.014726428477793711 0.5 0 0.0032429327191542219 0.44588261561992137 0 0.0089292086152718345 0.46542327678520612 0 0.02471454475327341 0.44792825100712702 0 0.0032429327191542219 0.44588261561992137 0 0.02471454475327341 0.44792825100712702 0 0.01128678613624475 0.43518435548175349 0 0.0089292086152718345 0.46542327678520612 0 0.028153554277597199 0.46472547422127392 0 0.02471454475327341 0.44792825100712702 0 0.028153554277597199 0.46472547422127392 0 0.02471454475327341 0.44792825100712702 0 0.032000575564000593 0.45644309336768291 0 0.0089292086152718345 0.46542327678520612 0 0.02471454475327341 0.44792825100712702 0 0.028153554277597199 0.46472547422127392 0 0.032000575564000593 0.45644309336768291 0 0.02471454475327341 0.44792825100712702 0 0.032000575564000593 0.45644309336768291 0 0.02471454475327341 0.44792825100712702 0 0.023724924450018229 0.43292030736753512 0 0.01128678613624475 0.43518435548175349 0 0.02471454475327341 0.44792825100712702 0 0.036298217371139772 0.43508996557039592 0 0.02471454475327341 0.44792825100712702 0 0.036298217371139772 0.43508996557039592 0 0.023724924450018229 0.43292030736753512 0 0.03994123277650375 0.43934738675067397 0 0.032000575564000593 0.45644309336768291 0 0.03994123277650375 0.43934738675067397 0 0.032000575564000593 0.45644309336768291 0 0.045439812907032313 0.45849735534662439 0 0.03994123277650375 0.43934738675067397 0 0.045439812907032313 0.45849735534662439 0 0.05522977357443009 0.45459139764509598 0 0.02471454475327341 0.44792825100712702 0 0.03994123277650375 0.43934738675067397 0 0.036298217371139772 0.43508996557039592 0 0.02471454475327341 0.44792825100712702 0 0.03994123277650375 0.43934738675067397 0 0.032000575564000593 0.45644309336768291 0 0.049512045195275689 0.47690792631795909 0 0.032000575564000593 0.45644309336768291 0 0.045439812907032313 0.45849735534662439 0 0.049512045195275689 0.47690792631795909 0 0.028153554277597199 0.46472547422127392 0 0.032000575564000593 0.45644309336768291 0 0.049512045195275689 0.47690792631795909 0 0.032000575564000593 0.45644309336768291 0 0.049512045195275689 0.47690792631795909 0 0.045439812907032313 0.45849735534662439 0 0.053793445902985459 0.46649969792216939 0 0.045439812907032313 0.45849735534662439 0 0.053793445902985459 0.46649969792216939 0 0.05522977357443009 0.45459139764509598 0 0.068267950439062794 0.45391040584005138 0 0.062537926437964797 0.46584335605705279 0 0.05522977357443009 0.45459139764509598 0 0.062537926437964797 0.46584335605705279 0 0.053793445902985459 0.46649969792216939 0 0.05522977357443009 0.45459139764509598 0 0.03994123277650375 0.43934738675067397 0 0.05522977357443009 0.45459139764509598 0 0.059022027855971222 0.43679178638555149 0 0.068267950439062794 0.45391040584005138 0 0.05522977357443009 0.45459139764509598 0 0.059022027855971222 0.43679178638555149 0 0.03994123277650375 0.43934738675067397 0 0.059022027855971222 0.43679178638555149 0 0.047881889989006172 0.42225168013366488 0 0.059022027855971222 0.43679178638555149 0 0.047881889989006172 0.42225168013366488 0 0.062471501563285313 0.4207819472627401 0 0.047881889989006172 0.42225168013366488 0 0.0666189879265838 0.40148519099725949 0 0.047881889989006172 0.42225168013366488 0 0.055282867020239997 0.40631786903727468 0 0.039716700378301599 0.40444564392880522 0 0.047881889989006172 0.42225168013366488 0 0.062471501563285313 0.4207819472627401 0 0.0666189879265838 0.40148519099725949 0 0.047881889989006172 0.42225168013366488 0 0.055282867020239997 0.40631786903727468 0 0.0666189879265838 0.40148519099725949 0 0.047881889989006172 0.42225168013366488 0 0.055282867020239997 0.40631786903727468 0 0.047881889989006172 0.42225168013366488 0 0.030399185675229461 0.41889555261093492 0 0.039716700378301599 0.40444564392880522 0 0.03994123277650375 0.43934738675067397 0 0.047881889989006172 0.42225168013366488 0 0.047881889989006172 0.42225168013366488 0 0.036298217371139772 0.43508996557039592 0 0.030399185675229461 0.41889555261093492 0 0.03994123277650375 0.43934738675067397 0 0.047881889989006172 0.42225168013366488 0 0.036298217371139772 0.43508996557039592 0 0.047881889989006172 0.42225168013366488 0 0.036298217371139772 0.43508996557039592 0 0.036298217371139772 0.43508996557039592 0 0.023724924450018229 0.43292030736753512 0 0.030399185675229461 0.41889555261093492 0 0.023724924450018229 0.43292030736753512 0 0.030399185675229461 0.41889555261093492 0 0.01390337721774784 0.42158365213394322 0 0.023724924450018229 0.43292030736753512 0 0.01390337721774784 0.42158365213394322 0 0.01128678613624475 0.43518435548175349 0 0.030399185675229461 0.41889555261093492 0 0.02117437049173999 0.40202609303051212 0 0.039716700378301599 0.40444564392880522 0 0.030399185675229461 0.41889555261093492 0 0.01390337721774784 0.42158365213394322 0 0.02117437049173999 0.40202609303051212 0 -0.0010122343368932541 0.40112870612789647 0 -0.0080186453672848532 0.42893127256557118 0 0.01390337721774784 0.42158365213394322 0 -0.0010122343368932541 0.40112870612789647 0 0.01390337721774784 0.42158365213394322 0 0.02117437049173999 0.40202609303051212 0 -0.0080186453672848532 0.42893127256557118 0 0.01390337721774784 0.42158365213394322 0 0.01128678613624475 0.43518435548175349 0 -0.0080186453672848532 0.42893127256557118 0 0.0032429327191542219 0.44588261561992137 0 0.01128678613624475 0.43518435548175349 0 -0.0010122343368932541 0.40112870612789647 0 0.01034740095667388 0.38009490616324237 0 0.02117437049173999 0.40202609303051212 0 0.01034740095667388 0.38009490616324237 0 0.02117437049173999 0.40202609303051212 0 0.033691793059380422 0.38600809721825069 0 0.01034740095667388 0.38009490616324237 0 0.033691793059380422 0.38600809721825069 0 0.034838015250490392 0.36223443466111838 0 0.033691793059380422 0.38600809721825069 0 0.049321733171268603 0.39079209677164772 0 0.047720677946181532 0.37634905643262112 0 0.02117437049173999 0.40202609303051212 0 0.033691793059380422 0.38600809721825069 0 0.039716700378301599 0.40444564392880522 0 0.033691793059380422 0.38600809721825069 0 0.039716700378301599 0.40444564392880522 0 0.049321733171268603 0.39079209677164772 0 0.055282867020239997 0.40631786903727468 0 0.062683844051473925 0.39038405794088482 0 0.055282867020239997 0.40631786903727468 0 0.062683844051473925 0.39038405794088482 0 0.0666189879265838 0.40148519099725949 0 0.055282867020239997 0.40631786903727468 0 0.049321733171268603 0.39079209677164772 0 0.062683844051473925 0.39038405794088482 0 0.055282867020239997 0.40631786903727468 0 0.039716700378301599 0.40444564392880522 0 0.049321733171268603 0.39079209677164772 0 0.049321733171268603 0.39079209677164772 0 0.047720677946181532 0.37634905643262112 0 0.058734513873276703 0.38019262216941457 0 0.049321733171268603 0.39079209677164772 0 0.058734513873276703 0.38019262216941457 0 0.062683844051473925 0.39038405794088482 0 0.058734513873276703 0.38019262216941457 0 0.0642255634395522 0.38216366416922681 0 0.062683844051473925 0.39038405794088482 0 0.0642255634395522 0.38216366416922681 0 0.070870425911640639 0.38439138370461229 0 0.064613469921817546 0.37368659286199563 0 0.085356085864160908 0.38071870186085371 0 0.064613469921817546 0.37368659286199563 0 0.058734513873276703 0.38019262216941457 0 0.0642255634395522 0.38216366416922681 0 0.064613469921817546 0.37368659286199563 0 0.070870425911640639 0.38439138370461229 0 0.085356085864160908 0.38071870186085371 0 0.064613469921817546 0.37368659286199563 0 0.070870425911640639 0.38439138370461229 0 0.085356085864160908 0.38071870186085371 0 0.0666189879265838 0.40148519099725949 0 0.0642255634395522 0.38216366416922681 0 0.062683844051473925 0.39038405794088482 0 0.070870425911640639 0.38439138370461229 0 0.085356085864160908 0.38071870186085371 0 0.088045640085491886 0.40036026708549988 0 0.1018452474992204 0.38630881557842067 0 0.085356085864160908 0.38071870186085371 0 0.1018452474992204 0.38630881557842067 0 0.093027049937234069 0.37436354139453942 0 0.085356085864160908 0.38071870186085371 0 0.091396799044876742 0.37402372673389273 0 0.064613469921817546 0.37368659286199563 0 0.085356085864160908 0.38071870186085371 0 0.1018452474992204 0.38630881557842067 0 0.085356085864160908 0.38071870186085371 0 0.091396799044876742 0.37402372673389273 0 0.093027049937234069 0.37436354139453942 0 0.085356085864160908 0.38071870186085371 0 0.091396799044876742 0.37402372673389273 0 0.085356085864160908 0.38071870186085371 0 0.088045640085491886 0.40036026708549988 0 0.0666189879265838 0.40148519099725949 0 0.062683844051473925 0.39038405794088482 0 0.070870425911640639 0.38439138370461229 0 0.0666189879265838 0.40148519099725949 0 0.085356085864160908 0.38071870186085371 0 0.0666189879265838 0.40148519099725949 0 0.088045640085491886 0.40036026708549988 0 0.0666189879265838 0.40148519099725949 0 0.07636310048158014 0.42259913153448458 0 0.062471501563285313 0.4207819472627401 0 0.0666189879265838 0.40148519099725949 0 0.07636310048158014 0.42259913153448458 0 0.059022027855971222 0.43679178638555149 0 0.062471501563285313 0.4207819472627401 0 0.07636310048158014 0.42259913153448458 0 0.075654459853943326 0.44155983020632378 0 0.059022027855971222 0.43679178638555149 0 0.07636310048158014 0.42259913153448458 0 0.092196008472032465 0.43849183100859501 0 0.07636310048158014 0.42259913153448458 0 0.097814663967675269 0.41688235709994059 0 0.092196008472032465 0.43849183100859501 0 0.075654459853943326 0.44155983020632378 0 0.07636310048158014 0.42259913153448458 0 0.088045640085491886 0.40036026708549988 0 0.07636310048158014 0.42259913153448458 0 0.097814663967675269 0.41688235709994059 0 0.097814663967675269 0.41688235709994059 0 0.11299843726246959 0.40804476770095949 0 0.10231567500201209 0.40010653521635148 0 0.092196008472032465 0.43849183100859501 0 0.097814663967675269 0.41688235709994059 0 0.11257114482495589 0.43557742458635162 0 0.097814663967675269 0.41688235709994059 0 0.11257114482495589 0.43557742458635162 0 0.11257114482495589 0.43557742458635162 0 0.12020792674469589 0.4193587962283476 0 0.13386762170456001 0.4297873695656203 0 0.097814663967675269 0.41688235709994059 0 0.11257114482495589 0.43557742458635162 0 0.12020792674469589 0.4193587962283476 0 0.097814663967675269 0.41688235709994059 0 0.11299843726246959 0.40804476770095949 0 0.12020792674469589 0.4193587962283476 0 0.11299843726246959 0.40804476770095949 0 0.12020792674469589 0.4193587962283476 0 0.12920075257619701 0.40959789087169429 0 0.1183344091342801 0.39189892929598741 0 0.12920075257619701 0.40959789087169429 0 0.11299843726246959 0.40804476770095949 0 0.1183344091342801 0.39189892929598741 0 0.12920075257619701 0.40959789087169429 0 0.11299843726246959 0.40804476770095949 0 0.1183344091342801 0.39189892929598741 0 0.10231567500201209 0.40010653521635148 0 0.1183344091342801 0.39189892929598741 0 0.1069593141123015 0.37337131963684272 0 0.1183344091342801 0.39189892929598741 0 0.1018452474992204 0.38630881557842067 0 0.1183344091342801 0.39189892929598741 0 0.12477743794451 0.37873985157138929 0 0.1069593141123015 0.37337131963684272 0 0.1183344091342801 0.39189892929598741 0 0.1018452474992204 0.38630881557842067 0 0.1069593141123015 0.37337131963684272 0 0.1018452474992204 0.38630881557842067 0 0.1069593141123015 0.37337131963684272 0 0.093027049937234069 0.37436354139453942 0 0.1183344091342801 0.39189892929598741 0 0.1018452474992204 0.38630881557842067 0 0.10231567500201209 0.40010653521635148 0 0.088045640085491886 0.40036026708549988 0 0.097814663967675269 0.41688235709994059 0 0.10231567500201209 0.40010653521635148 0 0.088045640085491886 0.40036026708549988 0 0.1018452474992204 0.38630881557842067 0 0.10231567500201209 0.40010653521635148 0 0.10799922200941151 0.35918653439358073 0 0.1052268303734382 0.34934018949019729 0 0.095584219090322248 0.35484370997769832 0 0.1052268303734382 0.34934018949019729 0 0.095584219090322248 0.35484370997769832 0 0.098230324681164286 0.34118120836848559 0 0.095584219090322248 0.35484370997769832 0 0.1069593141123015 0.37337131963684272 0 0.095584219090322248 0.35484370997769832 0 0.1069593141123015 0.37337131963684272 0 0.093307092599236766 0.36450968013778851 0 0.10799922200941151 0.35918653439358073 0 0.095584219090322248 0.35484370997769832 0 0.1069593141123015 0.37337131963684272 0 0.094320621974497393 0.37078322826892401 0 0.1069593141123015 0.37337131963684272 0 0.093307092599236766 0.36450968013778851 0 0.094320621974497393 0.37078322826892401 0 0.1069593141123015 0.37337131963684272 0 0.093027049937234069 0.37436354139453942 0 0.12477743794451 0.37873985157138929 0 0.1069593141123015 0.37337131963684272 0 0.11866913113633711 0.3647349049898142 0 0.10799922200941151 0.35918653439358073 0 0.1069593141123015 0.37337131963684272 0 0.11866913113633711 0.3647349049898142 0 0.1152994731992705 0.35147585857670188 0 0.1221020608480546 0.33658156122159 0 0.12847229697847029 0.35265315113623358 0 0.11866913113633711 0.3647349049898142 0 0.1152994731992705 0.35147585857670188 0 0.12847229697847029 0.35265315113623358 0 0.10799922200941151 0.35918653439358073 0 0.11866913113633711 0.3647349049898142 0 0.1152994731992705 0.35147585857670188 0 0.10799922200941151 0.35918653439358073 0 0.1052268303734382 0.34934018949019729 0 0.1152994731992705 0.35147585857670188 0 0.1052268303734382 0.34934018949019729 0 0.1152994731992705 0.35147585857670188 0 0.1096020548379143 0.34031744912245693 0 0.1221020608480546 0.33658156122159 0 0.1117233601292346 0.33000041142674069 0 0.1181664457992527 0.32102443023205102 0 0.1221020608480546 0.33658156122159 0 0.1117233601292346 0.33000041142674069 0 0.1096020548379143 0.34031744912245693 0 0.1152994731992705 0.35147585857670188 0 0.1221020608480546 0.33658156122159 0 0.1096020548379143 0.34031744912245693 0 0.1221020608480546 0.33658156122159 0 0.1181664457992527 0.32102443023205102 0 0.13147508835603169 0.32060333767696908 0 0.1181664457992527 0.32102443023205102 0 0.1175840514375965 0.30294337427177842 0 0.13147508835603169 0.32060333767696908 0 0.1181664457992527 0.32102443023205102 0 0.1057535604762503 0.31988800243065141 0 0.1175840514375965 0.30294337427177842 0 0.1117233601292346 0.33000041142674069 0 0.1181664457992527 0.32102443023205102 0 0.1057535604762503 0.31988800243065141 0 0.1117233601292346 0.33000041142674069 0 0.1057535604762503 0.31988800243065141 0 0.101750783509845 0.33127213814768819 0 0.1057535604762503 0.31988800243065141 0 0.094177067539710446 0.32341941527764773 0 0.101750783509845 0.33127213814768819 0 0.1057535604762503 0.31988800243065141 0 0.094177067539710446 0.32341941527764773 0 0.091416716334191572 0.31134412317449928 0 0.1052268303734382 0.34934018949019729 0 0.1096020548379143 0.34031744912245693 0 0.098230324681164286 0.34118120836848559 0 0.1096020548379143 0.34031744912245693 0 0.101750783509845 0.33127213814768819 0 0.098230324681164286 0.34118120836848559 0 0.1117233601292346 0.33000041142674069 0 0.1096020548379143 0.34031744912245693 0 0.101750783509845 0.33127213814768819 0 0.094177067539710446 0.32341941527764773 0 0.101750783509845 0.33127213814768819 0 0.092828335810934373 0.33200118139800122 0 0.101750783509845 0.33127213814768819 0 0.098230324681164286 0.34118120836848559 0 0.092828335810934373 0.33200118139800122 0 0.098230324681164286 0.34118120836848559 0 0.092828335810934373 0.33200118139800122 0 0.084209124068343022 0.33631610031855391 0 0.092828335810934373 0.33200118139800122 0 0.084209124068343022 0.33631610031855391 0 0.086528546928999986 0.32747322785173621 0 0.079346392613974345 0.32984289911383757 0 0.084209124068343022 0.33631610031855391 0 0.074829142846358013 0.33926273910289761 0 0.079346392613974345 0.32984289911383757 0 0.084209124068343022 0.33631610031855391 0 0.086528546928999986 0.32747322785173621 0 0.065249381230786802 0.31974487207722158 0 0.091416716334191572 0.31134412317449928 0 0.080296589633190266 0.32166069417267901 0 0.065249381230786802 0.31974487207722158 0 0.091416716334191572 0.31134412317449928 0 0.094177067539710446 0.32341941527764773 0 0.088104730109023061 0.32097436511914063 0 0.091416716334191572 0.31134412317449928 0 0.088104730109023061 0.32097436511914063 0 0.080296589633190266 0.32166069417267901 0 0.091416716334191572 0.31134412317449928 0 0.094177067539710446 0.32341941527764773 0 0.092828335810934373 0.33200118139800122 0 0.086528546928999986 0.32747322785173621 0 0.094177067539710446 0.32341941527764773 0 0.088104730109023061 0.32097436511914063 0 0.086528546928999986 0.32747322785173621 0 0.079346392613974345 0.32984289911383757 0 0.086528546928999986 0.32747322785173621 0 0.080296589633190266 0.32166069417267901 0 0.079346392613974345 0.32984289911383757 0 0.080296589633190266 0.32166069417267901 0 0.07493037658107736 0.32762780111665901 0 0.088104730109023061 0.32097436511914063 0 0.086528546928999986 0.32747322785173621 0 0.080296589633190266 0.32166069417267901 0 0.065249381230786802 0.31974487207722158 0 0.061272860023593063 0.31164308256915407 0 0.091416716334191572 0.31134412317449928 0 0.080296589633190266 0.32166069417267901 0 0.07493037658107736 0.32762780111665901 0 0.065249381230786802 0.31974487207722158 0 0.065249381230786802 0.31974487207722158 0 0.065520445146011269 0.33324961638636758 0 0.060762595475312063 0.32941662778077541 0 0.065249381230786802 0.31974487207722158 0 0.061272860023593063 0.31164308256915407 0 0.065249381230786802 0.31974487207722158 0 0.074829142846358013 0.33926273910289761 0 0.065520445146011269 0.33324961638636758 0 0.07493037658107736 0.32762780111665901 0 0.065249381230786802 0.31974487207722158 0 0.074829142846358013 0.33926273910289761 0 0.065249381230786802 0.31974487207722158 0 0.074829142846358013 0.33926273910289761 0 0.079346392613974345 0.32984289911383757 0 0.07493037658107736 0.32762780111665901 0 0.074829142846358013 0.33926273910289761 0 0.065520445146011269 0.33324961638636758 0 0.065181167129191919 0.34301436655165413 0 0.058272666053747743 0.33552965349059077 0 0.074829142846358013 0.33926273910289761 0 0.065520445146011269 0.33324961638636758 0 0.065181167129191919 0.34301436655165413 0 0.074829142846358013 0.33926273910289761 0 0.072322141883740462 0.35142618715725982 0 0.08440890446192939 0.35878060612857349 0 0.065181167129191919 0.34301436655165413 0 0.063459028458790465 0.35444852194725762 0 0.072322141883740462 0.35142618715725982 0 0.063459028458790465 0.35444852194725762 0 0.072322141883740462 0.35142618715725982 0 0.074940856199404451 0.36136162453289772 0 0.072322141883740462 0.35142618715725982 0 0.08440890446192939 0.35878060612857349 0 0.074940856199404451 0.36136162453289772 0 0.074829142846358013 0.33926273910289761 0 0.065181167129191919 0.34301436655165413 0 0.072322141883740462 0.35142618715725982 0 0.095584219090322248 0.35484370997769832 0 0.084209124068343022 0.33631610031855391 0 0.08440890446192939 0.35878060612857349 0 0.084209124068343022 0.33631610031855391 0 0.074829142846358013 0.33926273910289761 0 0.08440890446192939 0.35878060612857349 0 0.074829142846358013 0.33926273910289761 0 0.08440890446192939 0.35878060612857349 0 0.095584219090322248 0.35484370997769832 0 0.084209124068343022 0.33631610031855391 0 0.095584219090322248 0.35484370997769832 0 0.098230324681164286 0.34118120836848559 0 0.084209124068343022 0.33631610031855391 0 0.08440890446192939 0.35878060612857349 0 0.091396799044876742 0.37402372673389273 0 0.074940856199404451 0.36136162453289772 0 0.094320621974497393 0.37078322826892401 0 0.091396799044876742 0.37402372673389273 0 0.093307092599236766 0.36450968013778851 0 0.094320621974497393 0.37078322826892401 0 0.091396799044876742 0.37402372673389273 0 0.093027049937234069 0.37436354139453942 0 0.091396799044876742 0.37402372673389273 0 0.093027049937234069 0.37436354139453942 0 0.094320621974497393 0.37078322826892401 0 0.091396799044876742 0.37402372673389273 0 0.08440890446192939 0.35878060612857349 0 0.091396799044876742 0.37402372673389273 0 0.093307092599236766 0.36450968013778851 0 0.095584219090322248 0.35484370997769832 0 0.08440890446192939 0.35878060612857349 0 0.093307092599236766 0.36450968013778851 0 0.091396799044876742 0.37402372673389273 0 0.063117407147683796 0.36812908069750372 0 0.064613469921817546 0.37368659286199563 0 0.091396799044876742 0.37402372673389273 0 0.074940856199404451 0.36136162453289772 0 0.063117407147683796 0.36812908069750372 0 0.091396799044876742 0.37402372673389273 0 0.063117407147683796 0.36812908069750372 0 0.063459028458790465 0.35444852194725762 0 0.074940856199404451 0.36136162453289772 0 0.063117407147683796 0.36812908069750372 0 0.047720677946181532 0.37634905643262112 0 0.058734513873276703 0.38019262216941457 0 0.063117407147683796 0.36812908069750372 0 0.047720677946181532 0.37634905643262112 0 0.063117407147683796 0.36812908069750372 0 0.034838015250490392 0.36223443466111838 0 0.063117407147683796 0.36812908069750372 0 0.034838015250490392 0.36223443466111838 0 0.063117407147683796 0.36812908069750372 0 0.048882416352375758 0.35395387412669871 0 0.034838015250490392 0.36223443466111838 0 0.058734513873276703 0.38019262216941457 0 0.063117407147683796 0.36812908069750372 0 0.064613469921817546 0.37368659286199563 0 0.063459028458790465 0.35444852194725762 0 0.055029941889173692 0.34452956976120241 0 0.048882416352375758 0.35395387412669871 0 0.065181167129191919 0.34301436655165413 0 0.063459028458790465 0.35444852194725762 0 0.055029941889173692 0.34452956976120241 0 0.063459028458790465 0.35444852194725762 0 0.063117407147683796 0.36812908069750372 0 0.048882416352375758 0.35395387412669871 0 0.055029941889173692 0.34452956976120241 0 0.048882416352375758 0.35395387412669871 0 0.043895250755508097 0.34358650263540658 0 0.048882416352375758 0.35395387412669871 0 0.033919245284930302 0.34969903946784009 0 0.043895250755508097 0.34358650263540658 0 0.048882416352375758 0.35395387412669871 0 0.033919245284930302 0.34969903946784009 0 0.034838015250490392 0.36223443466111838 0 0.033919245284930302 0.34969903946784009 0 0.027544702579970881 0.33956606838801062 0 0.03689901854556419 0.34204344633139361 0 0.033919245284930302 0.34969903946784009 0 0.03689901854556419 0.34204344633139361 0 0.043895250755508097 0.34358650263540658 0 0.033691793059380422 0.38600809721825069 0 0.047720677946181532 0.37634905643262112 0 0.034838015250490392 0.36223443466111838 0 0.01034740095667388 0.38009490616324237 0 0.034838015250490392 0.36223443466111838 0 0.0065586233532973284 0.35633978862473098 0 0.033919245284930302 0.34969903946784009 0 0.034838015250490392 0.36223443466111838 0 0.023394630517927961 0.3571259213742019 0 0.01140945256937767 0.35246262551542368 0 0.027544702579970881 0.33956606838801062 0 0.033919245284930302 0.34969903946784009 0 0.024067007738051701 0.34971341368636899 0 0.023394630517927961 0.3571259213742019 0 0.034838015250490392 0.36223443466111838 0 0.0065586233532973284 0.35633978862473098 0 0.01140945256937767 0.35246262551542368 0 0.01254248398045639 0.34306983624720377 0 0.027544702579970881 0.33956606838801062 0 0.034838015250490392 0.36223443466111838 0 0.023394630517927961 0.3571259213742019 0 0.0065586233532973284 0.35633978862473098 0 0.024067007738051701 0.34971341368636899 0 0.01140945256937767 0.35246262551542368 0 0.027544702579970881 0.33956606838801062 0 0.033919245284930302 0.34969903946784009 0 0.024067007738051701 0.34971341368636899 0 0.027544702579970881 0.33956606838801062 0 0.024067007738051701 0.34971341368636899 0 0.023394630517927961 0.3571259213742019 0 0.01140945256937767 0.35246262551542368 0 0.023394630517927961 0.3571259213742019 0 0.01140945256937767 0.35246262551542368 0 -0.015923984511718801 0.34182749731844658 0 0.01140945256937767 0.35246262551542368 0 0.0065586233532973284 0.35633978862473098 0 0.023394630517927961 0.3571259213742019 0 0.01140945256937767 0.35246262551542368 0 0.0065586233532973284 0.35633978862473098 0 0.01140945256937767 0.35246262551542368 0 0.0065586233532973284 0.35633978862473098 0 0.01140945256937767 0.35246262551542368 0 0.0012391366043956341 0.34476953888556638 0 0.01254248398045639 0.34306983624720377 0 -0.010954278063915499 0.37033747279110729 0 0.01034740095667388 0.38009490616324237 0 0.0065586233532973284 0.35633978862473098 0 0.0045161698998515626 0.32060316832622621 0 0.01988384275835842 0.32190819031232781 0 0.012545051130647491 0.30474907620449748 0 0.0045161698998515626 0.32060316832622621 0 0.0099766441680813889 0.3354811121998143 0 0.01988384275835842 0.32190819031232781 0 -0.003615850522113911 0.33278336917249962 0 0.0045161698998515626 0.32060316832622621 0 0.0099766441680813889 0.3354811121998143 0 -0.003615850522113911 0.33278336917249962 0 0.0012391366043956341 0.34476953888556638 0 0.0099766441680813889 0.3354811121998143 0 0.0012391366043956341 0.34476953888556638 0 0.01254248398045639 0.34306983624720377 0 0.0099766441680813889 0.3354811121998143 0 0.0099766441680813889 0.3354811121998143 0 0.027544702579970881 0.33956606838801062 0 0.034101413927001382 0.32974460078919049 0 0.0099766441680813889 0.3354811121998143 0 0.035624752095837237 0.32356209738448422 0 0.034101413927001382 0.32974460078919049 0 0.0099766441680813889 0.3354811121998143 0 0.035624752095837237 0.32356209738448422 0 0.01254248398045639 0.34306983624720377 0 0.0099766441680813889 0.3354811121998143 0 0.027544702579970881 0.33956606838801062 0 0.01988384275835842 0.32190819031232781 0 0.029760751893772169 0.31713286595950502 0 0.035624752095837237 0.32356209738448422 0 0.0099766441680813889 0.3354811121998143 0 0.01988384275835842 0.32190819031232781 0 0.035624752095837237 0.32356209738448422 0 0.029760751893772169 0.31713286595950502 0 0.03426657442904401 0.31122794586324931 0 0.027099719274675371 0.30919587011355409 0 0.01988384275835842 0.32190819031232781 0 0.029760751893772169 0.31713286595950502 0 0.027099719274675371 0.30919587011355409 0 0.035624752095837237 0.32356209738448422 0 0.043679952590565042 0.32666951126059862 0 0.054845860634078362 0.31774484192680541 0 0.035624752095837237 0.32356209738448422 0 0.043727295716599737 0.30743896967492768 0 0.03426657442904401 0.31122794586324931 0 0.035624752095837237 0.32356209738448422 0 0.061272860023593063 0.31164308256915407 0 0.043727295716599737 0.30743896967492768 0 0.029760751893772169 0.31713286595950502 0 0.035624752095837237 0.32356209738448422 0 0.03426657442904401 0.31122794586324931 0 0.035624752095837237 0.32356209738448422 0 0.043679952590565042 0.32666951126059862 0 0.034101413927001382 0.32974460078919049 0 0.027544702579970881 0.33956606838801062 0 0.043679952590565042 0.32666951126059862 0 0.027544702579970881 0.33956606838801062 0 0.043679952590565042 0.32666951126059862 0 0.034101413927001382 0.32974460078919049 0 0.027544702579970881 0.33956606838801062 0 0.043679952590565042 0.32666951126059862 0 0.042236875561847492 0.33532217483431692 0 0.027544702579970881 0.33956606838801062 0 0.03689901854556419 0.34204344633139361 0 0.042236875561847492 0.33532217483431692 0 0.043679952590565042 0.32666951126059862 0 0.034101413927001382 0.32974460078919049 0 0.043679952590565042 0.32666951126059862 0 0.042236875561847492 0.33532217483431692 0 0.052354252973372518 0.32950245770457243 0 0.03689901854556419 0.34204344633139361 0 0.042236875561847492 0.33532217483431692 0 0.043895250755508097 0.34358650263540658 0 0.042236875561847492 0.33532217483431692 0 0.043895250755508097 0.34358650263540658 0 0.050286094864886069 0.33757912521055639 0 0.055029941889173692 0.34452956976120241 0 0.050286094864886069 0.33757912521055639 0 0.058272666053747743 0.33552965349059077 0 0.055029941889173692 0.34452956976120241 0 0.043895250755508097 0.34358650263540658 0 0.050286094864886069 0.33757912521055639 0 0.042236875561847492 0.33532217483431692 0 0.050286094864886069 0.33757912521055639 0 0.052354252973372518 0.32950245770457243 0 0.050286094864886069 0.33757912521055639 0 0.052354252973372518 0.32950245770457243 0 0.058272666053747743 0.33552965349059077 0 0.052354252973372518 0.32950245770457243 0 0.060762595475312063 0.32941662778077541 0 0.058272666053747743 0.33552965349059077 0 0.065520445146011269 0.33324961638636758 0 0.060762595475312063 0.32941662778077541 0 0.058272666053747743 0.33552965349059077 0 0.065181167129191919 0.34301436655165413 0 0.055029941889173692 0.34452956976120241 0 0.058272666053747743 0.33552965349059077 0 0.035624752095837237 0.32356209738448422 0 0.054845860634078362 0.31774484192680541 0 0.061272860023593063 0.31164308256915407 0 0.065249381230786802 0.31974487207722158 0 0.043679952590565042 0.32666951126059862 0 0.054845860634078362 0.31774484192680541 0 0.065249381230786802 0.31974487207722158 0 0.043679952590565042 0.32666951126059862 0 0.052354252973372518 0.32950245770457243 0 0.065249381230786802 0.31974487207722158 0 0.043679952590565042 0.32666951126059862 0 0.035624752095837237 0.32356209738448422 0 0.061272860023593063 0.31164308256915407 0 0.043679952590565042 0.32666951126059862 0 0.054845860634078362 0.31774484192680541 0 0.065249381230786802 0.31974487207722158 0 0.052354252973372518 0.32950245770457243 0 0.060762595475312063 0.32941662778077541 0 0.065249381230786802 0.31974487207722158 0 0.054845860634078362 0.31774484192680541 0 0.061272860023593063 0.31164308256915407 0 0.061272860023593063 0.31164308256915407 0 0.051097818613257212 0.29091238871714459 0 0.061272860023593063 0.31164308256915407 0 0.051097818613257212 0.29091238871714459 0 0.043727295716599737 0.30743896967492768 0 0.061272860023593063 0.31164308256915407 0 0.051097818613257212 0.29091238871714459 0 0.063391956072332251 0.29116924617190509 0 0.051097818613257212 0.29091238871714459 0 0.062066991577180992 0.27116559795833572 0 0.063391956072332251 0.29116924617190509 0 0.051097818613257212 0.29091238871714459 0 0.035120353164335517 0.29880992618377561 0 0.025212307960237549 0.28657124225164121 0 0.051097818613257212 0.29091238871714459 0 0.025212307960237549 0.28657124225164121 0 0.040922777202923033 0.27018169486513438 0 0.051097818613257212 0.29091238871714459 0 0.043727295716599737 0.30743896967492768 0 0.035120353164335517 0.29880992618377561 0 0.043727295716599737 0.30743896967492768 0 0.035120353164335517 0.29880992618377561 0 0.03426657442904401 0.31122794586324931 0 0.035120353164335517 0.29880992618377561 0 0.03426657442904401 0.31122794586324931 0 0.027099719274675371 0.30919587011355409 0 0.035120353164335517 0.29880992618377561 0 0.027099719274675371 0.30919587011355409 0 0.025212307960237549 0.28657124225164121 0 0.027099719274675371 0.30919587011355409 0 0.025212307960237549 0.28657124225164121 0 0.012545051130647491 0.30474907620449748 0 0.01988384275835842 0.32190819031232781 0 0.027099719274675371 0.30919587011355409 0 0.012545051130647491 0.30474907620449748 0 0.025212307960237549 0.28657124225164121 0 0.0051691312004334532 0.28902472209096208 0 0.012545051130647491 0.30474907620449748 0 -0.003114773589655063 0.30739282621521957 0 0.0051691312004334532 0.28902472209096208 0 0.012545051130647491 0.30474907620449748 0 -0.003114773589655063 0.30739282621521957 0 0.0045161698998515626 0.32060316832622621 0 0.012545051130647491 0.30474907620449748 0 -0.0046185520507155808 0.27097983876130521 0 0.009710696962624589 0.24573559211884061 0 -0.0046185520507155808 0.27097983876130521 0 0.009710696962624589 0.24573559211884061 0 0.01842890665900164 0.2679827993126635 0 -0.0046185520507155808 0.27097983876130521 0 0.0051691312004334532 0.28902472209096208 0 0.01842890665900164 0.2679827993126635 0 0.025212307960237549 0.28657124225164121 0 0.0051691312004334532 0.28902472209096208 0 0.01842890665900164 0.2679827993126635 0 0.025212307960237549 0.28657124225164121 0 0.01842890665900164 0.2679827993126635 0 0.040922777202923033 0.27018169486513438 0 0.032913974457118397 0.24825870951913431 0 0.01842890665900164 0.2679827993126635 0 0.040922777202923033 0.27018169486513438 0 0.009710696962624589 0.24573559211884061 0 0.032913974457118397 0.24825870951913431 0 0.01842890665900164 0.2679827993126635 0 0.032913974457118397 0.24825870951913431 0 0.040922777202923033 0.27018169486513438 0 0.053830772677006637 0.251528665263758 0 0.051097818613257212 0.29091238871714459 0 0.040922777202923033 0.27018169486513438 0 0.051097818613257212 0.29091238871714459 0 0.040922777202923033 0.27018169486513438 0 0.062066991577180992 0.27116559795833572 0 0.062066991577180992 0.27116559795833572 0 0.053830772677006637 0.251528665263758 0 0.070364450115838459 0.25098671079286661 0 0.040922777202923033 0.27018169486513438 0 0.062066991577180992 0.27116559795833572 0 0.053830772677006637 0.251528665263758 0 0.062066991577180992 0.27116559795833572 0 0.070364450115838459 0.25098671079286661 0 0.077763575252944347 0.26312021797153629 0 0.070364450115838459 0.25098671079286661 0 0.077763575252944347 0.26312021797153629 0 0.091132763279519829 0.25396422720250672 0 0.077763575252944347 0.26312021797153629 0 0.091132763279519829 0.25396422720250672 0 0.092611028758063235 0.26765286505573732 0 0.093745265212292803 0.27805609776191759 0 0.092611028758063235 0.26765286505573732 0 0.0808340706224982 0.27484907435963468 0 0.093745265212292803 0.27805609776191759 0 0.0808340706224982 0.27484907435963468 0 0.085687674341368994 0.28599185851441811 0 0.077763575252944347 0.26312021797153629 0 0.092611028758063235 0.26765286505573732 0 0.0808340706224982 0.27484907435963468 0 0.062066991577180992 0.27116559795833572 0 0.0808340706224982 0.27484907435963468 0 0.073103759396963605 0.28409272350604647 0 0.062066991577180992 0.27116559795833572 0 0.077763575252944347 0.26312021797153629 0 0.0808340706224982 0.27484907435963468 0 0.062066991577180992 0.27116559795833572 0 0.063391956072332251 0.29116924617190509 0 0.073103759396963605 0.28409272350604647 0 0.063391956072332251 0.29116924617190509 0 0.074226601905951137 0.29464016662077719 0 0.073103759396963605 0.28409272350604647 0 0.074226601905951137 0.29464016662077719 0 0.073103759396963605 0.28409272350604647 0 0.085687674341368994 0.28599185851441811 0 0.061272860023593063 0.31164308256915407 0 0.074226601905951137 0.29464016662077719 0 0.088081609692387444 0.299184702193382 0 0.061272860023593063 0.31164308256915407 0 0.063391956072332251 0.29116924617190509 0 0.074226601905951137 0.29464016662077719 0 0.061272860023593063 0.31164308256915407 0 0.088081609692387444 0.299184702193382 0 0.061272860023593063 0.31164308256915407 0 0.088081609692387444 0.299184702193382 0 0.091416716334191572 0.31134412317449928 0 0.0808340706224982 0.27484907435963468 0 0.073103759396963605 0.28409272350604647 0 0.085687674341368994 0.28599185851441811 0 0.074226601905951137 0.29464016662077719 0 0.088081609692387444 0.299184702193382 0 0.085687674341368994 0.28599185851441811 0 0.088081609692387444 0.299184702193382 0 0.085687674341368994 0.28599185851441811 0 0.097879984317517585 0.28483540937474522 0 0.093745265212292803 0.27805609776191759 0 0.085687674341368994 0.28599185851441811 0 0.097879984317517585 0.28483540937474522 0 0.097879984317517585 0.28483540937474522 0 0.1148903593611819 0.28672632181760987 0 0.1069950129803568 0.27421806658639852 0 0.088081609692387444 0.299184702193382 0 0.097879984317517585 0.28483540937474522 0 0.1148903593611819 0.28672632181760987 0 0.088081609692387444 0.299184702193382 0 0.1148903593611819 0.28672632181760987 0 0.088081609692387444 0.299184702193382 0 0.1175840514375965 0.30294337427177842 0 0.1148903593611819 0.28672632181760987 0 0.1057535604762503 0.31988800243065141 0 0.091416716334191572 0.31134412317449928 0 0.1175840514375965 0.30294337427177842 0 0.088081609692387444 0.299184702193382 0 0.091416716334191572 0.31134412317449928 0 0.1175840514375965 0.30294337427177842 0 0.091416716334191572 0.31134412317449928 0 0.1175840514375965 0.30294337427177842 0 0.1230051125690072 0.2671732824241192 0 0.10519548520076751 0.26170950645242969 0 0.1069950129803568 0.27421806658639852 0 0.1148903593611819 0.28672632181760987 0 0.1230051125690072 0.2671732824241192 0 0.1069950129803568 0.27421806658639852 0 0.11346574577904781 0.24363926624563939 0 0.1310625925440391 0.2490093817752059 0 0.1230051125690072 0.2671732824241192 0 0.11346574577904781 0.24363926624563939 0 0.1230051125690072 0.2671732824241192 0 0.10519548520076751 0.26170950645242969 0 0.11346574577904781 0.24363926624563939 0 0.091132763279519829 0.25396422720250672 0 0.10519548520076751 0.26170950645242969 0 0.091132763279519829 0.25396422720250672 0 0.092611028758063235 0.26765286505573732 0 0.10519548520076751 0.26170950645242969 0 0.093745265212292803 0.27805609776191759 0 0.092611028758063235 0.26765286505573732 0 0.1069950129803568 0.27421806658639852 0 0.093745265212292803 0.27805609776191759 0 0.097879984317517585 0.28483540937474522 0 0.1069950129803568 0.27421806658639852 0 0.092611028758063235 0.26765286505573732 0 0.10519548520076751 0.26170950645242969 0 0.1069950129803568 0.27421806658639852 0 0.14169910902997629 0.2742679414418378 0 0.14375138654100139 0.2945426253690574 0 0.15698742161327189 0.27358445054814512 0 0.14169910902997629 0.2742679414418378 0 0.14683181586188079 0.2572377035261933 0 0.15698742161327189 0.27358445054814512 0 0.14683181586188079 0.2572377035261933 0 0.15698742161327189 0.27358445054814512 0 0.1647349094604412 0.25835466305503141 0 0.15706625914255179 0.2474196668040588 0 0.14683181586188079 0.2572377035261933 0 0.1647349094604412 0.25835466305503141 0 0.1310625925440391 0.2490093817752059 0 0.1230051125690072 0.2671732824241192 0 0.14683181586188079 0.2572377035261933 0 0.1148903593611819 0.28672632181760987 0 0.1230051125690072 0.2671732824241192 0 0.14169910902997629 0.2742679414418378 0 0.1230051125690072 0.2671732824241192 0 0.14169910902997629 0.2742679414418378 0 0.14683181586188079 0.2572377035261933 0 0.1148903593611819 0.28672632181760987 0 0.14169910902997629 0.2742679414418378 0 0.1148903593611819 0.28672632181760987 0 0.14169910902997629 0.2742679414418378 0 0.14375138654100139 0.2945426253690574 0 0.1175840514375965 0.30294337427177842 0 0.1148903593611819 0.28672632181760987 0 0.14375138654100139 0.2945426253690574 0 0.1175840514375965 0.30294337427177842 0 0.14664414872701051 0.31182713077368962 0 0.14375138654100139 0.2945426253690574 0 0.1175840514375965 0.30294337427177842 0 0.14664414872701051 0.31182713077368962 0 0.13147508835603169 0.32060333767696908 0 0.1175840514375965 0.30294337427177842 0 0.14375138654100139 0.2945426253690574 0 0.14664414872701051 0.31182713077368962 0 0.14375138654100139 0.2945426253690574 0 0.15934560227438049 0.30510360682474019 0 0.14375138654100139 0.2945426253690574 0 0.16991872164440641 0.28614187646633638 0 0.14375138654100139 0.2945426253690574 0 0.16991872164440641 0.28614187646633638 0 0.15698742161327189 0.27358445054814512 0 0.14375138654100139 0.2945426253690574 0 0.16991872164440641 0.28614187646633638 0 0.15934560227438049 0.30510360682474019 0 0.16991872164440641 0.28614187646633638 0 0.15934560227438049 0.30510360682474019 0 0.17594422743027191 0.30896522277798982 0 0.16991872164440641 0.28614187646633638 0 0.17594422743027191 0.30896522277798982 0 0.194611259776068 0.29786208681544118 0 0.16991872164440641 0.28614187646633638 0 0.19608605674781171 0.27774112756361602 0 0.16991872164440641 0.28614187646633638 0 0.19608605674781171 0.27774112756361602 0 0.194611259776068 0.29786208681544118 0 0.17498858714192561 0.27096189343041471 0 0.19608605674781171 0.27774112756361602 0 0.188637989917216 0.2657759408206849 0 0.16991872164440641 0.28614187646633638 0 0.17498858714192561 0.27096189343041471 0 0.19608605674781171 0.27774112756361602 0 0.17498858714192561 0.27096189343041471 0 0.15698742161327189 0.27358445054814512 0 0.1647349094604412 0.25835466305503141 0 0.16991872164440641 0.28614187646633638 0 0.17498858714192561 0.27096189343041471 0 0.15698742161327189 0.27358445054814512 0 0.17262296461252361 0.24598002663571639 0 0.15706625914255179 0.2474196668040588 0 0.1647349094604412 0.25835466305503141 0 0.17262296461252361 0.24598002663571639 0 0.1647349094604412 0.25835466305503141 0 0.17959405283110921 0.25593233694228879 0 0.17498858714192561 0.27096189343041471 0 0.1647349094604412 0.25835466305503141 0 0.17959405283110921 0.25593233694228879 0 0.17959405283110921 0.25593233694228879 0 0.18926039540590539 0.25577348516009202 0 0.188637989917216 0.2657759408206849 0 0.17498858714192561 0.27096189343041471 0 0.17959405283110921 0.25593233694228879 0 0.188637989917216 0.2657759408206849 0 0.18551140280300901 0.24943314608306449 0 0.17959405283110921 0.25593233694228879 0 0.18926039540590539 0.25577348516009202 0 0.18551140280300901 0.24943314608306449 0 0.18003979482582949 0.24492117431349819 0 0.17959405283110921 0.25593233694228879 0 0.1976370905295432 0.25658005378983773 0 0.19608605674781171 0.27774112756361602 0 0.20942805637182799 0.26087087443910062 0 0.19412740356769359 0.24583763153471019 0 0.18926039540590539 0.25577348516009202 0 0.1976370905295432 0.25658005378983773 0 0.18551140280300901 0.24943314608306449 0 0.19412740356769359 0.24583763153471019 0 0.18926039540590539 0.25577348516009202 0 0.18926039540590539 0.25577348516009202 0 0.1976370905295432 0.25658005378983773 0 0.188637989917216 0.2657759408206849 0 0.1976370905295432 0.25658005378983773 0 0.19608605674781171 0.27774112756361602 0 0.188637989917216 0.2657759408206849 0 0.1976370905295432 0.25658005378983773 0 0.19608605674781171 0.27774112756361602 0 0.19608605674781171 0.27774112756361602 0 0.2166297162766001 0.27114580081129791 0 0.19608605674781171 0.27774112756361602 0 0.2166297162766001 0.27114580081129791 0 0.2124973945194607 0.28917770173810098 0 0.19608605674781171 0.27774112756361602 0 0.2166297162766001 0.27114580081129791 0 0.20942805637182799 0.26087087443910062 0 0.21472772664601869 0.24949759380759701 0 0.2052185662472745 0.243668841804765 0 0.20942805637182799 0.26087087443910062 0 0.2052185662472745 0.243668841804765 0 0.1976370905295432 0.25658005378983773 0 0.20942805637182799 0.26087087443910062 0 0.2166297162766001 0.27114580081129791 0 0.20942805637182799 0.26087087443910062 0 0.2198699135625459 0.25688632719832921 0 0.21472772664601869 0.24949759380759701 0 0.20942805637182799 0.26087087443910062 0 0.2198699135625459 0.25688632719832921 0 0.22641701269512471 0.2483688418527038 0 0.2198699135625459 0.25688632719832921 0 0.22735228514747161 0.25491030756767907 0 0.21472772664601869 0.24949759380759701 0 0.22641701269512471 0.2483688418527038 0 0.2198699135625459 0.25688632719832921 0 0.23365661848589789 0.24997396643801059 0 0.22641701269512471 0.2483688418527038 0 0.22735228514747161 0.25491030756767907 0 0.23365661848589789 0.24997396643801059 0 0.22735228514747161 0.25491030756767907 0 0.22946559584631979 0.26441209478167238 0 0.2166297162766001 0.27114580081129791 0 0.2198699135625459 0.25688632719832921 0 0.22946559584631979 0.26441209478167238 0 0.2198699135625459 0.25688632719832921 0 0.22735228514747161 0.25491030756767907 0 0.22946559584631979 0.26441209478167238 0 0.2166297162766001 0.27114580081129791 0 0.22891827805083181 0.28242512802774722 0 0.2124973945194607 0.28917770173810098 0 0.2166297162766001 0.27114580081129791 0 0.22946559584631979 0.26441209478167238 0 0.22891827805083181 0.28242512802774722 0 0.22946559584631979 0.26441209478167238 0 0.24682250712720019 0.27582133871164177 0 0.22891827805083181 0.28242512802774722 0 0.23365661848589789 0.24997396643801059 0 0.26299921505984269 0.2564796415422389 0 0.25092579941719262 0.26245818326567438 0 0.23365661848589789 0.24997396643801059 0 0.24682250712720019 0.27582133871164177 0 0.25092579941719262 0.26245818326567438 0 0.23365661848589789 0.24997396643801059 0 0.22946559584631979 0.26441209478167238 0 0.24682250712720019 0.27582133871164177 0 0.23365661848589789 0.24997396643801059 0 0.26299921505984269 0.2564796415422389 0 0.23365661848589789 0.24997396643801059 0 0.26299921505984269 0.2564796415422389 0 0.25285246646408488 0.245816156428219 0 0.23365661848589789 0.24997396643801059 0 0.24682250712720019 0.27582133871164177 0 0.2411904919968553 0.29500054749963361 0 0.22749410063817641 0.30180696973206089 0 0.24272917839956329 0.31328059004144598 0 0.2411904919968553 0.29500054749963361 0 0.24272917839956329 0.31328059004144598 0 0.25998839576850458 0.30166871098527193 0 0.24682250712720019 0.27582133871164177 0 0.2411904919968553 0.29500054749963361 0 0.22891827805083181 0.28242512802774722 0 0.24682250712720019 0.27582133871164177 0 0.2411904919968553 0.29500054749963361 0 0.25998839576850458 0.30166871098527193 0 0.22891827805083181 0.28242512802774722 0 0.22749410063817641 0.30180696973206089 0 0.2124973945194607 0.28917770173810098 0 0.2411904919968553 0.29500054749963361 0 0.22891827805083181 0.28242512802774722 0 0.22749410063817641 0.30180696973206089 0 0.22749410063817641 0.30180696973206089 0 0.21077738089845169 0.31088331109163542 0 0.2124973945194607 0.28917770173810098 0 0.21077738089845169 0.31088331109163542 0 0.2124973945194607 0.28917770173810098 0 0.194611259776068 0.29786208681544118 0 0.19608605674781171 0.27774112756361602 0 0.194611259776068 0.29786208681544118 0 0.19608605674781171 0.27774112756361602 0 0.2124973945194607 0.28917770173810098 0 0.194611259776068 0.29786208681544118 0 0.21077738089845169 0.31088331109163542 0 0.194611259776068 0.29786208681544118 0 0.19313646280432401 0.31798304606726652 0 0.194611259776068 0.29786208681544118 0 0.19313646280432401 0.31798304606726652 0 0.17594422743027191 0.30896522277798982 0 0.194611259776068 0.29786208681544118 0 0.19313646280432401 0.31798304606726652 0 0.19313646280432401 0.31798304606726652 0 0.1916616658325801 0.33810400531909179 0 0.1916616658325801 0.33810400531909179 0 0.2063935660007091 0.32855034519399279 0 0.2069944151791602 0.34799813284750841 0 0.19313646280432401 0.31798304606726652 0 0.1916616658325801 0.33810400531909179 0 0.2063935660007091 0.32855034519399279 0 0.19313646280432401 0.31798304606726652 0 0.1916616658325801 0.33810400531909179 0 0.1780774024533523 0.32976993963376122 0 0.2063935660007091 0.32855034519399279 0 0.2305315016519725 0.32991971700294997 0 0.2069944151791602 0.34799813284750841 0 0.21077738089845169 0.31088331109163542 0 0.19313646280432401 0.31798304606726652 0 0.2063935660007091 0.32855034519399279 0 0.21077738089845169 0.31088331109163542 0 0.2063935660007091 0.32855034519399279 0 0.2305315016519725 0.32991971700294997 0 0.22749410063817641 0.30180696973206089 0 0.2305315016519725 0.32991971700294997 0 0.24272917839956329 0.31328059004144598 0 0.22749410063817641 0.30180696973206089 0 0.21077738089845169 0.31088331109163542 0 0.2305315016519725 0.32991971700294997 0 0.2305315016519725 0.32991971700294997 0 0.24752764304797639 0.34525217349269988 0 0.2327888227618729 0.35510388865134263 0 0.2305315016519725 0.32991971700294997 0 0.24752764304797639 0.34525217349269988 0 0.25326206600745238 0.32966170343052159 0 0.2305315016519725 0.32991971700294997 0 0.24272917839956329 0.31328059004144598 0 0.25326206600745238 0.32966170343052159 0 0.2327888227618729 0.35510388865134263 0 0.23064360590212271 0.38144073425384711 0 0.25515248092861309 0.36423712135043901 0 0.24752764304797639 0.34525217349269988 0 0.2327888227618729 0.35510388865134263 0 0.25515248092861309 0.36423712135043901 0 0.2305315016519725 0.32991971700294997 0 0.2327888227618729 0.35510388865134263 0 0.2069944151791602 0.34799813284750841 0 0.2327888227618729 0.35510388865134263 0 0.21376418722704549 0.365904231889284 0 0.23064360590212271 0.38144073425384711 0 0.21376418722704549 0.365904231889284 0 0.2069944151791602 0.34799813284750841 0 0.19173468148987349 0.36706400533768319 0 0.21376418722704549 0.365904231889284 0 0.19173468148987349 0.36706400533768319 0 0.20455071816150391 0.38262884512807821 0 0.2327888227618729 0.35510388865134263 0 0.21376418722704549 0.365904231889284 0 0.2069944151791602 0.34799813284750841 0 0.1916616658325801 0.33810400531909179 0 0.2069944151791602 0.34799813284750841 0 0.18208648129006819 0.35134073653821429 0 0.2069944151791602 0.34799813284750841 0 0.19173468148987349 0.36706400533768319 0 0.18208648129006819 0.35134073653821429 0 0.19173468148987349 0.36706400533768319 0 0.17244265706663531 0.3645703127933867 0 0.18208648129006819 0.35134073653821429 0 0.19173468148987349 0.36706400533768319 0 0.17244265706663531 0.3645703127933867 0 0.18001416525190109 0.38719194967724219 0 0.17244265706663531 0.3645703127933867 0 0.1489707092392222 0.35809458642279313 0 0.16098541452187809 0.37742330887270281 0 0.17244265706663531 0.3645703127933867 0 0.16546440574517679 0.34487005854583452 0 0.1489707092392222 0.35809458642279313 0 0.17244265706663531 0.3645703127933867 0 0.16546440574517679 0.34487005854583452 0 0.18208648129006819 0.35134073653821429 0 0.1916616658325801 0.33810400531909179 0 0.18208648129006819 0.35134073653821429 0 0.1780774024533523 0.32976993963376122 0 0.16546440574517679 0.34487005854583452 0 0.18208648129006819 0.35134073653821429 0 0.1780774024533523 0.32976993963376122 0 0.17594422743027191 0.30896522277798982 0 0.19313646280432401 0.31798304606726652 0 0.1780774024533523 0.32976993963376122 0 0.17594422743027191 0.30896522277798982 0 0.1780774024533523 0.32976993963376122 0 0.1604695270292123 0.32404117873662808 0 0.15934560227438049 0.30510360682474019 0 0.17594422743027191 0.30896522277798982 0 0.1604695270292123 0.32404117873662808 0 0.16546440574517679 0.34487005854583452 0 0.1780774024533523 0.32976993963376122 0 0.1604695270292123 0.32404117873662808 0 0.16546440574517679 0.34487005854583452 0 0.1604695270292123 0.32404117873662808 0 0.15172456806839019 0.34042858961178329 0 0.1604695270292123 0.32404117873662808 0 0.15172456806839019 0.34042858961178329 0 0.1456747524714142 0.32812822555503057 0 0.15172456806839019 0.34042858961178329 0 0.1456747524714142 0.32812822555503057 0 0.13807741449592689 0.34047288315353502 0 0.14664414872701051 0.31182713077368962 0 0.1604695270292123 0.32404117873662808 0 0.1456747524714142 0.32812822555503057 0 0.14664414872701051 0.31182713077368962 0 0.15934560227438049 0.30510360682474019 0 0.1604695270292123 0.32404117873662808 0 0.14664414872701051 0.31182713077368962 0 0.1456747524714142 0.32812822555503057 0 0.13147508835603169 0.32060333767696908 0 0.1456747524714142 0.32812822555503057 0 0.13147508835603169 0.32060333767696908 0 0.13807741449592689 0.34047288315353502 0 0.1221020608480546 0.33658156122159 0 0.13807741449592689 0.34047288315353502 0 0.12847229697847029 0.35265315113623358 0 0.1221020608480546 0.33658156122159 0 0.13147508835603169 0.32060333767696908 0 0.13807741449592689 0.34047288315353502 0 0.13807741449592689 0.34047288315353502 0 0.12847229697847029 0.35265315113623358 0 0.1489707092392222 0.35809458642279313 0 0.11866913113633711 0.3647349049898142 0 0.12847229697847029 0.35265315113623358 0 0.13179849077276889 0.36744379963551183 0 0.12847229697847029 0.35265315113623358 0 0.13179849077276889 0.36744379963551183 0 0.1489707092392222 0.35809458642279313 0 0.12477743794451 0.37873985157138929 0 0.13179849077276889 0.36744379963551183 0 0.13437240619686919 0.37807431616690312 0 0.12477743794451 0.37873985157138929 0 0.11866913113633711 0.3647349049898142 0 0.13179849077276889 0.36744379963551183 0 0.13179849077276889 0.36744379963551183 0 0.14365646805842081 0.37560042704797469 0 0.13437240619686919 0.37807431616690312 0 0.1489707092392222 0.35809458642279313 0 0.14365646805842081 0.37560042704797469 0 0.16098541452187809 0.37742330887270281 0 0.13179849077276889 0.36744379963551183 0 0.1489707092392222 0.35809458642279313 0 0.14365646805842081 0.37560042704797469 0 0.15172456806839019 0.34042858961178329 0 0.13807741449592689 0.34047288315353502 0 0.1489707092392222 0.35809458642279313 0 0.16546440574517679 0.34487005854583452 0 0.15172456806839019 0.34042858961178329 0 0.1489707092392222 0.35809458642279313 0 0.15617174900064801 0.40175591409294459 0 0.13612678123012301 0.38825231499789858 0 0.1556210299200082 0.40453974481767302 0 0.1369777195271441 0.39821933705683032 0 0.13808754501748949 0.40820834560832242 0 0.15617174900064801 0.40175591409294459 0 0.13612678123012301 0.38825231499789858 0 0.1369777195271441 0.39821933705683032 0 0.15617174900064801 0.40175591409294459 0 0.15001605205744431 0.38688385795189889 0 0.13612678123012301 0.38825231499789858 0 0.1556210299200082 0.40453974481767302 0 0.15617174900064801 0.40175591409294459 0 0.1369777195271441 0.39821933705683032 0 0.1556210299200082 0.40453974481767302 0 0.1369777195271441 0.39821933705683032 0 0.1556210299200082 0.40453974481767302 0 0.15617174900064801 0.40175591409294459 0 0.15001605205744431 0.38688385795189889 0 0.14365646805842081 0.37560042704797469 0 0.16098541452187809 0.37742330887270281 0 0.15617174900064801 0.40175591409294459 0 0.15001605205744431 0.38688385795189889 0 0.16098541452187809 0.37742330887270281 0 0.15001605205744431 0.38688385795189889 0 0.14365646805842081 0.37560042704797469 0 0.13612678123012301 0.38825231499789858 0 0.1183344091342801 0.39189892929598741 0 0.12477743794451 0.37873985157138929 0 0.13612678123012301 0.38825231499789858 0 0.14365646805842081 0.37560042704797469 0 0.13612678123012301 0.38825231499789858 0 0.13437240619686919 0.37807431616690312 0 0.12477743794451 0.37873985157138929 0 0.13612678123012301 0.38825231499789858 0 0.13437240619686919 0.37807431616690312 0 0.1183344091342801 0.39189892929598741 0 0.1328361584149623 0.4037356415067142 0 0.12920075257619701 0.40959789087169429 0 0.1183344091342801 0.39189892929598741 0 0.13612678123012301 0.38825231499789858 0 0.1369777195271441 0.39821933705683032 0 0.1183344091342801 0.39189892929598741 0 0.1369777195271441 0.39821933705683032 0 0.1183344091342801 0.39189892929598741 0 0.1369777195271441 0.39821933705683032 0 0.1328361584149623 0.4037356415067142 0 0.1369777195271441 0.39821933705683032 0 0.1328361584149623 0.4037356415067142 0 0.13808754501748949 0.40820834560832242 0 0.12020792674469589 0.4193587962283476 0 0.12920075257619701 0.40959789087169429 0 0.13260963673788961 0.4178591203987348 0 0.13260963673788961 0.4178591203987348 0 0.13808754501748949 0.40820834560832242 0 0.1416843376465059 0.42234319971968942 0 0.12920075257619701 0.40959789087169429 0 0.13260963673788961 0.4178591203987348 0 0.13808754501748949 0.40820834560832242 0 0.1328361584149623 0.4037356415067142 0 0.12920075257619701 0.40959789087169429 0 0.13808754501748949 0.40820834560832242 0 0.12020792674469589 0.4193587962283476 0 0.13260963673788961 0.4178591203987348 0 0.13386762170456001 0.4297873695656203 0 0.13260963673788961 0.4178591203987348 0 0.13386762170456001 0.4297873695656203 0 0.1416843376465059 0.42234319971968942 0 0.1537530187389361 0.41398235739959821 0 0.1479185626392264 0.44347495847938628 0 0.13386762170456001 0.4297873695656203 0 0.1416843376465059 0.42234319971968942 0 0.1479185626392264 0.44347495847938628 0 0.1537530187389361 0.41398235739959821 0 0.16289030231338389 0.43446635557615121 0 0.1479185626392264 0.44347495847938628 0 0.1416843376465059 0.42234319971968942 0 0.1537530187389361 0.41398235739959821 0 0.1479185626392264 0.44347495847938628 0 0.1556210299200082 0.40453974481767302 0 0.13808754501748949 0.40820834560832242 0 0.1537530187389361 0.41398235739959821 0 0.13808754501748949 0.40820834560832242 0 0.1537530187389361 0.41398235739959821 0 0.13808754501748949 0.40820834560832242 0 0.1416843376465059 0.42234319971968942 0 0.1537530187389361 0.41398235739959821 0 0.1556210299200082 0.40453974481767302 0 0.1537530187389361 0.41398235739959821 0 0.15617174900064801 0.40175591409294459 0 0.1776707043330199 0.41623901414549619 0 0.1537530187389361 0.41398235739959821 0 0.176461339202164 0.42235223579882308 0 0.1556210299200082 0.40453974481767302 0 0.15617174900064801 0.40175591409294459 0 0.1776707043330199 0.41623901414549619 0 0.1537530187389361 0.41398235739959821 0 0.176461339202164 0.42235223579882308 0 0.1776707043330199 0.41623901414549619 0 0.1556210299200082 0.40453974481767302 0 0.1537530187389361 0.41398235739959821 0 0.1776707043330199 0.41623901414549619 0 0.16289030231338389 0.43446635557615121 0 0.176461339202164 0.42235223579882308 0 0.17443187420624881 0.44550257903774909 0 0.1537530187389361 0.41398235739959821 0 0.16289030231338389 0.43446635557615121 0 0.176461339202164 0.42235223579882308 0 0.176461339202164 0.42235223579882308 0 0.18936806422478669 0.44095186634795419 0 0.17443187420624881 0.44550257903774909 0 0.176461339202164 0.42235223579882308 0 0.1776707043330199 0.41623901414549619 0 0.1991696596653921 0.43072211419804751 0 0.1776707043330199 0.41623901414549619 0 0.18001416525190109 0.38719194967724219 0 0.19681813767500581 0.40184903657972321 0 0.15617174900064801 0.40175591409294459 0 0.1776707043330199 0.41623901414549619 0 0.18001416525190109 0.38719194967724219 0 0.15617174900064801 0.40175591409294459 0 0.16098541452187809 0.37742330887270281 0 0.15617174900064801 0.40175591409294459 0 0.16098541452187809 0.37742330887270281 0 0.18001416525190109 0.38719194967724219 0 0.17244265706663531 0.3645703127933867 0 0.16098541452187809 0.37742330887270281 0 0.18001416525190109 0.38719194967724219 0 0.18001416525190109 0.38719194967724219 0 0.19681813767500581 0.40184903657972321 0 0.20455071816150391 0.38262884512807821 0 0.19173468148987349 0.36706400533768319 0 0.18001416525190109 0.38719194967724219 0 0.20455071816150391 0.38262884512807821 0 0.19681813767500581 0.40184903657972321 0 0.2144977495803681 0.39918390426380113 0 0.21073427803244529 0.41561799900684182 0 0.19681813767500581 0.40184903657972321 0 0.2144977495803681 0.39918390426380113 0 0.20455071816150391 0.38262884512807821 0 0.21376418722704549 0.365904231889284 0 0.20455071816150391 0.38262884512807821 0 0.23064360590212271 0.38144073425384711 0 0.2144977495803681 0.39918390426380113 0 0.20455071816150391 0.38262884512807821 0 0.23064360590212271 0.38144073425384711 0 0.2144977495803681 0.39918390426380113 0 0.23064360590212271 0.38144073425384711 0 0.2293303594679946 0.41063605648243368 0 0.23064360590212271 0.38144073425384711 0 0.2293303594679946 0.41063605648243368 0 0.25300728732097127 0.39146035271339369 0 0.23064360590212271 0.38144073425384711 0 0.25300728732097127 0.39146035271339369 0 0.25515248092861309 0.36423712135043901 0 0.24871690010568751 0.44590681543930349 0 0.25086209371332929 0.41868358407634848 0 0.23220494244010129 0.43123361474182781 0 0.24871690010568751 0.44590681543930349 0 0.25086209371332929 0.41868358407634848 0 0.2293303594679946 0.41063605648243368 0 0.23220494244010129 0.43123361474182781 0 0.25086209371332929 0.41868358407634848 0 0.2293303594679946 0.41063605648243368 0 0.25086209371332929 0.41868358407634848 0 0.25300728732097127 0.39146035271339369 0 0.2293303594679946 0.41063605648243368 0 0.21752146555595439 0.42698762086646319 0 0.21073427803244529 0.41561799900684182 0 0.2293303594679946 0.41063605648243368 0 0.23220494244010129 0.43123361474182781 0 0.21752146555595439 0.42698762086646319 0 0.23220494244010129 0.43123361474182781 0 0.22273026352977521 0.43417930616340089 0 0.21752146555595439 0.42698762086646319 0 0.23220494244010129 0.43123361474182781 0 0.22273026352977521 0.43417930616340089 0 0.22248949113051719 0.44258294058566239 0 0.22273026352977521 0.43417930616340089 0 0.21772628148528619 0.43610742190415142 0 0.21752146555595439 0.42698762086646319 0 0.21772628148528619 0.43610742190415142 0 0.21199855980373081 0.43545061599665352 0 0.21752146555595439 0.42698762086646319 0 0.21772628148528619 0.43610742190415142 0 0.21199855980373081 0.43545061599665352 0 0.21425565124785531 0.44088502314422101 0 0.21752146555595439 0.42698762086646319 0 0.20728239574461979 0.42502916960041037 0 0.21073427803244529 0.41561799900684182 0 0.21199855980373081 0.43545061599665352 0 0.21752146555595439 0.42698762086646319 0 0.20728239574461979 0.42502916960041037 0 0.1991696596653921 0.43072211419804751 0 0.21425565124785531 0.44088502314422101 0 0.21199855980373081 0.43545061599665352 0 0.20728239574461979 0.42502916960041037 0 0.1991696596653921 0.43072211419804751 0 0.21199855980373081 0.43545061599665352 0 0.1991696596653921 0.43072211419804751 0 0.21425565124785531 0.44088502314422101 0 0.21199855980373081 0.43545061599665352 0 0.1991696596653921 0.43072211419804751 0 0.2144977495803681 0.39918390426380113 0 0.2293303594679946 0.41063605648243368 0 0.21073427803244529 0.41561799900684182 0 0.20728239574461979 0.42502916960041037 0 0.21073427803244529 0.41561799900684182 0 0.19698801566557611 0.41636749793404598 0 0.1776707043330199 0.41623901414549619 0 0.19698801566557611 0.41636749793404598 0 0.1991696596653921 0.43072211419804751 0 0.1776707043330199 0.41623901414549619 0 0.19681813767500581 0.40184903657972321 0 0.19698801566557611 0.41636749793404598 0 0.19681813767500581 0.40184903657972321 0 0.21073427803244529 0.41561799900684182 0 0.19698801566557611 0.41636749793404598 0 0.176461339202164 0.42235223579882308 0 0.1991696596653921 0.43072211419804751 0 0.176461339202164 0.42235223579882308 0 0.1991696596653921 0.43072211419804751 0 0.18936806422478669 0.44095186634795419 0 0.1776707043330199 0.41623901414549619 0 0.1991696596653921 0.43072211419804751 0 0.20728239574461979 0.42502916960041037 0 0.19698801566557611 0.41636749793404598 0 0.1991696596653921 0.43072211419804751 0 0.18936806422478669 0.44095186634795419 0 0.1982323126156616 0.45248256129347558 0 0.18620592749658199 0.45247834246272639 0 0.1982323126156616 0.45248256129347558 0 0.20170727216267181 0.44217336529690421 0 0.20839595276284639 0.44862774116495407 0 0.1991696596653921 0.43072211419804751 0 0.18936806422478669 0.44095186634795419 0 0.20170727216267181 0.44217336529690421 0 0.18936806422478669 0.44095186634795419 0 0.1982323126156616 0.45248256129347558 0 0.20170727216267181 0.44217336529690421 0 0.1982323126156616 0.45248256129347558 0 0.18742894511092839 0.46442863000884738 0 0.18620592749658199 0.45247834246272639 0 0.1982323126156616 0.45248256129347558 0 0.20065641997409001 0.46792708521518228 0 0.21039415643663631 0.45833065360270259 0 0.1982323126156616 0.45248256129347558 0 0.20065641997409001 0.46792708521518228 0 0.18742894511092839 0.46442863000884738 0 0.20065641997409001 0.46792708521518228 0 0.21039415643663631 0.45833065360270259 0 0.21399953755316181 0.47375036776612051 0 0.1982323126156616 0.45248256129347558 0 0.21039415643663631 0.45833065360270259 0 0.20839595276284639 0.44862774116495407 0 0.21039415643663631 0.45833065360270259 0 0.21821765874597779 0.45002354479021928 0 0.2250314400608236 0.46477661921894808 0 0.21039415643663631 0.45833065360270259 0 0.2250314400608236 0.46477661921894808 0 0.21399953755316181 0.47375036776612051 0 0.1991696596653921 0.43072211419804751 0 0.20170727216267181 0.44217336529690421 0 0.21425565124785531 0.44088502314422101 0 0.20170727216267181 0.44217336529690421 0 0.20839595276284639 0.44862774116495407 0 0.21425565124785531 0.44088502314422101 0 0.20839595276284639 0.44862774116495407 0 0.21821765874597779 0.45002354479021928 0 0.21425565124785531 0.44088502314422101 0 0.21039415643663631 0.45833065360270259 0 0.20839595276284639 0.44862774116495407 0 0.21821765874597779 0.45002354479021928 0 0.21772628148528619 0.43610742190415142 0 0.21425565124785531 0.44088502314422101 0 0.22248949113051719 0.44258294058566239 0 0.21821765874597779 0.45002354479021928 0 0.21425565124785531 0.44088502314422101 0 0.22248949113051719 0.44258294058566239 0 0.22273026352977521 0.43417930616340089 0 0.21772628148528619 0.43610742190415142 0 0.22248949113051719 0.44258294058566239 0 0.23220494244010129 0.43123361474182781 0 0.22248949113051719 0.44258294058566239 0 0.23159201606053861 0.45026220432861352 0 0.21821765874597779 0.45002354479021928 0 0.22248949113051719 0.44258294058566239 0 0.23159201606053861 0.45026220432861352 0 0.21821765874597779 0.45002354479021928 0 0.23159201606053861 0.45026220432861352 0 0.2250314400608236 0.46477661921894808 0 0.23159201606053861 0.45026220432861352 0 0.2250314400608236 0.46477661921894808 0 0.24657170649804561 0.47313004680225862 0 0.24871690010568751 0.44590681543930349 0 0.24657170649804561 0.47313004680225862 0 0.23159201606053861 0.45026220432861352 0 0.24871690010568751 0.44590681543930349 0 0.24657170649804561 0.47313004680225862 0 0.23220494244010129 0.43123361474182781 0 0.23159201606053861 0.45026220432861352 0 0.24871690010568751 0.44590681543930349 0 0.24209566949542341 0.5 0 0.24657170649804561 0.47313004680225862 0 0.2294135650705815 0.48316289802377421 0 0.2250314400608236 0.46477661921894808 0 0.2294135650705815 0.48316289802377421 0 0.21399953755316181 0.47375036776612051 0 0.2250314400608236 0.46477661921894808 0 0.24657170649804561 0.47313004680225862 0 0.2294135650705815 0.48316289802377421 0 0.24209566949542341 0.5 0 0.2294135650705815 0.48316289802377421 0 0.21329165920576809 0.5 0 0.2294135650705815 0.48316289802377421 0 0.21329165920576809 0.5 0 0.21399953755316181 0.47375036776612051 0 0.21329165920576809 0.5 0 0.21399953755316181 0.47375036776612051 0 0.20000752734977431 0.48380345015806048 0 0.20065641997409001 0.46792708521518228 0 0.21399953755316181 0.47375036776612051 0 0.20000752734977431 0.48380345015806048 0 0.20065641997409001 0.46792708521518228 0 0.18496318541236709 0.47899415541063178 0 0.18742894511092839 0.46442863000884738 0 0.20065641997409001 0.46792708521518228 0 0.20000752734977431 0.48380345015806048 0 0.18496318541236709 0.47899415541063178 0 0.20000752734977431 0.48380345015806048 0 0.18448764891611291 0.5 0 0.18496318541236709 0.47899415541063178 0 0.21329165920576809 0.5 0 0.20000752734977431 0.48380345015806048 0 0.18448764891611291 0.5 0 0.18448764891611291 0.5 0 0.17403773849810819 0.4898043564529681 0 0.1626281271181832 0.49899489323547358 0 0.18448764891611291 0.5 0 0.17403773849810819 0.4898043564529681 0 0.18496318541236709 0.47899415541063178 0 0.18448764891611291 0.5 0 0.1626281271181832 0.49899489323547358 0 0.15568363862645759 0.5 0 0.17403773849810819 0.4898043564529681 0 0.1642896114809014 0.48634815957463429 0 0.1717474454151435 0.47977303941332688 0 0.17403773849810819 0.4898043564529681 0 0.1642896114809014 0.48634815957463429 0 0.1626281271181832 0.49899489323547358 0 0.1642896114809014 0.48634815957463429 0 0.1626281271181832 0.49899489323547358 0 0.1523561168288502 0.48598122639732372 0 0.1626281271181832 0.49899489323547358 0 0.15568363862645759 0.5 0 0.1523561168288502 0.48598122639732372 0 0.1626281271181832 0.49899489323547358 0 0.1523561168288502 0.48598122639732372 0 0.15964229247030531 0.47473151505869238 0 0.1717474454151435 0.47977303941332688 0 0.1753402355484957 0.4647667593106507 0 0.1642896114809014 0.48634815957463429 0 0.15964229247030531 0.47473151505869238 0 0.1523561168288502 0.48598122639732372 0 0.1642896114809014 0.48634815957463429 0 0.15964229247030531 0.47473151505869238 0 0.1717474454151435 0.47977303941332688 0 0.1717474454151435 0.47977303941332688 0 0.18496318541236709 0.47899415541063178 0 0.1753402355484957 0.4647667593106507 0 0.17403773849810819 0.4898043564529681 0 0.1717474454151435 0.47977303941332688 0 0.18496318541236709 0.47899415541063178 0 0.18496318541236709 0.47899415541063178 0 0.18742894511092839 0.46442863000884738 0 0.1753402355484957 0.4647667593106507 0 0.1753402355484957 0.4647667593106507 0 0.18620592749658199 0.45247834246272639 0 0.17443187420624881 0.44550257903774909 0 0.18742894511092839 0.46442863000884738 0 0.1753402355484957 0.4647667593106507 0 0.18620592749658199 0.45247834246272639 0 0.18936806422478669 0.44095186634795419 0 0.18620592749658199 0.45247834246272639 0 0.17443187420624881 0.44550257903774909 0 0.16289030231338389 0.43446635557615121 0 0.17443187420624881 0.44550257903774909 0 0.16172038250775739 0.44550419222509391 0 0.17443187420624881 0.44550257903774909 0 0.16172038250775739 0.44550419222509391 0 0.1616407908721704 0.45857287580708911 0 0.16172038250775739 0.44550419222509391 0 0.1616407908721704 0.45857287580708911 0 0.1479185626392264 0.44347495847938628 0 0.16289030231338389 0.43446635557615121 0 0.16172038250775739 0.44550419222509391 0 0.1479185626392264 0.44347495847938628 0 0.15964229247030531 0.47473151505869238 0 0.1616407908721704 0.45857287580708911 0 0.15282143813030469 0.46243672722608548 0 0.1753402355484957 0.4647667593106507 0 0.17443187420624881 0.44550257903774909 0 0.1616407908721704 0.45857287580708911 0 0.15964229247030531 0.47473151505869238 0 0.1753402355484957 0.4647667593106507 0 0.1616407908721704 0.45857287580708911 0 0.1616407908721704 0.45857287580708911 0 0.15282143813030469 0.46243672722608548 0 0.1479185626392264 0.44347495847938628 0 0.1479185626392264 0.44347495847938628 0 0.14208410653951639 0.47296755955917419 0 0.15282143813030469 0.46243672722608548 0 0.1479185626392264 0.44347495847938628 0 0.14208410653951639 0.47296755955917419 0 0.13386762170456001 0.4297873695656203 0 0.1479185626392264 0.44347495847938628 0 0.12732762568223649 0.45427249207276249 0 0.12732762568223649 0.45427249207276249 0 0.14208410653951639 0.47296755955917419 0 0.12732762568223649 0.45427249207276249 0 0.12704858122339069 0.47639866836220968 0 0.14208410653951639 0.47296755955917419 0 0.1479185626392264 0.44347495847938628 0 0.12732762568223649 0.45427249207276249 0 0.14208410653951639 0.47296755955917419 0 0.12704858122339069 0.47639866836220968 0 0.1393740596568728 0.48666657969941279 0 0.14208410653951639 0.47296755955917419 0 0.12704858122339069 0.47639866836220968 0 0.1268796283368023 0.5 0 0.1393740596568728 0.48666657969941279 0 0.1268796283368023 0.5 0 0.1393740596568728 0.48666657969941279 0 0.15568363862645759 0.5 0 0.1393740596568728 0.48666657969941279 0 0.15568363862645759 0.5 0 0.1523561168288502 0.48598122639732372 0 0.15964229247030531 0.47473151505869238 0 0.15282143813030469 0.46243672722608548 0 0.14208410653951639 0.47296755955917419 0 0.15964229247030531 0.47473151505869238 0 0.1523561168288502 0.48598122639732372 0 0.14208410653951639 0.47296755955917419 0 0.1393740596568728 0.48666657969941279 0 0.1523561168288502 0.48598122639732372 0 0.14208410653951639 0.47296755955917419 0 0.1393740596568728 0.48666657969941279 0 0.14208410653951639 0.47296755955917419 0 0.1523561168288502 0.48598122639732372 0 0.14208410653951639 0.47296755955917419 0 0.35642173081973427 0.47794351113122158 0 0.34897318833985708 0.46889287614644171 0 0.36144579128760301 0.46790220863158027 0 0.35642173081973427 0.47794351113122158 0 0.34897318833985708 0.46889287614644171 0 0.34199215385835258 0.48213885680839053 0 0.35642173081973427 0.47794351113122158 0 0.35731171065404438 0.5 0 0.34199215385835258 0.48213885680839053 0 0.35642173081973427 0.47794351113122158 0 0.35731171065404438 0.5 0 0.37403477250918382 0.47762796803941948 0 0.35731171065404438 0.5 0 0.37403477250918382 0.47762796803941948 0 0.3861157209436995 0.5 0 0.35642173081973427 0.47794351113122158 0 0.37403477250918382 0.47762796803941948 0 0.36144579128760301 0.46790220863158027 0 0.36948680566750508 0.45644891607651722 0 0.36144579128760301 0.46790220863158027 0 0.35359157069119562 0.45632002224762752 0 0.36948680566750508 0.45644891607651722 0 0.37257918107088689 0.44704897900482882 0 0.35359157069119562 0.45632002224762752 0 0.37403477250918382 0.47762796803941948 0 0.36948680566750508 0.45644891607651722 0 0.36144579128760301 0.46790220863158027 0 0.36948680566750508 0.45644891607651722 0 0.35359157069119562 0.45632002224762752 0 0.37257918107088689 0.44704897900482882 0 0.35359157069119562 0.45632002224762752 0 0.35597363383089459 0.43468990791136708 0 0.37257918107088689 0.44704897900482882 0 0.35597363383089459 0.43468990791136708 0 0.37257918107088689 0.44704897900482882 0 0.35359157069119562 0.45632002224762752 0 0.35359157069119562 0.45632002224762752 0 0.34165410805335678 0.44439191864075928 0 0.35597363383089459 0.43468990791136708 0 0.34897318833985708 0.46889287614644171 0 0.35359157069119562 0.45632002224762752 0 0.33395635050265959 0.46590727266037452 0 0.35359157069119562 0.45632002224762752 0 0.33395635050265959 0.46590727266037452 0 0.34897318833985708 0.46889287614644171 0 0.36144579128760301 0.46790220863158027 0 0.35359157069119562 0.45632002224762752 0 0.35359157069119562 0.45632002224762752 0 0.32693812836375902 0.45610389054276362 0 0.35359157069119562 0.45632002224762752 0 0.33395635050265959 0.46590727266037452 0 0.32693812836375902 0.45610389054276362 0 0.34165410805335678 0.44439191864075928 0 0.32595252191809032 0.44108302058742949 0 0.32693812836375902 0.45610389054276362 0 0.35359157069119562 0.45632002224762752 0 0.34165410805335678 0.44439191864075928 0 0.32693812836375902 0.45610389054276362 0 0.32595252191809032 0.44108302058742949 0 0.31425343417075308 0.44391012147371062 0 0.32693812836375902 0.45610389054276362 0 0.31425343417075308 0.44391012147371062 0 0.32693812836375902 0.45610389054276362 0 0.31250479798363823 0.45777963094295221 0 0.32595252191809032 0.44108302058742949 0 0.31425343417075308 0.44391012147371062 0 0.31282671669116019 0.43110211358878242 0 0.33395635050265959 0.46590727266037452 0 0.32693812836375902 0.45610389054276362 0 0.3193753706186675 0.4701357733118588 0 0.32693812836375902 0.45610389054276362 0 0.31250479798363823 0.45777963094295221 0 0.3193753706186675 0.4701357733118588 0 0.3193753706186675 0.4701357733118588 0 0.32678224246943111 0.48008948091230608 0 0.31354854613313649 0.48668036816836269 0 0.33395635050265959 0.46590727266037452 0 0.3193753706186675 0.4701357733118588 0 0.32678224246943111 0.48008948091230608 0 0.33395635050265959 0.46590727266037452 0 0.32678224246943111 0.48008948091230608 0 0.34199215385835258 0.48213885680839053 0 0.34897318833985708 0.46889287614644171 0 0.33395635050265959 0.46590727266037452 0 0.34199215385835258 0.48213885680839053 0 0.35731171065404438 0.5 0 0.34199215385835258 0.48213885680839053 0 0.32850770036438931 0.5 0 0.32678224246943111 0.48008948091230608 0 0.34199215385835258 0.48213885680839053 0 0.32850770036438931 0.5 0 0.32850770036438931 0.5 0 0.31354854613313649 0.48668036816836269 0 0.29970369007473402 0.5 0 0.32678224246943111 0.48008948091230608 0 0.32850770036438931 0.5 0 0.31354854613313649 0.48668036816836269 0 0.31354854613313649 0.48668036816836269 0 0.29970369007473402 0.5 0 0.30145937913903459 0.47155610220255278 0 0.3193753706186675 0.4701357733118588 0 0.31354854613313649 0.48668036816836269 0 0.30145937913903459 0.47155610220255278 0 0.30145937913903459 0.47155610220255278 0 0.28011780434008088 0.47811282842326741 0 0.28824843783256682 0.45922914398913067 0 0.29970369007473402 0.5 0 0.30145937913903459 0.47155610220255278 0 0.28011780434008088 0.47811282842326741 0 0.29970369007473402 0.5 0 0.27089967978507867 0.5 0 0.28011780434008088 0.47811282842326741 0 0.24657170649804561 0.47313004680225862 0 0.27089967978507867 0.5 0 0.28011780434008088 0.47811282842326741 0 0.24657170649804561 0.47313004680225862 0 0.28011780434008088 0.47811282842326741 0 0.27103237612140252 0.45876838821716243 0 0.24209566949542341 0.5 0 0.24657170649804561 0.47313004680225862 0 0.27089967978507867 0.5 0 0.24871690010568751 0.44590681543930349 0 0.27103237612140252 0.45876838821716243 0 0.26940077142471769 0.42997743345064349 0 0.24871690010568751 0.44590681543930349 0 0.24657170649804561 0.47313004680225862 0 0.27103237612140252 0.45876838821716243 0 0.28011780434008088 0.47811282842326741 0 0.27103237612140252 0.45876838821716243 0 0.28824843783256682 0.45922914398913067 0 0.27103237612140252 0.45876838821716243 0 0.28813495193633992 0.44051613391879579 0 0.26940077142471769 0.42997743345064349 0 0.27103237612140252 0.45876838821716243 0 0.28813495193633992 0.44051613391879579 0 0.28824843783256682 0.45922914398913067 0 0.28813495193633992 0.44051613391879579 0 0.28824843783256682 0.45922914398913067 0 0.30049767762597618 0.44719226718387523 0 0.30145937913903459 0.47155610220255278 0 0.28824843783256682 0.45922914398913067 0 0.30049767762597618 0.44719226718387523 0 0.31250479798363823 0.45777963094295221 0 0.3193753706186675 0.4701357733118588 0 0.30145937913903459 0.47155610220255278 0 0.31250479798363823 0.45777963094295221 0 0.30145937913903459 0.47155610220255278 0 0.30049767762597618 0.44719226718387523 0 0.28813495193633992 0.44051613391879579 0 0.30049767762597618 0.44719226718387523 0 0.30390532062941239 0.43722709240268492 0 0.31425343417075308 0.44391012147371062 0 0.31250479798363823 0.45777963094295221 0 0.30049767762597618 0.44719226718387523 0 0.31425343417075308 0.44391012147371062 0 0.30049767762597618 0.44719226718387523 0 0.30390532062941239 0.43722709240268492 0 0.28813495193633992 0.44051613391879579 0 0.29884553898529759 0.42718964633057438 0 0.30390532062941239 0.43722709240268492 0 0.31425343417075308 0.44391012147371062 0 0.30390532062941239 0.43722709240268492 0 0.31282671669116019 0.43110211358878242 0 0.29884553898529759 0.42718964633057438 0 0.30390532062941239 0.43722709240268492 0 0.31282671669116019 0.43110211358878242 0 0.29884553898529759 0.42718964633057438 0 0.30527865948290089 0.41814048037090018 0 0.31282671669116019 0.43110211358878242 0 0.30527865948290089 0.41814048037090018 0 0.30568118129416549 0.40539743664734551 0 0.32366764467376108 0.42489467764405231 0 0.29884553898529759 0.42718964633057438 0 0.30527865948290089 0.41814048037090018 0 0.2926914970598159 0.41487268889464168 0 0.30527865948290089 0.41814048037090018 0 0.29844680243592731 0.41002595015684729 0 0.2926914970598159 0.41487268889464168 0 0.30527865948290089 0.41814048037090018 0 0.29844680243592731 0.41002595015684729 0 0.30568118129416549 0.40539743664734551 0 0.29844680243592731 0.41002595015684729 0 0.2926914970598159 0.41487268889464168 0 0.29013587190682688 0.40169319471450182 0 0.2926914970598159 0.41487268889464168 0 0.28550459478910423 0.4252813419042597 0 0.2787326509736191 0.41263216176182399 0 0.2926914970598159 0.41487268889464168 0 0.2787326509736191 0.41263216176182399 0 0.29013587190682688 0.40169319471450182 0 0.28813495193633992 0.44051613391879579 0 0.29884553898529759 0.42718964633057438 0 0.28550459478910423 0.4252813419042597 0 0.29884553898529759 0.42718964633057438 0 0.2926914970598159 0.41487268889464168 0 0.28550459478910423 0.4252813419042597 0 0.28813495193633992 0.44051613391879579 0 0.28550459478910423 0.4252813419042597 0 0.26940077142471769 0.42997743345064349 0 0.28550459478910423 0.4252813419042597 0 0.26940077142471769 0.42997743345064349 0 0.2787326509736191 0.41263216176182399 0 0.26940077142471769 0.42997743345064349 0 0.2787326509736191 0.41263216176182399 0 0.26521707128541411 0.40980314076654317 0 0.25086209371332929 0.41868358407634848 0 0.26521707128541411 0.40980314076654317 0 0.25300728732097127 0.39146035271339369 0 0.26940077142471769 0.42997743345064349 0 0.25086209371332929 0.41868358407634848 0 0.26521707128541411 0.40980314076654317 0 0.24871690010568751 0.44590681543930349 0 0.26940077142471769 0.42997743345064349 0 0.25086209371332929 0.41868358407634848 0 0.25300728732097127 0.39146035271339369 0 0.27108721589503681 0.37852425576425308 0 0.25515248092861309 0.36423712135043901 0 0.25300728732097127 0.39146035271339369 0 0.25515248092861309 0.36423712135043901 0 0.26521707128541411 0.40980314076654317 0 0.25300728732097127 0.39146035271339369 0 0.27408255299443313 0.39626217183050599 0 0.25086209371332929 0.41868358407634848 0 0.25300728732097127 0.39146035271339369 0 0.2787326509736191 0.41263216176182399 0 0.27408255299443313 0.39626217183050599 0 0.29013587190682688 0.40169319471450182 0 0.2787326509736191 0.41263216176182399 0 0.26521707128541411 0.40980314076654317 0 0.27408255299443313 0.39626217183050599 0 0.27108721589503681 0.37852425576425308 0 0.28769471791456991 0.38590019565063871 0 0.28367781224943339 0.37180876407880509 0 0.27408255299443313 0.39626217183050599 0 0.27108721589503681 0.37852425576425308 0 0.28769471791456991 0.38590019565063871 0 0.25300728732097127 0.39146035271339369 0 0.27408255299443313 0.39626217183050599 0 0.27108721589503681 0.37852425576425308 0 0.28769471791456991 0.38590019565063871 0 0.29948606169241782 0.37921082780616228 0 0.28367781224943339 0.37180876407880509 0 0.27408255299443313 0.39626217183050599 0 0.28769471791456991 0.38590019565063871 0 0.29013587190682688 0.40169319471450182 0 0.28769471791456991 0.38590019565063871 0 0.30568118129416549 0.40539743664734551 0 0.28769471791456991 0.38590019565063871 0 0.29013587190682688 0.40169319471450182 0 0.30568118129416549 0.40539743664734551 0 0.29948606169241782 0.37921082780616228 0 0.31488430245141508 0.39498593805855248 0 0.31265195033372228 0.40505820007979249 0 0.29948606169241782 0.37921082780616228 0 0.31265195033372228 0.40505820007979249 0 0.30568118129416549 0.40539743664734551 0 0.29948606169241782 0.37921082780616228 0 0.31265195033372228 0.40505820007979249 0 0.29844680243592731 0.41002595015684729 0 0.29013587190682688 0.40169319471450182 0 0.30568118129416549 0.40539743664734551 0 0.28769471791456991 0.38590019565063871 0 0.30568118129416549 0.40539743664734551 0 0.29948606169241782 0.37921082780616228 0 0.29948606169241782 0.37921082780616228 0 0.31488430245141508 0.39498593805855248 0 0.31330750004580071 0.37415411701346801 0 0.32747532831295961 0.38599912714960932 0 0.33223915897936612 0.37265341838911947 0 0.31330750004580071 0.37415411701346801 0 0.32747532831295961 0.38599912714960932 0 0.31488430245141508 0.39498593805855248 0 0.31330750004580071 0.37415411701346801 0 0.31488430245141508 0.39498593805855248 0 0.31330750004580071 0.37415411701346801 0 0.34416200910384809 0.38579157301965289 0 0.35069326936612882 0.37118886637412279 0 0.33223915897936612 0.37265341838911947 0 0.32747532831295961 0.38599912714960932 0 0.34416200910384809 0.38579157301965289 0 0.33223915897936612 0.37265341838911947 0 0.32747532831295961 0.38599912714960932 0 0.33594843894414061 0.39380505114022307 0 0.34416200910384809 0.38579157301965289 0 0.33594843894414061 0.39380505114022307 0 0.33800705569617462 0.40715825432938629 0 0.35052038150634479 0.39956228277458272 0 0.33594843894414061 0.39380505114022307 0 0.34416200910384809 0.38579157301965289 0 0.35052038150634479 0.39956228277458272 0 0.32747532831295961 0.38599912714960932 0 0.33594843894414061 0.39380505114022307 0 0.32576063417029988 0.39883187217338678 0 0.33594843894414061 0.39380505114022307 0 0.32576063417029988 0.39883187217338678 0 0.33800705569617462 0.40715825432938629 0 0.32576063417029988 0.39883187217338678 0 0.32276253935091181 0.40997176572444149 0 0.33800705569617462 0.40715825432938629 0 0.32576063417029988 0.39883187217338678 0 0.31892201252601171 0.40168833496109502 0 0.32276253935091181 0.40997176572444149 0 0.32747532831295961 0.38599912714960932 0 0.32576063417029988 0.39883187217338678 0 0.31488430245141508 0.39498593805855248 0 0.31265195033372228 0.40505820007979249 0 0.31892201252601171 0.40168833496109502 0 0.32276253935091181 0.40997176572444149 0 0.32576063417029988 0.39883187217338678 0 0.31488430245141508 0.39498593805855248 0 0.31892201252601171 0.40168833496109502 0 0.31488430245141508 0.39498593805855248 0 0.31265195033372228 0.40505820007979249 0 0.31892201252601171 0.40168833496109502 0 0.30568118129416549 0.40539743664734551 0 0.31265195033372228 0.40505820007979249 0 0.32366764467376108 0.42489467764405231 0 0.30568118129416549 0.40539743664734551 0 0.32366764467376108 0.42489467764405231 0 0.31265195033372228 0.40505820007979249 0 0.32276253935091181 0.40997176572444149 0 0.32366764467376108 0.42489467764405231 0 0.32595252191809032 0.44108302058742949 0 0.32366764467376108 0.42489467764405231 0 0.31282671669116019 0.43110211358878242 0 0.30527865948290089 0.41814048037090018 0 0.32366764467376108 0.42489467764405231 0 0.31282671669116019 0.43110211358878242 0 0.34165410805335678 0.44439191864075928 0 0.32366764467376108 0.42489467764405231 0 0.34165410805335678 0.44439191864075928 0 0.32366764467376108 0.42489467764405231 0 0.33936808659090317 0.42233083681790429 0 0.34165410805335678 0.44439191864075928 0 0.32595252191809032 0.44108302058742949 0 0.32366764467376108 0.42489467764405231 0 0.32276253935091181 0.40997176572444149 0 0.33936808659090317 0.42233083681790429 0 0.32276253935091181 0.40997176572444149 0 0.32366764467376108 0.42489467764405231 0 0.33936808659090317 0.42233083681790429 0 0.32276253935091181 0.40997176572444149 0 0.33936808659090317 0.42233083681790429 0 0.33800705569617462 0.40715825432938629 0 0.33800705569617462 0.40715825432938629 0 0.35853659914248509 0.41384827315582129 0 0.35052038150634479 0.39956228277458272 0 0.33936808659090317 0.42233083681790429 0 0.33800705569617462 0.40715825432938629 0 0.35853659914248509 0.41384827315582129 0 0.33936808659090317 0.42233083681790429 0 0.35597363383089459 0.43468990791136708 0 0.34165410805335678 0.44439191864075928 0 0.33936808659090317 0.42233083681790429 0 0.35597363383089459 0.43468990791136708 0 0.33936808659090317 0.42233083681790429 0 0.35853659914248509 0.41384827315582129 0 0.35597363383089459 0.43468990791136708 0 0.35853659914248509 0.41384827315582129 0 0.35597363383089459 0.43468990791136708 0 0.3720653274293948 0.42942526796841929 0 0.37257918107088689 0.44704897900482882 0 0.35597363383089459 0.43468990791136708 0 0.3720653274293948 0.42942526796841929 0 0.35853659914248509 0.41384827315582129 0 0.3720653274293948 0.42942526796841929 0 0.38549768566216952 0.41189251820639777 0 0.35853659914248509 0.41384827315582129 0 0.36809547751414901 0.39154069229026051 0 0.38549768566216952 0.41189251820639777 0 0.36809547751414901 0.39154069229026051 0 0.36705937352462581 0.37888618910900218 0 0.35069326936612882 0.37118886637412279 0 0.36809547751414901 0.39154069229026051 0 0.37452603213945718 0.38481566355808128 0 0.36705937352462581 0.37888618910900218 0 0.36809547751414901 0.39154069229026051 0 0.35069326936612882 0.37118886637412279 0 0.36705937352462581 0.37888618910900218 0 0.37717404253384401 0.37300664547019829 0 0.37452603213945718 0.38481566355808128 0 0.36705937352462581 0.37888618910900218 0 0.37717404253384401 0.37300664547019829 0 0.36705937352462581 0.37888618910900218 0 0.36866344911689358 0.37360261010371099 0 0.37186901320941018 0.37270210263311371 0 0.36809547751414901 0.39154069229026051 0 0.34416200910384809 0.38579157301965289 0 0.35069326936612882 0.37118886637412279 0 0.36809547751414901 0.39154069229026051 0 0.34416200910384809 0.38579157301965289 0 0.35052038150634479 0.39956228277458272 0 0.35853659914248509 0.41384827315582129 0 0.36809547751414901 0.39154069229026051 0 0.35052038150634479 0.39956228277458272 0 0.34993920197684608 0.34855546905499912 0 0.36595366526255652 0.36997777339313642 0 0.34993920197684608 0.34855546905499912 0 0.35176882202906662 0.36224432312549032 0 0.34048915151073528 0.3592551836797036 0 0.35069326936612882 0.37118886637412279 0 0.35176882202906662 0.36224432312549032 0 0.34048915151073528 0.3592551836797036 0 0.35069326936612882 0.37118886637412279 0 0.34048915151073528 0.3592551836797036 0 0.34993920197684608 0.34855546905499912 0 0.35176882202906662 0.36224432312549032 0 0.36595366526255652 0.36997777339313642 0 0.35069326936612882 0.37118886637412279 0 0.35176882202906662 0.36224432312549032 0 0.36595366526255652 0.36997777339313642 0 0.35069326936612882 0.37118886637412279 0 0.36595366526255652 0.36997777339313642 0 0.36595366526255652 0.36997777339313642 0 0.36715279096930381 0.34641616587486918 0 0.37573984188342968 0.36920112448463671 0 0.36705937352462581 0.37888618910900218 0 0.35069326936612882 0.37118886637412279 0 0.36595366526255652 0.36997777339313642 0 0.36705937352462581 0.37888618910900218 0 0.36595366526255652 0.36997777339313642 0 0.36866344911689358 0.37360261010371099 0 0.36595366526255652 0.36997777339313642 0 0.37186901320941018 0.37270210263311371 0 0.37573984188342968 0.36920112448463671 0 0.36705937352462581 0.37888618910900218 0 0.37186901320941018 0.37270210263311371 0 0.37717404253384401 0.37300664547019829 0 0.36595366526255652 0.36997777339313642 0 0.37573984188342968 0.36920112448463671 0 0.36595366526255652 0.36997777339313642 0 0.36866344911689358 0.37360261010371099 0 0.37186901320941018 0.37270210263311371 0 0.36595366526255652 0.36997777339313642 0 0.36866344911689358 0.37360261010371099 0 0.37186901320941018 0.37270210263311371 0 0.37717404253384401 0.37300664547019829 0 0.37573984188342968 0.36920112448463671 0 0.36715279096930381 0.34641616587486918 0 0.37573984188342968 0.36920112448463671 0 0.36715279096930381 0.34641616587486918 0 0.38092396937303252 0.35602699697990531 0 0.37573984188342968 0.36920112448463671 0 0.34993920197684608 0.34855546905499912 0 0.36595366526255652 0.36997777339313642 0 0.36715279096930381 0.34641616587486918 0 0.36715279096930381 0.34641616587486918 0 0.35856574005517811 0.32363120726510181 0 0.37627086720686648 0.3292953429624868 0 0.36715279096930381 0.34641616587486918 0 0.35856574005517811 0.32363120726510181 0 0.37402374526870968 0.31596753099345543 0 0.35856574005517811 0.32363120726510181 0 0.37627086720686648 0.3292953429624868 0 0.34993920197684608 0.34855546905499912 0 0.36715279096930381 0.34641616587486918 0 0.35856574005517811 0.32363120726510181 0 0.34993920197684608 0.34855546905499912 0 0.35856574005517811 0.32363120726510181 0 0.33392473869113598 0.32713316471686149 0 0.33392473869113598 0.32713316471686149 0 0.32422624117002302 0.33972064747451369 0 0.33426630734765211 0.34631557143719321 0 0.34993920197684608 0.34855546905499912 0 0.33392473869113598 0.32713316471686149 0 0.33426630734765211 0.34631557143719321 0 0.34993920197684608 0.34855546905499912 0 0.33392473869113598 0.32713316471686149 0 0.33392473869113598 0.32713316471686149 0 0.31777291249537959 0.30559302045913528 0 0.33517067304336179 0.31093600860933412 0 0.35856574005517811 0.32363120726510181 0 0.33392473869113598 0.32713316471686149 0 0.33517067304336179 0.31093600860933412 0 0.33392473869113598 0.32713316471686149 0 0.31830732739498679 0.32847366711328652 0 0.31777291249537959 0.30559302045913528 0 0.33392473869113598 0.32713316471686149 0 0.31777291249537959 0.30559302045913528 0 0.31830732739498679 0.32847366711328652 0 0.3089007805214426 0.31593503249130178 0 0.31777291249537959 0.30559302045913528 0 0.31830732739498679 0.32847366711328652 0 0.31089528783143627 0.34228533434705188 0 0.3089007805214426 0.31593503249130178 0 0.33392473869113598 0.32713316471686149 0 0.32422624117002302 0.33972064747451369 0 0.31830732739498679 0.32847366711328652 0 0.32422624117002302 0.33972064747451369 0 0.31830732739498679 0.32847366711328652 0 0.31089528783143627 0.34228533434705188 0 0.32422624117002302 0.33972064747451369 0 0.323737544584904 0.35439549975817558 0 0.31089528783143627 0.34228533434705188 0 0.323737544584904 0.35439549975817558 0 0.31288979514142568 0.36863563620280232 0 0.31089528783143627 0.34228533434705188 0 0.32422624117002302 0.33972064747451369 0 0.323737544584904 0.35439549975817558 0 0.33426630734765211 0.34631557143719321 0 0.323737544584904 0.35439549975817558 0 0.33426630734765211 0.34631557143719321 0 0.34048915151073528 0.3592551836797036 0 0.34993920197684608 0.34855546905499912 0 0.33426630734765211 0.34631557143719321 0 0.34048915151073528 0.3592551836797036 0 0.35069326936612882 0.37118886637412279 0 0.34048915151073528 0.3592551836797036 0 0.33223915897936612 0.37265341838911947 0 0.34048915151073528 0.3592551836797036 0 0.33223915897936612 0.37265341838911947 0 0.32359432939369093 0.36568482899172322 0 0.323737544584904 0.35439549975817558 0 0.34048915151073528 0.3592551836797036 0 0.32359432939369093 0.36568482899172322 0 0.35069326936612882 0.37118886637412279 0 0.33223915897936612 0.37265341838911947 0 0.33223915897936612 0.37265341838911947 0 0.31330750004580071 0.37415411701346801 0 0.33223915897936612 0.37265341838911947 0 0.32359432939369093 0.36568482899172322 0 0.31330750004580071 0.37415411701346801 0 0.323737544584904 0.35439549975817558 0 0.32359432939369093 0.36568482899172322 0 0.31288979514142568 0.36863563620280232 0 0.32359432939369093 0.36568482899172322 0 0.31288979514142568 0.36863563620280232 0 0.31330750004580071 0.37415411701346801 0 0.31288979514142568 0.36863563620280232 0 0.31330750004580071 0.37415411701346801 0 0.29948606169241782 0.37921082780616228 0 0.31288979514142568 0.36863563620280232 0 0.29926904759400602 0.36316260273495049 0 0.31288979514142568 0.36863563620280232 0 0.29926904759400602 0.36316260273495049 0 0.30051629613276248 0.35201355720570282 0 0.29948606169241782 0.37921082780616228 0 0.31288979514142568 0.36863563620280232 0 0.31330750004580071 0.37415411701346801 0 0.31288979514142568 0.36863563620280232 0 0.30051629613276248 0.35201355720570282 0 0.31089528783143627 0.34228533434705188 0 0.31288979514142568 0.36863563620280232 0 0.31089528783143627 0.34228533434705188 0 0.30051629613276248 0.35201355720570282 0 0.29937681276575678 0.33982095312561811 0 0.31089528783143627 0.34228533434705188 0 0.30051629613276248 0.35201355720570282 0 0.29364397097014833 0.34626845389834549 0 0.29937681276575678 0.33982095312561811 0 0.30051629613276248 0.35201355720570282 0 0.29364397097014833 0.34626845389834549 0 0.28632017305111329 0.35336345553253212 0 0.29364397097014833 0.34626845389834549 0 0.28632017305111329 0.35336345553253212 0 0.28836260193096053 0.33987584972952911 0 0.29926904759400602 0.36316260273495049 0 0.30051629613276248 0.35201355720570282 0 0.28632017305111329 0.35336345553253212 0 0.28632017305111329 0.35336345553253212 0 0.28033454754700909 0.33873736605428723 0 0.28836260193096053 0.33987584972952911 0 0.29948606169241782 0.37921082780616228 0 0.28632017305111329 0.35336345553253212 0 0.29948606169241782 0.37921082780616228 0 0.28632017305111329 0.35336345553253212 0 0.28367781224943339 0.37180876407880509 0 0.29948606169241782 0.37921082780616228 0 0.29926904759400602 0.36316260273495049 0 0.28632017305111329 0.35336345553253212 0 0.27108721589503681 0.37852425576425308 0 0.27273342983706672 0.36205181153794602 0 0.25515248092861309 0.36423712135043901 0 0.28632017305111329 0.35336345553253212 0 0.28367781224943339 0.37180876407880509 0 0.27273342983706672 0.36205181153794602 0 0.27108721589503681 0.37852425576425308 0 0.28367781224943339 0.37180876407880509 0 0.27273342983706672 0.36205181153794602 0 0.28632017305111329 0.35336345553253212 0 0.27273342983706672 0.36205181153794602 0 0.26590334388997089 0.34733843702824613 0 0.27273342983706672 0.36205181153794602 0 0.26590334388997089 0.34733843702824613 0 0.25515248092861309 0.36423712135043901 0 0.24752764304797639 0.34525217349269988 0 0.26590334388997089 0.34733843702824613 0 0.25515248092861309 0.36423712135043901 0 0.24272917839956329 0.31328059004144598 0 0.25326206600745238 0.32966170343052159 0 0.25998839576850458 0.30166871098527193 0 0.25326206600745238 0.32966170343052159 0 0.27315428440980899 0.32751608325890202 0 0.25998839576850458 0.30166871098527193 0 0.26590334388997089 0.34733843702824613 0 0.25326206600745238 0.32966170343052159 0 0.27315428440980899 0.32751608325890202 0 0.24752764304797639 0.34525217349269988 0 0.26590334388997089 0.34733843702824613 0 0.25326206600745238 0.32966170343052159 0 0.28632017305111329 0.35336345553253212 0 0.26590334388997089 0.34733843702824613 0 0.27315428440980899 0.32751608325890202 0 0.28632017305111329 0.35336345553253212 0 0.27315428440980899 0.32751608325890202 0 0.28632017305111329 0.35336345553253212 0 0.28033454754700909 0.33873736605428723 0 0.27315428440980899 0.32751608325890202 0 0.28033454754700909 0.33873736605428723 0 0.27315428440980899 0.32751608325890202 0 0.28357917500251162 0.32727681570481448 0 0.27315428440980899 0.32751608325890202 0 0.28447986149473992 0.31932256201967602 0 0.28357917500251162 0.32727681570481448 0 0.27315428440980899 0.32751608325890202 0 0.25998839576850458 0.30166871098527193 0 0.27315428440980899 0.32751608325890202 0 0.27962077022733572 0.31098465354846028 0 0.25998839576850458 0.30166871098527193 0 0.27315428440980899 0.32751608325890202 0 0.28447986149473992 0.31932256201967602 0 0.27962077022733572 0.31098465354846028 0 0.28447986149473992 0.31932256201967602 0 0.29181535379359552 0.30862430196973623 0 0.27962077022733572 0.31098465354846028 0 0.28447986149473992 0.31932256201967602 0 0.28357917500251162 0.32727681570481448 0 0.29422972404044739 0.32221095561646712 0 0.28447986149473992 0.31932256201967602 0 0.29422972404044739 0.32221095561646712 0 0.29181535379359552 0.30862430196973623 0 0.28033454754700909 0.33873736605428723 0 0.28357917500251162 0.32727681570481448 0 0.29422972404044739 0.32221095561646712 0 0.28033454754700909 0.33873736605428723 0 0.29422972404044739 0.32221095561646712 0 0.28836260193096053 0.33987584972952911 0 0.29422972404044739 0.32221095561646712 0 0.28836260193096053 0.33987584972952911 0 0.29863169122620042 0.32790544111041448 0 0.28033454754700909 0.33873736605428723 0 0.29422972404044739 0.32221095561646712 0 0.28836260193096053 0.33987584972952911 0 0.29863169122620042 0.32790544111041448 0 0.28836260193096053 0.33987584972952911 0 0.29937681276575678 0.33982095312561811 0 0.29863169122620042 0.32790544111041448 0 0.29364397097014833 0.34626845389834549 0 0.28836260193096053 0.33987584972952911 0 0.29937681276575678 0.33982095312561811 0 0.31089528783143627 0.34228533434705188 0 0.3089007805214426 0.31593503249130178 0 0.31089528783143627 0.34228533434705188 0 0.29863169122620042 0.32790544111041448 0 0.3089007805214426 0.31593503249130178 0 0.29937681276575678 0.33982095312561811 0 0.31089528783143627 0.34228533434705188 0 0.29863169122620042 0.32790544111041448 0 0.29422972404044739 0.32221095561646712 0 0.30812490053388608 0.30568454517864718 0 0.29422972404044739 0.32221095561646712 0 0.3089007805214426 0.31593503249130178 0 0.30812490053388608 0.30568454517864718 0 0.29422972404044739 0.32221095561646712 0 0.29863169122620042 0.32790544111041448 0 0.3089007805214426 0.31593503249130178 0 0.29863169122620042 0.32790544111041448 0 0.3089007805214426 0.31593503249130178 0 0.30812490053388608 0.30568454517864718 0 0.29600026563304233 0.29553248063978937 0 0.29181535379359552 0.30862430196973623 0 0.29422972404044739 0.32221095561646712 0 0.30812490053388608 0.30568454517864718 0 0.29181535379359552 0.30862430196973623 0 0.3089007805214426 0.31593503249130178 0 0.30812490053388608 0.30568454517864718 0 0.3089007805214426 0.31593503249130178 0 0.30812490053388608 0.30568454517864718 0 0.31777291249537959 0.30559302045913528 0 0.30812490053388608 0.30568454517864718 0 0.30654017076214912 0.28474799225856551 0 0.30812490053388608 0.30568454517864718 0 0.30654017076214912 0.28474799225856551 0 0.29600026563304233 0.29553248063978937 0 0.30654017076214912 0.28474799225856551 0 0.29012427262132567 0.28223564679345259 0 0.29600026563304233 0.29553248063978937 0 0.29012427262132567 0.28223564679345259 0 0.28339663045425523 0.29636991699854598 0 0.27037488973080048 0.2798320676603176 0 0.29012427262132567 0.28223564679345259 0 0.29600026563304233 0.29553248063978937 0 0.28339663045425523 0.29636991699854598 0 0.29600026563304233 0.29553248063978937 0 0.28339663045425523 0.29636991699854598 0 0.29181535379359552 0.30862430196973623 0 0.28339663045425523 0.29636991699854598 0 0.29181535379359552 0.30862430196973623 0 0.27962077022733572 0.31098465354846028 0 0.28339663045425523 0.29636991699854598 0 0.27962077022733572 0.31098465354846028 0 0.25998839576850458 0.30166871098527193 0 0.28339663045425523 0.29636991699854598 0 0.25998839576850458 0.30166871098527193 0 0.27037488973080048 0.2798320676603176 0 0.24682250712720019 0.27582133871164177 0 0.25998839576850458 0.30166871098527193 0 0.27037488973080048 0.2798320676603176 0 0.24682250712720019 0.27582133871164177 0 0.25998839576850458 0.30166871098527193 0 0.26299921505984269 0.2564796415422389 0 0.26022485699583159 0.26755778637080552 0 0.27354128291072149 0.26818250516715347 0 0.26299921505984269 0.2564796415422389 0 0.25092579941719262 0.26245818326567438 0 0.26022485699583159 0.26755778637080552 0 0.24682250712720019 0.27582133871164177 0 0.26022485699583159 0.26755778637080552 0 0.27037488973080048 0.2798320676603176 0 0.24682250712720019 0.27582133871164177 0 0.25092579941719262 0.26245818326567438 0 0.26022485699583159 0.26755778637080552 0 0.26022485699583159 0.26755778637080552 0 0.27037488973080048 0.2798320676603176 0 0.27354128291072149 0.26818250516715347 0 0.27037488973080048 0.2798320676603176 0 0.27354128291072149 0.26818250516715347 0 0.28385907912893199 0.2727714497145371 0 0.26299921505984269 0.2564796415422389 0 0.2845791246550598 0.25188314175314308 0 0.29234181163378681 0.26298531664647068 0 0.26299921505984269 0.2564796415422389 0 0.2845791246550598 0.25188314175314308 0 0.27316698385625021 0.2438545266825885 0 0.26299921505984269 0.2564796415422389 0 0.27354128291072149 0.26818250516715347 0 0.29234181163378681 0.26298531664647068 0 0.26299921505984269 0.2564796415422389 0 0.29234181163378681 0.26298531664647068 0 0.2845791246550598 0.25188314175314308 0 0.29357076516516312 0.25632618476893498 0 0.29205694999782089 0.25005763771083278 0 0.2845791246550598 0.25188314175314308 0 0.29234181163378681 0.26298531664647068 0 0.29357076516516312 0.25632618476893498 0 0.29357076516516312 0.25632618476893498 0 0.29205694999782089 0.25005763771083278 0 0.29821588257969661 0.25350816926612368 0 0.29012427262132567 0.28223564679345259 0 0.27037488973080048 0.2798320676603176 0 0.28385907912893199 0.2727714497145371 0 0.27354128291072149 0.26818250516715347 0 0.29234181163378681 0.26298531664647068 0 0.28385907912893199 0.2727714497145371 0 0.29234181163378681 0.26298531664647068 0 0.28385907912893199 0.2727714497145371 0 0.29534899613660481 0.272832308646833 0 0.29012427262132567 0.28223564679345259 0 0.28385907912893199 0.2727714497145371 0 0.29534899613660481 0.272832308646833 0 0.30654017076214912 0.28474799225856551 0 0.29534899613660481 0.272832308646833 0 0.30495544099041139 0.26381143933848378 0 0.30654017076214912 0.28474799225856551 0 0.30495544099041139 0.26381143933848378 0 0.32314959624263129 0.27097739870548471 0 0.30654017076214912 0.28474799225856551 0 0.29012427262132567 0.28223564679345259 0 0.29534899613660481 0.272832308646833 0 0.30654017076214912 0.28474799225856551 0 0.30495544099041139 0.26381143933848378 0 0.29234181163378681 0.26298531664647068 0 0.29534899613660481 0.272832308646833 0 0.30495544099041139 0.26381143933848378 0 0.30421742080716502 0.25429470686108768 0 0.31551315645745248 0.25563778672920789 0 0.29348150124841538 0.24189289693695701 0 0.30421742080716502 0.25429470686108768 0 0.29821588257969661 0.25350816926612368 0 0.30495544099041139 0.26381143933848378 0 0.29357076516516312 0.25632618476893498 0 0.29821588257969661 0.25350816926612368 0 0.30495544099041139 0.26381143933848378 0 0.29234181163378681 0.26298531664647068 0 0.29357076516516312 0.25632618476893498 0 0.30495544099041139 0.26381143933848378 0 0.30421742080716502 0.25429470686108768 0 0.30495544099041139 0.26381143933848378 0 0.31551315645745248 0.25563778672920789 0 0.30495544099041139 0.26381143933848378 0 0.31551315645745248 0.25563778672920789 0 0.32314959624263129 0.27097739870548471 0 0.31551315645745248 0.25563778672920789 0 0.33828413173126581 0.2588085983112095 0 0.32952182526965618 0.2466596864574821 0 0.31551315645745248 0.25563778672920789 0 0.3380978093382434 0.2693214146626437 0 0.31551315645745248 0.25563778672920789 0 0.3380978093382434 0.2693214146626437 0 0.32314959624263129 0.27097739870548471 0 0.31551315645745248 0.25563778672920789 0 0.3380978093382434 0.2693214146626437 0 0.33724390255851328 0.26705565068530712 0 0.31551315645745248 0.25563778672920789 0 0.33828413173126581 0.2588085983112095 0 0.33724390255851328 0.26705565068530712 0 0.33828413173126581 0.2588085983112095 0 0.3380978093382434 0.2693214146626437 0 0.35430420969765652 0.25076057804977192 0 0.33828413173126581 0.2588085983112095 0 0.3380978093382434 0.2693214146626437 0 0.33724390255851328 0.26705565068530712 0 0.33828413173126581 0.2588085983112095 0 0.34337253149540331 0.24931008363683421 0 0.32952182526965618 0.2466596864574821 0 0.3380978093382434 0.2693214146626437 0 0.32314959624263129 0.27097739870548471 0 0.32319953700004772 0.28775532855024549 0 0.3380978093382434 0.2693214146626437 0 0.32319953700004772 0.28775532855024549 0 0.34139163822692492 0.27806129004556751 0 0.3380978093382434 0.2693214146626437 0 0.32319953700004772 0.28775532855024549 0 0.34139163822692492 0.27806129004556751 0 0.3380978093382434 0.2693214146626437 0 0.34139163822692492 0.27806129004556751 0 0.3380978093382434 0.2693214146626437 0 0.34490018235423409 0.27397147198530658 0 0.34139163822692492 0.27806129004556751 0 0.34490018235423409 0.27397147198530658 0 0.3380978093382434 0.2693214146626437 0 0.34490018235423409 0.27397147198530658 0 0.3380978093382434 0.2693214146626437 0 0.33724390255851328 0.26705565068530712 0 0.3380978093382434 0.2693214146626437 0 0.32314959624263129 0.27097739870548471 0 0.30654017076214912 0.28474799225856551 0 0.32314959624263129 0.27097739870548471 0 0.32319953700004772 0.28775532855024549 0 0.30812490053388608 0.30568454517864718 0 0.32319953700004772 0.28775532855024549 0 0.30812490053388608 0.30568454517864718 0 0.30654017076214912 0.28474799225856551 0 0.32319953700004772 0.28775532855024549 0 0.30812490053388608 0.30568454517864718 0 0.32319953700004772 0.28775532855024549 0 0.32514620937418232 0.29699816126843342 0 0.31777291249537959 0.30559302045913528 0 0.32514620937418232 0.29699816126843342 0 0.33517067304336179 0.31093600860933412 0 0.30812490053388608 0.30568454517864718 0 0.31777291249537959 0.30559302045913528 0 0.32514620937418232 0.29699816126843342 0 0.3089007805214426 0.31593503249130178 0 0.31777291249537959 0.30559302045913528 0 0.31777291249537959 0.30559302045913528 0 0.32514620937418232 0.29699816126843342 0 0.32514620937418232 0.29699816126843342 0 0.33517067304336179 0.31093600860933412 0 0.34997868914105229 0.30084624865533433 0 0.34139163822692492 0.27806129004556751 0 0.32514620937418232 0.29699816126843342 0 0.34139163822692492 0.27806129004556751 0 0.32514620937418232 0.29699816126843342 0 0.34997868914105229 0.30084624865533433 0 0.34139163822692492 0.27806129004556751 0 0.32319953700004772 0.28775532855024549 0 0.32514620937418232 0.29699816126843342 0 0.34139163822692492 0.27806129004556751 0 0.34997868914105229 0.30084624865533433 0 0.3547385650510016 0.28679331896111182 0 0.34997868914105229 0.30084624865533433 0 0.3656187323559944 0.2966924434836124 0 0.34139163822692492 0.27806129004556751 0 0.3547385650510016 0.28679331896111182 0 0.34997868914105229 0.30084624865533433 0 0.3547385650510016 0.28679331896111182 0 0.35122328871939867 0.27791626865669722 0 0.35736780855003991 0.28085179988934689 0 0.3547385650510016 0.28679331896111182 0 0.36366131374293059 0.2848894150598219 0 0.35736780855003991 0.28085179988934689 0 0.35856574005517811 0.32363120726510181 0 0.34997868914105229 0.30084624865533433 0 0.35856574005517811 0.32363120726510181 0 0.34997868914105229 0.30084624865533433 0 0.3656187323559944 0.2966924434836124 0 0.35856574005517811 0.32363120726510181 0 0.33517067304336179 0.31093600860933412 0 0.34997868914105229 0.30084624865533433 0 0.37402374526870968 0.31596753099345543 0 0.3656187323559944 0.2966924434836124 0 0.37836067311928262 0.30227873978139319 0 0.37402374526870968 0.31596753099345543 0 0.35856574005517811 0.32363120726510181 0 0.3656187323559944 0.2966924434836124 0 0.3656187323559944 0.2966924434836124 0 0.37438280421435099 0.29385102579281108 0 0.37836067311928262 0.30227873978139319 0 0.36366131374293059 0.2848894150598219 0 0.36286950438424292 0.27872016457474408 0 0.35736780855003991 0.28085179988934689 0 0.3547385650510016 0.28679331896111182 0 0.36366131374293059 0.2848894150598219 0 0.3656187323559944 0.2966924434836124 0 0.36366131374293059 0.2848894150598219 0 0.3656187323559944 0.2966924434836124 0 0.37147493321162761 0.28689755530513028 0 0.3656187323559944 0.2966924434836124 0 0.37438280421435099 0.29385102579281108 0 0.37147493321162761 0.28689755530513028 0 0.36366131374293059 0.2848894150598219 0 0.37147493321162761 0.28689755530513028 0 0.36989833890467733 0.27938120814498613 0 0.37147493321162761 0.28689755530513028 0 0.36989833890467733 0.27938120814498613 0 0.37816064062645022 0.28008130448562779 0 0.36989833890467733 0.27938120814498613 0 0.36430825371193898 0.27328653033931488 0 0.37490178945768787 0.27264147091840529 0 0.36989833890467733 0.27938120814498613 0 0.37490178945768787 0.27264147091840529 0 0.37816064062645022 0.28008130448562779 0 0.36366131374293059 0.2848894150598219 0 0.36989833890467733 0.27938120814498613 0 0.36286950438424292 0.27872016457474408 0 0.36989833890467733 0.27938120814498613 0 0.36286950438424292 0.27872016457474408 0 0.36430825371193898 0.27328653033931488 0 0.36286950438424292 0.27872016457474408 0 0.36430825371193898 0.27328653033931488 0 0.35721128364652821 0.27452500046877121 0 0.36226479981470638 0.26664416151296411 0 0.36430825371193898 0.27328653033931488 0 0.37490178945768787 0.27264147091840529 0 0.36226479981470638 0.26664416151296411 0 0.36430825371193898 0.27328653033931488 0 0.35870380606379149 0.26780717641601881 0 0.36226479981470638 0.26664416151296411 0 0.35870380606379149 0.26780717641601881 0 0.36430825371193898 0.27328653033931488 0 0.35721128364652821 0.27452500046877121 0 0.35870380606379149 0.26780717641601881 0 0.36139665677837463 0.25474196351046408 0 0.39029188694281408 0.2574905593728794 0 0.37277068113571032 0.2414835610088707 0 0.36226479981470638 0.26664416151296411 0 0.36139665677837463 0.25474196351046408 0 0.39029188694281408 0.2574905593728794 0 0.33828413173126581 0.2588085983112095 0 0.35430420969765652 0.25076057804977192 0 0.34337253149540331 0.24931008363683421 0 0.3380978093382434 0.2693214146626437 0 0.35430420969765652 0.25076057804977192 0 0.33828413173126581 0.2588085983112095 0 0.35430420969765652 0.25076057804977192 0 0.36139665677837463 0.25474196351046408 0 0.35430420969765652 0.25076057804977192 0 0.35002263242103732 0.26800036601205601 0 0.3380978093382434 0.2693214146626437 0 0.35430420969765652 0.25076057804977192 0 0.35002263242103732 0.26800036601205601 0 0.36226479981470638 0.26664416151296411 0 0.36139665677837463 0.25474196351046408 0 0.35002263242103732 0.26800036601205601 0 0.36139665677837463 0.25474196351046408 0 0.35002263242103732 0.26800036601205601 0 0.3380978093382434 0.2693214146626437 0 0.35002263242103732 0.26800036601205601 0 0.34490018235423409 0.27397147198530658 0 0.3380978093382434 0.2693214146626437 0 0.35002263242103732 0.26800036601205601 0 0.35002263242103732 0.26800036601205601 0 0.34986724542603559 0.2730498222815459 0 0.35395124188934818 0.27084559129459812 0 0.35002263242103732 0.26800036601205601 0 0.34986724542603559 0.2730498222815459 0 0.34490018235423409 0.27397147198530658 0 0.35002263242103732 0.26800036601205601 0 0.34490018235423409 0.27397147198530658 0 0.34139163822692492 0.27806129004556751 0 0.3547385650510016 0.28679331896111182 0 0.35122328871939867 0.27791626865669722 0 0.34139163822692492 0.27806129004556751 0 0.34490018235423409 0.27397147198530658 0 0.35122328871939867 0.27791626865669722 0 0.34490018235423409 0.27397147198530658 0 0.35122328871939867 0.27791626865669722 0 0.34986724542603559 0.2730498222815459 0 0.34490018235423409 0.27397147198530658 0 0.35122328871939867 0.27791626865669722 0 0.34986724542603559 0.2730498222815459 0 0.35122328871939867 0.27791626865669722 0 0.35721128364652821 0.27452500046877121 0 0.35122328871939867 0.27791626865669722 0 0.35736780855003991 0.28085179988934689 0 0.35721128364652821 0.27452500046877121 0 0.36286950438424292 0.27872016457474408 0 0.35736780855003991 0.28085179988934689 0 0.35721128364652821 0.27452500046877121 0 0.35721128364652821 0.27452500046877121 0 0.35870380606379149 0.26780717641601881 0 0.35395124188934818 0.27084559129459812 0 0.36226479981470638 0.26664416151296411 0 0.35002263242103732 0.26800036601205601 0 0.35870380606379149 0.26780717641601881 0 0.35002263242103732 0.26800036601205601 0 0.35870380606379149 0.26780717641601881 0 0.35395124188934818 0.27084559129459812 0 0.36226479981470638 0.26664416151296411 0 0.35002263242103732 0.26800036601205601 0 0.34986724542603559 0.2730498222815459 0 0.35721128364652821 0.27452500046877121 0 0.35395124188934818 0.27084559129459812 0 0.39429640722755738 0.2728017032917171 0 0.40334642600567622 0.27004594656912989 0 0.38845568317727658 0.26374269866661743 0 0.39429640722755738 0.2728017032917171 0 0.40482145137025322 0.27905039039486929 0 0.39530007021529862 0.28578811858671271 0 0.39429640722755738 0.2728017032917171 0 0.38702864184225882 0.27862991937339487 0 0.39530007021529862 0.28578811858671271 0 0.39429640722755738 0.2728017032917171 0 0.40482145137025322 0.27905039039486929 0 0.40334642600567622 0.27004594656912989 0 0.40334642600567622 0.27004594656912989 0 0.38845568317727658 0.26374269866661743 0 0.41464656653984711 0.26084123582027069 0 0.39029188694281408 0.2574905593728794 0 0.38845568317727658 0.26374269866661743 0 0.41464656653984711 0.26084123582027069 0 0.39029188694281408 0.2574905593728794 0 0.41831897407092172 0.2483369572327947 0 0.38845568317727658 0.26374269866661743 0 0.41464656653984711 0.26084123582027069 0 0.36226479981470638 0.26664416151296411 0 0.38845568317727658 0.26374269866661743 0 0.36226479981470638 0.26664416151296411 0 0.39029188694281408 0.2574905593728794 0 0.36226479981470638 0.26664416151296411 0 0.39029188694281408 0.2574905593728794 0 0.38845568317727658 0.26374269866661743 0 0.37490178945768787 0.27264147091840529 0 0.38845568317727658 0.26374269866661743 0 0.38358326217195088 0.27340230857074149 0 0.36226479981470638 0.26664416151296411 0 0.37490178945768787 0.27264147091840529 0 0.38845568317727658 0.26374269866661743 0 0.38845568317727658 0.26374269866661743 0 0.38888069841390982 0.27057899167008809 0 0.38358326217195088 0.27340230857074149 0 0.39429640722755738 0.2728017032917171 0 0.38845568317727658 0.26374269866661743 0 0.38888069841390982 0.27057899167008809 0 0.38888069841390982 0.27057899167008809 0 0.38358326217195088 0.27340230857074149 0 0.38702864184225882 0.27862991937339487 0 0.39429640722755738 0.2728017032917171 0 0.38888069841390982 0.27057899167008809 0 0.38702864184225882 0.27862991937339487 0 0.38358326217195088 0.27340230857074149 0 0.38702864184225882 0.27862991937339487 0 0.37816064062645022 0.28008130448562779 0 0.37490178945768787 0.27264147091840529 0 0.38358326217195088 0.27340230857074149 0 0.37816064062645022 0.28008130448562779 0 0.38702864184225882 0.27862991937339487 0 0.37816064062645022 0.28008130448562779 0 0.38207687817049929 0.2895353646011089 0 0.37147493321162761 0.28689755530513028 0 0.37816064062645022 0.28008130448562779 0 0.38207687817049929 0.2895353646011089 0 0.37438280421435099 0.29385102579281108 0 0.37147493321162761 0.28689755530513028 0 0.38207687817049929 0.2895353646011089 0 0.37438280421435099 0.29385102579281108 0 0.38207687817049929 0.2895353646011089 0 0.37836067311928262 0.30227873978139319 0 0.38207687817049929 0.2895353646011089 0 0.39530007021529862 0.28578811858671271 0 0.39092065307405383 0.29563699302657009 0 0.38207687817049929 0.2895353646011089 0 0.37836067311928262 0.30227873978139319 0 0.39092065307405383 0.29563699302657009 0 0.38702864184225882 0.27862991937339487 0 0.38207687817049929 0.2895353646011089 0 0.39530007021529862 0.28578811858671271 0 0.37836067311928262 0.30227873978139319 0 0.39415356184628919 0.30595699228162099 0 0.39092065307405383 0.29563699302657009 0 0.37836067311928262 0.30227873978139319 0 0.39415356184628919 0.30595699228162099 0 0.3856286313127269 0.31571194480164971 0 0.37402374526870968 0.31596753099345543 0 0.37836067311928262 0.30227873978139319 0 0.3856286313127269 0.31571194480164971 0 0.39415356184628919 0.30595699228162099 0 0.40101132743318763 0.29759486725810058 0 0.39092065307405383 0.29563699302657009 0 0.39415356184628919 0.30595699228162099 0 0.40101132743318763 0.29759486725810058 0 0.40556651222628087 0.30703085543000452 0 0.39415356184628919 0.30595699228162099 0 0.40556651222628087 0.30703085543000452 0 0.39822314612114679 0.31637598235324338 0 0.40101132743318763 0.29759486725810058 0 0.39530007021529862 0.28578811858671271 0 0.39092065307405383 0.29563699302657009 0 0.40101132743318763 0.29759486725810058 0 0.39530007021529862 0.28578811858671271 0 0.40915758355844811 0.29083530314823719 0 0.40482145137025322 0.27905039039486929 0 0.39530007021529862 0.28578811858671271 0 0.40915758355844811 0.29083530314823719 0 0.40482145137025322 0.27905039039486929 0 0.40915758355844811 0.29083530314823719 0 0.41456343711451321 0.28288844111204181 0 0.40101132743318763 0.29759486725810058 0 0.40915758355844811 0.29083530314823719 0 0.41400399464209459 0.29927976065663081 0 0.40915758355844811 0.29083530314823719 0 0.42017890343412312 0.29099558880193971 0 0.41400399464209459 0.29927976065663081 0 0.40915758355844811 0.29083530314823719 0 0.42017890343412312 0.29099558880193971 0 0.41456343711451321 0.28288844111204181 0 0.42017890343412312 0.29099558880193971 0 0.41456343711451321 0.28288844111204181 0 0.42428861628202591 0.28006462345759542 0 0.40556651222628087 0.30703085543000452 0 0.41473779447754489 0.30750100413301701 0 0.40987544956978988 0.31542644754652233 0 0.40101132743318763 0.29759486725810058 0 0.40556651222628087 0.30703085543000452 0 0.41400399464209459 0.29927976065663081 0 0.40556651222628087 0.30703085543000452 0 0.41400399464209459 0.29927976065663081 0 0.41473779447754489 0.30750100413301701 0 0.41400399464209459 0.29927976065663081 0 0.41473779447754489 0.30750100413301701 0 0.4240670348405291 0.30317028145176977 0 0.42017890343412312 0.29099558880193971 0 0.41400399464209459 0.29927976065663081 0 0.4240670348405291 0.30317028145176977 0 0.41473779447754489 0.30750100413301701 0 0.41990769599360178 0.31393765902590409 0 0.40987544956978988 0.31542644754652233 0 0.41473779447754489 0.30750100413301701 0 0.4240670348405291 0.30317028145176977 0 0.41990769599360178 0.31393765902590409 0 0.42883453868669541 0.31202881144130162 0 0.4240670348405291 0.30317028145176977 0 0.41990769599360178 0.31393765902590409 0 0.4240670348405291 0.30317028145176977 0 0.43722716731195788 0.3055689731817478 0 0.43333604111525509 0.29076808352112671 0 0.42883453868669541 0.31202881144130162 0 0.43722716731195788 0.3055689731817478 0 0.43677859240352901 0.31447092301999319 0 0.42883453868669541 0.31202881144130162 0 0.4240670348405291 0.30317028145176977 0 0.43722716731195788 0.3055689731817478 0 0.43333604111525509 0.29076808352112671 0 0.42428861628202591 0.28006462345759542 0 0.43764684991431002 0.2743933307191313 0 0.42017890343412312 0.29099558880193971 0 0.43333604111525509 0.29076808352112671 0 0.42428861628202591 0.28006462345759542 0 0.42017890343412312 0.29099558880193971 0 0.4240670348405291 0.30317028145176977 0 0.43333604111525509 0.29076808352112671 0 0.42605839554135227 0.2692387497261744 0 0.44083744990241752 0.25793977297392412 0 0.43764684991431002 0.2743933307191313 0 0.42605839554135227 0.2692387497261744 0 0.42428861628202591 0.28006462345759542 0 0.43764684991431002 0.2743933307191313 0 0.42605839554135227 0.2692387497261744 0 0.42428861628202591 0.28006462345759542 0 0.41437063092771559 0.27349629975756751 0 0.41456343711451321 0.28288844111204181 0 0.42428861628202591 0.28006462345759542 0 0.41437063092771559 0.27349629975756751 0 0.42605839554135227 0.2692387497261744 0 0.41437063092771559 0.27349629975756751 0 0.41464656653984711 0.26084123582027069 0 0.40334642600567622 0.27004594656912989 0 0.41437063092771559 0.27349629975756751 0 0.41464656653984711 0.26084123582027069 0 0.40482145137025322 0.27905039039486929 0 0.40334642600567622 0.27004594656912989 0 0.41437063092771559 0.27349629975756751 0 0.40482145137025322 0.27905039039486929 0 0.41456343711451321 0.28288844111204181 0 0.41437063092771559 0.27349629975756751 0 0.39029188694281408 0.2574905593728794 0 0.41464656653984711 0.26084123582027069 0 0.41831897407092172 0.2483369572327947 0 0.42605839554135227 0.2692387497261744 0 0.41464656653984711 0.26084123582027069 0 0.44083744990241752 0.25793977297392412 0 0.41464656653984711 0.26084123582027069 0 0.44083744990241752 0.25793977297392412 0 0.41831897407092172 0.2483369572327947 0 0.41464656653984711 0.26084123582027069 0 0.44083744990241752 0.25793977297392412 0 0.44083744990241752 0.25793977297392412 0 0.46147652045870768 0.25381417775909959 0 0.44634606119902931 0.23918335509270999 0 0.44083744990241752 0.25793977297392412 0 0.45257794199037021 0.26687107415750638 0 0.46147652045870768 0.25381417775909959 0 0.44083744990241752 0.25793977297392412 0 0.43764684991431002 0.2743933307191313 0 0.45257794199037021 0.26687107415750638 0 0.43764684991431002 0.2743933307191313 0 0.45257794199037021 0.26687107415750638 0 0.448122620669406 0.28206122912934878 0 0.45257794199037021 0.26687107415750638 0 0.46542850614765741 0.27443791943784029 0 0.448122620669406 0.28206122912934878 0 0.45257794199037021 0.26687107415750638 0 0.46542850614765741 0.27443791943784029 0 0.46147652045870768 0.25381417775909959 0 0.46542850614765741 0.27443791943784029 0 0.46147652045870768 0.25381417775909959 0 0.48192277306296422 0.25798875429260443 0 0.46542850614765741 0.27443791943784029 0 0.48192277306296422 0.25798875429260443 0 0.4836328549523688 0.27740692674297007 0 0.4836328549523688 0.27740692674297007 0 0.5 0.26896647247879379 0 0.500000000000002 0.29247556040203471 0 0.48192277306296422 0.25798875429260443 0 0.4836328549523688 0.27740692674297007 0 0.5 0.26896647247879379 0 0.48192277306296422 0.25798875429260443 0 0.5 0.26896647247879379 0 0.50000000000000133 0.2454573845555528 0 0.500000000000002 0.29247556040203471 0 0.47835590369588182 0.31131247844602661 0 0.5 0.31476357715011888 0 0.500000000000002 0.29247556040203471 0 0.47835590369588182 0.31131247844602661 0 0.4836328549523688 0.27740692674297007 0 0.500000000000002 0.29247556040203471 0 0.4708129955512223 0.29316592710357758 0 0.46542850614765741 0.27443791943784029 0 0.4836328549523688 0.27740692674297007 0 0.4708129955512223 0.29316592710357758 0 0.4708129955512223 0.29316592710357758 0 0.47835590369588182 0.31131247844602661 0 0.46288052241700273 0.30966468359804322 0 0.500000000000002 0.29247556040203471 0 0.4708129955512223 0.29316592710357758 0 0.47835590369588182 0.31131247844602661 0 0.4708129955512223 0.29316592710357758 0 0.46288052241700273 0.30966468359804322 0 0.45292123156889869 0.30463929543760682 0 0.46288052241700273 0.30966468359804322 0 0.45292123156889869 0.30463929543760682 0 0.45377850418273702 0.31472330062173592 0 0.46542850614765741 0.27443791943784029 0 0.4708129955512223 0.29316592710357758 0 0.45787711126572411 0.28861809656595783 0 0.46542850614765741 0.27443791943784029 0 0.45787711126572411 0.28861809656595783 0 0.448122620669406 0.28206122912934878 0 0.4708129955512223 0.29316592710357758 0 0.45787711126572411 0.28861809656595783 0 0.45292123156889869 0.30463929543760682 0 0.45787711126572411 0.28861809656595783 0 0.44589683438624839 0.29433113556715762 0 0.45292123156889869 0.30463929543760682 0 0.43333604111525509 0.29076808352112671 0 0.43764684991431002 0.2743933307191313 0 0.448122620669406 0.28206122912934878 0 0.45787711126572411 0.28861809656595783 0 0.448122620669406 0.28206122912934878 0 0.44589683438624839 0.29433113556715762 0 0.43333604111525509 0.29076808352112671 0 0.448122620669406 0.28206122912934878 0 0.44589683438624839 0.29433113556715762 0 0.43722716731195788 0.3055689731817478 0 0.44589683438624839 0.29433113556715762 0 0.45292123156889869 0.30463929543760682 0 0.43722716731195788 0.3055689731817478 0 0.45292123156889869 0.30463929543760682 0 0.44544542825790528 0.31507737160465887 0 0.45292123156889869 0.30463929543760682 0 0.44544542825790528 0.31507737160465887 0 0.45377850418273702 0.31472330062173592 0 0.43722716731195788 0.3055689731817478 0 0.43333604111525509 0.29076808352112671 0 0.44589683438624839 0.29433113556715762 0 0.43722716731195788 0.3055689731817478 0 0.44544542825790528 0.31507737160465887 0 0.43677859240352901 0.31447092301999319 0 0.4396612199872294 0.32005015548574511 0 0.44544542825790528 0.31507737160465887 0 0.43677859240352901 0.31447092301999319 0 0.4396612199872294 0.32005015548574511 0 0.44444252625460262 0.32069574911857651 0 0.44544542825790528 0.31507737160465887 0 0.4396612199872294 0.32005015548574511 0 0.44295226773621932 0.32556358919692302 0 0.43570078498606751 0.32577388240878108 0 0.44295226773621932 0.32556358919692302 0 0.43709801787745511 0.33100743651255959 0 0.43570078498606751 0.32577388240878108 0 0.44295226773621932 0.32556358919692302 0 0.44820547578519782 0.3263578150363784 0 0.44247481403277511 0.33070163125675878 0 0.4396612199872294 0.32005015548574511 0 0.44295226773621932 0.32556358919692302 0 0.44444252625460262 0.32069574911857651 0 0.44295226773621932 0.32556358919692302 0 0.44444252625460262 0.32069574911857651 0 0.44924129670597712 0.32200146081768871 0 0.45119707634851719 0.3257313210158585 0 0.44924129670597712 0.32200146081768871 0 0.45840404196390128 0.32223369165068177 0 0.44295226773621932 0.32556358919692302 0 0.44820547578519782 0.3263578150363784 0 0.44924129670597712 0.32200146081768871 0 0.44820547578519782 0.3263578150363784 0 0.45119707634851719 0.3257313210158585 0 0.44924129670597712 0.32200146081768871 0 0.44820547578519782 0.3263578150363784 0 0.45119707634851719 0.3257313210158585 0 0.4534744587483549 0.3286540693865812 0 0.44924129670597712 0.32200146081768871 0 0.44544542825790528 0.31507737160465887 0 0.45377850418273702 0.31472330062173592 0 0.44444252625460262 0.32069574911857651 0 0.44924129670597712 0.32200146081768871 0 0.44544542825790528 0.31507737160465887 0 0.4534744587483549 0.3286540693865812 0 0.43506771108763981 0.34898631453400802 0 0.43064385001664829 0.34192524615135189 0 0.4534744587483549 0.3286540693865812 0 0.43064385001664829 0.34192524615135189 0 0.45492432860211712 0.34123984504156402 0 0.45671180739176082 0.33014939649001729 0 0.43506771108763981 0.34898631453400802 0 0.44247481403277511 0.33070163125675878 0 0.4534744587483549 0.3286540693865812 0 0.43064385001664829 0.34192524615135189 0 0.45671180739176082 0.33014939649001729 0 0.4534744587483549 0.3286540693865812 0 0.43506771108763981 0.34898631453400802 0 0.45671180739176082 0.33014939649001729 0 0.43506771108763981 0.34898631453400802 0 0.44295226773621932 0.32556358919692302 0 0.44247481403277511 0.33070163125675878 0 0.43709801787745511 0.33100743651255959 0 0.44820547578519782 0.3263578150363784 0 0.44247481403277511 0.33070163125675878 0 0.4534744587483549 0.3286540693865812 0 0.45671180739176082 0.33014939649001729 0 0.46807178486615192 0.33192085691669238 0 0.47519903200148189 0.32447450199902228 0 0.45492432860211712 0.34123984504156402 0 0.45671180739176082 0.33014939649001729 0 0.46170461970884841 0.33575943913950412 0 0.45671180739176082 0.33014939649001729 0 0.4534744587483549 0.3286540693865812 0 0.45494684611313352 0.32669211963578471 0 0.45671180739176082 0.33014939649001729 0 0.46807178486615192 0.33192085691669238 0 0.46170461970884841 0.33575943913950412 0 0.45492432860211712 0.34123984504156402 0 0.46170461970884841 0.33575943913950412 0 0.46622725569981849 0.34109317622888757 0 0.46807178486615192 0.33192085691669238 0 0.46170461970884841 0.33575943913950412 0 0.46622725569981849 0.34109317622888757 0 0.47835590369588182 0.31131247844602661 0 0.45671180739176082 0.33014939649001729 0 0.45840404196390128 0.32223369165068177 0 0.47835590369588182 0.31131247844602661 0 0.46288052241700273 0.30966468359804322 0 0.45840404196390128 0.32223369165068177 0 0.47835590369588182 0.31131247844602661 0 0.45671180739176082 0.33014939649001729 0 0.46288052241700273 0.30966468359804322 0 0.45377850418273702 0.31472330062173592 0 0.45840404196390128 0.32223369165068177 0 0.44924129670597712 0.32200146081768871 0 0.45377850418273702 0.31472330062173592 0 0.45840404196390128 0.32223369165068177 0 0.45671180739176082 0.33014939649001729 0 0.45494684611313352 0.32669211963578471 0 0.45840404196390128 0.32223369165068177 0 0.45119707634851719 0.3257313210158585 0 0.45494684611313352 0.32669211963578471 0 0.45840404196390128 0.32223369165068177 0 0.45119707634851719 0.3257313210158585 0 0.4534744587483549 0.3286540693865812 0 0.45494684611313352 0.32669211963578471 0 0.47835590369588182 0.31131247844602661 0 0.45671180739176082 0.33014939649001729 0 0.47519903200148189 0.32447450199902228 0 0.47835590369588182 0.31131247844602661 0 0.47519903200148189 0.32447450199902228 0 0.48903889741162998 0.32469082893130302 0 0.47519903200148189 0.32447450199902228 0 0.47989247935060808 0.33475764148942427 0 0.48903889741162998 0.32469082893130302 0 0.46807178486615192 0.33192085691669238 0 0.46622725569981849 0.34109317622888757 0 0.47989247935060808 0.33475764148942427 0 0.46807178486615192 0.33192085691669238 0 0.47519903200148189 0.32447450199902228 0 0.47989247935060808 0.33475764148942427 0 0.46622725569981849 0.34109317622888757 0 0.47989247935060808 0.33475764148942427 0 0.47606587018949148 0.34641700697387401 0 0.47989247935060808 0.33475764148942427 0 0.48689808756923081 0.34819560227224489 0 0.47606587018949148 0.34641700697387401 0 0.47989247935060808 0.33475764148942427 0 0.5 0.33705159389820322 0 0.48903889741162998 0.32469082893130302 0 0.47989247935060808 0.33475764148942427 0 0.5 0.33705159389820322 0 0.48689808756923081 0.34819560227224489 0 0.5 0.33705159389820322 0 0.5 0.31476357715011888 0 0.48903889741162998 0.32469082893130302 0 0.47835590369588182 0.31131247844602661 0 0.5 0.31476357715011888 0 0.48903889741162998 0.32469082893130302 0 0.49999999999999928 0.35933961064628739 0 0.47124565813830849 0.36162160790493908 0 0.45820118983366842 0.37955534665197532 0 0.49999999999999928 0.35933961064628739 0 0.47124565813830849 0.36162160790493908 0 0.5 0.33705159389820322 0 0.49999999999999928 0.35933961064628739 0 0.48689808756923081 0.34819560227224489 0 0.49999999999999928 0.35933961064628739 0 0.48689808756923081 0.34819560227224489 0 0.47124565813830849 0.36162160790493908 0 0.48689808756923081 0.34819560227224489 0 0.47606587018949148 0.34641700697387401 0 0.47124565813830849 0.36162160790493908 0 0.46622725569981849 0.34109317622888757 0 0.47606587018949148 0.34641700697387401 0 0.47124565813830849 0.36162160790493908 0 0.47124565813830849 0.36162160790493908 0 0.44249131627661781 0.3639036051635911 0 0.47124565813830849 0.36162160790493908 0 0.44249131627661781 0.3639036051635911 0 0.45820118983366842 0.37955534665197532 0 0.47124565813830849 0.36162160790493908 0 0.45435818520030219 0.3510643476398686 0 0.44249131627661781 0.3639036051635911 0 0.46622725569981849 0.34109317622888757 0 0.47124565813830849 0.36162160790493908 0 0.45435818520030219 0.3510643476398686 0 0.45492432860211712 0.34123984504156402 0 0.46622725569981849 0.34109317622888757 0 0.45435818520030219 0.3510643476398686 0 0.45492432860211712 0.34123984504156402 0 0.45435818520030219 0.3510643476398686 0 0.43506771108763981 0.34898631453400802 0 0.45435818520030219 0.3510643476398686 0 0.44249131627661781 0.3639036051635911 0 0.43506771108763981 0.34898631453400802 0 0.44249131627661781 0.3639036051635911 0 0.41373697441492679 0.36618560242224302 0 0.42154341525355837 0.35254314018020427 0 0.44249131627661781 0.3639036051635911 0 0.41373697441492679 0.36618560242224302 0 0.44249131627661781 0.3639036051635911 0 0.41373697441492679 0.36618560242224302 0 0.43868038380914709 0.38782981992645821 0 0.4078132412849419 0.35519642291612252 0 0.42154341525355837 0.35254314018020427 0 0.43064385001664829 0.34192524615135189 0 0.4078132412849419 0.35519642291612252 0 0.43064385001664829 0.34192524615135189 0 0.41613995687649641 0.33984342846463372 0 0.4078132412849419 0.35519642291612252 0 0.43064385001664829 0.34192524615135189 0 0.4078132412849419 0.35519642291612252 0 0.41613995687649641 0.33984342846463372 0 0.40282029635139049 0.34258406707362682 0 0.41373697441492679 0.36618560242224302 0 0.4078132412849419 0.35519642291612252 0 0.42154341525355837 0.35254314018020427 0 0.44249131627661781 0.3639036051635911 0 0.42154341525355837 0.35254314018020427 0 0.42775052917792628 0.34865429388030622 0 0.42154341525355837 0.35254314018020427 0 0.42775052917792628 0.34865429388030622 0 0.43064385001664829 0.34192524615135189 0 0.44249131627661781 0.3639036051635911 0 0.42775052917792628 0.34865429388030622 0 0.43506771108763981 0.34898631453400802 0 0.42775052917792628 0.34865429388030622 0 0.43506771108763981 0.34898631453400802 0 0.43064385001664829 0.34192524615135189 0 0.44247481403277511 0.33070163125675878 0 0.43064385001664829 0.34192524615135189 0 0.43709801787745511 0.33100743651255959 0 0.43064385001664829 0.34192524615135189 0 0.43709801787745511 0.33100743651255959 0 0.43203090726141968 0.33193583004090171 0 0.43709801787745511 0.33100743651255959 0 0.43203090726141968 0.33193583004090171 0 0.43570078498606751 0.32577388240878108 0 0.43203090726141968 0.33193583004090171 0 0.42529174952397292 0.33417446642425558 0 0.42693782355240611 0.32612161989038801 0 0.42529174952397292 0.33417446642425558 0 0.42693782355240611 0.32612161989038801 0 0.41943141268125839 0.32954218502694732 0 0.43064385001664829 0.34192524615135189 0 0.43203090726141968 0.33193583004090171 0 0.42529174952397292 0.33417446642425558 0 0.43064385001664829 0.34192524615135189 0 0.42529174952397292 0.33417446642425558 0 0.41613995687649641 0.33984342846463372 0 0.42883453868669541 0.31202881144130162 0 0.43677859240352901 0.31447092301999319 0 0.4327246077738568 0.31962930338651291 0 0.4396612199872294 0.32005015548574511 0 0.43677859240352901 0.31447092301999319 0 0.4327246077738568 0.31962930338651291 0 0.4327246077738568 0.31962930338651291 0 0.43570078498606751 0.32577388240878108 0 0.42693782355240611 0.32612161989038801 0 0.43203090726141968 0.33193583004090171 0 0.43570078498606751 0.32577388240878108 0 0.42693782355240611 0.32612161989038801 0 0.4396612199872294 0.32005015548574511 0 0.4327246077738568 0.31962930338651291 0 0.43570078498606751 0.32577388240878108 0 0.4327246077738568 0.31962930338651291 0 0.42693782355240611 0.32612161989038801 0 0.42478111147945519 0.31880038293816693 0 0.42693782355240611 0.32612161989038801 0 0.42478111147945519 0.31880038293816693 0 0.41589451587844839 0.32267484563745169 0 0.42883453868669541 0.31202881144130162 0 0.4327246077738568 0.31962930338651291 0 0.42478111147945519 0.31880038293816693 0 0.42883453868669541 0.31202881144130162 0 0.42478111147945519 0.31880038293816693 0 0.41990769599360178 0.31393765902590409 0 0.41990769599360178 0.31393765902590409 0 0.41589451587844839 0.32267484563745169 0 0.40987544956978988 0.31542644754652233 0 0.42478111147945519 0.31880038293816693 0 0.41990769599360178 0.31393765902590409 0 0.41589451587844839 0.32267484563745169 0 0.42693782355240611 0.32612161989038801 0 0.41589451587844839 0.32267484563745169 0 0.41943141268125839 0.32954218502694732 0 0.41589451587844839 0.32267484563745169 0 0.41092543039689661 0.33346004959222059 0 0.40420805522196862 0.32620065926636782 0 0.41589451587844839 0.32267484563745169 0 0.40987544956978988 0.31542644754652233 0 0.40420805522196862 0.32620065926636782 0 0.41589451587844839 0.32267484563745169 0 0.41943141268125839 0.32954218502694732 0 0.41092543039689661 0.33346004959222059 0 0.41613995687649641 0.33984342846463372 0 0.41943141268125839 0.32954218502694732 0 0.41092543039689661 0.33346004959222059 0 0.42529174952397292 0.33417446642425558 0 0.41613995687649641 0.33984342846463372 0 0.41943141268125839 0.32954218502694732 0 0.41613995687649641 0.33984342846463372 0 0.41092543039689661 0.33346004959222059 0 0.40282029635139049 0.34258406707362682 0 0.40282029635139049 0.34258406707362682 0 0.38990666654982581 0.32792899479329513 0 0.38479917557064752 0.34306548969226419 0 0.41092543039689661 0.33346004959222059 0 0.40282029635139049 0.34258406707362682 0 0.40420805522196862 0.32620065926636782 0 0.40282029635139049 0.34258406707362682 0 0.40420805522196862 0.32620065926636782 0 0.38990666654982581 0.32792899479329513 0 0.40556651222628087 0.30703085543000452 0 0.40987544956978988 0.31542644754652233 0 0.39822314612114679 0.31637598235324338 0 0.40987544956978988 0.31542644754652233 0 0.40420805522196862 0.32620065926636782 0 0.39822314612114679 0.31637598235324338 0 0.40420805522196862 0.32620065926636782 0 0.39822314612114679 0.31637598235324338 0 0.38990666654982581 0.32792899479329513 0 0.39822314612114679 0.31637598235324338 0 0.3856286313127269 0.31571194480164971 0 0.38990666654982581 0.32792899479329513 0 0.39415356184628919 0.30595699228162099 0 0.39822314612114679 0.31637598235324338 0 0.3856286313127269 0.31571194480164971 0 0.3856286313127269 0.31571194480164971 0 0.38990666654982581 0.32792899479329513 0 0.37627086720686648 0.3292953429624868 0 0.37402374526870968 0.31596753099345543 0 0.3856286313127269 0.31571194480164971 0 0.37627086720686648 0.3292953429624868 0 0.36715279096930381 0.34641616587486918 0 0.38479917557064752 0.34306548969226419 0 0.37627086720686648 0.3292953429624868 0 0.38990666654982581 0.32792899479329513 0 0.38479917557064752 0.34306548969226419 0 0.37627086720686648 0.3292953429624868 0 0.36715279096930381 0.34641616587486918 0 0.38479917557064752 0.34306548969226419 0 0.38092396937303252 0.35602699697990531 0 0.38479917557064752 0.34306548969226419 0 0.38092396937303252 0.35602699697990531 0 0.39194540588854571 0.35298460516686109 0 0.38092396937303252 0.35602699697990531 0 0.38498263255323589 0.36846759968089399 0 0.39194540588854571 0.35298460516686109 0 0.38092396937303252 0.35602699697990531 0 0.37573984188342968 0.36920112448463671 0 0.38498263255323589 0.36846759968089399 0 0.37717404253384401 0.37300664547019829 0 0.37573984188342968 0.36920112448463671 0 0.38498263255323589 0.36846759968089399 0 0.37573984188342968 0.36920112448463671 0 0.38498263255323589 0.36846759968089399 0 0.37717404253384401 0.37300664547019829 0 0.37573984188342968 0.36920112448463671 0 0.37717404253384401 0.37300664547019829 0 0.38498263255323589 0.36846759968089399 0 0.37717404253384401 0.37300664547019829 0 0.38498263255323589 0.36846759968089399 0 0.38767293602848341 0.3820819113927893 0 0.41373697441492679 0.36618560242224302 0 0.4078132412849419 0.35519642291612252 0 0.38498263255323589 0.36846759968089399 0 0.41373697441492679 0.36618560242224302 0 0.38498263255323589 0.36846759968089399 0 0.4078132412849419 0.35519642291612252 0 0.38498263255323589 0.36846759968089399 0 0.41373697441492679 0.36618560242224302 0 0.38498263255323589 0.36846759968089399 0 0.38767293602848341 0.3820819113927893 0 0.40282029635139049 0.34258406707362682 0 0.38479917557064752 0.34306548969226419 0 0.39194540588854571 0.35298460516686109 0 0.4078132412849419 0.35519642291612252 0 0.40282029635139049 0.34258406707362682 0 0.39194540588854571 0.35298460516686109 0 0.4078132412849419 0.35519642291612252 0 0.38498263255323589 0.36846759968089399 0 0.39194540588854571 0.35298460516686109 0 0.40072674966607791 0.40437091533720571 0 0.40102109475240899 0.38975834655172292 0 0.38577523498521032 0.3958291273628643 0 0.41373697441492679 0.36618560242224302 0 0.40102109475240899 0.38975834655172292 0 0.38767293602848341 0.3820819113927893 0 0.40102109475240899 0.38975834655172292 0 0.38767293602848341 0.3820819113927893 0 0.38577523498521032 0.3958291273628643 0 0.37717404253384401 0.37300664547019829 0 0.38767293602848341 0.3820819113927893 0 0.38577523498521032 0.3958291273628643 0 0.37717404253384401 0.37300664547019829 0 0.38577523498521032 0.3958291273628643 0 0.37452603213945718 0.38481566355808128 0 0.37717404253384401 0.37300664547019829 0 0.38577523498521032 0.3958291273628643 0 0.36809547751414901 0.39154069229026051 0 0.38577523498521032 0.3958291273628643 0 0.38549768566216952 0.41189251820639777 0 0.36809547751414901 0.39154069229026051 0 0.38549768566216952 0.41189251820639777 0 0.36809547751414901 0.39154069229026051 0 0.37452603213945718 0.38481566355808128 0 0.38577523498521032 0.3958291273628643 0 0.38577523498521032 0.3958291273628643 0 0.39437642743657703 0.41865160925553019 0 0.38577523498521032 0.3958291273628643 0 0.38549768566216952 0.41189251820639777 0 0.39437642743657703 0.41865160925553019 0 0.3720653274293948 0.42942526796841929 0 0.38549768566216952 0.41189251820639777 0 0.38773953744053802 0.43964666156368221 0 0.4028998938101892 0.43224434412253587 0 0.39437642743657703 0.41865160925553019 0 0.40777110923384369 0.41646616526238578 0 0.38549768566216952 0.41189251820639777 0 0.4028998938101892 0.43224434412253587 0 0.38549768566216952 0.41189251820639777 0 0.4028998938101892 0.43224434412253587 0 0.38773953744053802 0.43964666156368221 0 0.4028998938101892 0.43224434412253587 0 0.38773953744053802 0.43964666156368221 0 0.40072674966607791 0.40437091533720571 0 0.38577523498521032 0.3958291273628643 0 0.39437642743657703 0.41865160925553019 0 0.38549768566216952 0.41189251820639777 0 0.4028998938101892 0.43224434412253587 0 0.39437642743657703 0.41865160925553019 0 0.40072674966607791 0.40437091533720571 0 0.39437642743657703 0.41865160925553019 0 0.40777110923384369 0.41646616526238578 0 0.40072674966607791 0.40437091533720571 0 0.40777110923384369 0.41646616526238578 0 0.41719357866734658 0.40032417624351269 0 0.40777110923384369 0.41646616526238578 0 0.42371101878922168 0.42208293698631938 0 0.41719357866734658 0.40032417624351269 0 0.4028998938101892 0.43224434412253587 0 0.42371101878922168 0.42208293698631938 0 0.4028998938101892 0.43224434412253587 0 0.42062832683783791 0.43442961840150679 0 0.42371101878922168 0.42208293698631938 0 0.4028998938101892 0.43224434412253587 0 0.40777110923384369 0.41646616526238578 0 0.42371101878922168 0.42208293698631938 0 0.4028998938101892 0.43224434412253587 0 0.42062832683783791 0.43442961840150679 0 0.41343707937433721 0.44456754842071827 0 0.42062832683783791 0.43442961840150679 0 0.43575375476433198 0.43154671598377969 0 0.42733988745110901 0.44170654649418112 0 0.42062832683783791 0.43442961840150679 0 0.42371101878922168 0.42208293698631938 0 0.43575375476433198 0.43154671598377969 0 0.42371101878922168 0.42208293698631938 0 0.43575375476433198 0.43154671598377969 0 0.44041653522388979 0.41176042229731402 0 0.42371101878922168 0.42208293698631938 0 0.41719357866734658 0.40032417624351269 0 0.44041653522388979 0.41176042229731402 0 0.41719357866734658 0.40032417624351269 0 0.43868038380914709 0.38782981992645821 0 0.44041653522388979 0.41176042229731402 0 0.41373697441492679 0.36618560242224302 0 0.41719357866734658 0.40032417624351269 0 0.43868038380914709 0.38782981992645821 0 0.41373697441492679 0.36618560242224302 0 0.40102109475240899 0.38975834655172292 0 0.41719357866734658 0.40032417624351269 0 0.40072674966607791 0.40437091533720571 0 0.40102109475240899 0.38975834655172292 0 0.41719357866734658 0.40032417624351269 0 0.49999999999999928 0.35933961064628739 0 0.46508067508804501 0.40197312149676723 0 0.5 0.4376422773607852 0 0.44249131627661781 0.3639036051635911 0 0.43868038380914709 0.38782981992645821 0 0.45820118983366842 0.37955534665197532 0 0.43868038380914709 0.38782981992645821 0 0.46508067508804501 0.40197312149676723 0 0.44041653522388979 0.41176042229731402 0 0.43868038380914709 0.38782981992645821 0 0.46508067508804501 0.40197312149676723 0 0.45820118983366842 0.37955534665197532 0 0.49999999999999928 0.35933961064628739 0 0.46508067508804501 0.40197312149676723 0 0.45820118983366842 0.37955534665197532 0 0.46508067508804501 0.40197312149676723 0 0.4581194738144897 0.43361567672272278 0 0.5 0.4376422773607852 0 0.46508067508804501 0.40197312149676723 0 0.4581194738144897 0.43361567672272278 0 0.44041653522388979 0.41176042229731402 0 0.43575375476433198 0.43154671598377969 0 0.4581194738144897 0.43361567672272278 0 0.44041653522388979 0.41176042229731402 0 0.43575375476433198 0.43154671598377969 0 0.4581194738144897 0.43361567672272278 0 0.43892670648944088 0.4483069578478312 0 0.4581194738144897 0.43361567672272278 0 0.43892670648944088 0.4483069578478312 0 0.45559725819139951 0.45790803753294801 0 0.43892670648944088 0.4483069578478312 0 0.44063393592603811 0.46275473574283171 0 0.45559725819139951 0.45790803753294801 0 0.44063393592603811 0.46275473574283171 0 0.45559725819139951 0.45790803753294801 0 0.44497709202738461 0.48145349079353228 0 0.45559725819139951 0.45790803753294801 0 0.47187471968677419 0.45045396629243789 0 0.47378214674120778 0.47264987355329607 0 0.4581194738144897 0.43361567672272278 0 0.45559725819139951 0.45790803753294801 0 0.47187471968677419 0.45045396629243789 0 0.4581194738144897 0.43361567672272278 0 0.47187471968677419 0.45045396629243789 0 0.5 0.4376422773607852 0 0.47187471968677419 0.45045396629243789 0 0.5 0.4376422773607852 0 0.47378214674120778 0.47264987355329607 0 0.5 0.5 0 0.47378214674120778 0.47264987355329607 0 0.44372374152300992 0.49999999999999661 0 0.5 0.4376422773607852 0 0.5 0.5 0 0.47378214674120778 0.47264987355329607 0 0.47378214674120778 0.47264987355329607 0 0.44497709202738461 0.48145349079353228 0 0.44372374152300992 0.49999999999999661 0 0.45559725819139951 0.45790803753294801 0 0.47378214674120778 0.47264987355329607 0 0.44497709202738461 0.48145349079353228 0 0.44063393592603811 0.46275473574283171 0 0.44497709202738461 0.48145349079353228 0 0.4344756784829345 0.46917212175621692 0 0.44497709202738461 0.48145349079353228 0 0.4344756784829345 0.46917212175621692 0 0.44497709202738461 0.48145349079353228 0 0.44372374152300992 0.49999999999999661 0 0.42427650789661242 0.48552593663513233 0 0.44372374152300992 0.49999999999999661 0 0.42427650789661242 0.48552593663513233 0 0.41491973123335468 0.5 0 0.44372374152300992 0.49999999999999661 0 0.42427650789661242 0.48552593663513233 0 0.42427650789661242 0.48552593663513233 0 0.41491973123335468 0.5 0 0.40463989871996747 0.48776975019655849 0 0.42427650789661242 0.48552593663513233 0 0.4048292742702132 0.47105187327027009 0 0.42427650789661242 0.48552593663513233 0 0.42018279323905028 0.46953296390235932 0 0.4048292742702132 0.47105187327027009 0 0.42427650789661242 0.48552593663513233 0 0.40463989871996747 0.48776975019655849 0 0.4048292742702132 0.47105187327027009 0 0.44497709202738461 0.48145349079353228 0 0.42427650789661242 0.48552593663513233 0 0.4344756784829345 0.46917212175621692 0 0.42427650789661242 0.48552593663513233 0 0.42018279323905028 0.46953296390235932 0 0.4344756784829345 0.46917212175621692 0 0.44063393592603811 0.46275473574283171 0 0.4344756784829345 0.46917212175621692 0 0.42919294443903072 0.45693307078362949 0 0.43892670648944088 0.4483069578478312 0 0.44063393592603811 0.46275473574283171 0 0.42919294443903072 0.45693307078362949 0 0.42919294443903072 0.45693307078362949 0 0.42397426493848328 0.45689075271890223 0 0.42919294443903072 0.45693307078362949 0 0.42397426493848328 0.45689075271890223 0 0.42657417653848018 0.44968097525305262 0 0.42018279323905028 0.46953296390235932 0 0.4344756784829345 0.46917212175621692 0 0.42397426493848328 0.45689075271890223 0 0.4344756784829345 0.46917212175621692 0 0.42397426493848328 0.45689075271890223 0 0.4344756784829345 0.46917212175621692 0 0.42919294443903072 0.45693307078362949 0 0.42397426493848328 0.45689075271890223 0 0.43575375476433198 0.43154671598377969 0 0.43892670648944088 0.4483069578478312 0 0.42733988745110901 0.44170654649418112 0 0.43892670648944088 0.4483069578478312 0 0.42919294443903072 0.45693307078362949 0 0.42657417653848018 0.44968097525305262 0 0.43892670648944088 0.4483069578478312 0 0.42657417653848018 0.44968097525305262 0 0.42733988745110901 0.44170654649418112 0 0.42657417653848018 0.44968097525305262 0 0.42733988745110901 0.44170654649418112 0 0.41343707937433721 0.44456754842071827 0 0.42397426493848328 0.45689075271890223 0 0.41343707937433721 0.44456754842071827 0 0.40467815279114899 0.4567342813121546 0 0.42062832683783791 0.43442961840150679 0 0.42733988745110901 0.44170654649418112 0 0.41343707937433721 0.44456754842071827 0 0.42397426493848328 0.45689075271890223 0 0.41343707937433721 0.44456754842071827 0 0.42397426493848328 0.45689075271890223 0 0.42657417653848018 0.44968097525305262 0 0.41343707937433721 0.44456754842071827 0 0.4028998938101892 0.43224434412253587 0 0.41343707937433721 0.44456754842071827 0 0.42397426493848328 0.45689075271890223 0 0.41341612130972399 0.46355246780092169 0 0.40467815279114899 0.4567342813121546 0 0.42397426493848328 0.45689075271890223 0 0.40467815279114899 0.4567342813121546 0 0.42018279323905028 0.46953296390235932 0 0.42397426493848328 0.45689075271890223 0 0.41341612130972399 0.46355246780092169 0 0.41341612130972399 0.46355246780092169 0 0.40467815279114899 0.4567342813121546 0 0.4048292742702132 0.47105187327027009 0 0.42018279323905028 0.46953296390235932 0 0.41341612130972399 0.46355246780092169 0 0.4048292742702132 0.47105187327027009 0 0.38538204064381459 0.45657780990540708 0 0.39100034141737572 0.47860548028233091 0 0.4048292742702132 0.47105187327027009 0 0.38538204064381459 0.45657780990540708 0 0.4048292742702132 0.47105187327027009 0 0.40467815279114899 0.4567342813121546 0 0.38538204064381459 0.45657780990540708 0 0.4048292742702132 0.47105187327027009 0 0.40467815279114899 0.4567342813121546 0 0.38538204064381459 0.45657780990540708 0 0.3988273408120056 0.44595412906489951 0 0.38773953744053802 0.43964666156368221 0 0.38538204064381459 0.45657780990540708 0 0.40467815279114899 0.4567342813121546 0 0.3988273408120056 0.44595412906489951 0 0.38538204064381459 0.45657780990540708 0 0.4028998938101892 0.43224434412253587 0 0.41343707937433721 0.44456754842071827 0 0.3988273408120056 0.44595412906489951 0 0.41343707937433721 0.44456754842071827 0 0.40467815279114899 0.4567342813121546 0 0.3988273408120056 0.44595412906489951 0 0.4028998938101892 0.43224434412253587 0 0.3988273408120056 0.44595412906489951 0 0.38773953744053802 0.43964666156368221 0 0.37257918107088689 0.44704897900482882 0 0.38773953744053802 0.43964666156368221 0 0.38538204064381459 0.45657780990540708 0 0.37257918107088689 0.44704897900482882 0 0.3720653274293948 0.42942526796841929 0 0.38773953744053802 0.43964666156368221 0 0.37257918107088689 0.44704897900482882 0 0.38538204064381459 0.45657780990540708 0 0.37257918107088689 0.44704897900482882 0 0.38773953744053802 0.43964666156368221 0 0.36948680566750508 0.45644891607651722 0 0.38538204064381459 0.45657780990540708 0 0.37403477250918382 0.47762796803941948 0 0.36948680566750508 0.45644891607651722 0 0.38538204064381459 0.45657780990540708 0 0.36948680566750508 0.45644891607651722 0 0.37257918107088689 0.44704897900482882 0 0.38538204064381459 0.45657780990540708 0 0.37403477250918382 0.47762796803941948 0 0.38538204064381459 0.45657780990540708 0 0.39100034141737572 0.47860548028233091 0 0.37403477250918382 0.47762796803941948 0 0.3861157209436995 0.5 0 0.39100034141737572 0.47860548028233091 0 0.3861157209436995 0.5 0 0.40463989871996747 0.48776975019655849 0 0.39100034141737572 0.47860548028233091 0 0.41491973123335468 0.5 0 0.3861157209436995 0.5 0 0.40463989871996747 0.48776975019655849 0 0.40463989871996747 0.48776975019655849 0 0.39100034141737572 0.47860548028233091 0 0.4048292742702132 0.47105187327027009 0 0.33969626745053699 0.09281963210267688 0 0.33154810008298669 0.075834565112385302 0 0.34926396881347499 0.077927454211671923 0 0.33969626745053699 0.09281963210267688 0 0.33154810008298669 0.075834565112385302 0 0.31888356614536789 0.092042866731036899 0 0.33154810008298669 0.075834565112385302 0 0.34926396881347499 0.077927454211671923 0 0.34479087055217172 0.06082616468036374 0 0.33154810008298669 0.075834565112385302 0 0.34479087055217172 0.06082616468036374 0 0.32519092611603462 0.05805885415246563 0 0.33154810008298669 0.075834565112385302 0 0.31342746847099179 0.073154043056100945 0 0.32519092611603462 0.05805885415246563 0 0.33154810008298669 0.075834565112385302 0 0.31342746847099179 0.073154043056100945 0 0.31888356614536789 0.092042866731036899 0 0.31888356614536789 0.092042866731036899 0 0.31435263558439369 0.10914032892196519 0 0.30515160134564728 0.1011522303046756 0 0.31888356614536789 0.092042866731036899 0 0.31435263558439369 0.10914032892196519 0 0.32839354739832199 0.103323943813176 0 0.31435263558439369 0.10914032892196519 0 0.3276263471162843 0.1161365019279178 0 0.31368532344763861 0.1293955657533554 0 0.31435263558439369 0.10914032892196519 0 0.3276263471162843 0.1161365019279178 0 0.32839354739832199 0.103323943813176 0 0.3276263471162843 0.1161365019279178 0 0.34353377448019268 0.1108019042803265 0 0.32839354739832199 0.103323943813176 0 0.3276263471162843 0.1161365019279178 0 0.34353377448019268 0.1108019042803265 0 0.33690310177852839 0.12977958349163199 0 0.33969626745053699 0.09281963210267688 0 0.31888356614536789 0.092042866731036899 0 0.32839354739832199 0.103323943813176 0 0.33969626745053699 0.09281963210267688 0 0.34353377448019268 0.1108019042803265 0 0.32839354739832199 0.103323943813176 0 0.33969626745053699 0.09281963210267688 0 0.3539977222691596 0.10036720748101501 0 0.35468280038607469 0.088908711134272525 0 0.33969626745053699 0.09281963210267688 0 0.34353377448019268 0.1108019042803265 0 0.3539977222691596 0.10036720748101501 0 0.34353377448019268 0.1108019042803265 0 0.3539977222691596 0.10036720748101501 0 0.35685032816423368 0.1097314894147661 0 0.3539977222691596 0.10036720748101501 0 0.35685032816423368 0.1097314894147661 0 0.36336094616765519 0.1035772241308925 0 0.3539977222691596 0.10036720748101501 0 0.36458402059574119 0.093823065206870906 0 0.35468280038607469 0.088908711134272525 0 0.34353377448019268 0.1108019042803265 0 0.3575350432872314 0.1213620982567159 0 0.33690310177852839 0.12977958349163199 0 0.34353377448019268 0.1108019042803265 0 0.3575350432872314 0.1213620982567159 0 0.34353377448019268 0.1108019042803265 0 0.35685032816423368 0.1097314894147661 0 0.3575350432872314 0.1213620982567159 0 0.36582415461692969 0.1125490129248809 0 0.37353208531517862 0.099627954427332549 0 0.37358791482027159 0.12602063363590579 0 0.37353208531517862 0.099627954427332549 0 0.37358791482027159 0.12602063363590579 0 0.3575350432872314 0.1213620982567159 0 0.36582415461692969 0.1125490129248809 0 0.37358791482027159 0.12602063363590579 0 0.35685032816423368 0.1097314894147661 0 0.3575350432872314 0.1213620982567159 0 0.36582415461692969 0.1125490129248809 0 0.3539977222691596 0.10036720748101501 0 0.36458402059574119 0.093823065206870906 0 0.36336094616765519 0.1035772241308925 0 0.36458402059574119 0.093823065206870906 0 0.36336094616765519 0.1035772241308925 0 0.37353208531517862 0.099627954427332549 0 0.35685032816423368 0.1097314894147661 0 0.36582415461692969 0.1125490129248809 0 0.36336094616765519 0.1035772241308925 0 0.36582415461692969 0.1125490129248809 0 0.36336094616765519 0.1035772241308925 0 0.37353208531517862 0.099627954427332549 0 0.36458402059574119 0.093823065206870906 0 0.37353208531517862 0.099627954427332549 0 0.37433572331037063 0.087922968995723744 0 0.36458402059574119 0.093823065206870906 0 0.37433572331037063 0.087922968995723744 0 0.36587202280146119 0.079606196669127979 0 0.37433572331037063 0.087922968995723744 0 0.36587202280146119 0.079606196669127979 0 0.38134672427778449 0.077230582660076361 0 0.36458402059574119 0.093823065206870906 0 0.36587202280146119 0.079606196669127979 0 0.35468280038607469 0.088908711134272525 0 0.36587202280146119 0.079606196669127979 0 0.35468280038607469 0.088908711134272525 0 0.34926396881347499 0.077927454211671923 0 0.33969626745053699 0.09281963210267688 0 0.35468280038607469 0.088908711134272525 0 0.34926396881347499 0.077927454211671923 0 0.36587202280146119 0.079606196669127979 0 0.34926396881347499 0.077927454211671923 0 0.36022641894365909 0.066336733701520947 0 0.34926396881347499 0.077927454211671923 0 0.36022641894365909 0.066336733701520947 0 0.34479087055217172 0.06082616468036374 0 0.36587202280146119 0.079606196669127979 0 0.36022641894365909 0.066336733701520947 0 0.3779941917442185 0.064233160163082947 0 0.36022641894365909 0.066336733701520947 0 0.36321104080696931 0.049090692783358147 0 0.3779941917442185 0.064233160163082947 0 0.36321104080696931 0.049090692783358147 0 0.36520087160700748 0.024618476383510932 0 0.3779244641241683 0.036768828715786253 0 0.36321104080696931 0.049090692783358147 0 0.35122227372394499 0.032760143084969502 0 0.36520087160700748 0.024618476383510932 0 0.36321104080696931 0.049090692783358147 0 0.35122227372394499 0.032760143084969502 0 0.34061929333423763 0.04397694328155298 0 0.36022641894365909 0.066336733701520947 0 0.36321104080696931 0.049090692783358147 0 0.34479087055217172 0.06082616468036374 0 0.36321104080696931 0.049090692783358147 0 0.34479087055217172 0.06082616468036374 0 0.34061929333423763 0.04397694328155298 0 0.3697202331778231 0.0051944731981410069 0 0.36520087160700748 0.024618476383510932 0 0.35242759622682879 0.0050716858630956282 0 0.3697202331778231 0.0051944731981410069 0 0.36520087160700748 0.024618476383510932 0 0.3847226542401373 0.020542138372764251 0 0.35122227372394499 0.032760143084969502 0 0.36520087160700748 0.024618476383510932 0 0.34579317913176272 0.019548757231416261 0 0.36520087160700748 0.024618476383510932 0 0.34579317913176272 0.019548757231416261 0 0.35242759622682879 0.0050716858630956282 0 0.35122227372394499 0.032760143084969502 0 0.34579317913176272 0.019548757231416261 0 0.33770566194432078 0.030335016088674071 0 0.3697202331778231 0.0051944731981410069 0 0.35242759622682879 0.0050716858630956282 0 0.3547178121155089 -0.01015319197648225 0 0.34579317913176272 0.019548757231416261 0 0.35242759622682879 0.0050716858630956282 0 0.33607267105121608 0.0067225140728069434 0 0.35242759622682879 0.0050716858630956282 0 0.33607267105121608 0.0067225140728069434 0 0.33894288453699001 -0.0091175197947151784 0 0.33607267105121608 0.0067225140728069434 0 0.33217766916525199 0.020271169743777379 0 0.32039672515472489 0.0092932733705267806 0 0.34579317913176272 0.019548757231416261 0 0.33607267105121608 0.0067225140728069434 0 0.33217766916525199 0.020271169743777379 0 0.34579317913176272 0.019548757231416261 0 0.33217766916525199 0.020271169743777379 0 0.33770566194432078 0.030335016088674071 0 0.33217766916525199 0.020271169743777379 0 0.33770566194432078 0.030335016088674071 0 0.32279382563538028 0.03367606376149615 0 0.33217766916525199 0.020271169743777379 0 0.32039672515472489 0.0092932733705267806 0 0.32279382563538028 0.03367606376149615 0 0.32039672515472489 0.0092932733705267806 0 0.32279382563538028 0.03367606376149615 0 0.32039672515472489 0.0092932733705267806 0 0.32279382563538028 0.03367606376149615 0 0.31016145701985592 0.032371409865979292 0 0.32039672515472489 0.0092932733705267806 0 0.31016145701985592 0.032371409865979292 0 0.33607267105121608 0.0067225140728069434 0 0.32039672515472489 0.0092932733705267806 0 0.32606835352480013 -0.0034949224980522359 0 0.32039672515472489 0.0092932733705267806 0 0.32606835352480013 -0.0034949224980522359 0 0.34479087055217172 0.06082616468036374 0 0.34061929333423763 0.04397694328155298 0 0.32519092611603462 0.05805885415246563 0 0.34061929333423763 0.04397694328155298 0 0.32279382563538028 0.03367606376149615 0 0.32519092611603462 0.05805885415246563 0 0.33770566194432078 0.030335016088674071 0 0.34061929333423763 0.04397694328155298 0 0.32279382563538028 0.03367606376149615 0 0.35122227372394499 0.032760143084969502 0 0.33770566194432078 0.030335016088674071 0 0.34061929333423763 0.04397694328155298 0 0.32279382563538028 0.03367606376149615 0 0.32519092611603462 0.05805885415246563 0 0.32279382563538028 0.03367606376149615 0 0.31506046951936001 0.046745565058729233 0 0.32519092611603462 0.05805885415246563 0 0.32279382563538028 0.03367606376149615 0 0.31506046951936001 0.046745565058729233 0 0.31016145701985592 0.032371409865979292 0 0.31506046951936001 0.046745565058729233 0 0.32519092611603462 0.05805885415246563 0 0.29992618888498812 0.0554495463614324 0 0.31342746847099179 0.073154043056100945 0 0.32519092611603462 0.05805885415246563 0 0.29992618888498812 0.0554495463614324 0 0.29578548400670712 0.045712641594394567 0 0.30285368119575418 0.01889539334285506 0 0.29992618888498812 0.0554495463614324 0 0.31016145701985592 0.032371409865979292 0 0.31506046951936001 0.046745565058729233 0 0.29992618888498812 0.0554495463614324 0 0.31016145701985592 0.032371409865979292 0 0.31016145701985592 0.032371409865979292 0 0.29578548400670712 0.045712641594394567 0 0.30285368119575418 0.01889539334285506 0 0.29992618888498812 0.0554495463614324 0 0.31016145701985592 0.032371409865979292 0 0.29578548400670712 0.045712641594394567 0 0.29578548400670712 0.045712641594394567 0 0.28512633501434598 0.050408859640975058 0 0.28153538321103327 0.028287829436016231 0 0.28512633501434598 0.050408859640975058 0 0.28153538321103327 0.028287829436016231 0 0.29578548400670712 0.045712641594394567 0 0.28512633501434598 0.050408859640975058 0 0.2887172868176594 0.07252988984593392 0 0.29992618888498812 0.0554495463614324 0 0.29578548400670712 0.045712641594394567 0 0.2887172868176594 0.07252988984593392 0 0.29578548400670712 0.045712641594394567 0 0.2887172868176594 0.07252988984593392 0 0.28512633501434598 0.050408859640975058 0 0.2887172868176594 0.07252988984593392 0 0.29982143049329057 0.0051935502549301377 0 0.30285368119575418 0.01889539334285506 0 0.3099218783848019 -0.0079218549086841668 0 0.32039672515472489 0.0092932733705267806 0 0.30285368119575418 0.01889539334285506 0 0.3099218783848019 -0.0079218549086841668 0 0.30285368119575418 0.01889539334285506 0 0.3099218783848019 -0.0079218549086841668 0 0.29982143049329057 0.0051935502549301377 0 0.30285368119575418 0.01889539334285506 0 0.28928472338551392 0.01471179249844959 0 0.32039672515472489 0.0092932733705267806 0 0.31016145701985592 0.032371409865979292 0 0.30285368119575418 0.01889539334285506 0 0.29578548400670712 0.045712641594394567 0 0.30285368119575418 0.01889539334285506 0 0.28153538321103327 0.028287829436016231 0 0.28153538321103327 0.028287829436016231 0 0.28928472338551392 0.01471179249844959 0 0.27794443140771991 0.0061667992310574637 0 0.30285368119575418 0.01889539334285506 0 0.28153538321103327 0.028287829436016231 0 0.28928472338551392 0.01471179249844959 0 0.290999567129616 0.0060189311847108204 0 0.27794443140771991 0.0061667992310574637 0 0.294284373601713 -0.0022100768555975091 0 0.27794443140771991 0.0061667992310574637 0 0.294284373601713 -0.0022100768555975091 0 0.29982143049329057 0.0051935502549301377 0 0.28928472338551392 0.01471179249844959 0 0.290999567129616 0.0060189311847108204 0 0.28928472338551392 0.01471179249844959 0 0.290999567129616 0.0060189311847108204 0 0.27794443140771991 0.0061667992310574637 0 0.29982143049329057 0.0051935502549301377 0 0.290999567129616 0.0060189311847108204 0 0.294284373601713 -0.0022100768555975091 0 0.28153538321103327 0.028287829436016231 0 0.27794443140771991 0.0061667992310574637 0 0.27311541806133682 0.008642453425126588 0 0.26646914201122462 0.0062813531434843311 0 0.2716149922870314 0.0023698134122428771 0 0.26508125800532539 -0.0031175483341608331 0 0.26646914201122462 0.0062813531434843311 0 0.2716149922870314 0.0023698134122428771 0 0.27311541806133682 0.008642453425126588 0 0.2716149922870314 0.0023698134122428771 0 0.27794443140771991 0.0061667992310574637 0 0.27667985991333699 -0.001623231311202365 0 0.27794443140771991 0.0061667992310574637 0 0.27667985991333699 -0.001623231311202365 0 0.27794443140771991 0.0061667992310574637 0 0.27311541806133682 0.008642453425126588 0 0.2716149922870314 0.0023698134122428771 0 0.27794443140771991 0.0061667992310574637 0 0.27311541806133682 0.008642453425126588 0 0.27311541806133682 0.008642453425126588 0 0.26927563373788849 0.02191525390025734 0 0.26528327801507612 0.01553759738593484 0 0.26646914201122462 0.0062813531434843311 0 0.27311541806133682 0.008642453425126588 0 0.26528327801507612 0.01553759738593484 0 0.28153538321103327 0.028287829436016231 0 0.27794443140771991 0.0061667992310574637 0 0.28153538321103327 0.028287829436016231 0 0.26927563373788849 0.02191525390025734 0 0.26013802875717018 0.032279391651155079 0 0.28153538321103327 0.028287829436016231 0 0.27311541806133682 0.008642453425126588 0 0.26927563373788849 0.02191525390025734 0 0.25725076368735361 0.0079744498282781819 0 0.26013802875717018 0.032279391651155079 0 0.26927563373788849 0.02191525390025734 0 0.26528327801507612 0.01553759738593484 0 0.26013802875717018 0.032279391651155079 0 0.26528327801507612 0.01553759738593484 0 0.25725076368735361 0.0079744498282781819 0 0.26013802875717018 0.032279391651155079 0 0.2482519118440181 0.019735389054711491 0 0.25725076368735361 0.0079744498282781819 0 0.26013802875717018 0.032279391651155079 0 0.24534079437703801 0.033006220773063581 0 0.2482519118440181 0.019735389054711491 0 0.26013802875717018 0.032279391651155079 0 0.26646914201122462 0.0062813531434843311 0 0.26528327801507612 0.01553759738593484 0 0.25725076368735361 0.0079744498282781819 0 0.2469899307744319 0.0074925096759543008 0 0.2482519118440181 0.019735389054711491 0 0.25725076368735361 0.0079744498282781819 0 0.2469899307744319 0.0074925096759543008 0 0.25725076368735361 0.0079744498282781819 0 0.248186192367364 -0.0029083560372354569 0 0.26646914201122462 0.0062813531434843311 0 0.25725076368735361 0.0079744498282781819 0 0.26508125800532539 -0.0031175483341608331 0 0.28512633501434598 0.050408859640975058 0 0.26302529382698681 0.056584333474032002 0 0.27717397065059052 0.064753621040774256 0 0.28512633501434598 0.050408859640975058 0 0.26013802875717018 0.032279391651155079 0 0.26302529382698681 0.056584333474032002 0 0.28512633501434598 0.050408859640975058 0 0.28153538321103327 0.028287829436016231 0 0.26013802875717018 0.032279391651155079 0 0.24968230040100081 0.04538417143822867 0 0.26013802875717018 0.032279391651155079 0 0.26302529382698681 0.056584333474032002 0 0.26013802875717018 0.032279391651155079 0 0.26302529382698681 0.056584333474032002 0 0.24968230040100081 0.04538417143822867 0 0.24534079437703801 0.033006220773063581 0 0.26013802875717018 0.032279391651155079 0 0.2388873701332716 0.058022005438154063 0 0.24968230040100081 0.04538417143822867 0 0.26302529382698681 0.056584333474032002 0 0.24696601928917619 0.076776904553700356 0 0.26302529382698681 0.056584333474032002 0 0.26591255889680337 0.080889275296908925 0 0.26302529382698681 0.056584333474032002 0 0.26591255889680337 0.080889275296908925 0 0.24696601928917619 0.076776904553700356 0 0.25731853712911512 0.092848459011842521 0 0.26591255889680337 0.080889275296908925 0 0.25731853712911512 0.092848459011842521 0 0.27076111612218151 0.091645193911983697 0 0.26591255889680337 0.080889275296908925 0 0.27076111612218151 0.091645193911983697 0 0.26591255889680337 0.080889275296908925 0 0.27801794036107741 0.079019056963804582 0 0.27076111612218151 0.091645193911983697 0 0.27801794036107741 0.079019056963804582 0 0.28563232075926742 0.087678876878884232 0 0.26302529382698681 0.056584333474032002 0 0.26591255889680337 0.080889275296908925 0 0.27717397065059052 0.064753621040774256 0 0.26591255889680337 0.080889275296908925 0 0.27801794036107741 0.079019056963804582 0 0.27717397065059052 0.064753621040774256 0 0.28512633501434598 0.050408859640975058 0 0.27717397065059052 0.064753621040774256 0 0.2887172868176594 0.07252988984593392 0 0.29992618888498812 0.0554495463614324 0 0.28969092075012082 0.078527682856885633 0 0.29992618888498812 0.0554495463614324 0 0.2887172868176594 0.07252988984593392 0 0.28969092075012082 0.078527682856885633 0 0.2887172868176594 0.07252988984593392 0 0.28969092075012082 0.078527682856885633 0 0.27801794036107741 0.079019056963804582 0 0.27717397065059052 0.064753621040774256 0 0.2887172868176594 0.07252988984593392 0 0.27801794036107741 0.079019056963804582 0 0.2887172868176594 0.07252988984593392 0 0.28563232075926742 0.087678876878884232 0 0.28563232075926742 0.087678876878884232 0 0.28969092075012082 0.078527682856885633 0 0.2887172868176594 0.07252988984593392 0 0.28563232075926742 0.087678876878884232 0 0.28969092075012082 0.078527682856885633 0 0.29385585227661543 0.10418455076977939 0 0.2887172868176594 0.07252988984593392 0 0.28563232075926742 0.087678876878884232 0 0.28969092075012082 0.078527682856885633 0 0.28563232075926742 0.087678876878884232 0 0.28969092075012082 0.078527682856885633 0 0.29385585227661543 0.10418455076977939 0 0.28969092075012082 0.078527682856885633 0 0.30341878854863291 0.089465695026852546 0 0.29385585227661543 0.10418455076977939 0 0.31342746847099179 0.073154043056100945 0 0.30341878854863291 0.089465695026852546 0 0.30161584166368349 0.074149241825317846 0 0.31342746847099179 0.073154043056100945 0 0.31888356614536789 0.092042866731036899 0 0.30341878854863291 0.089465695026852546 0 0.28969092075012082 0.078527682856885633 0 0.30341878854863291 0.089465695026852546 0 0.30161584166368349 0.074149241825317846 0 0.31342746847099179 0.073154043056100945 0 0.29992618888498812 0.0554495463614324 0 0.30161584166368349 0.074149241825317846 0 0.29992618888498812 0.0554495463614324 0 0.28969092075012082 0.078527682856885633 0 0.30161584166368349 0.074149241825317846 0 0.31435263558439369 0.10914032892196519 0 0.30092101609883082 0.1159600680335337 0 0.31368532344763861 0.1293955657533554 0 0.31435263558439369 0.10914032892196519 0 0.30092101609883082 0.1159600680335337 0 0.30515160134564728 0.1011522303046756 0 0.31888356614536789 0.092042866731036899 0 0.30341878854863291 0.089465695026852546 0 0.30515160134564728 0.1011522303046756 0 0.30341878854863291 0.089465695026852546 0 0.30515160134564728 0.1011522303046756 0 0.29385585227661543 0.10418455076977939 0 0.30092101609883082 0.1159600680335337 0 0.30515160134564728 0.1011522303046756 0 0.29385585227661543 0.10418455076977939 0 0.28563232075926742 0.087678876878884232 0 0.29385585227661543 0.10418455076977939 0 0.27911867302737781 0.1023656295324608 0 0.28563232075926742 0.087678876878884232 0 0.27911867302737781 0.1023656295324608 0 0.29385585227661543 0.10418455076977939 0 0.28674736990768479 0.11585996627218061 0 0.27911867302737781 0.1023656295324608 0 0.28674736990768479 0.11585996627218061 0 0.26854642530463529 0.12620357620803629 0 0.2912063607202704 0.12997358593553501 0 0.30092101609883082 0.1159600680335337 0 0.29385585227661543 0.10418455076977939 0 0.28674736990768479 0.11585996627218061 0 0.30092101609883082 0.1159600680335337 0 0.28674736990768479 0.11585996627218061 0 0.2912063607202704 0.12997358593553501 0 0.27911867302737781 0.1023656295324608 0 0.26854642530463529 0.12620357620803629 0 0.27911867302737781 0.1023656295324608 0 0.25937949052831832 0.1074303572544361 0 0.26854642530463529 0.12620357620803629 0 0.28674736990768479 0.11585996627218061 0 0.27911867302737781 0.1023656295324608 0 0.26854642530463529 0.12620357620803629 0 0.27076111612218151 0.091645193911983697 0 0.27911867302737781 0.1023656295324608 0 0.25937949052831832 0.1074303572544361 0 0.27076111612218151 0.091645193911983697 0 0.28563232075926742 0.087678876878884232 0 0.27911867302737781 0.1023656295324608 0 0.24283763363987129 0.095528518601897372 0 0.25731853712911512 0.092848459011842521 0 0.25937949052831832 0.1074303572544361 0 0.25731853712911512 0.092848459011842521 0 0.27076111612218151 0.091645193911983697 0 0.25937949052831832 0.1074303572544361 0 0.25937949052831832 0.1074303572544361 0 0.25061981405273631 0.12899540641112561 0 0.26854642530463529 0.12620357620803629 0 0.25061981405273631 0.12899540641112561 0 0.26854642530463529 0.12620357620803629 0 0.25797417758189278 0.15004152288361169 0 0.26854642530463529 0.12620357620803629 0 0.25797417758189278 0.15004152288361169 0 0.26854642530463529 0.12620357620803629 0 0.27998706992118899 0.14769959223802279 0 0.2912063607202704 0.12997358593553501 0 0.26854642530463529 0.12620357620803629 0 0.27998706992118899 0.14769959223802279 0 0.25797417758189278 0.15004152288361169 0 0.2474019298591503 0.17387946955918709 0 0.25797417758189278 0.15004152288361169 0 0.26850748438149857 0.17143694353677649 0 0.2474019298591503 0.17387946955918709 0 0.25797417758189278 0.15004152288361169 0 0.2474019298591503 0.17387946955918709 0 0.25474503326088982 0.1861184732965159 0 0.26850748438149857 0.17143694353677649 0 0.25474503326088982 0.1861184732965159 0 0.26850748438149857 0.17143694353677649 0 0.26672073578853173 0.1931787023261318 0 0.28120461719769879 0.1830838782273162 0 0.26850748438149857 0.17143694353677649 0 0.26672073578853173 0.1931787023261318 0 0.28120461719769879 0.1830838782273162 0 0.26850748438149857 0.17143694353677649 0 0.29386422557214342 0.16448592500987891 0 0.27998706992118899 0.14769959223802279 0 0.26850748438149857 0.17143694353677649 0 0.29386422557214342 0.16448592500987891 0 0.27998706992118899 0.14769959223802279 0 0.25797417758189278 0.15004152288361169 0 0.26850748438149857 0.17143694353677649 0 0.28120461719769879 0.1830838782273162 0 0.29386422557214342 0.16448592500987891 0 0.29626047023303193 0.18608646506673801 0 0.29626047023303193 0.18608646506673801 0 0.31406758301698778 0.1678069277504981 0 0.31659368841582319 0.18522079268335509 0 0.29386422557214342 0.16448592500987891 0 0.29626047023303193 0.18608646506673801 0 0.31406758301698778 0.1678069277504981 0 0.29386422557214342 0.16448592500987891 0 0.31435647432469721 0.15009712947435841 0 0.31406758301698778 0.1678069277504981 0 0.2984577299611601 0.14482855775600409 0 0.31368532344763861 0.1293955657533554 0 0.31435647432469721 0.15009712947435841 0 0.29386422557214342 0.16448592500987891 0 0.2984577299611601 0.14482855775600409 0 0.31435647432469721 0.15009712947435841 0 0.30092101609883082 0.1159600680335337 0 0.2912063607202704 0.12997358593553501 0 0.31368532344763861 0.1293955657533554 0 0.2984577299611601 0.14482855775600409 0 0.2912063607202704 0.12997358593553501 0 0.31368532344763861 0.1293955657533554 0 0.27998706992118899 0.14769959223802279 0 0.2984577299611601 0.14482855775600409 0 0.2912063607202704 0.12997358593553501 0 0.27998706992118899 0.14769959223802279 0 0.29386422557214342 0.16448592500987891 0 0.2984577299611601 0.14482855775600409 0 0.27316698385625021 0.2438545266825885 0 0.27417981314966611 0.2298511518567718 0 0.29348150124841538 0.24189289693695701 0 0.27316698385625021 0.2438545266825885 0 0.25978506038829807 0.23712503581641811 0 0.27417981314966611 0.2298511518567718 0 0.27316698385625021 0.2438545266825885 0 0.25285246646408488 0.245816156428219 0 0.25978506038829807 0.23712503581641811 0 0.26299921505984269 0.2564796415422389 0 0.27316698385625021 0.2438545266825885 0 0.25285246646408488 0.245816156428219 0 0.27316698385625021 0.2438545266825885 0 0.25285246646408488 0.245816156428219 0 0.24793550767579481 0.23761478161865879 0 0.25978506038829807 0.23712503581641811 0 0.25079053079569491 0.2284885624958525 0 0.24793550767579481 0.23761478161865879 0 0.25285246646408488 0.245816156428219 0 0.25978506038829807 0.23712503581641811 0 0.25079053079569491 0.2284885624958525 0 0.25801040321428848 0.21976354130464401 0 0.27417981314966611 0.2298511518567718 0 0.25978506038829807 0.23712503581641811 0 0.25079053079569491 0.2284885624958525 0 0.27417981314966611 0.2298511518567718 0 0.25079053079569491 0.2284885624958525 0 0.27417981314966611 0.2298511518567718 0 0.24751370097796499 0.22007352975431149 0 0.25079053079569491 0.2284885624958525 0 0.25801040321428848 0.21976354130464401 0 0.25801040321428848 0.21976354130464401 0 0.27417981314966611 0.2298511518567718 0 0.25801040321428848 0.21976354130464401 0 0.27417981314966611 0.2298511518567718 0 0.27010733974171269 0.2178557708840157 0 0.27417981314966611 0.2298511518567718 0 0.27010733974171269 0.2178557708840157 0 0.28414647642648172 0.2216135007413356 0 0.27770301024818161 0.21370988398175589 0 0.27010733974171269 0.2178557708840157 0 0.28414647642648172 0.2216135007413356 0 0.27770301024818161 0.21370988398175589 0 0.26893372448334052 0.20775875427333651 0 0.28067017001328859 0.20023135519705601 0 0.26893372448334052 0.20775875427333651 0 0.27010733974171269 0.2178557708840157 0 0.26206524899248362 0.21318221140270119 0 0.27770301024818161 0.21370988398175589 0 0.26893372448334052 0.20775875427333651 0 0.27010733974171269 0.2178557708840157 0 0.26206524899248362 0.21318221140270119 0 0.25443325784045501 0.21451590612855209 0 0.25884151968262142 0.20601708442295791 0 0.25801040321428848 0.21976354130464401 0 0.27010733974171269 0.2178557708840157 0 0.26206524899248362 0.21318221140270119 0 0.2418409932789107 0.2096759307525165 0 0.25801040321428848 0.21976354130464401 0 0.25443325784045501 0.21451590612855209 0 0.25801040321428848 0.21976354130464401 0 0.26206524899248362 0.21318221140270119 0 0.25443325784045501 0.21451590612855209 0 0.25443325784045501 0.21451590612855209 0 0.25057929885876817 0.2057594910493151 0 0.25884151968262142 0.20601708442295791 0 0.26893372448334052 0.20775875427333651 0 0.26206524899248362 0.21318221140270119 0 0.25884151968262142 0.20601708442295791 0 0.26893372448334052 0.20775875427333651 0 0.25884151968262142 0.20601708442295791 0 0.26672073578853173 0.1931787023261318 0 0.25884151968262142 0.20601708442295791 0 0.25304543763118209 0.19749312617351619 0 0.26672073578853173 0.1931787023261318 0 0.25057929885876817 0.2057594910493151 0 0.25884151968262142 0.20601708442295791 0 0.25304543763118209 0.19749312617351619 0 0.24760788764735389 0.19903277919595219 0 0.25057929885876817 0.2057594910493151 0 0.25304543763118209 0.19749312617351619 0 0.24548936342069699 0.19231342481619851 0 0.25474503326088982 0.1861184732965159 0 0.25304543763118209 0.19749312617351619 0 0.25474503326088982 0.1861184732965159 0 0.25304543763118209 0.19749312617351619 0 0.26672073578853173 0.1931787023261318 0 0.28120461719769879 0.1830838782273162 0 0.26672073578853173 0.1931787023261318 0 0.28067017001328859 0.20023135519705601 0 0.26893372448334052 0.20775875427333651 0 0.26672073578853173 0.1931787023261318 0 0.28067017001328859 0.20023135519705601 0 0.29626047023303193 0.18608646506673801 0 0.28067017001328859 0.20023135519705601 0 0.29459125175859718 0.20565978856751019 0 0.28120461719769879 0.1830838782273162 0 0.29626047023303193 0.18608646506673801 0 0.28067017001328859 0.20023135519705601 0 0.29626047023303193 0.18608646506673801 0 0.31274029501340211 0.20102259359391669 0 0.31659368841582319 0.18522079268335509 0 0.29626047023303193 0.18608646506673801 0 0.29459125175859718 0.20565978856751019 0 0.31274029501340211 0.20102259359391669 0 0.30426913256981492 0.2153156589606659 0 0.29459125175859718 0.20565978856751019 0 0.31274029501340211 0.20102259359391669 0 0.30426913256981492 0.2153156589606659 0 0.29459125175859718 0.20565978856751019 0 0.29550129496619559 0.22057224392203689 0 0.29459125175859718 0.20565978856751019 0 0.2874695790191214 0.21634138286535909 0 0.29550129496619559 0.22057224392203689 0 0.29459125175859718 0.20565978856751019 0 0.28548090098143492 0.208505363900788 0 0.2874695790191214 0.21634138286535909 0 0.27770301024818161 0.21370988398175589 0 0.28067017001328859 0.20023135519705601 0 0.28548090098143492 0.208505363900788 0 0.28067017001328859 0.20023135519705601 0 0.29459125175859718 0.20565978856751019 0 0.28548090098143492 0.208505363900788 0 0.27770301024818161 0.21370988398175589 0 0.28548090098143492 0.208505363900788 0 0.2874695790191214 0.21634138286535909 0 0.27770301024818161 0.21370988398175589 0 0.2874695790191214 0.21634138286535909 0 0.28414647642648172 0.2216135007413356 0 0.27417981314966611 0.2298511518567718 0 0.29991782143401258 0.23135057093807471 0 0.27417981314966611 0.2298511518567718 0 0.29991782143401258 0.23135057093807471 0 0.29348150124841538 0.24189289693695701 0 0.28414647642648172 0.2216135007413356 0 0.29550129496619559 0.22057224392203689 0 0.29991782143401258 0.23135057093807471 0 0.27417981314966611 0.2298511518567718 0 0.28414647642648172 0.2216135007413356 0 0.29991782143401258 0.23135057093807471 0 0.2874695790191214 0.21634138286535909 0 0.28414647642648172 0.2216135007413356 0 0.29550129496619559 0.22057224392203689 0 0.30426913256981492 0.2153156589606659 0 0.29991782143401258 0.23135057093807471 0 0.32102763059132761 0.21569407315292399 0 0.30426913256981492 0.2153156589606659 0 0.29550129496619559 0.22057224392203689 0 0.29991782143401258 0.23135057093807471 0 0.31551315645745248 0.25563778672920789 0 0.29348150124841538 0.24189289693695701 0 0.29991782143401258 0.23135057093807471 0 0.29507723796780672 0.24173880789046359 0 0.31287921041729039 0.24184497868545499 0 0.31551315645745248 0.25563778672920789 0 0.29507723796780672 0.24173880789046359 0 0.29348150124841538 0.24189289693695701 0 0.31551315645745248 0.25563778672920789 0 0.29507723796780672 0.24173880789046359 0 0.31287921041729039 0.24184497868545499 0 0.30421742080716502 0.25429470686108768 0 0.29821588257969661 0.25350816926612368 0 0.29348150124841538 0.24189289693695701 0 0.27417981314966611 0.2298511518567718 0 0.29348150124841538 0.24189289693695701 0 0.2845791246550598 0.25188314175314308 0 0.29205694999782089 0.25005763771083278 0 0.29348150124841538 0.24189289693695701 0 0.29205694999782089 0.25005763771083278 0 0.29821588257969661 0.25350816926612368 0 0.29348150124841538 0.24189289693695701 0 0.2845791246550598 0.25188314175314308 0 0.27316698385625021 0.2438545266825885 0 0.29348150124841538 0.24189289693695701 0 0.27316698385625021 0.2438545266825885 0 0.29348150124841538 0.24189289693695701 0 0.29991782143401258 0.23135057093807471 0 0.29507723796780672 0.24173880789046359 0 0.29348150124841538 0.24189289693695701 0 0.29507723796780672 0.24173880789046359 0 0.29348150124841538 0.24189289693695701 0 0.3411514316597225 0.2413011510350864 0 0.32565582971835932 0.23284999001937709 0 0.34508755115787909 0.22976359275778149 0 0.34337253149540331 0.24931008363683421 0 0.3411514316597225 0.2413011510350864 0 0.32952182526965618 0.2466596864574821 0 0.3411514316597225 0.2413011510350864 0 0.32952182526965618 0.2466596864574821 0 0.32565582971835932 0.23284999001937709 0 0.29991782143401258 0.23135057093807471 0 0.31287921041729039 0.24184497868545499 0 0.32565582971835932 0.23284999001937709 0 0.31551315645745248 0.25563778672920789 0 0.32952182526965618 0.2466596864574821 0 0.31287921041729039 0.24184497868545499 0 0.32952182526965618 0.2466596864574821 0 0.31287921041729039 0.24184497868545499 0 0.32565582971835932 0.23284999001937709 0 0.29991782143401258 0.23135057093807471 0 0.32565582971835932 0.23284999001937709 0 0.32102763059132761 0.21569407315292399 0 0.29991782143401258 0.23135057093807471 0 0.32565582971835932 0.23284999001937709 0 0.32565582971835932 0.23284999001937709 0 0.34300871462016291 0.21398503213729889 0 0.32102763059132761 0.21569407315292399 0 0.32565582971835932 0.23284999001937709 0 0.34300871462016291 0.21398503213729889 0 0.34508755115787909 0.22976359275778149 0 0.34300871462016291 0.21398503213729889 0 0.32102763059132761 0.21569407315292399 0 0.33028266450782717 0.19529573672438061 0 0.30426913256981492 0.2153156589606659 0 0.32102763059132761 0.21569407315292399 0 0.31274029501340211 0.20102259359391669 0 0.32102763059132761 0.21569407315292399 0 0.31274029501340211 0.20102259359391669 0 0.33028266450782717 0.19529573672438061 0 0.31274029501340211 0.20102259359391669 0 0.33028266450782717 0.19529573672438061 0 0.31659368841582319 0.18522079268335509 0 0.34300871462016291 0.21398503213729889 0 0.33028266450782717 0.19529573672438061 0 0.34975788373051081 0.19457031241634851 0 0.33028266450782717 0.19529573672438061 0 0.34975788373051081 0.19457031241634851 0 0.34278387639425401 0.18117374258083921 0 0.37374545544798732 0.20049593558692511 0 0.37369989176241658 0.1789562902897826 0 0.37374545544798732 0.20049593558692511 0 0.36342757094544331 0.18729453274711361 0 0.37369989176241658 0.1789562902897826 0 0.34975788373051081 0.19457031241634851 0 0.37374545544798732 0.20049593558692511 0 0.36342757094544331 0.18729453274711361 0 0.37374545544798732 0.20049593558692511 0 0.35933468854935519 0.21551478126399881 0 0.37379101913355789 0.22203558088406761 0 0.37374545544798732 0.20049593558692511 0 0.37379101913355789 0.22203558088406761 0 0.34975788373051081 0.19457031241634851 0 0.37374545544798732 0.20049593558692511 0 0.35933468854935519 0.21551478126399881 0 0.34300871462016291 0.21398503213729889 0 0.35933468854935519 0.21551478126399881 0 0.35136617359379207 0.22201105164908139 0 0.34300871462016291 0.21398503213729889 0 0.34975788373051081 0.19457031241634851 0 0.35933468854935519 0.21551478126399881 0 0.34300871462016291 0.21398503213729889 0 0.34975788373051081 0.19457031241634851 0 0.34300871462016291 0.21398503213729889 0 0.35136617359379207 0.22201105164908139 0 0.34508755115787909 0.22976359275778149 0 0.34508755115787909 0.22976359275778149 0 0.35672621381441999 0.2297857541734479 0 0.35250190920863328 0.23873699195879461 0 0.35136617359379207 0.22201105164908139 0 0.34508755115787909 0.22976359275778149 0 0.35672621381441999 0.2297857541734479 0 0.35933468854935519 0.21551478126399881 0 0.35136617359379207 0.22201105164908139 0 0.35672621381441999 0.2297857541734479 0 0.36750001010958439 0.23050534594839869 0 0.37277068113571032 0.2414835610088707 0 0.38458727180075752 0.22770927054564791 0 0.35933468854935519 0.21551478126399881 0 0.35672621381441999 0.2297857541734479 0 0.36750001010958439 0.23050534594839869 0 0.35933468854935519 0.21551478126399881 0 0.37379101913355789 0.22203558088406761 0 0.36750001010958439 0.23050534594839869 0 0.35672621381441999 0.2297857541734479 0 0.36750001010958439 0.23050534594839869 0 0.36136316103016303 0.23684997233232061 0 0.36136316103016303 0.23684997233232061 0 0.37277068113571032 0.2414835610088707 0 0.35846752505203222 0.24250434589022801 0 0.35430420969765652 0.25076057804977192 0 0.37277068113571032 0.2414835610088707 0 0.35846752505203222 0.24250434589022801 0 0.35430420969765652 0.25076057804977192 0 0.37277068113571032 0.2414835610088707 0 0.36139665677837463 0.25474196351046408 0 0.35430420969765652 0.25076057804977192 0 0.37277068113571032 0.2414835610088707 0 0.36750001010958439 0.23050534594839869 0 0.36136316103016303 0.23684997233232061 0 0.37277068113571032 0.2414835610088707 0 0.36139665677837463 0.25474196351046408 0 0.37277068113571032 0.2414835610088707 0 0.35846752505203222 0.24250434589022801 0 0.35250190920863328 0.23873699195879461 0 0.3506212781185053 0.24561403105767621 0 0.35430420969765652 0.25076057804977192 0 0.35846752505203222 0.24250434589022801 0 0.3506212781185053 0.24561403105767621 0 0.36136316103016303 0.23684997233232061 0 0.35846752505203222 0.24250434589022801 0 0.35250190920863328 0.23873699195879461 0 0.35672621381441999 0.2297857541734479 0 0.36136316103016303 0.23684997233232061 0 0.35250190920863328 0.23873699195879461 0 0.3411514316597225 0.2413011510350864 0 0.35250190920863328 0.23873699195879461 0 0.3506212781185053 0.24561403105767621 0 0.3411514316597225 0.2413011510350864 0 0.34508755115787909 0.22976359275778149 0 0.35250190920863328 0.23873699195879461 0 0.35430420969765652 0.25076057804977192 0 0.34337253149540331 0.24931008363683421 0 0.3506212781185053 0.24561403105767621 0 0.34337253149540331 0.24931008363683421 0 0.3411514316597225 0.2413011510350864 0 0.3506212781185053 0.24561403105767621 0 0.33840243143805382 0.1517354044608043 0 0.33690310177852839 0.12977958349163199 0 0.32583683274722952 0.14025192079503751 0 0.33840243143805382 0.1517354044608043 0 0.33690310177852839 0.12977958349163199 0 0.3534382827932625 0.13818560881504471 0 0.33690310177852839 0.12977958349163199 0 0.32583683274722952 0.14025192079503751 0 0.31368532344763861 0.1293955657533554 0 0.3276263471162843 0.1161365019279178 0 0.33690310177852839 0.12977958349163199 0 0.31368532344763861 0.1293955657533554 0 0.32583683274722952 0.14025192079503751 0 0.31368532344763861 0.1293955657533554 0 0.31435647432469721 0.15009712947435841 0 0.33840243143805382 0.1517354044608043 0 0.32583683274722952 0.14025192079503751 0 0.31435647432469721 0.15009712947435841 0 0.33840243143805382 0.1517354044608043 0 0.31406758301698778 0.1678069277504981 0 0.32961742930786692 0.17589224028124209 0 0.33840243143805382 0.1517354044608043 0 0.31435647432469721 0.15009712947435841 0 0.31406758301698778 0.1678069277504981 0 0.33028266450782717 0.19529573672438061 0 0.31659368841582319 0.18522079268335509 0 0.32961742930786692 0.17589224028124209 0 0.31406758301698778 0.1678069277504981 0 0.31659368841582319 0.18522079268335509 0 0.32961742930786692 0.17589224028124209 0 0.33028266450782717 0.19529573672438061 0 0.32961742930786692 0.17589224028124209 0 0.34278387639425401 0.18117374258083921 0 0.32961742930786692 0.17589224028124209 0 0.34278387639425401 0.18117374258083921 0 0.34775435158420648 0.1649548307868271 0 0.33840243143805382 0.1517354044608043 0 0.32961742930786692 0.17589224028124209 0 0.34775435158420648 0.1649548307868271 0 0.34775435158420648 0.1649548307868271 0 0.35650705284085871 0.17515559269539799 0 0.3632562219512071 0.15574087297444791 0 0.33840243143805382 0.1517354044608043 0 0.34775435158420648 0.1649548307868271 0 0.3632562219512071 0.15574087297444791 0 0.34278387639425401 0.18117374258083921 0 0.34775435158420648 0.1649548307868271 0 0.35650705284085871 0.17515559269539799 0 0.34975788373051081 0.19457031241634851 0 0.35650705284085871 0.17515559269539799 0 0.36342757094544331 0.18729453274711361 0 0.34975788373051081 0.19457031241634851 0 0.35650705284085871 0.17515559269539799 0 0.34975788373051081 0.19457031241634851 0 0.34278387639425401 0.18117374258083921 0 0.35650705284085871 0.17515559269539799 0 0.35650705284085871 0.17515559269539799 0 0.36342757094544331 0.18729453274711361 0 0.37369989176241658 0.1789562902897826 0 0.35650705284085871 0.17515559269539799 0 0.37369989176241658 0.1789562902897826 0 0.36664684055023711 0.1678000308938111 0 0.37369989176241658 0.1789562902897826 0 0.36664684055023711 0.1678000308938111 0 0.3736543280768464 0.15741664499264019 0 0.35650705284085871 0.17515559269539799 0 0.36664684055023711 0.1678000308938111 0 0.3632562219512071 0.15574087297444791 0 0.37369989176241658 0.1789562902897826 0 0.3736543280768464 0.15741664499264019 0 0.35650705284085871 0.17515559269539799 0 0.3632562219512071 0.15574087297444791 0 0.36664684055023711 0.1678000308938111 0 0.3736543280768464 0.15741664499264019 0 0.3632562219512071 0.15574087297444791 0 0.3736543280768464 0.15741664499264019 0 0.3632562219512071 0.15574087297444791 0 0.3632562219512071 0.15574087297444791 0 0.37153631209427068 0.1319222922331047 0 0.3632562219512071 0.15574087297444791 0 0.3534382827932625 0.13818560881504471 0 0.37153631209427068 0.1319222922331047 0 0.3736543280768464 0.15741664499264019 0 0.37360369725997111 0.13348157865740179 0 0.3736543280768464 0.15741664499264019 0 0.3632562219512071 0.15574087297444791 0 0.37360369725997111 0.13348157865740179 0 0.33840243143805382 0.1517354044608043 0 0.3632562219512071 0.15574087297444791 0 0.33840243143805382 0.1517354044608043 0 0.3632562219512071 0.15574087297444791 0 0.3534382827932625 0.13818560881504471 0 0.3575350432872314 0.1213620982567159 0 0.33690310177852839 0.12977958349163199 0 0.3534382827932625 0.13818560881504471 0 0.3632562219512071 0.15574087297444791 0 0.37360369725997111 0.13348157865740179 0 0.37153631209427068 0.1319222922331047 0 0.3575350432872314 0.1213620982567159 0 0.3534382827932625 0.13818560881504471 0 0.37153631209427068 0.1319222922331047 0 0.3575350432872314 0.1213620982567159 0 0.37153631209427068 0.1319222922331047 0 0.37358791482027159 0.12602063363590579 0 0.3575350432872314 0.1213620982567159 0 0.37153631209427068 0.1319222922331047 0 0.37360369725997111 0.13348157865740179 0 0.37153631209427068 0.1319222922331047 0 0.37358791482027159 0.12602063363590579 0 0.37360369725997111 0.13348157865740179 0 0.37358791482027159 0.12602063363590579 0 0.37153631209427068 0.1319222922331047 0 0.37358791482027159 0.12602063363590579 0 0.37360369725997111 0.13348157865740179 0 0.37153631209427068 0.1319222922331047 0 0.37360369725997111 0.13348157865740179 0 0.39073154703815921 0.13658419832686389 0 0.39167919548499258 0.14711468363572491 0 0.37360369725997111 0.13348157865740179 0 0.38058110435394649 0.1289993900205286 0 0.39073154703815921 0.13658419832686389 0 0.37360369725997111 0.13348157865740179 0 0.39167919548499258 0.14711468363572491 0 0.37360369725997111 0.13348157865740179 0 0.37358791482027159 0.12602063363590579 0 0.38058110435394649 0.1289993900205286 0 0.38058110435394649 0.1289993900205286 0 0.39073154703815921 0.13658419832686389 0 0.40061638503559999 0.12795965754420419 0 0.39073154703815921 0.13658419832686389 0 0.40061638503559999 0.12795965754420419 0 0.40717735305628661 0.14536568177646009 0 0.39167919548499258 0.14711468363572491 0 0.40975469371001322 0.1607477886140494 0 0.39073154703815921 0.13658419832686389 0 0.39167919548499258 0.14711468363572491 0 0.40717735305628661 0.14536568177646009 0 0.39167919548499258 0.14711468363572491 0 0.40975469371001322 0.1607477886140494 0 0.40717735305628661 0.14536568177646009 0 0.3736543280768464 0.15741664499264019 0 0.39167919548499258 0.14711468363572491 0 0.39926181545316147 0.1615435802520758 0 0.3736543280768464 0.15741664499264019 0 0.37360369725997111 0.13348157865740179 0 0.39167919548499258 0.14711468363572491 0 0.3736543280768464 0.15741664499264019 0 0.38922110501023821 0.16736996472935431 0 0.39926181545316147 0.1615435802520758 0 0.37369989176241658 0.1789562902897826 0 0.3736543280768464 0.15741664499264019 0 0.38183769538178342 0.17006687388232791 0 0.3736543280768464 0.15741664499264019 0 0.39926181545316147 0.1615435802520758 0 0.3736543280768464 0.15741664499264019 0 0.38183769538178342 0.17006687388232791 0 0.38922110501023821 0.16736996472935431 0 0.38183769538178342 0.17006687388232791 0 0.38922110501023821 0.16736996472935431 0 0.38909485127722848 0.17731765355591919 0 0.37369989176241658 0.1789562902897826 0 0.38183769538178342 0.17006687388232791 0 0.38909485127722848 0.17731765355591919 0 0.37369989176241658 0.1789562902897826 0 0.38909485127722848 0.17731765355591919 0 0.38727932418884148 0.19111659285537869 0 0.38909485127722848 0.17731765355591919 0 0.40240059628482372 0.1865431432648503 0 0.38727932418884148 0.19111659285537869 0 0.38909485127722848 0.17731765355591919 0 0.39889562406136347 0.1720911870405776 0 0.40240059628482372 0.1865431432648503 0 0.38922110501023821 0.16736996472935431 0 0.38909485127722848 0.17731765355591919 0 0.39889562406136347 0.1720911870405776 0 0.39889562406136347 0.1720911870405776 0 0.40240059628482372 0.1865431432648503 0 0.40905091227219742 0.17363816872347859 0 0.39167919548499258 0.14711468363572491 0 0.39926181545316147 0.1615435802520758 0 0.40975469371001322 0.1607477886140494 0 0.38922110501023821 0.16736996472935431 0 0.39889562406136347 0.1720911870405776 0 0.39926181545316147 0.1615435802520758 0 0.39889562406136347 0.1720911870405776 0 0.39926181545316147 0.1615435802520758 0 0.40905091227219742 0.17363816872347859 0 0.39926181545316147 0.1615435802520758 0 0.40905091227219742 0.17363816872347859 0 0.42486930282947621 0.1656705155115144 0 0.39926181545316147 0.1615435802520758 0 0.42486930282947621 0.1656705155115144 0 0.39926181545316147 0.1615435802520758 0 0.40975469371001322 0.1607477886140494 0 0.42486930282947621 0.1656705155115144 0 0.40975469371001322 0.1607477886140494 0 0.42486930282947621 0.1656705155115144 0 0.42078210940208188 0.1546281478934676 0 0.40905091227219742 0.17363816872347859 0 0.42097705378670192 0.18363179846452141 0 0.42486930282947621 0.1656705155115144 0 0.4115435817015255 0.1841266052899064 0 0.40905091227219742 0.17363816872347859 0 0.42097705378670192 0.18363179846452141 0 0.40240059628482372 0.1865431432648503 0 0.4115435817015255 0.1841266052899064 0 0.40905091227219742 0.17363816872347859 0 0.4115435817015255 0.1841266052899064 0 0.42097705378670192 0.18363179846452141 0 0.41374576446237937 0.19269331070677551 0 0.42097705378670192 0.18363179846452141 0 0.43326530637894761 0.17879466249917311 0 0.42486930282947621 0.1656705155115144 0 0.42097705378670192 0.18363179846452141 0 0.43326530637894761 0.17879466249917311 0 0.4378950889345542 0.19424832868832689 0 0.42486930282947621 0.1656705155115144 0 0.42078210940208188 0.1546281478934676 0 0.44039075495227681 0.15354235984687609 0 0.43326530637894761 0.17879466249917311 0 0.42486930282947621 0.1656705155115144 0 0.43905812029135732 0.1686074501798783 0 0.42486930282947621 0.1656705155115144 0 0.44039075495227681 0.15354235984687609 0 0.43905812029135732 0.1686074501798783 0 0.4243635715244497 0.14383992477430871 0 0.43601626853924719 0.13997937521484241 0 0.44039075495227681 0.15354235984687609 0 0.4243635715244497 0.14383992477430871 0 0.42078210940208188 0.1546281478934676 0 0.44039075495227681 0.15354235984687609 0 0.4243635715244497 0.14383992477430871 0 0.4308445007668924 0.1266246098836564 0 0.43601626853924719 0.13997937521484241 0 0.4243635715244497 0.14383992477430871 0 0.4308445007668924 0.1266246098836564 0 0.41553956646790791 0.1317784840615272 0 0.4243635715244497 0.14383992477430871 0 0.41553956646790791 0.1317784840615272 0 0.40717735305628661 0.14536568177646009 0 0.40061638503559999 0.12795965754420419 0 0.41553956646790791 0.1317784840615272 0 0.40717735305628661 0.14536568177646009 0 0.4243635715244497 0.14383992477430871 0 0.40717735305628661 0.14536568177646009 0 0.42078210940208188 0.1546281478934676 0 0.40975469371001322 0.1607477886140494 0 0.40717735305628661 0.14536568177646009 0 0.42078210940208188 0.1546281478934676 0 0.39029188694281408 0.2574905593728794 0 0.39468930455322693 0.23047228342725351 0 0.41831897407092172 0.2483369572327947 0 0.37277068113571032 0.2414835610088707 0 0.39468930455322693 0.23047228342725351 0 0.39029188694281408 0.2574905593728794 0 0.37277068113571032 0.2414835610088707 0 0.39468930455322693 0.23047228342725351 0 0.37277068113571032 0.2414835610088707 0 0.38458727180075752 0.22770927054564791 0 0.37379101913355789 0.22203558088406761 0 0.36750001010958439 0.23050534594839869 0 0.38458727180075752 0.22770927054564791 0 0.37277068113571032 0.2414835610088707 0 0.38458727180075752 0.22770927054564791 0 0.39468930455322693 0.23047228342725351 0 0.37379101913355789 0.22203558088406761 0 0.38458727180075752 0.22770927054564791 0 0.38308839580462439 0.21362127254508531 0 0.38458727180075752 0.22770927054564791 0 0.39640386246580372 0.21393498008242401 0 0.39468930455322693 0.23047228342725351 0 0.39640386246580372 0.21393498008242401 0 0.41660792797074409 0.2194610058456378 0 0.38458727180075752 0.22770927054564791 0 0.39468930455322693 0.23047228342725351 0 0.39640386246580372 0.21393498008242401 0 0.39468930455322693 0.23047228342725351 0 0.41660792797074409 0.2194610058456378 0 0.39640386246580372 0.21393498008242401 0 0.39684992277929582 0.19961622850408131 0 0.40930974596943059 0.20287641008268689 0 0.39640386246580372 0.21393498008242401 0 0.38747339213731058 0.20375700191477891 0 0.39684992277929582 0.19961622850408131 0 0.38458727180075752 0.22770927054564791 0 0.39640386246580372 0.21393498008242401 0 0.38308839580462439 0.21362127254508531 0 0.37374545544798732 0.20049593558692511 0 0.37379101913355789 0.22203558088406761 0 0.38308839580462439 0.21362127254508531 0 0.37374545544798732 0.20049593558692511 0 0.38308839580462439 0.21362127254508531 0 0.38747339213731058 0.20375700191477891 0 0.39640386246580372 0.21393498008242401 0 0.38308839580462439 0.21362127254508531 0 0.38747339213731058 0.20375700191477891 0 0.37374545544798732 0.20049593558692511 0 0.38747339213731058 0.20375700191477891 0 0.38727932418884148 0.19111659285537869 0 0.37374545544798732 0.20049593558692511 0 0.37369989176241658 0.1789562902897826 0 0.38727932418884148 0.19111659285537869 0 0.38747339213731058 0.20375700191477891 0 0.38727932418884148 0.19111659285537869 0 0.39684992277929582 0.19961622850408131 0 0.40240059628482372 0.1865431432648503 0 0.38727932418884148 0.19111659285537869 0 0.39684992277929582 0.19961622850408131 0 0.40240059628482372 0.1865431432648503 0 0.39684992277929582 0.19961622850408131 0 0.40930974596943059 0.20287641008268689 0 0.41374576446237937 0.19269331070677551 0 0.40930974596943059 0.20287641008268689 0 0.42644631002379302 0.20117729715056651 0 0.40240059628482372 0.1865431432648503 0 0.41374576446237937 0.19269331070677551 0 0.40930974596943059 0.20287641008268689 0 0.42097705378670192 0.18363179846452141 0 0.41374576446237937 0.19269331070677551 0 0.42644631002379302 0.20117729715056651 0 0.40240059628482372 0.1865431432648503 0 0.4115435817015255 0.1841266052899064 0 0.41374576446237937 0.19269331070677551 0 0.42097705378670192 0.18363179846452141 0 0.42644631002379302 0.20117729715056651 0 0.4378950889345542 0.19424832868832689 0 0.42644631002379302 0.20117729715056651 0 0.43852655138826052 0.20844972826402011 0 0.4378950889345542 0.19424832868832689 0 0.41660792797074409 0.2194610058456378 0 0.43364490136847378 0.22605332542816511 0 0.43852655138826052 0.20844972826402011 0 0.42644631002379302 0.20117729715056651 0 0.41660792797074409 0.2194610058456378 0 0.43852655138826052 0.20844972826402011 0 0.41660792797074409 0.2194610058456378 0 0.43852655138826052 0.20844972826402011 0 0.42644631002379302 0.20117729715056651 0 0.43852655138826052 0.20844972826402011 0 0.39640386246580372 0.21393498008242401 0 0.40930974596943059 0.20287641008268689 0 0.41660792797074409 0.2194610058456378 0 0.40930974596943059 0.20287641008268689 0 0.42644631002379302 0.20117729715056651 0 0.41660792797074409 0.2194610058456378 0 0.39468930455322693 0.23047228342725351 0 0.41660792797074409 0.2194610058456378 0 0.41831897407092172 0.2483369572327947 0 0.41660792797074409 0.2194610058456378 0 0.43364490136847378 0.22605332542816511 0 0.41831897407092172 0.2483369572327947 0 0.44083744990241752 0.25793977297392412 0 0.41831897407092172 0.2483369572327947 0 0.44634606119902931 0.23918335509270999 0 0.43364490136847378 0.22605332542816511 0 0.41831897407092172 0.2483369572327947 0 0.44634606119902931 0.23918335509270999 0 0.41831897407092172 0.2483369572327947 0 0.44634606119902931 0.23918335509270999 0 0.46147652045870768 0.25381417775909959 0 0.44634606119902931 0.23918335509270999 0 0.47437314832713651 0.23002975295262429 0 0.44634606119902931 0.23918335509270999 0 0.47437314832713651 0.23002975295262429 0 0.43364490136847378 0.22605332542816511 0 0.44634606119902931 0.23918335509270999 0 0.45644984985769999 0.21923974060831961 0 0.44634606119902931 0.23918335509270999 0 0.45644984985769999 0.21923974060831961 0 0.47437314832713651 0.23002975295262429 0 0.45644984985769999 0.21923974060831961 0 0.47437314832713651 0.23002975295262429 0 0.45644984985769999 0.21923974060831961 0 0.46195740009912017 0.1966787527691872 0 0.48148738422236831 0.20839476250586761 0 0.45644984985769999 0.21923974060831961 0 0.43852655138826052 0.20844972826402011 0 0.46195740009912017 0.1966787527691872 0 0.43364490136847378 0.22605332542816511 0 0.45644984985769999 0.21923974060831961 0 0.43852655138826052 0.20844972826402011 0 0.45644984985769999 0.21923974060831961 0 0.43852655138826052 0.20844972826402011 0 0.43852655138826052 0.20844972826402011 0 0.4378950889345542 0.19424832868832689 0 0.46195740009912017 0.1966787527691872 0 0.43852655138826052 0.20844972826402011 0 0.46195740009912017 0.1966787527691872 0 0.4378950889345542 0.19424832868832689 0 0.46195740009912017 0.1966787527691872 0 0.44352696605264841 0.1818152196516242 0 0.46195740009912017 0.1966787527691872 0 0.48039248094549247 0.18953842379727989 0 0.48148738422236831 0.20839476250586761 0 0.48039248094549247 0.18953842379727989 0 0.5 0.19373767884697729 0 0.48148738422236831 0.20839476250586761 0 0.5 0.19373767884697729 0 0.48148738422236831 0.20839476250586761 0 0.49999999999999972 0.22166006389988421 0 0.45644984985769999 0.21923974060831961 0 0.48148738422236831 0.20839476250586761 0 0.47437314832713651 0.23002975295262429 0 0.47437314832713651 0.23002975295262429 0 0.49999999999999972 0.22166006389988421 0 0.50000000000000133 0.2454573845555528 0 0.47437314832713651 0.23002975295262429 0 0.49999999999999972 0.22166006389988421 0 0.48148738422236831 0.20839476250586761 0 0.47437314832713651 0.23002975295262429 0 0.49999999999999972 0.22166006389988421 0 0.47437314832713651 0.23002975295262429 0 0.50000000000000133 0.2454573845555528 0 0.48192277306296422 0.25798875429260443 0 0.47437314832713651 0.23002975295262429 0 0.50000000000000133 0.2454573845555528 0 0.46147652045870768 0.25381417775909959 0 0.48192277306296422 0.25798875429260443 0 0.47437314832713651 0.23002975295262429 0 0.4619924568034095 0.15058569874373109 0 0.44846077803961609 0.13457075264950891 0 0.47301148623623918 0.12321298749214379 0 0.4308445007668924 0.1266246098836564 0 0.44846077803961609 0.13457075264950891 0 0.44878855583327892 0.1150448843530659 0 0.4308445007668924 0.1266246098836564 0 0.43601626853924719 0.13997937521484241 0 0.44846077803961609 0.13457075264950891 0 0.4619924568034095 0.15058569874373109 0 0.44846077803961609 0.13457075264950891 0 0.44039075495227681 0.15354235984687609 0 0.43601626853924719 0.13997937521484241 0 0.44846077803961609 0.13457075264950891 0 0.44039075495227681 0.15354235984687609 0 0.44039075495227681 0.15354235984687609 0 0.43905812029135732 0.1686074501798783 0 0.454666604421264 0.1682446287666528 0 0.4619924568034095 0.15058569874373109 0 0.44039075495227681 0.15354235984687609 0 0.454666604421264 0.1682446287666528 0 0.43326530637894761 0.17879466249917311 0 0.4378950889345542 0.19424832868832689 0 0.44352696605264841 0.1818152196516242 0 0.43326530637894761 0.17879466249917311 0 0.43905812029135732 0.1686074501798783 0 0.44352696605264841 0.1818152196516242 0 0.43905812029135732 0.1686074501798783 0 0.44352696605264841 0.1818152196516242 0 0.454666604421264 0.1682446287666528 0 0.46195740009912017 0.1966787527691872 0 0.44352696605264841 0.1818152196516242 0 0.454666604421264 0.1682446287666528 0 0.46195740009912017 0.1966787527691872 0 0.454666604421264 0.1682446287666528 0 0.47331668032547503 0.1710774832763601 0 0.4619924568034095 0.15058569874373109 0 0.454666604421264 0.1682446287666528 0 0.47331668032547503 0.1710774832763601 0 0.4619924568034095 0.15058569874373109 0 0.47331668032547503 0.1710774832763601 0 0.48166412467302477 0.1497168744094938 0 0.46195740009912017 0.1966787527691872 0 0.48039248094549247 0.18953842379727989 0 0.47331668032547503 0.1710774832763601 0 0.48039248094549247 0.18953842379727989 0 0.5 0.19373767884697729 0 0.5 0.16581529379407051 0 0.48039248094549247 0.18953842379727989 0 0.47331668032547503 0.1710774832763601 0 0.5 0.16581529379407051 0 0.47331668032547503 0.1710774832763601 0 0.5 0.16581529379407051 0 0.48166412467302477 0.1497168744094938 0 0.5 0.16581529379407051 0 0.48166412467302477 0.1497168744094938 0 0.5 0.13789290874116361 0 0.4619924568034095 0.15058569874373109 0 0.48166412467302477 0.1497168744094938 0 0.47301148623623918 0.12321298749214379 0 0.48166412467302477 0.1497168744094938 0 0.5 0.13789290874116361 0 0.47301148623623918 0.12321298749214379 0 0.47301148623623918 0.12321298749214379 0 0.48013307703541092 0.091842224755400242 0 0.45908657315460161 0.098746095075948545 0 0.5 0.1099705236882568 0 0.47301148623623918 0.12321298749214379 0 0.48013307703541092 0.091842224755400242 0 0.5 0.13789290874116361 0 0.5 0.1099705236882568 0 0.47301148623623918 0.12321298749214379 0 0.5 0.1099705236882568 0 0.5 0.082048138635349877 0 0.48013307703541092 0.091842224755400242 0 0.5 0.082048138635349877 0 0.48331658307125991 0.067549059312564941 0 0.5 0.054125753582442981 0 0.5 0.082048138635349877 0 0.48013307703541092 0.091842224755400242 0 0.48331658307125991 0.067549059312564941 0 0.48013307703541092 0.091842224755400242 0 0.48331658307125991 0.067549059312564941 0 0.4555337473407412 0.073375411155028755 0 0.48331658307125991 0.067549059312564941 0 0.4555337473407412 0.073375411155028755 0 0.46909030004719687 0.051638022797732039 0 0.48013307703541092 0.091842224755400242 0 0.4555337473407412 0.073375411155028755 0 0.45908657315460161 0.098746095075948545 0 0.4555337473407412 0.073375411155028755 0 0.4401484414504791 0.084985334323626746 0 0.45908657315460161 0.098746095075948545 0 0.4555337473407412 0.073375411155028755 0 0.4415360901343815 0.069970066028583563 0 0.44303822609018301 0.051011240646027182 0 0.4555337473407412 0.073375411155028755 0 0.4401484414504791 0.084985334323626746 0 0.4415360901343815 0.069970066028583563 0 0.47301148623623918 0.12321298749214379 0 0.45908657315460161 0.098746095075948545 0 0.44878855583327892 0.1150448843530659 0 0.44846077803961609 0.13457075264950891 0 0.47301148623623918 0.12321298749214379 0 0.44878855583327892 0.1150448843530659 0 0.45908657315460161 0.098746095075948545 0 0.44878855583327892 0.1150448843530659 0 0.43389675107981152 0.10360345603798771 0 0.4401484414504791 0.084985334323626746 0 0.45908657315460161 0.098746095075948545 0 0.43389675107981152 0.10360345603798771 0 0.4308445007668924 0.1266246098836564 0 0.44878855583327892 0.1150448843530659 0 0.43389675107981152 0.10360345603798771 0 0.4308445007668924 0.1266246098836564 0 0.41469602195631072 0.11510254632900679 0 0.43389675107981152 0.10360345603798771 0 0.40061638503559999 0.12795965754420419 0 0.41553956646790791 0.1317784840615272 0 0.41469602195631072 0.11510254632900679 0 0.4308445007668924 0.1266246098836564 0 0.41553956646790791 0.1317784840615272 0 0.41469602195631072 0.11510254632900679 0 0.41469602195631072 0.11510254632900679 0 0.43389675107981152 0.10360345603798771 0 0.41180966522206408 0.090005315333277172 0 0.41469602195631072 0.11510254632900679 0 0.41180966522206408 0.090005315333277172 0 0.39619538478800542 0.10950235267690291 0 0.4401484414504791 0.084985334323626746 0 0.43389675107981152 0.10360345603798771 0 0.41180966522206408 0.090005315333277172 0 0.4401484414504791 0.084985334323626746 0 0.42742394565612291 0.070508277989651605 0 0.41180966522206408 0.090005315333277172 0 0.4415360901343815 0.069970066028583563 0 0.42742394565612291 0.070508277989651605 0 0.44303822609018301 0.051011240646027182 0 0.4401484414504791 0.084985334323626746 0 0.4415360901343815 0.069970066028583563 0 0.42742394565612291 0.070508277989651605 0 0.42742394565612291 0.070508277989651605 0 0.41180966522206408 0.090005315333277172 0 0.39873822247986129 0.070200902227240763 0 0.42742394565612291 0.070508277989651605 0 0.39873822247986129 0.070200902227240763 0 0.41642916432911181 0.050371058025138242 0 0.42742394565612291 0.070508277989651605 0 0.41180966522206408 0.090005315333277172 0 0.41180966522206408 0.090005315333277172 0 0.38634376356168759 0.089327046015210881 0 0.38898865479300898 0.100528474426378 0 0.41180966522206408 0.090005315333277172 0 0.39873822247986129 0.070200902227240763 0 0.38634376356168759 0.089327046015210881 0 0.39873822247986129 0.070200902227240763 0 0.38134672427778449 0.077230582660076361 0 0.3779941917442185 0.064233160163082947 0 0.36587202280146119 0.079606196669127979 0 0.38134672427778449 0.077230582660076361 0 0.3779941917442185 0.064233160163082947 0 0.39873822247986129 0.070200902227240763 0 0.38134672427778449 0.077230582660076361 0 0.38634376356168759 0.089327046015210881 0 0.37433572331037063 0.087922968995723744 0 0.38134672427778449 0.077230582660076361 0 0.38634376356168759 0.089327046015210881 0 0.37353208531517862 0.099627954427332549 0 0.37433572331037063 0.087922968995723744 0 0.38634376356168759 0.089327046015210881 0 0.37353208531517862 0.099627954427332549 0 0.38634376356168759 0.089327046015210881 0 0.37996583919097943 0.1076738398255583 0 0.38634376356168759 0.089327046015210881 0 0.38898865479300898 0.100528474426378 0 0.37996583919097943 0.1076738398255583 0 0.38634376356168759 0.089327046015210881 0 0.37996583919097943 0.1076738398255583 0 0.38898865479300898 0.100528474426378 0 0.38644075825518348 0.1126888990003411 0 0.39619538478800542 0.10950235267690291 0 0.38898865479300898 0.100528474426378 0 0.37996583919097943 0.1076738398255583 0 0.38644075825518348 0.1126888990003411 0 0.38058110435394649 0.1289993900205286 0 0.39619538478800542 0.10950235267690291 0 0.38058110435394649 0.1289993900205286 0 0.38060697359160028 0.1186241652480174 0 0.38644075825518348 0.1126888990003411 0 0.37353208531517862 0.099627954427332549 0 0.37358791482027159 0.12602063363590579 0 0.37996583919097943 0.1076738398255583 0 0.38058110435394649 0.1289993900205286 0 0.38644075825518348 0.1126888990003411 0 0.39619538478800542 0.10950235267690291 0 0.37358791482027159 0.12602063363590579 0 0.37996583919097943 0.1076738398255583 0 0.38060697359160028 0.1186241652480174 0 0.37996583919097943 0.1076738398255583 0 0.38060697359160028 0.1186241652480174 0 0.38644075825518348 0.1126888990003411 0 0.37358791482027159 0.12602063363590579 0 0.37996583919097943 0.1076738398255583 0 0.37358791482027159 0.12602063363590579 0 0.38058110435394649 0.1289993900205286 0 0.38060697359160028 0.1186241652480174 0 0.38058110435394649 0.1289993900205286 0 0.40061638503559999 0.12795965754420419 0 0.39619538478800542 0.10950235267690291 0 0.40061638503559999 0.12795965754420419 0 0.41469602195631072 0.11510254632900679 0 0.39619538478800542 0.10950235267690291 0 0.41180966522206408 0.090005315333277172 0 0.38898865479300898 0.100528474426378 0 0.39619538478800542 0.10950235267690291 0 0.41180966522206408 0.090005315333277172 0 0.39619538478800542 0.10950235267690291 0 0.40227434397278078 0.030365873731558 0 0.39996582128033131 0.012865316349959129 0 0.3847226542401373 0.020542138372764251 0 0.40227434397278078 0.030365873731558 0 0.39996582128033131 0.012865316349959129 0 0.41650448505248527 0.011465778848208799 0 0.39996582128033131 0.012865316349959129 0 0.41140012941233117 -0.0074313506821105831 0 0.38708761798871882 -0.0019416611374814729 0 0.39996582128033131 0.012865316349959129 0 0.3847226542401373 0.020542138372764251 0 0.38708761798871882 -0.0019416611374814729 0 0.3697202331778231 0.0051944731981410069 0 0.3847226542401373 0.020542138372764251 0 0.38708761798871882 -0.0019416611374814729 0 0.3697202331778231 0.0051944731981410069 0 0.3847226542401373 0.020542138372764251 0 0.36520087160700748 0.024618476383510932 0 0.3847226542401373 0.020542138372764251 0 0.3779244641241683 0.036768828715786253 0 0.40227434397278078 0.030365873731558 0 0.3847226542401373 0.020542138372764251 0 0.3779244641241683 0.036768828715786253 0 0.36321104080696931 0.049090692783358147 0 0.3779244641241683 0.036768828715786253 0 0.38982010256804062 0.049730875404248198 0 0.40227434397278078 0.030365873731558 0 0.3779244641241683 0.036768828715786253 0 0.38982010256804062 0.049730875404248198 0 0.39873822247986129 0.070200902227240763 0 0.3779941917442185 0.064233160163082947 0 0.38982010256804062 0.049730875404248198 0 0.36321104080696931 0.049090692783358147 0 0.3779941917442185 0.064233160163082947 0 0.38982010256804062 0.049730875404248198 0 0.36321104080696931 0.049090692783358147 0 0.38982010256804062 0.049730875404248198 0 0.39873822247986129 0.070200902227240763 0 0.38982010256804062 0.049730875404248198 0 0.41642916432911181 0.050371058025138242 0 0.38982010256804062 0.049730875404248198 0 0.41642916432911181 0.050371058025138242 0 0.40227434397278078 0.030365873731558 0 0.38982010256804062 0.049730875404248198 0 0.41642916432911181 0.050371058025138242 0 0.40227434397278078 0.030365873731558 0 0.41642916432911181 0.050371058025138242 0 0.43070575198833377 0.03001997776566433 0 0.41642916432911181 0.050371058025138242 0 0.44303822609018301 0.051011240646027182 0 0.42742394565612291 0.070508277989651605 0 0.41642916432911181 0.050371058025138242 0 0.44303822609018301 0.051011240646027182 0 0.42742394565612291 0.070508277989651605 0 0.44303822609018301 0.051011240646027182 0 0.41642916432911181 0.050371058025138242 0 0.43070575198833377 0.03001997776566433 0 0.44303822609018301 0.051011240646027182 0 0.43070575198833377 0.03001997776566433 0 0.41650448505248527 0.011465778848208799 0 0.43533419861385131 0.0061180841875390036 0 0.43070575198833377 0.03001997776566433 0 0.43533419861385131 0.0061180841875390036 0 0.44507604771202769 0.025089404437105351 0 0.40227434397278078 0.030365873731558 0 0.43070575198833377 0.03001997776566433 0 0.41650448505248527 0.011465778848208799 0 0.41650448505248527 0.011465778848208799 0 0.43533419861385131 0.0061180841875390036 0 0.41140012941233117 -0.0074313506821105831 0 0.39996582128033131 0.012865316349959129 0 0.41650448505248527 0.011465778848208799 0 0.41140012941233117 -0.0074313506821105831 0 0.43533419861385131 0.0061180841875390036 0 0.45926826781537128 0.019667519057188599 0 0.43533419861385131 0.0061180841875390036 0 0.45926826781537128 0.019667519057188599 0 0.45504385004226389 0.0092701124568601717 0 0.43533419861385131 0.0061180841875390036 0 0.45893136221758241 0.00059920454554955181 0 0.45504385004226389 0.0092701124568601717 0 0.43070575198833377 0.03001997776566433 0 0.44507604771202769 0.025089404437105351 0 0.45388442026288278 0.037467955464590127 0 0.43533419861385131 0.0061180841875390036 0 0.44507604771202769 0.025089404437105351 0 0.45926826781537128 0.019667519057188599 0 0.44507604771202769 0.025089404437105351 0 0.45926826781537128 0.019667519057188599 0 0.45502000971581441 0.027190206754121982 0 0.44507604771202769 0.025089404437105351 0 0.45502000971581441 0.027190206754121982 0 0.45388442026288278 0.037467955464590127 0 0.45926826781537128 0.019667519057188599 0 0.46664157152225061 0.01069564203716354 0 0.47529294150566698 0.016750514949760129 0 0.45926826781537128 0.019667519057188599 0 0.45502000971581441 0.027190206754121982 0 0.46473061443558422 0.023924670283154179 0 0.46473061443558422 0.023924670283154179 0 0.45388442026288278 0.037467955464590127 0 0.45502000971581441 0.027190206754121982 0 0.46473061443558422 0.023924670283154179 0 0.45388442026288278 0.037467955464590127 0 0.46664157152225061 0.01069564203716354 0 0.45893136221758241 0.00059920454554955181 0 0.47764635645403869 0.0038083308693810142 0 0.46664157152225061 0.01069564203716354 0 0.45893136221758241 0.00059920454554955181 0 0.45504385004226389 0.0092701124568601717 0 0.45926826781537128 0.019667519057188599 0 0.46664157152225061 0.01069564203716354 0 0.45504385004226389 0.0092701124568601717 0 0.43070575198833377 0.03001997776566433 0 0.44303822609018301 0.051011240646027182 0 0.45388442026288278 0.037467955464590127 0 0.44303822609018301 0.051011240646027182 0 0.45388442026288278 0.037467955464590127 0 0.44303822609018301 0.051011240646027182 0 0.45388442026288278 0.037467955464590127 0 0.46909030004719687 0.051638022797732039 0 0.46473061443558422 0.023924670283154179 0 0.45388442026288278 0.037467955464590127 0 0.46779069523371941 0.036863583471663797 0 0.45388442026288278 0.037467955464590127 0 0.46779069523371941 0.036863583471663797 0 0.46909030004719687 0.051638022797732039 0 0.44303822609018301 0.051011240646027182 0 0.46909030004719687 0.051638022797732039 0 0.4555337473407412 0.073375411155028755 0 0.44303822609018301 0.051011240646027182 0 0.46909030004719687 0.051638022797732039 0 0.48331658307125991 0.067549059312564941 0 0.46909030004719687 0.051638022797732039 0 0.49514237400421091 0.052264804949435799 0 0.46909030004719687 0.051638022797732039 0 0.49514237400421091 0.052264804949435799 0 0.46473061443558422 0.023924670283154179 0 0.46779069523371941 0.036863583471663797 0 0.48320233701689141 0.033216953926838183 0 0.46909030004719687 0.051638022797732039 0 0.48320233701689141 0.033216953926838183 0 0.49514237400421091 0.052264804949435799 0 0.46779069523371941 0.036863583471663797 0 0.46909030004719687 0.051638022797732039 0 0.48320233701689141 0.033216953926838183 0 0.48320233701689141 0.033216953926838183 0 0.49514237400421091 0.052264804949435799 0 0.5 0.02620336852953609 0 0.49514237400421091 0.052264804949435799 0 0.5 0.054125753582442981 0 0.5 0.02620336852953609 0 0.48331658307125991 0.067549059312564941 0 0.49514237400421091 0.052264804949435799 0 0.5 0.054125753582442981 0 0.47764635645403869 0.0038083308693810142 0 0.47529294150566698 0.016750514949760129 0 0.48722832699531943 0.015652030350428919 0 0.46664157152225061 0.01069564203716354 0 0.47764635645403869 0.0038083308693810142 0 0.47529294150566698 0.016750514949760129 0 0.45926826781537128 0.019667519057188599 0 0.46473061443558422 0.023924670283154179 0 0.48320233701689141 0.033216953926838183 0 0.48320233701689141 0.033216953926838183 0 0.47529294150566698 0.016750514949760129 0 0.48722832699531943 0.015652030350428919 0 0.45926826781537128 0.019667519057188599 0 0.48320233701689141 0.033216953926838183 0 0.47529294150566698 0.016750514949760129 0 0.45926826781537128 0.019667519057188599 0 0.48320233701689141 0.033216953926838183 0 0.48320233701689141 0.033216953926838183 0 0.5 0.02620336852953609 0 0.48722832699531943 0.015652030350428919 0 0.47764635645403869 0.0038083308693810142 0 0.48722832699531943 0.015652030350428919 0 0.5 -0.001719016523370809 0 0.5 0.02620336852953609 0 0.48722832699531943 0.015652030350428919 0 0.5 -0.001719016523370809 0 0.5 -0.001719016523370809 0 0.48395902385211098 -0.0149127497958851 0 0.5 -0.0296414015762777 0 0.47764635645403869 0.0038083308693810142 0 0.5 -0.001719016523370809 0 0.48395902385211098 -0.0149127497958851 0 0.47764635645403869 0.0038083308693810142 0 0.48395902385211098 -0.0149127497958851 0 0.46704406223807082 -0.01500417317216605 0 0.48395902385211098 -0.0149127497958851 0 0.47510470056844528 -0.032007488576991927 0 0.46704406223807082 -0.01500417317216605 0 0.48395902385211098 -0.0149127497958851 0 0.5 -0.0296414015762777 0 0.47510470056844528 -0.032007488576991927 0 0.5 -0.0296414015762777 0 0.48234093407495859 -0.049238006241786397 0 0.47510470056844528 -0.032007488576991927 0 0.5 -0.0296414015762777 0 0.5 -0.05756378662918471 0 0.48234093407495859 -0.049238006241786397 0 0.5 -0.05756378662918471 0 0.48234093407495859 -0.049238006241786397 0 0.47422198362857781 -0.076747949457335832 0 0.48234093407495859 -0.049238006241786397 0 0.46237798617776987 -0.050229404969141841 0 0.47422198362857781 -0.076747949457335832 0 0.48234093407495859 -0.049238006241786397 0 0.47510470056844528 -0.032007488576991927 0 0.46237798617776987 -0.050229404969141841 0 0.47510470056844528 -0.032007488576991927 0 0.46237798617776987 -0.050229404969141841 0 0.4538149679343898 -0.03122373757004774 0 0.46237798617776987 -0.050229404969141841 0 0.44741834826160581 -0.070939116572201394 0 0.46237798617776987 -0.050229404969141841 0 0.44741834826160581 -0.070939116572201394 0 0.43631546026754903 -0.048887870055349537 0 0.46237798617776987 -0.050229404969141841 0 0.4538149679343898 -0.03122373757004774 0 0.43631546026754903 -0.048887870055349537 0 0.4538149679343898 -0.03122373757004774 0 0.43512266219192891 -0.028098979638662008 0 0.43631546026754903 -0.048887870055349537 0 0.446924936162575 -0.013114509007975081 0 0.4538149679343898 -0.03122373757004774 0 0.43512266219192891 -0.028098979638662008 0 0.43533419861385131 0.0061180841875390036 0 0.45893136221758241 0.00059920454554955181 0 0.446924936162575 -0.013114509007975081 0 0.45893136221758241 0.00059920454554955181 0 0.47764635645403869 0.0038083308693810142 0 0.46704406223807082 -0.01500417317216605 0 0.45893136221758241 0.00059920454554955181 0 0.446924936162575 -0.013114509007975081 0 0.46704406223807082 -0.01500417317216605 0 0.446924936162575 -0.013114509007975081 0 0.46704406223807082 -0.01500417317216605 0 0.4538149679343898 -0.03122373757004774 0 0.47510470056844528 -0.032007488576991927 0 0.46704406223807082 -0.01500417317216605 0 0.4538149679343898 -0.03122373757004774 0 0.47196631970423453 -0.1154993393084916 0 0.48082736823376288 -0.124814033663446 0 0.49750294033355102 -0.1129478826892651 0 0.47196631970423453 -0.1154993393084916 0 0.48082736823376288 -0.124814033663446 0 0.46596028617107638 -0.12785668648755219 0 0.49750294033355102 -0.1129478826892651 0 0.5 -0.11340855673499869 0 0.49999999999999589 -0.1413309417879057 0 0.47196631970423453 -0.1154993393084916 0 0.49750294033355102 -0.1129478826892651 0 0.49750294033355102 -0.1129478826892651 0 0.5 -0.11340855673499869 0 0.5 -0.085486171682091716 0 0.49750294033355102 -0.1129478826892651 0 0.48309301017672901 -0.097793222643068375 0 0.5 -0.085486171682091716 0 0.47196631970423453 -0.1154993393084916 0 0.49750294033355102 -0.1129478826892651 0 0.48309301017672901 -0.097793222643068375 0 0.47196631970423453 -0.1154993393084916 0 0.48309301017672901 -0.097793222643068375 0 0.46649243163471599 -0.1008545367777117 0 0.48309301017672901 -0.097793222643068375 0 0.47422198362857781 -0.076747949457335832 0 0.46649243163471599 -0.1008545367777117 0 0.48309301017672901 -0.097793222643068375 0 0.5 -0.085486171682091716 0 0.47422198362857781 -0.076747949457335832 0 0.5 -0.05756378662918471 0 0.5 -0.085486171682091716 0 0.47422198362857781 -0.076747949457335832 0 0.46237798617776987 -0.050229404969141841 0 0.47422198362857781 -0.076747949457335832 0 0.44741834826160581 -0.070939116572201394 0 0.44741834826160581 -0.070939116572201394 0 0.45039667576831188 -0.094476482193344716 0 0.43245871034544181 -0.091648828175260794 0 0.44741834826160581 -0.070939116572201394 0 0.43245871034544181 -0.091648828175260794 0 0.47422198362857781 -0.076747949457335832 0 0.46649243163471599 -0.1008545367777117 0 0.45039667576831188 -0.094476482193344716 0 0.47422198362857781 -0.076747949457335832 0 0.44741834826160581 -0.070939116572201394 0 0.45039667576831188 -0.094476482193344716 0 0.46649243163471599 -0.1008545367777117 0 0.45039667576831188 -0.094476482193344716 0 0.44642969907491792 -0.1180507959277181 0 0.45039667576831188 -0.094476482193344716 0 0.44642969907491792 -0.1180507959277181 0 0.43281673214741728 -0.11087265701433641 0 0.45039667576831188 -0.094476482193344716 0 0.43281673214741728 -0.11087265701433641 0 0.43245871034544181 -0.091648828175260794 0 0.47196631970423453 -0.1154993393084916 0 0.44642969907491792 -0.1180507959277181 0 0.47196631970423453 -0.1154993393084916 0 0.46649243163471599 -0.1008545367777117 0 0.44642969907491792 -0.1180507959277181 0 0.47196631970423453 -0.1154993393084916 0 0.44642969907491792 -0.1180507959277181 0 0.46596028617107638 -0.12785668648755219 0 0.41749907242927781 -0.11235853977832019 0 0.42089307844560148 -0.12060225254694661 0 0.40922253034496708 -0.099146006197021103 0 0.42089307844560148 -0.12060225254694661 0 0.40922253034496708 -0.099146006197021103 0 0.42089307844560148 -0.12060225254694661 0 0.40535423174317931 -0.1120318612902695 0 0.39955069546741029 -0.12273464763203509 0 0.42089307844560148 -0.12060225254694661 0 0.40922253034496708 -0.099146006197021103 0 0.40535423174317931 -0.1120318612902695 0 0.42089307844560148 -0.12060225254694661 0 0.39955069546741029 -0.12273464763203509 0 0.44642969907491792 -0.1180507959277181 0 0.42089307844560148 -0.12060225254694661 0 0.43281673214741728 -0.11087265701433641 0 0.44642969907491792 -0.1180507959277181 0 0.42089307844560148 -0.12060225254694661 0 0.41749907242927781 -0.11235853977832019 0 0.42089307844560148 -0.12060225254694661 0 0.43281673214741728 -0.11087265701433641 0 0.41749907242927781 -0.11235853977832019 0 0.43245871034544181 -0.091648828175260794 0 0.41749907242927781 -0.11235853977832019 0 0.43281673214741728 -0.11087265701433641 0 0.43245871034544181 -0.091648828175260794 0 0.41749907242927781 -0.11235853977832019 0 0.40922253034496708 -0.099146006197021103 0 0.43245871034544181 -0.091648828175260794 0 0.40922253034496708 -0.099146006197021103 0 0.41075503718482398 -0.078214252320559632 0 0.43245871034544181 -0.091648828175260794 0 0.41075503718482398 -0.078214252320559632 0 0.43245871034544181 -0.091648828175260794 0 0.42824110129187209 -0.07089032787865443 0 0.44741834826160581 -0.070939116572201394 0 0.42824110129187209 -0.07089032787865443 0 0.43631546026754903 -0.048887870055349537 0 0.44741834826160581 -0.070939116572201394 0 0.43245871034544181 -0.091648828175260794 0 0.42824110129187209 -0.07089032787865443 0 0.41075503718482398 -0.078214252320559632 0 0.3966351353046435 -0.069492104769282415 0 0.41140986529747919 -0.058578601219452457 0 0.41075503718482398 -0.078214252320559632 0 0.42824110129187209 -0.07089032787865443 0 0.41140986529747919 -0.058578601219452457 0 0.41075503718482398 -0.078214252320559632 0 0.3966351353046435 -0.069492104769282415 0 0.39019595140268609 -0.085149274729814386 0 0.3815271169572319 -0.065438736997030775 0 0.39019595140268609 -0.085149274729814386 0 0.36642202698737719 -0.076826620660732939 0 0.3966351353046435 -0.069492104769282415 0 0.3815271169572319 -0.065438736997030775 0 0.39019595140268609 -0.085149274729814386 0 0.39019595140268609 -0.085149274729814386 0 0.36642202698737719 -0.076826620660732939 0 0.37213289267146549 -0.097715629037943286 0 0.40922253034496708 -0.099146006197021103 0 0.41075503718482398 -0.078214252320559632 0 0.39019595140268609 -0.085149274729814386 0 0.40922253034496708 -0.099146006197021103 0 0.39175062271473821 -0.1056445387850752 0 0.40535423174317931 -0.1120318612902695 0 0.40922253034496708 -0.099146006197021103 0 0.39019595140268609 -0.085149274729814386 0 0.39175062271473821 -0.1056445387850752 0 0.39019595140268609 -0.085149274729814386 0 0.39175062271473821 -0.1056445387850752 0 0.37213289267146549 -0.097715629037943286 0 0.39175062271473821 -0.1056445387850752 0 0.37545617426122468 -0.11639501623019111 0 0.37213289267146549 -0.097715629037943286 0 0.37545617426122468 -0.11639501623019111 0 0.39955069546741029 -0.12273464763203509 0 0.37912715907358119 -0.13342409111479819 0 0.39175062271473821 -0.1056445387850752 0 0.37545617426122468 -0.11639501623019111 0 0.39955069546741029 -0.12273464763203509 0 0.39175062271473821 -0.1056445387850752 0 0.40535423174317931 -0.1120318612902695 0 0.39955069546741029 -0.12273464763203509 0 0.41140012941233117 -0.0074313506821105831 0 0.42934291128034041 -0.01198399054847067 0 0.41366338177830297 -0.032726285360382509 0 0.43533419861385131 0.0061180841875390036 0 0.41140012941233117 -0.0074313506821105831 0 0.42934291128034041 -0.01198399054847067 0 0.43533419861385131 0.0061180841875390036 0 0.446924936162575 -0.013114509007975081 0 0.42934291128034041 -0.01198399054847067 0 0.43533419861385131 0.0061180841875390036 0 0.41140012941233117 -0.0074313506821105831 0 0.446924936162575 -0.013114509007975081 0 0.42934291128034041 -0.01198399054847067 0 0.43512266219192891 -0.028098979638662008 0 0.42934291128034041 -0.01198399054847067 0 0.43512266219192891 -0.028098979638662008 0 0.41366338177830297 -0.032726285360382509 0 0.43512266219192891 -0.028098979638662008 0 0.43631546026754903 -0.048887870055349537 0 0.41366338177830297 -0.032726285360382509 0 0.42824110129187209 -0.07089032787865443 0 0.43631546026754903 -0.048887870055349537 0 0.41140986529747919 -0.058578601219452457 0 0.43631546026754903 -0.048887870055349537 0 0.41140986529747919 -0.058578601219452457 0 0.41366338177830297 -0.032726285360382509 0 0.41366338177830297 -0.032726285360382509 0 0.38936167955678391 -0.049410845259337192 0 0.38746606021081109 -0.02098078555176016 0 0.41140986529747919 -0.058578601219452457 0 0.41366338177830297 -0.032726285360382509 0 0.38936167955678391 -0.049410845259337192 0 0.3966351353046435 -0.069492104769282415 0 0.41140986529747919 -0.058578601219452457 0 0.38936167955678391 -0.049410845259337192 0 0.3966351353046435 -0.069492104769282415 0 0.3815271169572319 -0.065438736997030775 0 0.38936167955678391 -0.049410845259337192 0 0.38936167955678391 -0.049410845259337192 0 0.36951023888620887 -0.040775559188277237 0 0.36849195721903072 -0.057094279439454283 0 0.3815271169572319 -0.065438736997030775 0 0.38936167955678391 -0.049410845259337192 0 0.36849195721903072 -0.057094279439454283 0 0.38936167955678391 -0.049410845259337192 0 0.38746606021081109 -0.02098078555176016 0 0.36951023888620887 -0.040775559188277237 0 0.38746606021081109 -0.02098078555176016 0 0.36969342331355742 -0.021160672753105129 0 0.36951023888620887 -0.040775559188277237 0 0.41140012941233117 -0.0074313506821105831 0 0.41366338177830297 -0.032726285360382509 0 0.38746606021081109 -0.02098078555176016 0 0.41140012941233117 -0.0074313506821105831 0 0.38746606021081109 -0.02098078555176016 0 0.41140012941233117 -0.0074313506821105831 0 0.38746606021081109 -0.02098078555176016 0 0.38708761798871882 -0.0019416611374814729 0 0.3697202331778231 0.0051944731981410069 0 0.38708761798871882 -0.0019416611374814729 0 0.36969342331355742 -0.021160672753105129 0 0.38746606021081109 -0.02098078555176016 0 0.38708761798871882 -0.0019416611374814729 0 0.36969342331355742 -0.021160672753105129 0 0.3697202331778231 0.0051944731981410069 0 0.36969342331355742 -0.021160672753105129 0 0.3547178121155089 -0.01015319197648225 0 0.3697202331778231 0.0051944731981410069 0 0.3547178121155089 -0.01015319197648225 0 0.36969342331355742 -0.021160672753105129 0 0.3547178121155089 -0.01015319197648225 0 0.35461281496970248 -0.033138208169692429 0 0.3547178121155089 -0.01015319197648225 0 0.33971539105319642 -0.025500857151107 0 0.35461281496970248 -0.033138208169692429 0 0.3547178121155089 -0.01015319197648225 0 0.33971539105319642 -0.025500857151107 0 0.33971539105319642 -0.025500857151107 0 0.35461281496970248 -0.033138208169692429 0 0.35242759622682879 0.0050716858630956282 0 0.3547178121155089 -0.01015319197648225 0 0.33894288453699001 -0.0091175197947151784 0 0.3547178121155089 -0.01015319197648225 0 0.33894288453699001 -0.0091175197947151784 0 0.33971539105319642 -0.025500857151107 0 0.33607267105121608 0.0067225140728069434 0 0.33894288453699001 -0.0091175197947151784 0 0.32606835352480013 -0.0034949224980522359 0 0.33894288453699001 -0.0091175197947151784 0 0.33971539105319642 -0.025500857151107 0 0.31806715456596119 -0.014402617488130929 0 0.33971539105319642 -0.025500857151107 0 0.31806715456596119 -0.014402617488130929 0 0.33971539105319642 -0.025500857151107 0 0.31771007030735549 -0.018034801745635601 0 0.33062312070896183 -0.03480236391063686 0 0.33971539105319642 -0.025500857151107 0 0.33062312070896183 -0.03480236391063686 0 0.31771007030735549 -0.018034801745635601 0 0.33062312070896183 -0.03480236391063686 0 0.31771007030735549 -0.018034801745635601 0 0.31631838961527098 -0.032190678347434727 0 0.31062431579570682 -0.010586952942251281 0 0.33971539105319642 -0.025500857151107 0 0.31771007030735549 -0.018034801745635601 0 0.31806715456596119 -0.014402617488130929 0 0.31631838961527098 -0.032190678347434727 0 0.31062431579570682 -0.010586952942251281 0 0.31771007030735549 -0.018034801745635601 0 0.31631838961527098 -0.032190678347434727 0 0.33062312070896183 -0.03480236391063686 0 0.31771007030735549 -0.018034801745635601 0 0.31631838961527098 -0.032190678347434727 0 0.31771007030735549 -0.018034801745635601 0 0.31806715456596119 -0.014402617488130929 0 0.31771007030735549 -0.018034801745635601 0 0.31285504516821672 -0.011730564303569649 0 0.31771007030735549 -0.018034801745635601 0 0.31285504516821672 -0.011730564303569649 0 0.31806715456596119 -0.014402617488130929 0 0.31285504516821672 -0.011730564303569649 0 0.31806715456596119 -0.014402617488130929 0 0.32039672515472489 0.0092932733705267806 0 0.31806715456596119 -0.014402617488130929 0 0.32606835352480013 -0.0034949224980522359 0 0.32039672515472489 0.0092932733705267806 0 0.31285504516821672 -0.011730564303569649 0 0.31806715456596119 -0.014402617488130929 0 0.31771007030735549 -0.018034801745635601 0 0.31285504516821672 -0.011730564303569649 0 0.31062431579570682 -0.010586952942251281 0 0.33894288453699001 -0.0091175197947151784 0 0.31806715456596119 -0.014402617488130929 0 0.32606835352480013 -0.0034949224980522359 0 0.32039672515472489 0.0092932733705267806 0 0.31285504516821672 -0.011730564303569649 0 0.3099218783848019 -0.0079218549086841668 0 0.32039672515472489 0.0092932733705267806 0 0.31806715456596119 -0.014402617488130929 0 0.31388957461977612 -0.056896061960490747 0 0.31935435821824731 -0.046330449472391788 0 0.31794632115889199 -0.03836716765215574 0 0.32803470168605742 -0.057516191165881032 0 0.31388957461977612 -0.056896061960490747 0 0.31935435821824731 -0.046330449472391788 0 0.32803470168605742 -0.057516191165881032 0 0.31935435821824731 -0.046330449472391788 0 0.33009251260503791 -0.047172227366057487 0 0.32803470168605742 -0.057516191165881032 0 0.31388957461977612 -0.056896061960490747 0 0.32223363329621552 -0.070348598346556809 0 0.31388957461977612 -0.056896061960490747 0 0.31631838961527098 -0.032190678347434727 0 0.31794632115889199 -0.03836716765215574 0 0.31388957461977612 -0.056896061960490747 0 0.31631838961527098 -0.032190678347434727 0 0.31631838961527098 -0.032190678347434727 0 0.31794632115889199 -0.03836716765215574 0 0.31631838961527098 -0.032190678347434727 0 0.31794632115889199 -0.03836716765215574 0 0.33062312070896183 -0.03480236391063686 0 0.31935435821824731 -0.046330449472391788 0 0.33062312070896183 -0.03480236391063686 0 0.33009251260503791 -0.047172227366057487 0 0.31935435821824731 -0.046330449472391788 0 0.31794632115889199 -0.03836716765215574 0 0.33062312070896183 -0.03480236391063686 0 0.31935435821824731 -0.046330449472391788 0 0.33062312070896183 -0.03480236391063686 0 0.33062312070896183 -0.03480236391063686 0 0.34235786980688532 -0.050039904915320482 0 0.33009251260503791 -0.047172227366057487 0 0.33971539105319642 -0.025500857151107 0 0.33062312070896183 -0.03480236391063686 0 0.34277216278106087 -0.037583490840571922 0 0.33062312070896183 -0.03480236391063686 0 0.34235786980688532 -0.050039904915320482 0 0.33062312070896183 -0.03480236391063686 0 0.34277216278106087 -0.037583490840571922 0 0.34235786980688532 -0.050039904915320482 0 0.32803470168605742 -0.057516191165881032 0 0.34235786980688532 -0.050039904915320482 0 0.33009251260503791 -0.047172227366057487 0 0.32803470168605742 -0.057516191165881032 0 0.34235786980688532 -0.050039904915320482 0 0.34027187818249433 -0.063939155341840428 0 0.34235786980688532 -0.050039904915320482 0 0.35665134277627297 -0.047509993857874779 0 0.35409261890480692 -0.065277445920005464 0 0.34235786980688532 -0.050039904915320482 0 0.35409261890480692 -0.065277445920005464 0 0.34235786980688532 -0.050039904915320482 0 0.35409261890480692 -0.065277445920005464 0 0.34027187818249433 -0.063939155341840428 0 0.33971539105319642 -0.025500857151107 0 0.34277216278106087 -0.037583490840571922 0 0.35461281496970248 -0.033138208169692429 0 0.34277216278106087 -0.037583490840571922 0 0.34235786980688532 -0.050039904915320482 0 0.35665134277627297 -0.047509993857874779 0 0.34277216278106087 -0.037583490840571922 0 0.35665134277627297 -0.047509993857874779 0 0.35461281496970248 -0.033138208169692429 0 0.36969342331355742 -0.021160672753105129 0 0.35461281496970248 -0.033138208169692429 0 0.36951023888620887 -0.040775559188277237 0 0.35461281496970248 -0.033138208169692429 0 0.36951023888620887 -0.040775559188277237 0 0.35665134277627297 -0.047509993857874779 0 0.35461281496970248 -0.033138208169692429 0 0.36951023888620887 -0.040775559188277237 0 0.35665134277627297 -0.047509993857874779 0 0.36849195721903072 -0.057094279439454283 0 0.35409261890480692 -0.065277445920005464 0 0.35665134277627297 -0.047509993857874779 0 0.36951023888620887 -0.040775559188277237 0 0.36849195721903072 -0.057094279439454283 0 0.3815271169572319 -0.065438736997030775 0 0.36849195721903072 -0.057094279439454283 0 0.36642202698737719 -0.076826620660732939 0 0.36849195721903072 -0.057094279439454283 0 0.36642202698737719 -0.076826620660732939 0 0.35409261890480692 -0.065277445920005464 0 0.36642202698737719 -0.076826620660732939 0 0.3541670342179255 -0.091642576131531178 0 0.37213289267146549 -0.097715629037943286 0 0.36642202698737719 -0.076826620660732939 0 0.3541670342179255 -0.091642576131531178 0 0.34348907366013609 -0.078651465734534992 0 0.36642202698737719 -0.076826620660732939 0 0.35409261890480692 -0.065277445920005464 0 0.34348907366013609 -0.078651465734534992 0 0.35409261890480692 -0.065277445920005464 0 0.34027187818249433 -0.063939155341840428 0 0.34348907366013609 -0.078651465734534992 0 0.37545617426122468 -0.11639501623019111 0 0.35398254645435351 -0.108473674926123 0 0.35619312918579982 -0.13037751588517149 0 0.3541670342179255 -0.091642576131531178 0 0.37213289267146549 -0.097715629037943286 0 0.35398254645435351 -0.108473674926123 0 0.37545617426122468 -0.11639501623019111 0 0.37213289267146549 -0.097715629037943286 0 0.35398254645435351 -0.108473674926123 0 0.3541670342179255 -0.091642576131531178 0 0.35398254645435351 -0.108473674926123 0 0.3320520165093927 -0.097972619006059983 0 0.35398254645435351 -0.108473674926123 0 0.3369402726549951 -0.11328523830182829 0 0.35619312918579982 -0.13037751588517149 0 0.3369402726549951 -0.11328523830182829 0 0.33372425158197999 -0.13015404646039089 0 0.35619312918579982 -0.13037751588517149 0 0.3369402726549951 -0.11328523830182829 0 0.3320520165093927 -0.097972619006059983 0 0.32295426475367373 -0.1192169876071037 0 0.3369402726549951 -0.11328523830182829 0 0.32295426475367373 -0.1192169876071037 0 0.33372425158197999 -0.13015404646039089 0 0.35398254645435351 -0.108473674926123 0 0.3369402726549951 -0.11328523830182829 0 0.3320520165093927 -0.097972619006059983 0 0.3320520165093927 -0.097972619006059983 0 0.30896242860643902 -0.1114510562657145 0 0.306692210537298 -0.097137715192832125 0 0.3320520165093927 -0.097972619006059983 0 0.306692210537298 -0.097137715192832125 0 0.3320520165093927 -0.097972619006059983 0 0.32295426475367373 -0.1192169876071037 0 0.30896242860643902 -0.1114510562657145 0 0.32295426475367373 -0.1192169876071037 0 0.30749908554953959 -0.12495188813189979 0 0.30896242860643902 -0.1114510562657145 0 0.33189557984601897 -0.071138334895358937 0 0.34348907366013609 -0.078651465734534992 0 0.32552236097293752 -0.083763508186216085 0 0.32803470168605742 -0.057516191165881032 0 0.33189557984601897 -0.071138334895358937 0 0.34027187818249433 -0.063939155341840428 0 0.33189557984601897 -0.071138334895358937 0 0.34027187818249433 -0.063939155341840428 0 0.34348907366013609 -0.078651465734534992 0 0.3541670342179255 -0.091642576131531178 0 0.3320520165093927 -0.097972619006059983 0 0.34348907366013609 -0.078651465734534992 0 0.3320520165093927 -0.097972619006059983 0 0.34348907366013609 -0.078651465734534992 0 0.32552236097293752 -0.083763508186216085 0 0.32552236097293752 -0.083763508186216085 0 0.31146075962428088 -0.08160144557354658 0 0.306692210537298 -0.097137715192832125 0 0.3320520165093927 -0.097972619006059983 0 0.32552236097293752 -0.083763508186216085 0 0.306692210537298 -0.097137715192832125 0 0.32552236097293752 -0.083763508186216085 0 0.32223363329621552 -0.070348598346556809 0 0.31146075962428088 -0.08160144557354658 0 0.31388957461977612 -0.056896061960490747 0 0.32223363329621552 -0.070348598346556809 0 0.31146075962428088 -0.08160144557354658 0 0.31388957461977612 -0.056896061960490747 0 0.31146075962428088 -0.08160144557354658 0 0.33189557984601897 -0.071138334895358937 0 0.32552236097293752 -0.083763508186216085 0 0.32223363329621552 -0.070348598346556809 0 0.32803470168605742 -0.057516191165881032 0 0.33189557984601897 -0.071138334895358937 0 0.32223363329621552 -0.070348598346556809 0 0.31388957461977612 -0.056896061960490747 0 0.30452646522577909 -0.066557010430422572 0 0.31146075962428088 -0.08160144557354658 0 0.30452646522577909 -0.066557010430422572 0 0.29792654851971939 -0.076385467368266499 0 0.29457160498776808 -0.061097986291802783 0 0.30452646522577909 -0.066557010430422572 0 0.29792654851971939 -0.076385467368266499 0 0.31146075962428088 -0.08160144557354658 0 0.31146075962428088 -0.08160144557354658 0 0.29611830636772568 -0.08748021893793731 0 0.306692210537298 -0.097137715192832125 0 0.29792654851971939 -0.076385467368266499 0 0.31146075962428088 -0.08160144557354658 0 0.29611830636772568 -0.08748021893793731 0 0.29611830636772568 -0.08748021893793731 0 0.285382299969131 -0.078602179848310971 0 0.28133240456520342 -0.096302811379604003 0 0.29611830636772568 -0.08748021893793731 0 0.306692210537298 -0.097137715192832125 0 0.28133240456520342 -0.096302811379604003 0 0.29792654851971939 -0.076385467368266499 0 0.29611830636772568 -0.08748021893793731 0 0.285382299969131 -0.078602179848310971 0 0.285382299969131 -0.078602179848310971 0 0.28133240456520342 -0.096302811379604003 0 0.285382299969131 -0.078602179848310971 0 0.28649723543185918 -0.068867144870690233 0 0.27458363667912478 -0.069290818648785835 0 0.29792654851971939 -0.076385467368266499 0 0.28649723543185918 -0.068867144870690233 0 0.29457160498776808 -0.061097986291802783 0 0.29792654851971939 -0.076385467368266499 0 0.285382299969131 -0.078602179848310971 0 0.28649723543185918 -0.068867144870690233 0 0.30749908554953959 -0.12495188813189979 0 0.30896242860643902 -0.1114510562657145 0 0.29457204761859301 -0.1232204251084308 0 0.30896242860643902 -0.1114510562657145 0 0.29515161787597122 -0.1085206744474659 0 0.29457204761859301 -0.1232204251084308 0 0.30896242860643902 -0.1114510562657145 0 0.306692210537298 -0.097137715192832125 0 0.29515161787597122 -0.1085206744474659 0 0.28133240456520342 -0.096302811379604003 0 0.29515161787597122 -0.1085206744474659 0 0.28749678948156498 -0.1142254462470315 0 0.306692210537298 -0.097137715192832125 0 0.28133240456520342 -0.096302811379604003 0 0.306692210537298 -0.097137715192832125 0 0.28133240456520342 -0.096302811379604003 0 0.29515161787597122 -0.1085206744474659 0 0.28133240456520342 -0.096302811379604003 0 0.28749678948156498 -0.1142254462470315 0 0.27997429695510639 -0.120869575502825 0 0.29515161787597122 -0.1085206744474659 0 0.28749678948156498 -0.1142254462470315 0 0.29457204761859301 -0.1232204251084308 0 0.28749678948156498 -0.1142254462470315 0 0.28647517305870801 -0.1220407316238525 0 0.27997429695510639 -0.120869575502825 0 0.28647517305870801 -0.1220407316238525 0 0.27997429695510639 -0.120869575502825 0 0.28385755817956732 -0.12984747963712301 0 0.28749678948156498 -0.1142254462470315 0 0.28647517305870801 -0.1220407316238525 0 0.29457204761859301 -0.1232204251084308 0 0.27541509746207837 -0.12216522565045559 0 0.27168040313402791 -0.1135590939392845 0 0.26863244146310661 -0.09588469904729903 0 0.28133240456520342 -0.096302811379604003 0 0.27541509746207837 -0.12216522565045559 0 0.27997429695510639 -0.120869575502825 0 0.27326967851770712 -0.1227749187284357 0 0.27168040313402791 -0.1135590939392845 0 0.27326967851770712 -0.1227749187284357 0 0.27541509746207837 -0.12216522565045559 0 0.27168040313402791 -0.1135590939392845 0 0.27541509746207837 -0.12216522565045559 0 0.27997429695510639 -0.120869575502825 0 0.27413179040896601 -0.12777409773798609 0 0.27326967851770712 -0.1227749187284357 0 0.27541509746207837 -0.12216522565045559 0 0.27413179040896601 -0.12777409773798609 0 0.27541509746207837 -0.12216522565045559 0 0.27413179040896601 -0.12777409773798609 0 0.27326967851770712 -0.1227749187284357 0 0.27541509746207837 -0.12216522565045559 0 0.27541509746207837 -0.12216522565045559 0 0.27997429695510639 -0.120869575502825 0 0.27326967851770712 -0.1227749187284357 0 0.27168040313402791 -0.1135590939392845 0 0.25934990747168368 -0.1100766637830585 0 0.27168040313402791 -0.1135590939392845 0 0.26596627984511501 -0.095796922803901063 0 0.26863244146310661 -0.09588469904729903 0 0.28133240456520342 -0.096302811379604003 0 0.27541509746207837 -0.12216522565045559 0 0.28133240456520342 -0.096302811379604003 0 0.27541509746207837 -0.12216522565045559 0 0.26863244146310661 -0.09588469904729903 0 0.27168040313402791 -0.1135590939392845 0 0.26596627984511501 -0.095796922803901063 0 0.27168040313402791 -0.1135590939392845 0 0.26863244146310661 -0.09588469904729903 0 0.27168040313402791 -0.1135590939392845 0 0.26596627984511501 -0.095796922803901063 0 0.25934990747168368 -0.1100766637830585 0 0.28133240456520342 -0.096302811379604003 0 0.26863244146310661 -0.09588469904729903 0 0.26596627984511501 -0.095796922803901063 0 0.26863244146310661 -0.09588469904729903 0 0.26596627984511501 -0.095796922803901063 0 0.2518691933921911 -0.095332813920422074 0 0.26596627984511501 -0.095796922803901063 0 0.2518691933921911 -0.095332813920422074 0 0.25934990747168368 -0.1100766637830585 0 0.2518691933921911 -0.095332813920422074 0 0.25934990747168368 -0.1100766637830585 0 0.24671732841163671 -0.102721858771103 0 0.27326967851770712 -0.1227749187284357 0 0.25934990747168368 -0.1100766637830585 0 0.24731800528969849 -0.13014996105782781 0 0.25934990747168368 -0.1100766637830585 0 0.24671732841163671 -0.102721858771103 0 0.24731800528969849 -0.13014996105782781 0 0.27458363667912478 -0.069290818648785835 0 0.26577790060766732 -0.079331904832176364 0 0.27526456221409612 -0.085604868085508184 0 0.27458363667912478 -0.069290818648785835 0 0.26577790060766732 -0.079331904832176364 0 0.26292335975222791 -0.062779110617053657 0 0.285382299969131 -0.078602179848310971 0 0.27458363667912478 -0.069290818648785835 0 0.27526456221409612 -0.085604868085508184 0 0.27458363667912478 -0.069290818648785835 0 0.26292335975222791 -0.062779110617053657 0 0.27103602169540258 -0.060499069221397077 0 0.28649723543185918 -0.068867144870690233 0 0.27458363667912478 -0.069290818648785835 0 0.27845913222720309 -0.05651017180446409 0 0.26863244146310661 -0.09588469904729903 0 0.26577790060766732 -0.079331904832176364 0 0.285382299969131 -0.078602179848310971 0 0.28133240456520342 -0.096302811379604003 0 0.27526456221409612 -0.085604868085508184 0 0.26863244146310661 -0.09588469904729903 0 0.26577790060766732 -0.079331904832176364 0 0.27526456221409612 -0.085604868085508184 0 0.26596627984511501 -0.095796922803901063 0 0.26863244146310661 -0.09588469904729903 0 0.26577790060766732 -0.079331904832176364 0 0.28133240456520342 -0.096302811379604003 0 0.26863244146310661 -0.09588469904729903 0 0.27526456221409612 -0.085604868085508184 0 0.2518691933921911 -0.095332813920422074 0 0.25572658441172191 -0.084274812606824456 0 0.24611665153357609 -0.075293756484378221 0 0.26596627984511501 -0.095796922803901063 0 0.25572658441172191 -0.084274812606824456 0 0.25895421287600551 -0.070675757218596647 0 0.26596627984511501 -0.095796922803901063 0 0.25895421287600551 -0.070675757218596647 0 0.26596627984511501 -0.095796922803901063 0 0.26577790060766732 -0.079331904832176364 0 0.25895421287600551 -0.070675757218596647 0 0.26596627984511501 -0.095796922803901063 0 0.2518691933921911 -0.095332813920422074 0 0.25572658441172191 -0.084274812606824456 0 0.25895421287600551 -0.070675757218596647 0 0.2455159746555155 -0.047865654197653443 0 0.24611665153357609 -0.075293756484378221 0 0.26577790060766732 -0.079331904832176364 0 0.26292335975222791 -0.062779110617053657 0 0.25572658441172191 -0.084274812606824456 0 0.25895421287600551 -0.070675757218596647 0 0.24611665153357609 -0.075293756484378221 0 0.26577790060766732 -0.079331904832176364 0 0.25895421287600551 -0.070675757218596647 0 0.26292335975222791 -0.062779110617053657 0 0.26292335975222791 -0.062779110617053657 0 0.26817795812305478 -0.053416175815284753 0 0.2519421459068964 -0.045554591633291973 0 0.25895421287600551 -0.070675757218596647 0 0.2519421459068964 -0.045554591633291973 0 0.25895421287600551 -0.070675757218596647 0 0.26292335975222791 -0.062779110617053657 0 0.2519421459068964 -0.045554591633291973 0 0.26817795812305478 -0.053416175815284753 0 0.27096242258596109 -0.043046888964412 0 0.2519421459068964 -0.045554591633291973 0 0.25895421287600551 -0.070675757218596647 0 0.2519421459068964 -0.045554591633291973 0 0.2455159746555155 -0.047865654197653443 0 0.27103602169540258 -0.060499069221397077 0 0.26817795812305478 -0.053416175815284753 0 0.27845913222720309 -0.05651017180446409 0 0.26292335975222791 -0.062779110617053657 0 0.27103602169540258 -0.060499069221397077 0 0.26817795812305478 -0.053416175815284753 0 0.26817795812305478 -0.053416175815284753 0 0.27845913222720309 -0.05651017180446409 0 0.27096242258596109 -0.043046888964412 0 0.27845913222720309 -0.05651017180446409 0 0.27096242258596109 -0.043046888964412 0 0.28321136462209401 -0.041412756155772328 0 0.27458363667912478 -0.069290818648785835 0 0.27103602169540258 -0.060499069221397077 0 0.27845913222720309 -0.05651017180446409 0 0.27527811320285872 -0.033614275424306513 0 0.2844158057987401 -0.02982808874968489 0 0.28321136462209401 -0.041412756155772328 0 0.27527811320285872 -0.033614275424306513 0 0.27096242258596109 -0.043046888964412 0 0.28321136462209401 -0.041412756155772328 0 0.27527811320285872 -0.033614275424306513 0 0.27096242258596109 -0.043046888964412 0 0.261383899815955 -0.03029353227881891 0 0.27096242258596109 -0.043046888964412 0 0.2519421459068964 -0.045554591633291973 0 0.261383899815955 -0.03029353227881891 0 0.2519421459068964 -0.045554591633291973 0 0.261383899815955 -0.03029353227881891 0 0.24491529777745491 -0.020437551910928661 0 0.25436349861753688 -0.01633049199459868 0 0.261383899815955 -0.03029353227881891 0 0.24491529777745491 -0.020437551910928661 0 0.25436349861753688 -0.01633049199459868 0 0.26413761186621421 -0.020353183004424749 0 0.261383899815955 -0.03029353227881891 0 0.25436349861753688 -0.01633049199459868 0 0.26413761186621421 -0.020353183004424749 0 0.26734906612038412 -0.01174968428521017 0 0.25725076368735361 0.0079744498282781819 0 0.25436349861753688 -0.01633049199459868 0 0.25725076368735361 0.0079744498282781819 0 0.25436349861753688 -0.01633049199459868 0 0.26508125800532539 -0.0031175483341608331 0 0.25725076368735361 0.0079744498282781819 0 0.25436349861753688 -0.01633049199459868 0 0.248186192367364 -0.0029083560372354569 0 0.25436349861753688 -0.01633049199459868 0 0.26508125800532539 -0.0031175483341608331 0 0.26734906612038412 -0.01174968428521017 0 0.26508125800532539 -0.0031175483341608331 0 0.26734906612038412 -0.01174968428521017 0 0.27327268148801498 -0.0078458150905342198 0 0.2716149922870314 0.0023698134122428771 0 0.26508125800532539 -0.0031175483341608331 0 0.27327268148801498 -0.0078458150905342198 0 0.26734906612038412 -0.01174968428521017 0 0.27327268148801498 -0.0078458150905342198 0 0.27848990068791979 -0.01265310513097566 0 0.27327268148801498 -0.0078458150905342198 0 0.27848990068791979 -0.01265310513097566 0 0.27667985991333699 -0.001623231311202365 0 0.2716149922870314 0.0023698134122428771 0 0.27327268148801498 -0.0078458150905342198 0 0.27667985991333699 -0.001623231311202365 0 0.27848990068791979 -0.01265310513097566 0 0.27667985991333699 -0.001623231311202365 0 0.28384801837760087 -0.0048264518548439819 0 0.27794443140771991 0.0061667992310574637 0 0.27667985991333699 -0.001623231311202365 0 0.28384801837760087 -0.0048264518548439819 0 0.27527811320285872 -0.033614275424306513 0 0.261383899815955 -0.03029353227881891 0 0.27345398291098061 -0.023039023459071249 0 0.26413761186621421 -0.020353183004424749 0 0.261383899815955 -0.03029353227881891 0 0.27345398291098061 -0.023039023459071249 0 0.26413761186621421 -0.020353183004424749 0 0.26734906612038412 -0.01174968428521017 0 0.27345398291098061 -0.023039023459071249 0 0.26734906612038412 -0.01174968428521017 0 0.27848990068791979 -0.01265310513097566 0 0.27345398291098061 -0.023039023459071249 0 0.27848990068791979 -0.01265310513097566 0 0.27345398291098061 -0.023039023459071249 0 0.28414995695117051 -0.020451620678631832 0 0.27527811320285872 -0.033614275424306513 0 0.27345398291098061 -0.023039023459071249 0 0.2844158057987401 -0.02982808874968489 0 0.27345398291098061 -0.023039023459071249 0 0.2844158057987401 -0.02982808874968489 0 0.28414995695117051 -0.020451620678631832 0 0.2844158057987401 -0.02982808874968489 0 0.28414995695117051 -0.020451620678631832 0 0.29517707352384909 -0.023784392486280542 0 0.28414995695117051 -0.020451620678631832 0 0.29517707352384909 -0.023784392486280542 0 0.29130872642898992 -0.012817017672212419 0 0.2844158057987401 -0.02982808874968489 0 0.29517707352384909 -0.023784392486280542 0 0.29405855506528289 -0.036387746573830398 0 0.27794443140771991 0.0061667992310574637 0 0.28384801837760087 -0.0048264518548439819 0 0.294284373601713 -0.0022100768555975091 0 0.27848990068791979 -0.01265310513097566 0 0.28414995695117051 -0.020451620678631832 0 0.29130872642898992 -0.012817017672212419 0 0.27848990068791979 -0.01265310513097566 0 0.28384801837760087 -0.0048264518548439819 0 0.29130872642898992 -0.012817017672212419 0 0.28384801837760087 -0.0048264518548439819 0 0.29130872642898992 -0.012817017672212419 0 0.294284373601713 -0.0022100768555975091 0 0.29130872642898992 -0.012817017672212419 0 0.294284373601713 -0.0022100768555975091 0 0.31062431579570682 -0.010586952942251281 0 0.294284373601713 -0.0022100768555975091 0 0.31062431579570682 -0.010586952942251281 0 0.29982143049329057 0.0051935502549301377 0 0.294284373601713 -0.0022100768555975091 0 0.3099218783848019 -0.0079218549086841668 0 0.294284373601713 -0.0022100768555975091 0 0.31062431579570682 -0.010586952942251281 0 0.3099218783848019 -0.0079218549086841668 0 0.31285504516821672 -0.011730564303569649 0 0.31062431579570682 -0.010586952942251281 0 0.31285504516821672 -0.011730564303569649 0 0.3099218783848019 -0.0079218549086841668 0 0.31285504516821672 -0.011730564303569649 0 0.31062431579570682 -0.010586952942251281 0 0.3099218783848019 -0.0079218549086841668 0 0.31062431579570682 -0.010586952942251281 0 0.3099218783848019 -0.0079218549086841668 0 0.29982143049329057 0.0051935502549301377 0 0.3099218783848019 -0.0079218549086841668 0 0.31631838961527098 -0.032190678347434727 0 0.31062431579570682 -0.010586952942251281 0 0.30430517804736162 -0.03083863968204727 0 0.29517707352384909 -0.023784392486280542 0 0.31062431579570682 -0.010586952942251281 0 0.30430517804736162 -0.03083863968204727 0 0.29517707352384909 -0.023784392486280542 0 0.29130872642898992 -0.012817017672212419 0 0.31062431579570682 -0.010586952942251281 0 0.29517707352384909 -0.023784392486280542 0 0.30430517804736162 -0.03083863968204727 0 0.29405855506528289 -0.036387746573830398 0 0.31388957461977612 -0.056896061960490747 0 0.31631838961527098 -0.032190678347434727 0 0.30421627130425388 -0.043384173695867542 0 0.31631838961527098 -0.032190678347434727 0 0.30430517804736162 -0.03083863968204727 0 0.30421627130425388 -0.043384173695867542 0 0.30430517804736162 -0.03083863968204727 0 0.30421627130425388 -0.043384173695867542 0 0.29405855506528289 -0.036387746573830398 0 0.30421627130425388 -0.043384173695867542 0 0.29302563709539858 -0.049078428673329823 0 0.29405855506528289 -0.036387746573830398 0 0.31388957461977612 -0.056896061960490747 0 0.30421627130425388 -0.043384173695867542 0 0.30228610412921969 -0.055338550228743587 0 0.31388957461977612 -0.056896061960490747 0 0.30452646522577909 -0.066557010430422572 0 0.30228610412921969 -0.055338550228743587 0 0.30452646522577909 -0.066557010430422572 0 0.30228610412921969 -0.055338550228743587 0 0.29457160498776808 -0.061097986291802783 0 0.30421627130425388 -0.043384173695867542 0 0.30228610412921969 -0.055338550228743587 0 0.29302563709539858 -0.049078428673329823 0 0.28649723543185918 -0.068867144870690233 0 0.27845913222720309 -0.05651017180446409 0 0.29457160498776808 -0.061097986291802783 0 0.27845913222720309 -0.05651017180446409 0 0.29302563709539858 -0.049078428673329823 0 0.29457160498776808 -0.061097986291802783 0 0.30228610412921969 -0.055338550228743587 0 0.29302563709539858 -0.049078428673329823 0 0.29457160498776808 -0.061097986291802783 0 0.27845913222720309 -0.05651017180446409 0 0.29302563709539858 -0.049078428673329823 0 0.28321136462209401 -0.041412756155772328 0 0.2844158057987401 -0.02982808874968489 0 0.28321136462209401 -0.041412756155772328 0 0.29405855506528289 -0.036387746573830398 0 0.29302563709539858 -0.049078428673329823 0 0.28321136462209401 -0.041412756155772328 0 0.29405855506528289 -0.036387746573830398 0 0.3102492122045955 -0.2107988576293747 0 0.28014592309877939 -0.20992218323669209 0 0.29027291544826062 -0.2125072530748307 0 0.3102492122045955 -0.2107988576293747 0 0.28014592309877939 -0.20992218323669209 0 0.29534604543002108 -0.199714935607501 0 0.30063782144797752 -0.2039029266132931 0 0.28014592309877939 -0.20992218323669209 0 0.29261232253509228 -0.21599806498040619 0 0.29027291544826062 -0.2125072530748307 0 0.2969609554066594 -0.21332087924004181 0 0.2964910385347676 -0.21702424445810611 0 0.29261232253509228 -0.21599806498040619 0 0.2969609554066594 -0.21332087924004181 0 0.2964910385347676 -0.21702424445810611 0 0.29261232253509228 -0.21599806498040619 0 0.29454889258722838 -0.2221333134791848 0 0.29261232253509228 -0.21599806498040619 0 0.29027291544826062 -0.2125072530748307 0 0.28767643009344068 -0.21798780857375311 0 0.29261232253509228 -0.21599806498040619 0 0.28767643009344068 -0.21798780857375311 0 0.29454889258722838 -0.2221333134791848 0 0.28471157359105231 -0.21477397967248271 0 0.28134674733669812 -0.21909402799836991 0 0.28014592309877939 -0.20992218323669209 0 0.29027291544826062 -0.2125072530748307 0 0.28471157359105231 -0.21477397967248271 0 0.28014592309877939 -0.20992218323669209 0 0.29027291544826062 -0.2125072530748307 0 0.28767643009344068 -0.21798780857375311 0 0.28471157359105231 -0.21477397967248271 0 0.28767643009344068 -0.21798780857375311 0 0.28471157359105231 -0.21477397967248271 0 0.28134674733669812 -0.21909402799836991 0 0.28126866664371902 -0.20210174924430779 0 0.28532129942923351 -0.19265936285087301 0 0.27973366015050649 -0.198453737373673 0 0.29534604543002108 -0.199714935607501 0 0.28014592309877939 -0.20992218323669209 0 0.29391286224434149 -0.1870766952053223 0 0.28014592309877939 -0.20992218323669209 0 0.29391286224434149 -0.1870766952053223 0 0.28126866664371902 -0.20210174924430779 0 0.28014592309877939 -0.20992218323669209 0 0.29391286224434149 -0.1870766952053223 0 0.28126866664371902 -0.20210174924430779 0 0.28532129942923351 -0.19265936285087301 0 0.29391286224434149 -0.1870766952053223 0 0.29534604543002108 -0.199714935607501 0 0.29882489839850468 -0.19384254415512339 0 0.29391286224434149 -0.1870766952053223 0 0.29534604543002108 -0.199714935607501 0 0.30140834212726059 -0.19765906121725299 0 0.30063782144797752 -0.2039029266132931 0 0.29534604543002108 -0.199714935607501 0 0.30140834212726059 -0.19765906121725299 0 0.29882489839850468 -0.19384254415512339 0 0.30140834212726059 -0.19765906121725299 0 0.30444518593955372 -0.19286497190963939 0 0.30778775942024611 -0.19796992780070821 0 0.30140834212726059 -0.19765906121725299 0 0.30778775942024611 -0.19796992780070821 0 0.30063782144797752 -0.2039029266132931 0 0.30444518593955372 -0.19286497190963939 0 0.30044204206130443 -0.18701511984948199 0 0.30671776482949431 -0.18437233232455141 0 0.29882489839850468 -0.19384254415512339 0 0.29391286224434149 -0.1870766952053223 0 0.30044204206130443 -0.18701511984948199 0 0.30140834212726059 -0.19765906121725299 0 0.29882489839850468 -0.19384254415512339 0 0.30444518593955372 -0.19286497190963939 0 0.29882489839850468 -0.19384254415512339 0 0.30444518593955372 -0.19286497190963939 0 0.30044204206130443 -0.18701511984948199 0 0.30444518593955372 -0.19286497190963939 0 0.31026862637644298 -0.190515795189627 0 0.30671776482949431 -0.18437233232455141 0 0.31026862637644298 -0.190515795189627 0 0.30778775942024611 -0.19796992780070821 0 0.31801549676059232 -0.19201577044599941 0 0.30444518593955372 -0.19286497190963939 0 0.31026862637644298 -0.190515795189627 0 0.30778775942024611 -0.19796992780070821 0 0.30930183189833638 -0.2020919573288513 0 0.30778775942024611 -0.19796992780070821 0 0.31801549676059232 -0.19201577044599941 0 0.30930183189833638 -0.2020919573288513 0 0.30778775942024611 -0.19796992780070821 0 0.30063782144797752 -0.2039029266132931 0 0.29027291544826062 -0.2125072530748307 0 0.3102492122045955 -0.2107988576293747 0 0.2969609554066594 -0.21332087924004181 0 0.30930183189833638 -0.2020919573288513 0 0.3102492122045955 -0.2107988576293747 0 0.30063782144797752 -0.2039029266132931 0 0.3102492122045955 -0.2107988576293747 0 0.30063782144797752 -0.2039029266132931 0 0.28014592309877939 -0.20992218323669209 0 0.3102492122045955 -0.2107988576293747 0 0.2969609554066594 -0.21332087924004181 0 0.30361025579735551 -0.21506850918508341 0 0.2964910385347676 -0.21702424445810611 0 0.29965148311919643 -0.21553073508257989 0 0.30017704310669202 -0.21824487707454501 0 0.2964910385347676 -0.21702424445810611 0 0.29965148311919643 -0.21553073508257989 0 0.2969609554066594 -0.21332087924004181 0 0.29965148311919643 -0.21553073508257989 0 0.2969609554066594 -0.21332087924004181 0 0.30361025579735551 -0.21506850918508341 0 0.29965148311919643 -0.21553073508257989 0 0.30017704310669202 -0.21824487707454501 0 0.30361025579735551 -0.21506850918508341 0 0.3102492122045955 -0.2107988576293747 0 0.30445271491933901 -0.2248179311106677 0 0.3102492122045955 -0.2107988576293747 0 0.30445271491933901 -0.2248179311106677 0 0.31691611284506432 -0.2109930125288465 0 0.3102492122045955 -0.2107988576293747 0 0.30361025579735551 -0.21506850918508341 0 0.30445271491933901 -0.2248179311106677 0 0.30874461521323482 -0.2322812015586608 0 0.30445271491933901 -0.2248179311106677 0 0.31691611284506432 -0.2109930125288465 0 0.30445271491933901 -0.2248179311106677 0 0.29469630341619463 -0.2353942532343361 0 0.29454889258722838 -0.2221333134791848 0 0.30874461521323482 -0.2322812015586608 0 0.30445271491933901 -0.2248179311106677 0 0.29469630341619463 -0.2353942532343361 0 0.30017704310669202 -0.21824487707454501 0 0.30445271491933901 -0.2248179311106677 0 0.29454889258722838 -0.2221333134791848 0 0.30017704310669202 -0.21824487707454501 0 0.30361025579735551 -0.21506850918508341 0 0.30445271491933901 -0.2248179311106677 0 0.2964910385347676 -0.21702424445810611 0 0.30017704310669202 -0.21824487707454501 0 0.29454889258722838 -0.2221333134791848 0 0.30874461521323482 -0.2322812015586608 0 0.29469630341619463 -0.2353942532343361 0 0.30057311758140542 -0.25356939058847511 0 0.30874461521323482 -0.2322812015586608 0 0.31333578311129251 -0.24688137415892061 0 0.30057311758140542 -0.25356939058847511 0 0.30874461521323482 -0.2322812015586608 0 0.30057311758140542 -0.25356939058847511 0 0.29469630341619463 -0.2353942532343361 0 0.30057311758140542 -0.25356939058847511 0 0.28432190027408932 -0.25462712083187278 0 0.29469630341619463 -0.2353942532343361 0 0.27970812382616578 -0.23972394044473841 0 0.28432190027408932 -0.25462712083187278 0 0.29469630341619463 -0.2353942532343361 0 0.29454889258722838 -0.2221333134791848 0 0.28471654126246621 -0.22672545747671721 0 0.29469630341619463 -0.2353942532343361 0 0.28471654126246621 -0.22672545747671721 0 0.27970812382616578 -0.23972394044473841 0 0.28767643009344068 -0.21798780857375311 0 0.28471654126246621 -0.22672545747671721 0 0.28134674733669812 -0.21909402799836991 0 0.28767643009344068 -0.21798780857375311 0 0.29454889258722838 -0.2221333134791848 0 0.28471654126246621 -0.22672545747671721 0 0.28471654126246621 -0.22672545747671721 0 0.28134674733669812 -0.21909402799836991 0 0.26976962169772689 -0.22714109202689209 0 0.28471654126246621 -0.22672545747671721 0 0.26976962169772689 -0.22714109202689209 0 0.27970812382616578 -0.23972394044473841 0 0.27970812382616578 -0.23972394044473841 0 0.28432190027408932 -0.25462712083187278 0 0.26853814997914588 -0.25061537758681363 0 0.26976962169772689 -0.22714109202689209 0 0.26935230394992798 -0.24046010271888391 0 0.25939332029667372 -0.24436000081709169 0 0.26976962169772689 -0.22714109202689209 0 0.27970812382616578 -0.23972394044473841 0 0.26935230394992798 -0.24046010271888391 0 0.27970812382616578 -0.23972394044473841 0 0.26935230394992798 -0.24046010271888391 0 0.26853814997914588 -0.25061537758681363 0 0.26935230394992798 -0.24046010271888391 0 0.25939332029667372 -0.24436000081709169 0 0.26853814997914588 -0.25061537758681363 0 0.26976962169772689 -0.22714109202689209 0 0.25939332029667372 -0.24436000081709169 0 0.25939332029667372 -0.24436000081709169 0 0.25030848383521492 -0.23940769787506169 0 0.25617580749430352 -0.23088513540590999 0 0.25939332029667372 -0.24436000081709169 0 0.25030848383521492 -0.23940769787506169 0 0.24776568051229031 -0.24923037600136069 0 0.26976962169772689 -0.22714109202689209 0 0.25939332029667372 -0.24436000081709169 0 0.25617580749430352 -0.23088513540590999 0 0.26976962169772689 -0.22714109202689209 0 0.25617580749430352 -0.23088513540590999 0 0.25467791619651758 -0.21711267345668289 0 0.26976962169772689 -0.22714109202689209 0 0.25467791619651758 -0.21711267345668289 0 0.2692533466841372 -0.21680425343259949 0 0.25617580749430352 -0.23088513540590999 0 0.25467791619651758 -0.21711267345668289 0 0.24291625706960429 -0.2268715697819616 0 0.25467791619651758 -0.21711267345668289 0 0.25278334061465851 -0.20194747427335999 0 0.24291625706960429 -0.2268715697819616 0 0.25467791619651758 -0.21711267345668289 0 0.25901009012209991 -0.20874525050644949 0 0.25278334061465851 -0.20194747427335999 0 0.25901009012209991 -0.20874525050644949 0 0.2692533466841372 -0.21680425343259949 0 0.26622421151647252 -0.20694974184255591 0 0.25901009012209991 -0.20874525050644949 0 0.26622421151647252 -0.20694974184255591 0 0.26340684919625401 -0.19840870027953719 0 0.25467791619651758 -0.21711267345668289 0 0.25901009012209991 -0.20874525050644949 0 0.2692533466841372 -0.21680425343259949 0 0.26976962169772689 -0.22714109202689209 0 0.28014592309877939 -0.20992218323669209 0 0.28134674733669812 -0.21909402799836991 0 0.26976962169772689 -0.22714109202689209 0 0.28014592309877939 -0.20992218323669209 0 0.26976962169772689 -0.22714109202689209 0 0.2692533466841372 -0.21680425343259949 0 0.28014592309877939 -0.20992218323669209 0 0.2692533466841372 -0.21680425343259949 0 0.26622421151647252 -0.20694974184255591 0 0.27321959344383018 -0.207722978790323 0 0.27321959344383018 -0.207722978790323 0 0.27576002026965651 -0.2004745390798264 0 0.26981361910582191 -0.2013252183499015 0 0.26622421151647252 -0.20694974184255591 0 0.27321959344383018 -0.207722978790323 0 0.26981361910582191 -0.2013252183499015 0 0.27321959344383018 -0.207722978790323 0 0.27776007058547308 -0.20642598434618481 0 0.28014592309877939 -0.20992218323669209 0 0.28126866664371902 -0.20210174924430779 0 0.2795064879139243 -0.2075556822308588 0 0.28014592309877939 -0.20992218323669209 0 0.27321959344383018 -0.207722978790323 0 0.27776007058547308 -0.20642598434618481 0 0.27576002026965651 -0.2004745390798264 0 0.28126866664371902 -0.20210174924430779 0 0.27776007058547308 -0.20642598434618481 0 0.2795064879139243 -0.2075556822308588 0 0.27776007058547308 -0.20642598434618481 0 0.2795064879139243 -0.2075556822308588 0 0.28014592309877939 -0.20992218323669209 0 0.2692533466841372 -0.21680425343259949 0 0.27321959344383018 -0.207722978790323 0 0.28014592309877939 -0.20992218323669209 0 0.28532129942923351 -0.19265936285087301 0 0.27718877585937879 -0.19370101098951489 0 0.27467147834460098 -0.18384728388593699 0 0.28532129942923351 -0.19265936285087301 0 0.27718877585937879 -0.19370101098951489 0 0.27973366015050649 -0.198453737373673 0 0.27718877585937879 -0.19370101098951489 0 0.27045742110289639 -0.19307013175726501 0 0.27467147834460098 -0.18384728388593699 0 0.27718877585937879 -0.19370101098951489 0 0.27973366015050649 -0.198453737373673 0 0.27576002026965651 -0.2004745390798264 0 0.28126866664371902 -0.20210174924430779 0 0.27973366015050649 -0.198453737373673 0 0.27576002026965651 -0.2004745390798264 0 0.28126866664371902 -0.20210174924430779 0 0.27776007058547308 -0.20642598434618481 0 0.27576002026965651 -0.2004745390798264 0 0.27718877585937879 -0.19370101098951489 0 0.27576002026965651 -0.2004745390798264 0 0.27045742110289639 -0.19307013175726501 0 0.27576002026965651 -0.2004745390798264 0 0.26981361910582191 -0.2013252183499015 0 0.27045742110289639 -0.19307013175726501 0 0.26622421151647252 -0.20694974184255591 0 0.26981361910582191 -0.2013252183499015 0 0.26340684919625401 -0.19840870027953719 0 0.26981361910582191 -0.2013252183499015 0 0.27045742110289639 -0.19307013175726501 0 0.26340684919625401 -0.19840870027953719 0 0.27045742110289639 -0.19307013175726501 0 0.26340684919625401 -0.19840870027953719 0 0.26265042415971102 -0.17702337876475771 0 0.25278334061465851 -0.20194747427335999 0 0.26265042415971102 -0.17702337876475771 0 0.24805621810297609 -0.18437954832002859 0 0.26340684919625401 -0.19840870027953719 0 0.25278334061465851 -0.20194747427335999 0 0.26265042415971102 -0.17702337876475771 0 0.25278334061465851 -0.20194747427335999 0 0.26265042415971102 -0.17702337876475771 0 0.25901009012209991 -0.20874525050644949 0 0.26340684919625401 -0.19840870027953719 0 0.25278334061465851 -0.20194747427335999 0 0.26265042415971102 -0.17702337876475771 0 0.24805621810297609 -0.18437954832002859 0 0.26265042415971102 -0.17702337876475771 0 0.25119966764876139 -0.1752548124969612 0 0.25979971895159149 -0.16654872008791971 0 0.26265042415971102 -0.17702337876475771 0 0.25119966764876139 -0.1752548124969612 0 0.24805621810297609 -0.18437954832002859 0 0.25119966764876139 -0.1752548124969612 0 0.25574322924827592 -0.16230987960397239 0 0.25979971895159149 -0.16654872008791971 0 0.25119966764876139 -0.1752548124969612 0 0.25574322924827592 -0.16230987960397239 0 0.248320545236934 -0.1759279312505814 0 0.25574322924827592 -0.16230987960397239 0 0.24781927526331571 -0.1530389461542046 0 0.248320545236934 -0.1759279312505814 0 0.26265042415971102 -0.17702337876475771 0 0.25979971895159149 -0.16654872008791971 0 0.2689906512556654 -0.16100806634096121 0 0.26231127041965341 -0.16025216712309251 0 0.25979971895159149 -0.16654872008791971 0 0.2689906512556654 -0.16100806634096121 0 0.25574322924827592 -0.16230987960397239 0 0.26231127041965341 -0.16025216712309251 0 0.26158347517987812 -0.15609142633763451 0 0.25574322924827592 -0.16230987960397239 0 0.26231127041965341 -0.16025216712309251 0 0.25979971895159149 -0.16654872008791971 0 0.26231127041965341 -0.16025216712309251 0 0.26759111909193339 -0.15636101206613781 0 0.26158347517987812 -0.15609142633763451 0 0.28102746968110159 -0.1677604793473618 0 0.27757963004503378 -0.14776728854267401 0 0.26265042415971102 -0.17702337876475771 0 0.2689906512556654 -0.16100806634096121 0 0.2689906512556654 -0.16100806634096121 0 0.28102746968110159 -0.1677604793473618 0 0.27757963004503378 -0.14776728854267401 0 0.26265042415971102 -0.17702337876475771 0 0.2689906512556654 -0.16100806634096121 0 0.28102746968110159 -0.1677604793473618 0 0.26231127041965341 -0.16025216712309251 0 0.26759111909193339 -0.15636101206613781 0 0.2689906512556654 -0.16100806634096121 0 0.27045742110289639 -0.19307013175726501 0 0.26265042415971102 -0.17702337876475771 0 0.27467147834460098 -0.18384728388593699 0 0.26265042415971102 -0.17702337876475771 0 0.28102746968110159 -0.1677604793473618 0 0.28532129942923351 -0.19265936285087301 0 0.28102746968110159 -0.1677604793473618 0 0.27467147834460098 -0.18384728388593699 0 0.26265042415971102 -0.17702337876475771 0 0.28102746968110159 -0.1677604793473618 0 0.27467147834460098 -0.18384728388593699 0 0.27326967851770712 -0.1227749187284357 0 0.26170040444407838 -0.13997151129676219 0 0.24731800528969849 -0.13014996105782781 0 0.27326967851770712 -0.1227749187284357 0 0.24731800528969849 -0.13014996105782781 0 0.26759111909193339 -0.15636101206613781 0 0.26170040444407838 -0.13997151129676219 0 0.25863357107939938 -0.1503271633619481 0 0.26170040444407838 -0.13997151129676219 0 0.24731800528969849 -0.13014996105782781 0 0.24781927526331571 -0.1530389461542046 0 0.26170040444407838 -0.13997151129676219 0 0.25863357107939938 -0.1503271633619481 0 0.24781927526331571 -0.1530389461542046 0 0.25574322924827592 -0.16230987960397239 0 0.25863357107939938 -0.1503271633619481 0 0.24781927526331571 -0.1530389461542046 0 0.26759111909193339 -0.15636101206613781 0 0.26158347517987812 -0.15609142633763451 0 0.25863357107939938 -0.1503271633619481 0 0.25574322924827592 -0.16230987960397239 0 0.26158347517987812 -0.15609142633763451 0 0.25863357107939938 -0.1503271633619481 0 0.2689906512556654 -0.16100806634096121 0 0.27757963004503378 -0.14776728854267401 0 0.27533087835161812 -0.1449927539171641 0 0.26759111909193339 -0.15636101206613781 0 0.2689906512556654 -0.16100806634096121 0 0.27533087835161812 -0.1449927539171641 0 0.26759111909193339 -0.15636101206613781 0 0.26170040444407838 -0.13997151129676219 0 0.27413179040896601 -0.12777409773798609 0 0.26759111909193339 -0.15636101206613781 0 0.27413179040896601 -0.12777409773798609 0 0.26759111909193339 -0.15636101206613781 0 0.27533087835161812 -0.1449927539171641 0 0.27413179040896601 -0.12777409773798609 0 0.2689906512556654 -0.16100806634096121 0 0.27533087835161812 -0.1449927539171641 0 0.27757963004503378 -0.14776728854267401 0 0.27413179040896601 -0.12777409773798609 0 0.27326967851770712 -0.1227749187284357 0 0.26170040444407838 -0.13997151129676219 0 0.27413179040896601 -0.12777409773798609 0 0.27757963004503378 -0.14776728854267401 0 0.27533087835161812 -0.1449927539171641 0 0.27413179040896601 -0.12777409773798609 0 0.27757963004503378 -0.14776728854267401 0 0.27413179040896601 -0.12777409773798609 0 0.28385755817956732 -0.12984747963712301 0 0.27997429695510639 -0.120869575502825 0 0.27413179040896601 -0.12777409773798609 0 0.28385755817956732 -0.12984747963712301 0 0.27326967851770712 -0.1227749187284357 0 0.27413179040896601 -0.12777409773798609 0 0.27757963004503378 -0.14776728854267401 0 0.28385755817956732 -0.12984747963712301 0 0.29043400365675398 -0.13723974613399059 0 0.29457204761859301 -0.1232204251084308 0 0.28385755817956732 -0.12984747963712301 0 0.29043400365675398 -0.13723974613399059 0 0.28647517305870801 -0.1220407316238525 0 0.29457204761859301 -0.1232204251084308 0 0.28385755817956732 -0.12984747963712301 0 0.29457204761859301 -0.1232204251084308 0 0.29043400365675398 -0.13723974613399059 0 0.30375229786798957 -0.1385810079235478 0 0.27757963004503378 -0.14776728854267401 0 0.29043400365675398 -0.13723974613399059 0 0.29583346425879847 -0.14725044945996699 0 0.27757963004503378 -0.14776728854267401 0 0.29583346425879847 -0.14725044945996699 0 0.29614295313510552 -0.16014156134899471 0 0.29043400365675398 -0.13723974613399059 0 0.29583346425879847 -0.14725044945996699 0 0.30375229786798957 -0.1385810079235478 0 0.29583346425879847 -0.14725044945996699 0 0.31125843658910951 -0.15252264335062779 0 0.29614295313510552 -0.16014156134899471 0 0.31125843658910951 -0.15252264335062779 0 0.30375229786798957 -0.1385810079235478 0 0.3185475336196959 -0.13748707747672889 0 0.29583346425879847 -0.14725044945996699 0 0.31125843658910951 -0.15252264335062779 0 0.30375229786798957 -0.1385810079235478 0 0.30749908554953959 -0.12495188813189979 0 0.30375229786798957 -0.1385810079235478 0 0.3185475336196959 -0.13748707747672889 0 0.30749908554953959 -0.12495188813189979 0 0.29457204761859301 -0.1232204251084308 0 0.30375229786798957 -0.1385810079235478 0 0.28532129942923351 -0.19265936285087301 0 0.28102746968110159 -0.1677604793473618 0 0.28532129942923351 -0.19265936285087301 0 0.28102746968110159 -0.1677604793473618 0 0.29391286224434149 -0.1870766952053223 0 0.28102746968110159 -0.1677604793473618 0 0.29391286224434149 -0.1870766952053223 0 0.29830949889462788 -0.17691905565277369 0 0.28102746968110159 -0.1677604793473618 0 0.27757963004503378 -0.14776728854267401 0 0.29614295313510552 -0.16014156134899471 0 0.28102746968110159 -0.1677604793473618 0 0.29614295313510552 -0.16014156134899471 0 0.29830949889462788 -0.17691905565277369 0 0.28102746968110159 -0.1677604793473618 0 0.29614295313510552 -0.16014156134899471 0 0.29614295313510552 -0.16014156134899471 0 0.31230855313504507 -0.17322662894761981 0 0.29830949889462788 -0.17691905565277369 0 0.31125843658910951 -0.15252264335062779 0 0.29614295313510552 -0.16014156134899471 0 0.31230855313504507 -0.17322662894761981 0 0.31125843658910951 -0.15252264335062779 0 0.29614295313510552 -0.16014156134899471 0 0.31230855313504507 -0.17322662894761981 0 0.29830949889462788 -0.17691905565277369 0 0.30671776482949431 -0.18437233232455141 0 0.29830949889462788 -0.17691905565277369 0 0.30044204206130443 -0.18701511984948199 0 0.30671776482949431 -0.18437233232455141 0 0.29391286224434149 -0.1870766952053223 0 0.29830949889462788 -0.17691905565277369 0 0.30044204206130443 -0.18701511984948199 0 0.31026862637644298 -0.190515795189627 0 0.30671776482949431 -0.18437233232455141 0 0.31461844448363291 -0.1826726420340844 0 0.31230855313504507 -0.17322662894761981 0 0.30671776482949431 -0.18437233232455141 0 0.31461844448363291 -0.1826726420340844 0 0.32578178131658958 -0.17323268326262439 0 0.32855392000847078 -0.18537600058072809 0 0.31801549676059232 -0.19201577044599941 0 0.32578178131658958 -0.17323268326262439 0 0.31801549676059232 -0.19201577044599941 0 0.31461844448363291 -0.1826726420340844 0 0.32578178131658958 -0.17323268326262439 0 0.31801549676059232 -0.19201577044599941 0 0.31230855313504507 -0.17322662894761981 0 0.31461844448363291 -0.1826726420340844 0 0.32578178131658958 -0.17323268326262439 0 0.31230855313504507 -0.17322662894761981 0 0.32578178131658958 -0.17323268326262439 0 0.31966012563628959 -0.16281650312647711 0 0.31125843658910951 -0.15252264335062779 0 0.31966012563628959 -0.16281650312647711 0 0.3335480658725869 -0.15444959607924941 0 0.31125843658910951 -0.15252264335062779 0 0.31230855313504507 -0.17322662894761981 0 0.31966012563628959 -0.16281650312647711 0 0.32578178131658958 -0.17323268326262439 0 0.31966012563628959 -0.16281650312647711 0 0.3335480658725869 -0.15444959607924941 0 0.32578178131658958 -0.17323268326262439 0 0.3335480658725869 -0.15444959607924941 0 0.34459229294341842 -0.17287362132200551 0 0.32578178131658958 -0.17323268326262439 0 0.3335480658725869 -0.15444959607924941 0 0.32855392000847078 -0.18537600058072809 0 0.34459229294341842 -0.17287362132200551 0 0.33985826563996069 -0.192198447378464 0 0.34459229294341842 -0.17287362132200551 0 0.33985826563996069 -0.192198447378464 0 0.32578178131658958 -0.17323268326262439 0 0.32855392000847078 -0.18537600058072809 0 0.34459229294341842 -0.17287362132200551 0 0.32295426475367373 -0.1192169876071037 0 0.30749908554953959 -0.12495188813189979 0 0.3185475336196959 -0.13748707747672889 0 0.32295426475367373 -0.1192169876071037 0 0.3185475336196959 -0.13748707747672889 0 0.33372425158197999 -0.13015404646039089 0 0.31125843658910951 -0.15252264335062779 0 0.3185475336196959 -0.13748707747672889 0 0.3335480658725869 -0.15444959607924941 0 0.3185475336196959 -0.13748707747672889 0 0.3335480658725869 -0.15444959607924941 0 0.33372425158197999 -0.13015404646039089 0 0.3335480658725869 -0.15444959607924941 0 0.33372425158197999 -0.13015404646039089 0 0.34485483813876511 -0.14131463458884011 0 0.33372425158197999 -0.13015404646039089 0 0.35619312918579982 -0.13037751588517149 0 0.34485483813876511 -0.14131463458884011 0 0.35619312918579982 -0.13037751588517149 0 0.35416752674416152 -0.1519142777420189 0 0.34485483813876511 -0.14131463458884011 0 0.3335480658725869 -0.15444959607924941 0 0.35416752674416152 -0.1519142777420189 0 0.34485483813876511 -0.14131463458884011 0 0.35416752674416152 -0.1519142777420189 0 0.37136664786280071 -0.14777391050371161 0 0.36576893267089239 -0.1661568765046883 0 0.35619312918579982 -0.13037751588517149 0 0.35416752674416152 -0.1519142777420189 0 0.37136664786280071 -0.14777391050371161 0 0.37545617426122468 -0.11639501623019111 0 0.35619312918579982 -0.13037751588517149 0 0.37912715907358119 -0.13342409111479819 0 0.35619312918579982 -0.13037751588517149 0 0.37136664786280071 -0.14777391050371161 0 0.37912715907358119 -0.13342409111479819 0 0.34459229294341842 -0.17287362132200551 0 0.35595813432183948 -0.17981835365875171 0 0.36576893267089239 -0.1661568765046883 0 0.34459229294341842 -0.17287362132200551 0 0.35595813432183948 -0.17981835365875171 0 0.33985826563996069 -0.192198447378464 0 0.35416752674416152 -0.1519142777420189 0 0.34459229294341842 -0.17287362132200551 0 0.36576893267089239 -0.1661568765046883 0 0.3335480658725869 -0.15444959607924941 0 0.35416752674416152 -0.1519142777420189 0 0.34459229294341842 -0.17287362132200551 0 0.37136664786280071 -0.14777391050371161 0 0.36576893267089239 -0.1661568765046883 0 0.3824806996716838 -0.1589975613662 0 0.36576893267089239 -0.1661568765046883 0 0.36858089481314238 -0.17826693704583871 0 0.38416720612470168 -0.17659637808774559 0 0.35595813432183948 -0.17981835365875171 0 0.36576893267089239 -0.1661568765046883 0 0.36858089481314238 -0.17826693704583871 0 0.35595813432183948 -0.17981835365875171 0 0.36858089481314238 -0.17826693704583871 0 0.36104693960392759 -0.19198769559920831 0 0.36858089481314238 -0.17826693704583871 0 0.3735451182147364 -0.189044211434232 0 0.36104693960392759 -0.19198769559920831 0 0.37190590819172459 -0.20164946296730399 0 0.36104693960392759 -0.19198769559920831 0 0.35646164347323422 -0.2121446658888827 0 0.3735451182147364 -0.189044211434232 0 0.37190590819172459 -0.20164946296730399 0 0.36104693960392759 -0.19198769559920831 0 0.37190590819172459 -0.20164946296730399 0 0.35646164347323422 -0.2121446658888827 0 0.377799048609963 -0.2127660583428419 0 0.35646164347323422 -0.2121446658888827 0 0.377799048609963 -0.2127660583428419 0 0.35646164347323422 -0.2121446658888827 0 0.36743119419532699 -0.21955746256204919 0 0.377799048609963 -0.2127660583428419 0 0.35646164347323422 -0.2121446658888827 0 0.33512423833650529 -0.211523273434923 0 0.35646164347323422 -0.2121446658888827 0 0.33512423833650529 -0.211523273434923 0 0.34570732405486182 -0.22810861486185471 0 0.35646164347323422 -0.2121446658888827 0 0.33985826563996069 -0.192198447378464 0 0.33512423833650529 -0.211523273434923 0 0.35595813432183948 -0.17981835365875171 0 0.36104693960392759 -0.19198769559920831 0 0.33985826563996069 -0.192198447378464 0 0.36104693960392759 -0.19198769559920831 0 0.35646164347323422 -0.2121446658888827 0 0.33985826563996069 -0.192198447378464 0 0.33985826563996069 -0.192198447378464 0 0.32706077984058729 -0.2048879677534409 0 0.3225584151716499 -0.19629382225754879 0 0.33985826563996069 -0.192198447378464 0 0.33512423833650529 -0.211523273434923 0 0.32855392000847078 -0.18537600058072809 0 0.33985826563996069 -0.192198447378464 0 0.3225584151716499 -0.19629382225754879 0 0.33985826563996069 -0.192198447378464 0 0.33512423833650529 -0.211523273434923 0 0.32706077984058729 -0.2048879677534409 0 0.33512423833650529 -0.211523273434923 0 0.31691611284506432 -0.2109930125288465 0 0.32706077984058729 -0.2048879677534409 0 0.31691611284506432 -0.2109930125288465 0 0.3225584151716499 -0.19629382225754879 0 0.33512423833650529 -0.211523273434923 0 0.31691611284506432 -0.2109930125288465 0 0.32068237760444668 -0.22418293697221309 0 0.33512423833650529 -0.211523273434923 0 0.32706077984058729 -0.2048879677534409 0 0.31691611284506432 -0.2109930125288465 0 0.31691611284506432 -0.2109930125288465 0 0.3225584151716499 -0.19629382225754879 0 0.3102492122045955 -0.2107988576293747 0 0.31691611284506432 -0.2109930125288465 0 0.3225584151716499 -0.19629382225754879 0 0.3102492122045955 -0.2107988576293747 0 0.31691611284506432 -0.2109930125288465 0 0.30930183189833638 -0.2020919573288513 0 0.3102492122045955 -0.2107988576293747 0 0.31801549676059232 -0.19201577044599941 0 0.3102492122045955 -0.2107988576293747 0 0.31801549676059232 -0.19201577044599941 0 0.3102492122045955 -0.2107988576293747 0 0.31801549676059232 -0.19201577044599941 0 0.3225584151716499 -0.19629382225754879 0 0.31026862637644298 -0.190515795189627 0 0.31461844448363291 -0.1826726420340844 0 0.31801549676059232 -0.19201577044599941 0 0.32855392000847078 -0.18537600058072809 0 0.31801549676059232 -0.19201577044599941 0 0.3225584151716499 -0.19629382225754879 0 0.31921722899222249 -0.23680048966188971 0 0.33029268966843078 -0.2312461925498204 0 0.32546114100035839 -0.25096911166471841 0 0.33029268966843078 -0.2312461925498204 0 0.32546114100035839 -0.25096911166471841 0 0.31333578311129251 -0.24688137415892061 0 0.31921722899222249 -0.23680048966188971 0 0.32546114100035839 -0.25096911166471841 0 0.30874461521323482 -0.2322812015586608 0 0.31333578311129251 -0.24688137415892061 0 0.31921722899222249 -0.23680048966188971 0 0.30874461521323482 -0.2322812015586608 0 0.31691611284506432 -0.2109930125288465 0 0.30874461521323482 -0.2322812015586608 0 0.31921722899222249 -0.23680048966188971 0 0.32068237760444668 -0.22418293697221309 0 0.30874461521323482 -0.2322812015586608 0 0.31691611284506432 -0.2109930125288465 0 0.32068237760444668 -0.22418293697221309 0 0.31921722899222249 -0.23680048966188971 0 0.32068237760444668 -0.22418293697221309 0 0.33029268966843078 -0.2312461925498204 0 0.33512423833650529 -0.211523273434923 0 0.33029268966843078 -0.2312461925498204 0 0.33512423833650529 -0.211523273434923 0 0.32068237760444668 -0.22418293697221309 0 0.33029268966843078 -0.2312461925498204 0 0.33512423833650529 -0.211523273434923 0 0.33029268966843078 -0.2312461925498204 0 0.34570732405486182 -0.22810861486185471 0 0.33029268966843078 -0.2312461925498204 0 0.33682175483416033 -0.23998261405678609 0 0.34570732405486182 -0.22810861486185471 0 0.33682175483416033 -0.23998261405678609 0 0.34712301418411479 -0.2410108060238404 0 0.34570732405486182 -0.22810861486185471 0 0.33029268966843078 -0.2312461925498204 0 0.33682175483416033 -0.23998261405678609 0 0.32546114100035839 -0.25096911166471841 0 0.33682175483416033 -0.23998261405678609 0 0.34712301418411479 -0.2410108060238404 0 0.34482713688762151 -0.25159308428585442 0 0.34712301418411479 -0.2410108060238404 0 0.35665773293659808 -0.24317336464634051 0 0.34482713688762151 -0.25159308428585442 0 0.35665773293659808 -0.24317336464634051 0 0.34482713688762151 -0.25159308428585442 0 0.36245329046492442 -0.25050681027277272 0 0.34712301418411479 -0.2410108060238404 0 0.34570732405486182 -0.22810861486185471 0 0.35414132083621841 -0.23427577341388631 0 0.35665773293659808 -0.24317336464634051 0 0.35414132083621841 -0.23427577341388631 0 0.36351835898187668 -0.2350413187377762 0 0.34712301418411479 -0.2410108060238404 0 0.35665773293659808 -0.24317336464634051 0 0.35414132083621841 -0.23427577341388631 0 0.35646164347323422 -0.2121446658888827 0 0.34570732405486182 -0.22810861486185471 0 0.36016539355396437 -0.22601950549096389 0 0.34570732405486182 -0.22810861486185471 0 0.35414132083621841 -0.23427577341388631 0 0.36016539355396437 -0.22601950549096389 0 0.35414132083621841 -0.23427577341388631 0 0.36016539355396437 -0.22601950549096389 0 0.36351835898187668 -0.2350413187377762 0 0.35646164347323422 -0.2121446658888827 0 0.36016539355396437 -0.22601950549096389 0 0.36743119419532699 -0.21955746256204919 0 0.36016539355396437 -0.22601950549096389 0 0.36351835898187668 -0.2350413187377762 0 0.37529869114414671 -0.22729962052550839 0 0.36016539355396437 -0.22601950549096389 0 0.36743119419532699 -0.21955746256204919 0 0.37529869114414671 -0.22729962052550839 0 0.36743119419532699 -0.21955746256204919 0 0.37529869114414671 -0.22729962052550839 0 0.377799048609963 -0.2127660583428419 0 0.36806206276742942 -0.2460549219700342 0 0.38117830442241901 -0.23564407987296601 0 0.37529869114414671 -0.22729962052550839 0 0.36351835898187668 -0.2350413187377762 0 0.36806206276742942 -0.2460549219700342 0 0.37529869114414671 -0.22729962052550839 0 0.36806206276742942 -0.2460549219700342 0 0.37529869114414671 -0.22729962052550839 0 0.35665773293659808 -0.24317336464634051 0 0.36806206276742942 -0.2460549219700342 0 0.36245329046492442 -0.25050681027277272 0 0.36806206276742942 -0.2460549219700342 0 0.36245329046492442 -0.25050681027277272 0 0.36806206276742942 -0.2460549219700342 0 0.36643910530968188 -0.25026117034527051 0 0.36245329046492442 -0.25050681027277272 0 0.35665773293659808 -0.24317336464634051 0 0.36351835898187668 -0.2350413187377762 0 0.36806206276742942 -0.2460549219700342 0 0.36806206276742942 -0.2460549219700342 0 0.38117830442241901 -0.23564407987296601 0 0.37565887922929531 -0.24969296919058201 0 0.36643910530968188 -0.25026117034527051 0 0.36806206276742942 -0.2460549219700342 0 0.37565887922929531 -0.24969296919058201 0 0.36643910530968188 -0.25026117034527051 0 0.36806206276742942 -0.2460549219700342 0 0.37565887922929531 -0.24969296919058201 0 0.38048793206166442 -0.24653568462557271 0 0.36806206276742942 -0.2460549219700342 0 0.36643910530968188 -0.25026117034527051 0 0.37565887922929531 -0.24969296919058201 0 0.38030595847274717 -0.2494065765073018 0 0.37565887922929531 -0.24969296919058201 0 0.38048793206166442 -0.24653568462557271 0 0.38030595847274717 -0.2494065765073018 0 0.38048793206166442 -0.24653568462557271 0 0.39760586616526727 -0.24834040854997039 0 0.38030595847274717 -0.2494065765073018 0 0.39760586616526727 -0.24834040854997039 0 0.36806206276742942 -0.2460549219700342 0 0.38048793206166442 -0.24653568462557271 0 0.38117830442241901 -0.23564407987296601 0 0.37565887922929531 -0.24969296919058201 0 0.38030595847274717 -0.2494065765073018 0 0.38048793206166442 -0.24653568462557271 0 0.38030595847274717 -0.2494065765073018 0 0.38048793206166442 -0.24653568462557271 0 0.38048793206166442 -0.24653568462557271 0 0.38117830442241901 -0.23564407987296601 0 0.38048793206166442 -0.24653568462557271 0 0.39401992632099292 -0.23768832716400709 0 0.38048793206166442 -0.24653568462557271 0 0.38117830442241901 -0.23564407987296601 0 0.39401992632099292 -0.23768832716400709 0 0.39760586616526727 -0.24834040854997039 0 0.39401992632099292 -0.23768832716400709 0 0.40755192058032058 -0.22884096970244019 0 0.38048793206166442 -0.24653568462557271 0 0.39760586616526727 -0.24834040854997039 0 0.39401992632099292 -0.23768832716400709 0 0.39495889513569771 -0.22470591956042529 0 0.40873948584898062 -0.21376775924788999 0 0.40755192058032058 -0.22884096970244019 0 0.39495889513569771 -0.22470591956042529 0 0.40873948584898062 -0.21376775924788999 0 0.39401992632099292 -0.23768832716400709 0 0.39495889513569771 -0.22470591956042529 0 0.40755192058032058 -0.22884096970244019 0 0.39401992632099292 -0.23768832716400709 0 0.40755192058032058 -0.22884096970244019 0 0.38117830442241901 -0.23564407987296601 0 0.37529869114414671 -0.22729962052550839 0 0.3824299811446934 -0.21589710141335919 0 0.38117830442241901 -0.23564407987296601 0 0.39495889513569771 -0.22470591956042529 0 0.3824299811446934 -0.21589710141335919 0 0.38117830442241901 -0.23564407987296601 0 0.3824299811446934 -0.21589710141335919 0 0.38117830442241901 -0.23564407987296601 0 0.39495889513569771 -0.22470591956042529 0 0.38117830442241901 -0.23564407987296601 0 0.39401992632099292 -0.23768832716400709 0 0.39495889513569771 -0.22470591956042529 0 0.37529869114414671 -0.22729962052550839 0 0.3824299811446934 -0.21589710141335919 0 0.3828945991529546 -0.2085670922841428 0 0.37529869114414671 -0.22729962052550839 0 0.3828945991529546 -0.2085670922841428 0 0.37529869114414671 -0.22729962052550839 0 0.377799048609963 -0.2127660583428419 0 0.3828945991529546 -0.2085670922841428 0 0.3824299811446934 -0.21589710141335919 0 0.3828945991529546 -0.2085670922841428 0 0.37190590819172459 -0.20164946296730399 0 0.377799048609963 -0.2127660583428419 0 0.3828945991529546 -0.2085670922841428 0 0.3824299811446934 -0.21589710141335919 0 0.3828945991529546 -0.2085670922841428 0 0.38997370773903639 -0.2029722758938706 0 0.3824299811446934 -0.21589710141335919 0 0.38924036701193881 -0.21260085306301801 0 0.38997370773903639 -0.2029722758938706 0 0.39495889513569771 -0.22470591956042529 0 0.3824299811446934 -0.21589710141335919 0 0.38924036701193881 -0.21260085306301801 0 0.37190590819172459 -0.20164946296730399 0 0.3828945991529546 -0.2085670922841428 0 0.38368165786696518 -0.19615012295375209 0 0.3735451182147364 -0.189044211434232 0 0.37190590819172459 -0.20164946296730399 0 0.38368165786696518 -0.19615012295375209 0 0.3828945991529546 -0.2085670922841428 0 0.38368165786696518 -0.19615012295375209 0 0.3828945991529546 -0.2085670922841428 0 0.38368165786696518 -0.19615012295375209 0 0.38997370773903639 -0.2029722758938706 0 0.38368165786696518 -0.19615012295375209 0 0.38997370773903639 -0.2029722758938706 0 0.39525772724547281 -0.18957075498895981 0 0.39525772724547281 -0.18957075498895981 0 0.39936906423506729 -0.2016587932041585 0 0.41187446510015102 -0.1923056598008317 0 0.38997370773903639 -0.2029722758938706 0 0.39525772724547281 -0.18957075498895981 0 0.39936906423506729 -0.2016587932041585 0 0.38924036701193881 -0.21260085306301801 0 0.39936906423506729 -0.2016587932041585 0 0.40873948584898062 -0.21376775924788999 0 0.38924036701193881 -0.21260085306301801 0 0.40873948584898062 -0.21376775924788999 0 0.39495889513569771 -0.22470591956042529 0 0.38924036701193881 -0.21260085306301801 0 0.40873948584898062 -0.21376775924788999 0 0.38924036701193881 -0.21260085306301801 0 0.38997370773903639 -0.2029722758938706 0 0.39936906423506729 -0.2016587932041585 0 0.40873948584898062 -0.21376775924788999 0 0.42877266821570831 -0.2149666259557651 0 0.40873948584898062 -0.21376775924788999 0 0.43068090942050108 -0.19635204656153701 0 0.40873948584898062 -0.21376775924788999 0 0.41187446510015102 -0.1923056598008317 0 0.43068090942050108 -0.19635204656153701 0 0.39936906423506729 -0.2016587932041585 0 0.40873948584898062 -0.21376775924788999 0 0.41187446510015102 -0.1923056598008317 0 0.41187446510015102 -0.1923056598008317 0 0.43068090942050108 -0.19635204656153701 0 0.42952152037213731 -0.17688103154124751 0 0.40873948584898062 -0.21376775924788999 0 0.43068090942050108 -0.19635204656153701 0 0.42877266821570831 -0.2149666259557651 0 0.43068090942050108 -0.19635204656153701 0 0.42877266821570831 -0.2149666259557651 0 0.44637143083649022 -0.20346037338105591 0 0.42877266821570831 -0.2149666259557651 0 0.42891357956743242 -0.23122001486412169 0 0.44515058495131948 -0.23196309169660581 0 0.42891357956743242 -0.23122001486412169 0 0.42400063179892361 -0.24671373782663741 0 0.44515058495131948 -0.23196309169660581 0 0.42400063179892361 -0.24671373782663741 0 0.44515058495131948 -0.23196309169660581 0 0.43532460426376501 -0.2460158579993926 0 0.42400063179892361 -0.24671373782663741 0 0.44515058495131948 -0.23196309169660581 0 0.43532460426376501 -0.2460158579993926 0 0.42400063179892361 -0.24671373782663741 0 0.43532460426376501 -0.2460158579993926 0 0.42400063179892361 -0.24671373782663741 0 0.42595494182858418 -0.25217004518264619 0 0.42891357956743242 -0.23122001486412169 0 0.42400063179892361 -0.24671373782663741 0 0.41882635721603828 -0.2375470934309665 0 0.41882635721603828 -0.2375470934309665 0 0.41490577385778732 -0.24727424059263731 0 0.40755192058032058 -0.22884096970244019 0 0.41490577385778732 -0.24727424059263731 0 0.40755192058032058 -0.22884096970244019 0 0.39760586616526727 -0.24834040854997039 0 0.41490577385778732 -0.24727424059263731 0 0.40755192058032058 -0.22884096970244019 0 0.39760586616526727 -0.24834040854997039 0 0.41490577385778732 -0.24727424059263731 0 0.41671053559038562 -0.25179808144911892 0 0.39760586616526727 -0.24834040854997039 0 0.41490577385778732 -0.24727424059263731 0 0.42400063179892361 -0.24671373782663741 0 0.41882635721603828 -0.2375470934309665 0 0.41490577385778732 -0.24727424059263731 0 0.42400063179892361 -0.24671373782663741 0 0.41490577385778732 -0.24727424059263731 0 0.41671053559038562 -0.25179808144911892 0 0.42400063179892361 -0.24671373782663741 0 0.41490577385778732 -0.24727424059263731 0 0.42400063179892361 -0.24671373782663741 0 0.41671053559038562 -0.25179808144911892 0 0.41490577385778732 -0.24727424059263731 0 0.41671053559038562 -0.25179808144911892 0 0.42891357956743242 -0.23122001486412169 0 0.41882635721603828 -0.2375470934309665 0 0.40755192058032058 -0.22884096970244019 0 0.40873948584898062 -0.21376775924788999 0 0.42877266821570831 -0.2149666259557651 0 0.40755192058032058 -0.22884096970244019 0 0.42877266821570831 -0.2149666259557651 0 0.40755192058032058 -0.22884096970244019 0 0.42877266821570831 -0.2149666259557651 0 0.42891357956743242 -0.23122001486412169 0 0.40755192058032058 -0.22884096970244019 0 0.39955069546741029 -0.12273464763203509 0 0.39288839916052848 -0.14382644284225879 0 0.41140774967625893 -0.1335373277198669 0 0.39955069546741029 -0.12273464763203509 0 0.37912715907358119 -0.13342409111479819 0 0.39288839916052848 -0.14382644284225879 0 0.37136664786280071 -0.14777391050371161 0 0.37912715907358119 -0.13342409111479819 0 0.39288839916052848 -0.14382644284225879 0 0.37136664786280071 -0.14777391050371161 0 0.39288839916052848 -0.14382644284225879 0 0.3824806996716838 -0.1589975613662 0 0.39288839916052848 -0.14382644284225879 0 0.39750337883098691 -0.16186659492726721 0 0.3824806996716838 -0.1589975613662 0 0.39288839916052848 -0.14382644284225879 0 0.40878246354097758 -0.14845096663193241 0 0.41140774967625893 -0.1335373277198669 0 0.39288839916052848 -0.14382644284225879 0 0.39750337883098691 -0.16186659492726721 0 0.40878246354097758 -0.14845096663193241 0 0.39750337883098691 -0.16186659492726721 0 0.38416720612470168 -0.17659637808774559 0 0.40767808347875051 -0.1756035732612016 0 0.39750337883098691 -0.16186659492726721 0 0.3824806996716838 -0.1589975613662 0 0.38416720612470168 -0.17659637808774559 0 0.36576893267089239 -0.1661568765046883 0 0.3824806996716838 -0.1589975613662 0 0.38416720612470168 -0.17659637808774559 0 0.3735451182147364 -0.189044211434232 0 0.38368165786696518 -0.19615012295375209 0 0.38416720612470168 -0.17659637808774559 0 0.38368165786696518 -0.19615012295375209 0 0.39525772724547281 -0.18957075498895981 0 0.38416720612470168 -0.17659637808774559 0 0.36858089481314238 -0.17826693704583871 0 0.3735451182147364 -0.189044211434232 0 0.38416720612470168 -0.17659637808774559 0 0.39525772724547281 -0.18957075498895981 0 0.38416720612470168 -0.17659637808774559 0 0.40767808347875051 -0.1756035732612016 0 0.39525772724547281 -0.18957075498895981 0 0.41187446510015102 -0.1923056598008317 0 0.40767808347875051 -0.1756035732612016 0 0.41187446510015102 -0.1923056598008317 0 0.40767808347875051 -0.1756035732612016 0 0.42952152037213731 -0.17688103154124751 0 0.42952152037213731 -0.17688103154124751 0 0.42104342911891202 -0.16037602718640209 0 0.44204591480988192 -0.1594916400991081 0 0.40767808347875051 -0.1756035732612016 0 0.42952152037213731 -0.17688103154124751 0 0.42104342911891202 -0.16037602718640209 0 0.39750337883098691 -0.16186659492726721 0 0.42104342911891202 -0.16037602718640209 0 0.40878246354097758 -0.14845096663193241 0 0.39750337883098691 -0.16186659492726721 0 0.40767808347875051 -0.1756035732612016 0 0.42104342911891202 -0.16037602718640209 0 0.40878246354097758 -0.14845096663193241 0 0.43146949662774142 -0.14004694632302761 0 0.41140774967625893 -0.1335373277198669 0 0.42104342911891202 -0.16037602718640209 0 0.40878246354097758 -0.14845096663193241 0 0.43146949662774142 -0.14004694632302761 0 0.43146949662774142 -0.14004694632302761 0 0.44204591480988192 -0.1594916400991081 0 0.42104342911891202 -0.16037602718640209 0 0.43146949662774142 -0.14004694632302761 0 0.44204591480988192 -0.1594916400991081 0 0.42089307844560148 -0.12060225254694661 0 0.43146949662774142 -0.14004694632302761 0 0.44642969907491792 -0.1180507959277181 0 0.42089307844560148 -0.12060225254694661 0 0.43146949662774142 -0.14004694632302761 0 0.42089307844560148 -0.12060225254694661 0 0.39955069546741029 -0.12273464763203509 0 0.41140774967625893 -0.1335373277198669 0 0.42089307844560148 -0.12060225254694661 0 0.43146949662774142 -0.14004694632302761 0 0.41140774967625893 -0.1335373277198669 0 0.44642969907491792 -0.1180507959277181 0 0.46596028617107638 -0.12785668648755219 0 0.45350258321349701 -0.13284198681206569 0 0.46596028617107638 -0.12785668648755219 0 0.45350258321349701 -0.13284198681206569 0 0.46351213915297151 -0.14148571710021701 0 0.45350258321349701 -0.13284198681206569 0 0.44965493017357272 -0.14583951708673709 0 0.46351213915297151 -0.14148571710021701 0 0.44642969907491792 -0.1180507959277181 0 0.43146949662774142 -0.14004694632302761 0 0.45350258321349701 -0.13284198681206569 0 0.43146949662774142 -0.14004694632302761 0 0.45350258321349701 -0.13284198681206569 0 0.44965493017357272 -0.14583951708673709 0 0.43146949662774142 -0.14004694632302761 0 0.44965493017357272 -0.14583951708673709 0 0.44204591480988192 -0.1594916400991081 0 0.44965493017357272 -0.14583951708673709 0 0.4573066484270874 -0.15633804004158169 0 0.44204591480988192 -0.1594916400991081 0 0.44965493017357272 -0.14583951708673709 0 0.46351213915297151 -0.14148571710021701 0 0.4573066484270874 -0.15633804004158169 0 0.46351213915297151 -0.14148571710021701 0 0.4573066484270874 -0.15633804004158169 0 0.47183430817398397 -0.1515347361313053 0 0.4573066484270874 -0.15633804004158169 0 0.45262233299202431 -0.17893633387518759 0 0.46908477201932058 -0.16586949218730279 0 0.4573066484270874 -0.15633804004158169 0 0.46908477201932058 -0.16586949218730279 0 0.47183430817398397 -0.1515347361313053 0 0.44204591480988192 -0.1594916400991081 0 0.45262233299202431 -0.17893633387518759 0 0.42952152037213731 -0.17688103154124751 0 0.44204591480988192 -0.1594916400991081 0 0.45262233299202431 -0.17893633387518759 0 0.4573066484270874 -0.15633804004158169 0 0.44204591480988192 -0.1594916400991081 0 0.45262233299202431 -0.17893633387518759 0 0.43068090942050108 -0.19635204656153701 0 0.42952152037213731 -0.17688103154124751 0 0.45262233299202431 -0.17893633387518759 0 0.45262233299202431 -0.17893633387518759 0 0.45836975361842291 -0.1895029389543452 0 0.45262233299202431 -0.17893633387518759 0 0.4685152510605094 -0.17675744364837931 0 0.46908477201932058 -0.16586949218730279 0 0.45262233299202431 -0.17893633387518759 0 0.46908477201932058 -0.16586949218730279 0 0.45262233299202431 -0.17893633387518759 0 0.4685152510605094 -0.17675744364837931 0 0.46500929744125707 -0.18351974110318009 0 0.45262233299202431 -0.17893633387518759 0 0.46500929744125707 -0.18351974110318009 0 0.45836975361842291 -0.1895029389543452 0 0.46500929744125707 -0.18351974110318009 0 0.4815689560780555 -0.18044786823163991 0 0.46397019345727281 -0.19195412080634791 0 0.4685152510605094 -0.17675744364837931 0 0.46500929744125707 -0.18351974110318009 0 0.4815689560780555 -0.18044786823163991 0 0.4815689560780555 -0.18044786823163991 0 0.46397019345727281 -0.19195412080634791 0 0.4685152510605094 -0.17675744364837931 0 0.4815689560780555 -0.18044786823163991 0 0.47882200753793841 -0.17029812350924739 0 0.4815689560780555 -0.18044786823163991 0 0.48939384748518983 -0.17561316297949739 0 0.47882200753793841 -0.17029812350924739 0 0.48939384748518983 -0.17561316297949739 0 0.5 -0.16752015849360449 0 0.50000000000001266 -0.19370937519930309 0 0.4815689560780555 -0.18044786823163991 0 0.48939384748518983 -0.17561316297949739 0 0.49324048392376851 -0.1984236754595769 0 0.48939384748518983 -0.17561316297949739 0 0.49324048392376851 -0.1984236754595769 0 0.48939384748518983 -0.17561316297949739 0 0.5 -0.16752015849360449 0 0.48554721104661608 -0.1528026504994171 0 0.48939384748518983 -0.17561316297949739 0 0.48554721104661608 -0.1528026504994171 0 0.48939384748518983 -0.17561316297949739 0 0.47882200753793841 -0.17029812350924739 0 0.48554721104661608 -0.1528026504994171 0 0.47882200753793841 -0.17029812350924739 0 0.46908477201932058 -0.16586949218730279 0 0.48554721104661608 -0.1528026504994171 0 0.46908477201932058 -0.16586949218730279 0 0.47183430817398397 -0.1515347361313053 0 0.48554721104661608 -0.1528026504994171 0 0.46908477201932058 -0.16586949218730279 0 0.48554721104661608 -0.1528026504994171 0 0.4685152510605094 -0.17675744364837931 0 0.47882200753793841 -0.17029812350924739 0 0.46908477201932058 -0.16586949218730279 0 0.48082736823376288 -0.124814033663446 0 0.47183430817398397 -0.1515347361313053 0 0.48554721104661608 -0.1528026504994171 0 0.5 -0.16752015849360449 0 0.48554721104661608 -0.1528026504994171 0 0.49999999999999589 -0.1413309417879057 0 0.48554721104661608 -0.1528026504994171 0 0.49999999999999589 -0.1413309417879057 0 0.48082736823376288 -0.124814033663446 0 0.48554721104661608 -0.1528026504994171 0 0.49999999999999589 -0.1413309417879057 0 0.48082736823376288 -0.124814033663446 0 0.49750294033355102 -0.1129478826892651 0 0.49999999999999589 -0.1413309417879057 0 0.48082736823376288 -0.124814033663446 0 0.48554721104661608 -0.1528026504994171 0 0.48082736823376288 -0.124814033663446 0 0.46351213915297151 -0.14148571710021701 0 0.47183430817398397 -0.1515347361313053 0 0.48082736823376288 -0.124814033663446 0 0.46596028617107638 -0.12785668648755219 0 0.46351213915297151 -0.14148571710021701 0 0.46115001914943887 -0.23340966197814181 0 0.44515058495131948 -0.23196309169660581 0 0.46630053810371308 -0.21721244556657091 0 0.46115001914943887 -0.23340966197814181 0 0.46630053810371308 -0.21721244556657091 0 0.47312381595199621 -0.229546046646667 0 0.44515058495131948 -0.23196309169660581 0 0.46630053810371308 -0.21721244556657091 0 0.46115001914943887 -0.23340966197814181 0 0.45694690095269991 -0.24797481681084599 0 0.47227507209224717 -0.24489319898503401 0 0.46115001914943887 -0.23340966197814181 0 0.45694690095269991 -0.24797481681084599 0 0.44850312596113978 -0.242102327952566 0 0.46115001914943887 -0.23340966197814181 0 0.44850312596113978 -0.242102327952566 0 0.44515058495131948 -0.23196309169660581 0 0.45694690095269991 -0.24797481681084599 0 0.44850312596113978 -0.242102327952566 0 0.44394352048847557 -0.25114821127784392 0 0.43532460426376501 -0.2460158579993926 0 0.44850312596113978 -0.242102327952566 0 0.44394352048847557 -0.25114821127784392 0 0.43532460426376501 -0.2460158579993926 0 0.44850312596113978 -0.242102327952566 0 0.44515058495131948 -0.23196309169660581 0 0.44515058495131948 -0.23196309169660581 0 0.44753660315971072 -0.2160895357611691 0 0.46630053810371308 -0.21721244556657091 0 0.42877266821570831 -0.2149666259557651 0 0.44515058495131948 -0.23196309169660581 0 0.44753660315971072 -0.2160895357611691 0 0.42877266821570831 -0.2149666259557651 0 0.44753660315971072 -0.2160895357611691 0 0.42877266821570831 -0.2149666259557651 0 0.44637143083649022 -0.20346037338105591 0 0.44753660315971072 -0.2160895357611691 0 0.42877266821570831 -0.2149666259557651 0 0.44637143083649022 -0.20346037338105591 0 0.44637143083649022 -0.20346037338105591 0 0.44753660315971072 -0.2160895357611691 0 0.45997755874150198 -0.20505914483345261 0 0.45262233299202431 -0.17893633387518759 0 0.44637143083649022 -0.20346037338105591 0 0.45836975361842291 -0.1895029389543452 0 0.43068090942050108 -0.19635204656153701 0 0.45262233299202431 -0.17893633387518759 0 0.44637143083649022 -0.20346037338105591 0 0.43068090942050108 -0.19635204656153701 0 0.45262233299202431 -0.17893633387518759 0 0.44637143083649022 -0.20346037338105591 0 0.46397019345727281 -0.19195412080634791 0 0.45997755874150198 -0.20505914483345261 0 0.44637143083649022 -0.20346037338105591 0 0.45836975361842291 -0.1895029389543452 0 0.46397019345727281 -0.19195412080634791 0 0.44637143083649022 -0.20346037338105591 0 0.46397019345727281 -0.19195412080634791 0 0.46397019345727281 -0.19195412080634791 0 0.45997755874150198 -0.20505914483345261 0 0.46954604613680068 -0.20347779634488411 0 0.46500929744125707 -0.18351974110318009 0 0.45836975361842291 -0.1895029389543452 0 0.46397019345727281 -0.19195412080634791 0 0.44753660315971072 -0.2160895357611691 0 0.46630053810371308 -0.21721244556657091 0 0.44753660315971072 -0.2160895357611691 0 0.45997755874150198 -0.20505914483345261 0 0.46630053810371308 -0.21721244556657091 0 0.45997755874150198 -0.20505914483345261 0 0.46630053810371308 -0.21721244556657091 0 0.46954604613680068 -0.20347779634488411 0 0.46630053810371308 -0.21721244556657091 0 0.48150819935122752 -0.21812253356160169 0 0.46630053810371308 -0.21721244556657091 0 0.47977051101374107 -0.20781806051307439 0 0.48150819935122752 -0.21812253356160169 0 0.46630053810371308 -0.21721244556657091 0 0.47977051101374107 -0.20781806051307439 0 0.46630053810371308 -0.21721244556657091 0 0.46954604613680068 -0.20347779634488411 0 0.47977051101374107 -0.20781806051307439 0 0.4815689560780555 -0.18044786823163991 0 0.46397019345727281 -0.19195412080634791 0 0.47771142936777439 -0.19534521000497421 0 0.4815689560780555 -0.18044786823163991 0 0.47771142936777439 -0.19534521000497421 0 0.49324048392376851 -0.1984236754595769 0 0.46397019345727281 -0.19195412080634791 0 0.46954604613680068 -0.20347779634488411 0 0.47771142936777439 -0.19534521000497421 0 0.46954604613680068 -0.20347779634488411 0 0.47977051101374107 -0.20781806051307439 0 0.47771142936777439 -0.19534521000497421 0 0.47977051101374107 -0.20781806051307439 0 0.47771142936777439 -0.19534521000497421 0 0.49324048392376851 -0.1984236754595769 0 0.49324048392376851 -0.1984236754595769 0 0.50000000000001266 -0.19370937519930309 0 0.5 -0.21610845394400541 0 0.48939384748518983 -0.17561316297949739 0 0.49324048392376851 -0.1984236754595769 0 0.50000000000001266 -0.19370937519930309 0 0.47977051101374107 -0.20781806051307439 0 0.49324048392376851 -0.1984236754595769 0 0.49324048392376851 -0.1984236754595769 0 0.50000000000001266 -0.19370937519930309 0 0.49324048392376851 -0.1984236754595769 0 0.5 -0.21610845394400541 0 0.4967158605987419 -0.21903262155663189 0 0.49324048392376851 -0.1984236754595769 0 0.4967158605987419 -0.21903262155663189 0 0.47977051101374107 -0.20781806051307439 0 0.49324048392376851 -0.1984236754595769 0 0.4967158605987419 -0.21903262155663189 0 0.47977051101374107 -0.20781806051307439 0 0.48150819935122752 -0.21812253356160169 0 0.4967158605987419 -0.21903262155663189 0 0.48150819935122752 -0.21812253356160169 0 0.4967158605987419 -0.21903262155663189 0 0.5 -0.21610845394400541 0 0.49877514318273708 -0.2191558573604527 0 0.4967158605987419 -0.21903262155663189 0 0.4967158605987419 -0.21903262155663189 0 0.49999999999999911 -0.2385075326887077 0 0.48150819935122752 -0.21812253356160169 0 0.4967158605987419 -0.21903262155663189 0 0.48438525106335428 -0.2340923931419864 0 0.4967158605987419 -0.21903262155663189 0 0.48438525106335428 -0.2340923931419864 0 0.49999999999999911 -0.2385075326887077 0 0.5 -0.21610845394400541 0 0.49877514318273708 -0.2191558573604527 0 0.49999999999999911 -0.2385075326887077 0 0.49877514318273708 -0.2191558573604527 0 0.4967158605987419 -0.21903262155663189 0 0.49999999999999911 -0.2385075326887077 0 0.49877514318273708 -0.2191558573604527 0 0.4967158605987419 -0.21903262155663189 0 0.48150819935122752 -0.21812253356160169 0 0.48438525106335428 -0.2340923931419864 0 0.47312381595199621 -0.229546046646667 0 0.46630053810371308 -0.21721244556657091 0 0.48150819935122752 -0.21812253356160169 0 0.47312381595199621 -0.229546046646667 0 0.46115001914943887 -0.23340966197814181 0 0.47312381595199621 -0.229546046646667 0 0.47227507209224717 -0.24489319898503401 0 0.48438525106335428 -0.2340923931419864 0 0.47312381595199621 -0.229546046646667 0 0.47227507209224717 -0.24489319898503401 0 0.48438525106335428 -0.2340923931419864 0 0.47227507209224717 -0.24489319898503401 0 0.4868024988467739 -0.24938015782644771 0 0.48438525106335428 -0.2340923931419864 0 0.4868024988467739 -0.24938015782644771 0 0.49999999999999911 -0.2385075326887077 0 0.4868024988467739 -0.24938015782644771 0 0.49999999999999911 -0.2385075326887077 0 0.5 -0.26507228079381162 0 0.4868024988467739 -0.24938015782644771 0 0.5 -0.26507228079381162 0 0.47735217107826983 -0.26433538352269881 0 0.5 -0.26507228079381162 0 0.48702659359824702 -0.28015298020710272 0 0.5 -0.29163702889891552 0 0.5 -0.26507228079381162 0 0.48702659359824702 -0.28015298020710272 0 0.47735217107826983 -0.26433538352269881 0 0.48702659359824702 -0.28015298020710272 0 0.47735217107826983 -0.26433538352269881 0 0.46561603876429047 -0.2806051714394559 0 0.47227507209224717 -0.24489319898503401 0 0.47735217107826983 -0.26433538352269881 0 0.46544808649401698 -0.25748111757292202 0 0.47227507209224717 -0.24489319898503401 0 0.4868024988467739 -0.24938015782644771 0 0.47735217107826983 -0.26433538352269881 0 0.45694690095269991 -0.24797481681084599 0 0.47227507209224717 -0.24489319898503401 0 0.46544808649401698 -0.25748111757292202 0 0.47735217107826983 -0.26433538352269881 0 0.46544808649401698 -0.25748111757292202 0 0.46093914589253759 -0.26758980918493203 0 0.45694690095269991 -0.24797481681084599 0 0.46544808649401698 -0.25748111757292202 0 0.45159083320476151 -0.25995664835200499 0 0.46544808649401698 -0.25748111757292202 0 0.46093914589253759 -0.26758980918493203 0 0.45159083320476151 -0.25995664835200499 0 0.46561603876429047 -0.2806051714394559 0 0.44938519533440241 -0.27257137959121841 0 0.4485250691543089 -0.28632732981001102 0 0.47735217107826983 -0.26433538352269881 0 0.46561603876429047 -0.2806051714394559 0 0.46093914589253759 -0.26758980918493203 0 0.46561603876429047 -0.2806051714394559 0 0.46093914589253759 -0.26758980918493203 0 0.44938519533440241 -0.27257137959121841 0 0.46093914589253759 -0.26758980918493203 0 0.44938519533440241 -0.27257137959121841 0 0.45159083320476151 -0.25995664835200499 0 0.44938519533440241 -0.27257137959121841 0 0.43981974681942798 -0.27605839599946091 0 0.4485250691543089 -0.28632732981001102 0 0.44938519533440241 -0.27257137959121841 0 0.43981974681942798 -0.27605839599946091 0 0.43950349837340719 -0.26370616200899127 0 0.43950349837340719 -0.26370616200899127 0 0.44394352048847557 -0.25114821127784392 0 0.45159083320476151 -0.25995664835200499 0 0.43532460426376501 -0.2460158579993926 0 0.44394352048847557 -0.25114821127784392 0 0.43458929613580138 -0.25455003190631298 0 0.43950349837340719 -0.26370616200899127 0 0.44394352048847557 -0.25114821127784392 0 0.43458929613580138 -0.25455003190631298 0 0.45694690095269991 -0.24797481681084599 0 0.44394352048847557 -0.25114821127784392 0 0.45159083320476151 -0.25995664835200499 0 0.44938519533440241 -0.27257137959121841 0 0.43950349837340719 -0.26370616200899127 0 0.45159083320476151 -0.25995664835200499 0 0.44946847381934207 -0.30153449854772763 0 0.4413886049552691 -0.31365647329980262 0 0.43144884585498972 -0.28874133491376092 0 0.44946847381934207 -0.30153449854772763 0 0.4485250691543089 -0.28632732981001102 0 0.43144884585498972 -0.28874133491376092 0 0.43981974681942798 -0.27605839599946091 0 0.4485250691543089 -0.28632732981001102 0 0.43144884585498972 -0.28874133491376092 0 0.46561603876429047 -0.2806051714394559 0 0.4485250691543089 -0.28632732981001102 0 0.4633378817511738 -0.30050003851167512 0 0.46561603876429047 -0.2806051714394559 0 0.4633378817511738 -0.30050003851167512 0 0.47442731874288591 -0.29255359161791888 0 0.44946847381934207 -0.30153449854772763 0 0.4485250691543089 -0.28632732981001102 0 0.4633378817511738 -0.30050003851167512 0 0.44946847381934207 -0.30153449854772763 0 0.4633378817511738 -0.30050003851167512 0 0.46388436620907442 -0.31434768148096731 0 0.4633378817511738 -0.30050003851167512 0 0.48504062892190591 -0.30645481421722409 0 0.46388436620907442 -0.31434768148096731 0 0.4633378817511738 -0.30050003851167512 0 0.47442731874288591 -0.29255359161791888 0 0.48504062892190591 -0.30645481421722409 0 0.48702659359824702 -0.28015298020710272 0 0.46561603876429047 -0.2806051714394559 0 0.47442731874288591 -0.29255359161791888 0 0.48702659359824702 -0.28015298020710272 0 0.47442731874288591 -0.29255359161791888 0 0.48504062892190591 -0.30645481421722409 0 0.48702659359824702 -0.28015298020710272 0 0.5 -0.29163702889891552 0 0.48504062892190591 -0.30645481421722409 0 0.5 -0.29163702889891552 0 0.48504062892190591 -0.30645481421722409 0 0.5 -0.31820177700401953 0 0.5 -0.31820177700401953 0 0.48888066271772462 -0.32352311751875568 0 0.49731676175633482 -0.33628233214941161 0 0.48504062892190591 -0.30645481421722409 0 0.5 -0.31820177700401953 0 0.48888066271772462 -0.32352311751875568 0 0.5 -0.31820177700401953 0 0.49731676175633482 -0.33628233214941161 0 0.5 -0.34476652510912342 0 0.48395654496516621 -0.3339084375186292 0 0.48047713096328482 -0.34178835358621268 0 0.48881617202627209 -0.34519199613663532 0 0.49731676175633482 -0.33628233214941161 0 0.48395654496516621 -0.3339084375186292 0 0.48881617202627209 -0.34519199613663532 0 0.48888066271772462 -0.32352311751875568 0 0.49731676175633482 -0.33628233214941161 0 0.48395654496516621 -0.3339084375186292 0 0.48395654496516621 -0.3339084375186292 0 0.47189217142973228 -0.3368303767902302 0 0.4765357533043334 -0.32341353048452848 0 0.48395654496516621 -0.3339084375186292 0 0.48047713096328482 -0.34178835358621268 0 0.47189217142973228 -0.3368303767902302 0 0.48047713096328482 -0.34178835358621268 0 0.47189217142973228 -0.3368303767902302 0 0.47448945177308888 -0.34634456336497488 0 0.47189217142973228 -0.3368303767902302 0 0.47448945177308888 -0.34634456336497488 0 0.46718216797282208 -0.34642612636830578 0 0.47189217142973228 -0.3368303767902302 0 0.4765357533043334 -0.32341353048452848 0 0.46437584011058147 -0.32863511268429302 0 0.48504062892190591 -0.30645481421722409 0 0.48888066271772462 -0.32352311751875568 0 0.4765357533043334 -0.32341353048452848 0 0.48504062892190591 -0.30645481421722409 0 0.4765357533043334 -0.32341353048452848 0 0.46388436620907442 -0.31434768148096731 0 0.48888066271772462 -0.32352311751875568 0 0.48395654496516621 -0.3339084375186292 0 0.4765357533043334 -0.32341353048452848 0 0.49930164859074022 -0.37193595403156038 0 0.48999853020014572 -0.362777203894671 0 0.48116443312914031 -0.37233992902099888 0 0.49930164859074022 -0.37193595403156038 0 0.48999853020014572 -0.362777203894671 0 0.49830920517353722 -0.35410914309048608 0 0.49930164859074022 -0.37193595403156038 0 0.49830920517353722 -0.35410914309048608 0 0.48999853020014572 -0.362777203894671 0 0.48911002760207117 -0.35456136959062329 0 0.48173929333327542 -0.36106512066662461 0 0.49731676175633482 -0.33628233214941161 0 0.49830920517353722 -0.35410914309048608 0 0.49930164859074022 -0.37193595403156038 0 0.5 -0.34476652510912342 0 0.49830920517353722 -0.35410914309048608 0 0.49731676175633482 -0.33628233214941161 0 0.49830920517353722 -0.35410914309048608 0 0.48881617202627209 -0.34519199613663532 0 0.49731676175633482 -0.33628233214941161 0 0.5 -0.34476652510912342 0 0.49830920517353722 -0.35410914309048608 0 0.48999853020014572 -0.362777203894671 0 0.48911002760207117 -0.35456136959062329 0 0.49830920517353722 -0.35410914309048608 0 0.48911002760207117 -0.35456136959062329 0 0.48881617202627209 -0.34519199613663532 0 0.48131973919224119 -0.35052256425339939 0 0.48911002760207117 -0.35456136959062329 0 0.49830920517353722 -0.35410914309048608 0 0.48881617202627209 -0.34519199613663532 0 0.48047713096328482 -0.34178835358621268 0 0.48131973919224119 -0.35052256425339939 0 0.47448945177308888 -0.34634456336497488 0 0.48047713096328482 -0.34178835358621268 0 0.48881617202627209 -0.34519199613663532 0 0.48131973919224119 -0.35052256425339939 0 0.47448945177308888 -0.34634456336497488 0 0.47288811457422109 -0.35498735095299389 0 0.46718216797282208 -0.34642612636830578 0 0.48131973919224119 -0.35052256425339939 0 0.47448945177308888 -0.34634456336497488 0 0.47288811457422109 -0.35498735095299389 0 0.48911002760207117 -0.35456136959062329 0 0.48131973919224119 -0.35052256425339939 0 0.48173929333327542 -0.36106512066662461 0 0.48131973919224119 -0.35052256425339939 0 0.47288811457422109 -0.35498735095299389 0 0.48173929333327542 -0.36106512066662461 0 0.48173929333327542 -0.36106512066662461 0 0.46891923263509772 -0.36639794311329471 0 0.48116443312914031 -0.37233992902099888 0 0.48999853020014572 -0.362777203894671 0 0.48173929333327542 -0.36106512066662461 0 0.48116443312914031 -0.37233992902099888 0 0.47288811457422109 -0.35498735095299389 0 0.48173929333327542 -0.36106512066662461 0 0.46891923263509772 -0.36639794311329471 0 0.46891923263509772 -0.36639794311329471 0 0.48116443312914031 -0.37233992902099888 0 0.46559549653354898 -0.38107836730110878 0 0.46088311611911092 -0.37312160216082801 0 0.4577870474656438 -0.36461197060027523 0 0.45123068784215292 -0.38039812762863318 0 0.4577870474656438 -0.36461197060027523 0 0.4506432831678826 -0.35411025126833129 0 0.45123068784215292 -0.38039812762863318 0 0.46891923263509772 -0.36639794311329471 0 0.46088311611911092 -0.37312160216082801 0 0.4577870474656438 -0.36461197060027523 0 0.46891923263509772 -0.36639794311329471 0 0.46088311611911092 -0.37312160216082801 0 0.46559549653354898 -0.38107836730110878 0 0.46891923263509772 -0.36639794311329471 0 0.4577870474656438 -0.36461197060027523 0 0.46265755930571278 -0.35457190489603552 0 0.4577870474656438 -0.36461197060027523 0 0.46265755930571278 -0.35457190489603552 0 0.4506432831678826 -0.35411025126833129 0 0.47288811457422109 -0.35498735095299389 0 0.46265755930571278 -0.35457190489603552 0 0.46718216797282208 -0.34642612636830578 0 0.47288811457422109 -0.35498735095299389 0 0.46891923263509772 -0.36639794311329471 0 0.46265755930571278 -0.35457190489603552 0 0.46265755930571278 -0.35457190489603552 0 0.46718216797282208 -0.34642612636830578 0 0.45951103111615538 -0.3407615997577092 0 0.46265755930571278 -0.35457190489603552 0 0.4506432831678826 -0.35411025126833129 0 0.45951103111615538 -0.3407615997577092 0 0.4506432831678826 -0.35411025126833129 0 0.44073114224331211 -0.35978831956797719 0 0.4302315966444713 -0.33917851150732131 0 0.4506432831678826 -0.35411025126833129 0 0.45123068784215292 -0.38039812762863318 0 0.4506432831678826 -0.35411025126833129 0 0.44073114224331211 -0.35978831956797719 0 0.45123068784215292 -0.38039812762863318 0 0.44073114224331211 -0.35978831956797719 0 0.43916938855457222 -0.37362281887085852 0 0.45123068784215292 -0.38039812762863318 0 0.44073114224331211 -0.35978831956797719 0 0.45123068784215292 -0.38039812762863318 0 0.44073114224331211 -0.35978831956797719 0 0.43916938855457222 -0.37362281887085852 0 0.4336978883102397 -0.36601992296075708 0 0.44946847381934207 -0.30153449854772763 0 0.46388436620907442 -0.31434768148096731 0 0.45005587849361228 -0.32782237490802951 0 0.46388436620907442 -0.31434768148096731 0 0.46437584011058147 -0.32863511268429302 0 0.45005587849361228 -0.32782237490802951 0 0.4765357533043334 -0.32341353048452848 0 0.46388436620907442 -0.31434768148096731 0 0.46437584011058147 -0.32863511268429302 0 0.4506432831678826 -0.35411025126833129 0 0.45951103111615538 -0.3407615997577092 0 0.45005587849361228 -0.32782237490802951 0 0.47189217142973228 -0.3368303767902302 0 0.46437584011058147 -0.32863511268429302 0 0.45951103111615538 -0.3407615997577092 0 0.47189217142973228 -0.3368303767902302 0 0.46718216797282208 -0.34642612636830578 0 0.45951103111615538 -0.3407615997577092 0 0.46437584011058147 -0.32863511268429302 0 0.45951103111615538 -0.3407615997577092 0 0.45005587849361228 -0.32782237490802951 0 0.45005587849361228 -0.32782237490802951 0 0.43329948373309801 -0.32495274637123012 0 0.4302315966444713 -0.33917851150732131 0 0.4506432831678826 -0.35411025126833129 0 0.45005587849361228 -0.32782237490802951 0 0.4506432831678826 -0.35411025126833129 0 0.45005587849361228 -0.32782237490802951 0 0.4302315966444713 -0.33917851150732131 0 0.44946847381934207 -0.30153449854772763 0 0.4413886049552691 -0.31365647329980262 0 0.45005587849361228 -0.32782237490802951 0 0.4413886049552691 -0.31365647329980262 0 0.45005587849361228 -0.32782237490802951 0 0.43329948373309801 -0.32495274637123012 0 0.44946847381934207 -0.30153449854772763 0 0.45005587849361228 -0.32782237490802951 0 0.4413886049552691 -0.31365647329980262 0 0.43329948373309801 -0.32495274637123012 0 0.41973205104563049 -0.31856870344666521 0 0.43329948373309801 -0.32495274637123012 0 0.4302315966444713 -0.33917851150732131 0 0.41973205104563049 -0.31856870344666521 0 0.4302315966444713 -0.33917851150732131 0 0.41973205104563049 -0.31856870344666521 0 0.4302315966444713 -0.33917851150732131 0 0.41090380457356751 -0.33938085460577672 0 0.41927118301660982 -0.34763166626109121 0 0.41090380457356751 -0.33938085460577672 0 0.41973205104563049 -0.31856870344666521 0 0.40691030669861727 -0.32655960109187598 0 0.4302315966444713 -0.33917851150732131 0 0.41090380457356751 -0.33938085460577672 0 0.41973205104563049 -0.31856870344666521 0 0.41973205104563049 -0.31856870344666521 0 0.40691030669861727 -0.32655960109187598 0 0.40310396582105168 -0.31208077783156862 0 0.43916938855457222 -0.37362281887085852 0 0.42606065878879418 -0.3714946162826479 0 0.4336978883102397 -0.36601992296075708 0 0.44073114224331211 -0.35978831956797719 0 0.4336978883102397 -0.36601992296075708 0 0.42584968758986552 -0.35618445563728729 0 0.42606065878879418 -0.3714946162826479 0 0.4336978883102397 -0.36601992296075708 0 0.42584968758986552 -0.35618445563728729 0 0.44073114224331211 -0.35978831956797719 0 0.4302315966444713 -0.33917851150732131 0 0.4302315966444713 -0.33917851150732131 0 0.42584968758986552 -0.35618445563728729 0 0.41927118301660982 -0.34763166626109121 0 0.44073114224331211 -0.35978831956797719 0 0.4302315966444713 -0.33917851150732131 0 0.42584968758986552 -0.35618445563728729 0 0.41090380457356751 -0.33938085460577672 0 0.41927118301660982 -0.34763166626109121 0 0.41009964325853482 -0.35578284329397969 0 0.42584968758986552 -0.35618445563728729 0 0.41927118301660982 -0.34763166626109121 0 0.41009964325853482 -0.35578284329397969 0 0.41090380457356751 -0.33938085460577672 0 0.41009964325853482 -0.35578284329397969 0 0.39891624099952988 -0.35165140451519711 0 0.42584968758986552 -0.35618445563728729 0 0.41009964325853482 -0.35578284329397969 0 0.41273025958263332 -0.37067013525411291 0 0.42606065878879418 -0.3714946162826479 0 0.42584968758986552 -0.35618445563728729 0 0.41273025958263332 -0.37067013525411291 0 0.41009964325853482 -0.35578284329397969 0 0.41273025958263332 -0.37067013525411291 0 0.39874938545525351 -0.3657271275188948 0 0.42606065878879418 -0.3714946162826479 0 0.41273025958263332 -0.37067013525411291 0 0.4229722790167712 -0.38245537923423872 0 0.39874938545525351 -0.3657271275188948 0 0.38858811793443843 -0.37478139525663529 0 0.39540771361069338 -0.37743696221084561 0 0.39874938545525351 -0.3657271275188948 0 0.40456610974079871 -0.37796430622437821 0 0.39540771361069338 -0.37743696221084561 0 0.41273025958263332 -0.37067013525411291 0 0.39874938545525351 -0.3657271275188948 0 0.40456610974079871 -0.37796430622437821 0 0.39874938545525351 -0.3657271275188948 0 0.3846988448873882 -0.36033535913541842 0 0.38858811793443843 -0.37478139525663529 0 0.39891624099952988 -0.35165140451519711 0 0.3846988448873882 -0.36033535913541842 0 0.39390140535421991 -0.33620806848349349 0 0.39874938545525351 -0.3657271275188948 0 0.39891624099952988 -0.35165140451519711 0 0.3846988448873882 -0.36033535913541842 0 0.41009964325853482 -0.35578284329397969 0 0.39874938545525351 -0.3657271275188948 0 0.39891624099952988 -0.35165140451519711 0 0.38594708791536508 -0.34463692244981731 0 0.3846988448873882 -0.36033535913541842 0 0.39390140535421991 -0.33620806848349349 0 0.3846988448873882 -0.36033535913541842 0 0.39390140535421991 -0.33620806848349349 0 0.38594708791536508 -0.34463692244981731 0 0.3731215785128188 -0.36275037669944071 0 0.38594708791536508 -0.34463692244981731 0 0.37490224559847363 -0.33465782375947378 0 0.3731215785128188 -0.36275037669944071 0 0.38594708791536508 -0.34463692244981731 0 0.3846988448873882 -0.36033535913541842 0 0.3731215785128188 -0.36275037669944071 0 0.3846988448873882 -0.36033535913541842 0 0.37549628442055649 -0.38446264978734329 0 0.3846988448873882 -0.36033535913541842 0 0.37549628442055649 -0.38446264978734329 0 0.37242863952391181 -0.37555121513872047 0 0.3846988448873882 -0.36033535913541842 0 0.38858811793443843 -0.37478139525663529 0 0.37549628442055649 -0.38446264978734329 0 0.3846988448873882 -0.36033535913541842 0 0.37278764284911858 -0.36801868619234562 0 0.3731215785128188 -0.36275037669944071 0 0.3846988448873882 -0.36033535913541842 0 0.37242863952391181 -0.37555121513872047 0 0.37278764284911858 -0.36801868619234562 0 0.40691030669861727 -0.32655960109187598 0 0.39390140535421991 -0.33620806848349349 0 0.40310396582105168 -0.31208077783156862 0 0.39390140535421991 -0.33620806848349349 0 0.38731953493273702 -0.32201146721981799 0 0.40310396582105168 -0.31208077783156862 0 0.39390140535421991 -0.33620806848349349 0 0.40310396582105168 -0.31208077783156862 0 0.38731953493273702 -0.32201146721981799 0 0.3900758920735049 -0.3088934616419422 0 0.40310396582105168 -0.31208077783156862 0 0.41090380457356751 -0.33938085460577672 0 0.39891624099952988 -0.35165140451519711 0 0.39390140535421991 -0.33620806848349349 0 0.41090380457356751 -0.33938085460577672 0 0.40691030669861727 -0.32655960109187598 0 0.39390140535421991 -0.33620806848349349 0 0.39390140535421991 -0.33620806848349349 0 0.38520358943338978 -0.33462093636351159 0 0.38731953493273702 -0.32201146721981799 0 0.38594708791536508 -0.34463692244981731 0 0.39390140535421991 -0.33620806848349349 0 0.38520358943338978 -0.33462093636351159 0 0.38594708791536508 -0.34463692244981731 0 0.38520358943338978 -0.33462093636351159 0 0.37490224559847363 -0.33465782375947378 0 0.38520358943338978 -0.33462093636351159 0 0.38731953493273702 -0.32201146721981799 0 0.37490224559847363 -0.33465782375947378 0 0.37668291268412779 -0.30656527081950691 0 0.37490224559847363 -0.33465782375947378 0 0.38731953493273702 -0.32201146721981799 0 0.37668291268412779 -0.30656527081950691 0 0.37490224559847363 -0.33465782375947378 0 0.37668291268412779 -0.30656527081950691 0 0.3900758920735049 -0.3088934616419422 0 0.39319715485610329 -0.29491633069687551 0 0.38731953493273702 -0.32201146721981799 0 0.37668291268412779 -0.30656527081950691 0 0.3900758920735049 -0.3088934616419422 0 0.40310396582105168 -0.31208077783156862 0 0.39319715485610329 -0.29491633069687551 0 0.40858455586654679 -0.29771175635669728 0 0.3900758920735049 -0.3088934616419422 0 0.40310396582105168 -0.31208077783156862 0 0.39319715485610329 -0.29491633069687551 0 0.40310396582105168 -0.31208077783156862 0 0.40858455586654679 -0.29771175635669728 0 0.39319715485610329 -0.29491633069687551 0 0.40858455586654679 -0.29771175635669728 0 0.41230652628788339 -0.28795348717964381 0 0.39319715485610329 -0.29491633069687551 0 0.39871575956682143 -0.2806451616618536 0 0.41230652628788339 -0.28795348717964381 0 0.37668291268412779 -0.30656527081950691 0 0.37846357976979139 -0.27847271787954059 0 0.39319715485610329 -0.29491633069687551 0 0.37846357976979139 -0.27847271787954059 0 0.39871575956682143 -0.2806451616618536 0 0.37668291268412779 -0.30656527081950691 0 0.39319715485610329 -0.29491633069687551 0 0.37846357976979139 -0.27847271787954059 0 0.37846357976979139 -0.27847271787954059 0 0.39758705768009039 -0.26513539966433242 0 0.38030595847274717 -0.2494065765073018 0 0.37846357976979139 -0.27847271787954059 0 0.37039766593308249 -0.26530491786777149 0 0.37565887922929531 -0.24969296919058201 0 0.38030595847274717 -0.2494065765073018 0 0.37039766593308249 -0.26530491786777149 0 0.38030595847274717 -0.2494065765073018 0 0.37846357976979139 -0.27847271787954059 0 0.38030595847274717 -0.2494065765073018 0 0.37846357976979139 -0.27847271787954059 0 0.39758705768009039 -0.26513539966433242 0 0.38030595847274717 -0.2494065765073018 0 0.39760586616526727 -0.24834040854997039 0 0.39758705768009039 -0.26513539966433242 0 0.39760586616526727 -0.24834040854997039 0 0.39758705768009039 -0.26513539966433242 0 0.41671053559038562 -0.25179808144911892 0 0.37846357976979139 -0.27847271787954059 0 0.39758705768009039 -0.26513539966433242 0 0.39871575956682143 -0.2806451616618536 0 0.39758705768009039 -0.26513539966433242 0 0.39871575956682143 -0.2806451616618536 0 0.41002887357452439 -0.27326609941599023 0 0.39871575956682143 -0.2806451616618536 0 0.41002887357452439 -0.27326609941599023 0 0.41230652628788339 -0.28795348717964381 0 0.4215090867547131 -0.26382619652771799 0 0.41230652628788339 -0.28795348717964381 0 0.41002887357452439 -0.27326609941599023 0 0.4215090867547131 -0.26382619652771799 0 0.41230652628788339 -0.28795348717964381 0 0.4215090867547131 -0.26382619652771799 0 0.43144884585498972 -0.28874133491376092 0 0.41230652628788339 -0.28795348717964381 0 0.39758705768009039 -0.26513539966433242 0 0.41002887357452439 -0.27326609941599023 0 0.41671053559038562 -0.25179808144911892 0 0.41002887357452439 -0.27326609941599023 0 0.4215090867547131 -0.26382619652771799 0 0.41671053559038562 -0.25179808144911892 0 0.39758705768009039 -0.26513539966433242 0 0.41671053559038562 -0.25179808144911892 0 0.4215090867547131 -0.26382619652771799 0 0.41671053559038562 -0.25179808144911892 0 0.4215090867547131 -0.26382619652771799 0 0.41671053559038562 -0.25179808144911892 0 0.42595494182858418 -0.25217004518264619 0 0.42400063179892361 -0.24671373782663741 0 0.41671053559038562 -0.25179808144911892 0 0.42595494182858418 -0.25217004518264619 0 0.4215090867547131 -0.26382619652771799 0 0.42595494182858418 -0.25217004518264619 0 0.4306948105348658 -0.26059850433367138 0 0.4215090867547131 -0.26382619652771799 0 0.4306948105348658 -0.26059850433367138 0 0.43259519766748078 -0.27058611875672062 0 0.4215090867547131 -0.26382619652771799 0 0.42595494182858418 -0.25217004518264619 0 0.43950349837340719 -0.26370616200899127 0 0.4306948105348658 -0.26059850433367138 0 0.43458929613580138 -0.25455003190631298 0 0.43950349837340719 -0.26370616200899127 0 0.4306948105348658 -0.26059850433367138 0 0.43259519766748078 -0.27058611875672062 0 0.43532460426376501 -0.2460158579993926 0 0.42595494182858418 -0.25217004518264619 0 0.43458929613580138 -0.25455003190631298 0 0.42595494182858418 -0.25217004518264619 0 0.4306948105348658 -0.26059850433367138 0 0.43458929613580138 -0.25455003190631298 0 0.4215090867547131 -0.26382619652771799 0 0.43144884585498972 -0.28874133491376092 0 0.4215090867547131 -0.26382619652771799 0 0.43259519766748078 -0.27058611875672062 0 0.43144884585498972 -0.28874133491376092 0 0.43981974681942798 -0.27605839599946091 0 0.43259519766748078 -0.27058611875672062 0 0.43144884585498972 -0.28874133491376092 0 0.43981974681942798 -0.27605839599946091 0 0.43950349837340719 -0.26370616200899127 0 0.43259519766748078 -0.27058611875672062 0 0.43144884585498972 -0.28874133491376092 0 0.42442647499788749 -0.30319778682025728 0 0.41862539863651232 -0.29536980068881441 0 0.4413886049552691 -0.31365647329980262 0 0.43144884585498972 -0.28874133491376092 0 0.42442647499788749 -0.30319778682025728 0 0.4413886049552691 -0.31365647329980262 0 0.43144884585498972 -0.28874133491376092 0 0.4413886049552691 -0.31365647329980262 0 0.41973205104563049 -0.31856870344666521 0 0.42442647499788749 -0.30319778682025728 0 0.41973205104563049 -0.31856870344666521 0 0.42442647499788749 -0.30319778682025728 0 0.40858455586654679 -0.29771175635669728 0 0.41973205104563049 -0.31856870344666521 0 0.40858455586654679 -0.29771175635669728 0 0.41973205104563049 -0.31856870344666521 0 0.40310396582105168 -0.31208077783156862 0 0.40858455586654679 -0.29771175635669728 0 0.42442647499788749 -0.30319778682025728 0 0.40858455586654679 -0.29771175635669728 0 0.41862539863651232 -0.29536980068881441 0 0.40858455586654679 -0.29771175635669728 0 0.41230652628788339 -0.28795348717964381 0 0.40858455586654679 -0.29771175635669728 0 0.41230652628788339 -0.28795348717964381 0 0.41862539863651232 -0.29536980068881441 0 0.43144884585498972 -0.28874133491376092 0 0.41230652628788339 -0.28795348717964381 0 0.41862539863651232 -0.29536980068881441 0 0.46856739152332061 -0.47138341292044522 0 0.5 -0.5 0 0.43352877439350768 -0.5 0 0.46856739152332061 -0.47138341292044522 0 0.44171814154889161 -0.45487113992204048 0 0.43352877439350768 -0.5 0 0.46856739152332061 -0.47138341292044522 0 0.5 -0.5 0 0.5 -0.45036122420680308 0 0.46856739152332061 -0.47138341292044522 0 0.5 -0.45036122420680308 0 0.46391450935665018 -0.43840797040159291 0 0.46856739152332061 -0.47138341292044522 0 0.46391450935665018 -0.43840797040159291 0 0.44171814154889161 -0.45487113992204048 0 0.46391450935665018 -0.43840797040159291 0 0.44171814154889161 -0.45487113992204048 0 0.4359149320574679 -0.42682054516089729 0 0.46391450935665018 -0.43840797040159291 0 0.45704383756855887 -0.40852568145111862 0 0.4359149320574679 -0.42682054516089729 0 0.45704383756855887 -0.40852568145111862 0 0.4359149320574679 -0.42682054516089729 0 0.44396832360534982 -0.40683384994410582 0 0.43363697482200708 -0.40487225900324109 0 0.4359149320574679 -0.42682054516089729 0 0.44396832360534982 -0.40683384994410582 0 0.45704383756855887 -0.40852568145111862 0 0.4359149320574679 -0.42682054516089729 0 0.46391450935665018 -0.43840797040159291 0 0.45704383756855887 -0.40852568145111862 0 0.4798262180009718 -0.4200734574504883 0 0.5 -0.45036122420680308 0 0.46391450935665018 -0.43840797040159291 0 0.4798262180009718 -0.4200734574504883 0 0.5 -0.45036122420680308 0 0.5 -0.41284159345158639 0 0.4798262180009718 -0.4200734574504883 0 0.5 -0.41284159345158639 0 0.4798262180009718 -0.4200734574504883 0 0.47817274307964991 -0.39023081774133989 0 0.45704383756855887 -0.40852568145111862 0 0.4798262180009718 -0.4200734574504883 0 0.47817274307964991 -0.39023081774133989 0 0.5 -0.41284159345158639 0 0.49999999999999989 -0.3844801236310833 0 0.47817274307964991 -0.39023081774133989 0 0.49930164859074022 -0.37193595403156038 0 0.48116443312914031 -0.37233992902099888 0 0.47817274307964991 -0.39023081774133989 0 0.49930164859074022 -0.37193595403156038 0 0.49999999999999989 -0.3844801236310833 0 0.47817274307964991 -0.39023081774133989 0 0.49930164859074022 -0.37193595403156038 0 0.47817274307964991 -0.39023081774133989 0 0.48116443312914031 -0.37233992902099888 0 0.47817274307964991 -0.39023081774133989 0 0.46559549653354898 -0.38107836730110878 0 0.47817274307964991 -0.39023081774133989 0 0.46559549653354898 -0.38107836730110878 0 0.45770084702167269 -0.39309855714307967 0 0.45770084702167269 -0.39309855714307967 0 0.45159631706915582 -0.39676097990778092 0 0.45123068784215292 -0.38039812762863318 0 0.46088311611911092 -0.37312160216082801 0 0.46559549653354898 -0.38107836730110878 0 0.45123068784215292 -0.38039812762863318 0 0.45770084702167269 -0.39309855714307967 0 0.45123068784215292 -0.38039812762863318 0 0.46559549653354898 -0.38107836730110878 0 0.45770084702167269 -0.39309855714307967 0 0.45123068784215292 -0.38039812762863318 0 0.45704383756855887 -0.40852568145111862 0 0.47817274307964991 -0.39023081774133989 0 0.45704383756855887 -0.40852568145111862 0 0.47817274307964991 -0.39023081774133989 0 0.45770084702167269 -0.39309855714307967 0 0.45704383756855887 -0.40852568145111862 0 0.45770084702167269 -0.39309855714307967 0 0.45159631706915582 -0.39676097990778092 0 0.44396832360534982 -0.40683384994410582 0 0.45159631706915582 -0.39676097990778092 0 0.44164955650955973 -0.39718978419749101 0 0.44396832360534982 -0.40683384994410582 0 0.45704383756855887 -0.40852568145111862 0 0.45159631706915582 -0.39676097990778092 0 0.44396832360534982 -0.40683384994410582 0 0.44164955650955973 -0.39718978419749101 0 0.43363697482200708 -0.40487225900324109 0 0.44164955650955973 -0.39718978419749101 0 0.44163593123879102 -0.38681675720678471 0 0.43330667948663709 -0.39196243253810309 0 0.45159631706915582 -0.39676097990778092 0 0.44164955650955973 -0.39718978419749101 0 0.44163593123879102 -0.38681675720678471 0 0.45159631706915582 -0.39676097990778092 0 0.45123068784215292 -0.38039812762863318 0 0.45159631706915582 -0.39676097990778092 0 0.44163593123879102 -0.38681675720678471 0 0.45123068784215292 -0.38039812762863318 0 0.43916938855457222 -0.37362281887085852 0 0.44163593123879102 -0.38681675720678471 0 0.43267609445335692 -0.3804944804787847 0 0.43916938855457222 -0.37362281887085852 0 0.44163593123879102 -0.38681675720678471 0 0.45123068784215292 -0.38039812762863318 0 0.4229722790167712 -0.38245537923423872 0 0.43267609445335692 -0.3804944804787847 0 0.43330667948663709 -0.39196243253810309 0 0.4229722790167712 -0.38245537923423872 0 0.43330667948663709 -0.39196243253810309 0 0.42113981882739182 -0.3955853470869925 0 0.42606065878879418 -0.3714946162826479 0 0.4229722790167712 -0.38245537923423872 0 0.43267609445335692 -0.3804944804787847 0 0.43916938855457222 -0.37362281887085852 0 0.42606065878879418 -0.3714946162826479 0 0.43267609445335692 -0.3804944804787847 0 0.44163593123879102 -0.38681675720678471 0 0.43267609445335692 -0.3804944804787847 0 0.43330667948663709 -0.39196243253810309 0 0.44164955650955973 -0.39718978419749101 0 0.43330667948663709 -0.39196243253810309 0 0.43363697482200708 -0.40487225900324109 0 0.43363697482200708 -0.40487225900324109 0 0.42113981882739182 -0.3955853470869925 0 0.42160118843188821 -0.41085878272312981 0 0.43330667948663709 -0.39196243253810309 0 0.43363697482200708 -0.40487225900324109 0 0.42113981882739182 -0.3955853470869925 0 0.42113981882739182 -0.3955853470869925 0 0.40633062439975948 -0.40092002942492561 0 0.42160118843188821 -0.41085878272312981 0 0.42113981882739182 -0.3955853470869925 0 0.40633062439975948 -0.40092002942492561 0 0.4118710931323939 -0.38533351412702233 0 0.4229722790167712 -0.38245537923423872 0 0.42113981882739182 -0.3955853470869925 0 0.4118710931323939 -0.38533351412702233 0 0.41273025958263332 -0.37067013525411291 0 0.4229722790167712 -0.38245537923423872 0 0.4118710931323939 -0.38533351412702233 0 0.41273025958263332 -0.37067013525411291 0 0.4118710931323939 -0.38533351412702233 0 0.40456610974079871 -0.37796430622437821 0 0.40456610974079871 -0.37796430622437821 0 0.39965190165507453 -0.38756441170527139 0 0.39540771361069338 -0.37743696221084561 0 0.4118710931323939 -0.38533351412702233 0 0.40456610974079871 -0.37796430622437821 0 0.39965190165507453 -0.38756441170527139 0 0.39965190165507453 -0.38756441170527139 0 0.39540771361069338 -0.37743696221084561 0 0.3885883612983001 -0.38594487763067448 0 0.39965190165507453 -0.38756441170527139 0 0.3885883612983001 -0.38594487763067448 0 0.3911475077485016 -0.39778678061378248 0 0.38858811793443843 -0.37478139525663529 0 0.39540771361069338 -0.37743696221084561 0 0.3885883612983001 -0.38594487763067448 0 0.38858811793443843 -0.37478139525663529 0 0.3885883612983001 -0.38594487763067448 0 0.37549628442055649 -0.38446264978734329 0 0.3885883612983001 -0.38594487763067448 0 0.37549628442055649 -0.38446264978734329 0 0.37935681853712688 -0.39889960707608191 0 0.37935681853712688 -0.39889960707608191 0 0.3911475077485016 -0.39778678061378248 0 0.39048899687318589 -0.41795236813227238 0 0.3885883612983001 -0.38594487763067448 0 0.37935681853712688 -0.39889960707608191 0 0.3911475077485016 -0.39778678061378248 0 0.40633062439975948 -0.40092002942492561 0 0.3911475077485016 -0.39778678061378248 0 0.39048899687318589 -0.41795236813227238 0 0.40633062439975948 -0.40092002942492561 0 0.4118710931323939 -0.38533351412702233 0 0.39965190165507453 -0.38756441170527139 0 0.40633062439975948 -0.40092002942492561 0 0.39965190165507453 -0.38756441170527139 0 0.3911475077485016 -0.39778678061378248 0 0.40633062439975948 -0.40092002942492561 0 0.39048899687318589 -0.41795236813227238 0 0.40884579218581613 -0.42528158950364592 0 0.39048899687318589 -0.41795236813227238 0 0.37548337450279867 -0.42840129688791501 0 0.3607518234764191 -0.4191529296869318 0 0.37935681853712688 -0.39889960707608191 0 0.39048899687318589 -0.41795236813227238 0 0.36629372395372473 -0.40858994043926822 0 0.39048899687318589 -0.41795236813227238 0 0.3607518234764191 -0.4191529296869318 0 0.37548337450279867 -0.42840129688791501 0 0.38829900876450518 -0.43881993842227229 0 0.3724987380473973 -0.43811057589302699 0 0.39048899687318589 -0.41795236813227238 0 0.37548337450279867 -0.42840129688791501 0 0.38829900876450518 -0.43881993842227229 0 0.39048899687318589 -0.41795236813227238 0 0.40884579218581613 -0.42528158950364592 0 0.38829900876450518 -0.43881993842227229 0 0.40884579218581613 -0.42528158950364592 0 0.41478602654637681 -0.44511540887067608 0 0.38829900876450518 -0.43881993842227229 0 0.40884579218581613 -0.42528158950364592 0 0.4359149320574679 -0.42682054516089729 0 0.41478602654637681 -0.44511540887067608 0 0.40633062439975948 -0.40092002942492561 0 0.40884579218581613 -0.42528158950364592 0 0.42160118843188821 -0.41085878272312981 0 0.40884579218581613 -0.42528158950364592 0 0.42160118843188821 -0.41085878272312981 0 0.4359149320574679 -0.42682054516089729 0 0.43363697482200708 -0.40487225900324109 0 0.42160118843188821 -0.41085878272312981 0 0.4359149320574679 -0.42682054516089729 0 0.4359149320574679 -0.42682054516089729 0 0.41478602654637681 -0.44511540887067608 0 0.43352877439350768 -0.5 0 0.35139931001309971 -0.50000000000000799 0 0.37252821552419457 -0.4817051362902337 0 0.44171814154889161 -0.45487113992204048 0 0.4359149320574679 -0.42682054516089729 0 0.41478602654637681 -0.44511540887067608 0 0.44171814154889161 -0.45487113992204048 0 0.41478602654637681 -0.44511540887067608 0 0.41777522129345529 -0.47164651894870752 0 0.41478602654637681 -0.44511540887067608 0 0.39365712103528572 -0.46341027258045492 0 0.41777522129345529 -0.47164651894870752 0 0.41478602654637681 -0.44511540887067608 0 0.38829900876450518 -0.43881993842227229 0 0.39365712103528572 -0.46341027258045492 0 0.38829900876450518 -0.43881993842227229 0 0.37232265437563961 -0.45385461658856169 0 0.3724987380473973 -0.43811057589302699 0 0.38829900876450518 -0.43881993842227229 0 0.39365712103528572 -0.46341027258045492 0 0.37232265437563961 -0.45385461658856169 0 0.39365712103528572 -0.46341027258045492 0 0.37252821552419457 -0.4817051362902337 0 0.37232265437563961 -0.45385461658856169 0 0.41478602654637681 -0.44511540887067608 0 0.39365712103528572 -0.46341027258045492 0 0.39365712103528572 -0.46341027258045492 0 0.41777522129345529 -0.47164651894870752 0 0.37252821552419457 -0.4817051362902337 0 0.39365712103528572 -0.46341027258045492 0 0.37252821552419457 -0.4817051362902337 0 0.44171814154889161 -0.45487113992204048 0 0.43352877439350768 -0.5 0 0.41777522129345529 -0.47164651894870752 0 0.43352877439350768 -0.5 0 0.41777522129345529 -0.47164651894870752 0 0.37252821552419457 -0.4817051362902337 0 0.32056733686174721 -0.48964886063509028 0 0.32624616512545312 -0.5 0 0.31007391207358947 -0.49720625399739948 0 0.32056733686174721 -0.48964886063509028 0 0.31265939059256032 -0.4808735391469956 0 0.31007391207358947 -0.49720625399739948 0 0.32056733686174721 -0.48964886063509028 0 0.32438778864029721 -0.47685849291225452 0 0.3346382262376521 -0.48729374572087208 0 0.32056733686174721 -0.48964886063509028 0 0.32624616512545312 -0.5 0 0.3346382262376521 -0.48729374572087208 0 0.32056733686174721 -0.48964886063509028 0 0.31265939059256032 -0.4808735391469956 0 0.32438778864029721 -0.47685849291225452 0 0.31265939059256032 -0.4808735391469956 0 0.32438778864029721 -0.47685849291225452 0 0.31336321830030611 -0.46770634080847612 0 0.32438778864029721 -0.47685849291225452 0 0.3346382262376521 -0.48729374572087208 0 0.34435712771744142 -0.47533890257284772 0 0.32438778864029721 -0.47685849291225452 0 0.34435712771744142 -0.47533890257284772 0 0.32782215655366692 -0.45991027968836168 0 0.3346382262376521 -0.48729374572087208 0 0.35139931001309971 -0.50000000000000799 0 0.34435712771744142 -0.47533890257284772 0 0.32624616512545312 -0.5 0 0.3346382262376521 -0.48729374572087208 0 0.35139931001309971 -0.50000000000000799 0 0.35139931001309971 -0.50000000000000799 0 0.37252821552419457 -0.4817051362902337 0 0.34435712771744142 -0.47533890257284772 0 0.35139931001309971 -0.50000000000000799 0 0.37252821552419457 -0.4817051362902337 0 0.37252821552419457 -0.4817051362902337 0 0.34435712771744142 -0.47533890257284772 0 0.35386555560878702 -0.45887549078399897 0 0.34435712771744142 -0.47533890257284772 0 0.35386555560878702 -0.45887549078399897 0 0.34078407870123389 -0.45399132091730038 0 0.37252821552419457 -0.4817051362902337 0 0.35386555560878702 -0.45887549078399897 0 0.37232265437563961 -0.45385461658856169 0 0.37232265437563961 -0.45385461658856169 0 0.3724987380473973 -0.43811057589302699 0 0.35964418176794521 -0.44194827065919251 0 0.35386555560878702 -0.45887549078399897 0 0.37232265437563961 -0.45385461658856169 0 0.35964418176794521 -0.44194827065919251 0 0.35386555560878702 -0.45887549078399897 0 0.34541968474936419 -0.44255233216769491 0 0.34078407870123389 -0.45399132091730038 0 0.35964418176794521 -0.44194827065919251 0 0.34541968474936419 -0.44255233216769491 0 0.35040522234628729 -0.43050717115664061 0 0.35386555560878702 -0.45887549078399897 0 0.35964418176794521 -0.44194827065919251 0 0.34541968474936419 -0.44255233216769491 0 0.34541968474936419 -0.44255233216769491 0 0.33129456182674411 -0.44585293566203821 0 0.33626246234743967 -0.43488315202843131 0 0.33129456182674411 -0.44585293566203821 0 0.32181918499864748 -0.43520469634077752 0 0.33626246234743967 -0.43488315202843131 0 0.34541968474936419 -0.44255233216769491 0 0.33129456182674411 -0.44585293566203821 0 0.34078407870123389 -0.45399132091730038 0 0.34435712771744142 -0.47533890257284772 0 0.34078407870123389 -0.45399132091730038 0 0.32782215655366692 -0.45991027968836168 0 0.33129456182674411 -0.44585293566203821 0 0.34078407870123389 -0.45399132091730038 0 0.32782215655366692 -0.45991027968836168 0 0.32438778864029721 -0.47685849291225452 0 0.32782215655366692 -0.45991027968836168 0 0.31336321830030611 -0.46770634080847612 0 0.32782215655366692 -0.45991027968836168 0 0.31336321830030611 -0.46770634080847612 0 0.31126471218114121 -0.45011076786655119 0 0.32782215655366692 -0.45991027968836168 0 0.31126471218114121 -0.45011076786655119 0 0.33129456182674411 -0.44585293566203821 0 0.32181918499864748 -0.43520469634077752 0 0.31126471218114121 -0.45011076786655119 0 0.33129456182674411 -0.44585293566203821 0 0.32782215655366692 -0.45991027968836168 0 0.31126471218114121 -0.45011076786655119 0 0.32181918499864748 -0.43520469634077752 0 0.3083093359432531 -0.4357570665023528 0 0.31126471218114121 -0.45011076786655119 0 0.32181918499864748 -0.43520469634077752 0 0.31126471218114121 -0.45011076786655119 0 0.32181918499864748 -0.43520469634077752 0 0.3144704070371736 -0.42102142231502199 0 0.3323736578161568 -0.42029862481500602 0 0.32181918499864748 -0.43520469634077752 0 0.3323736578161568 -0.42029862481500602 0 0.32181918499864748 -0.43520469634077752 0 0.3144704070371736 -0.42102142231502199 0 0.3083093359432531 -0.4357570665023528 0 0.3144704070371736 -0.42102142231502199 0 0.3323736578161568 -0.42029862481500602 0 0.31771862418106628 -0.40725394573873303 0 0.3323736578161568 -0.42029862481500602 0 0.33041102023925872 -0.40181641043478139 0 0.3144704070371736 -0.42102142231502199 0 0.31771862418106628 -0.40725394573873303 0 0.3323736578161568 -0.42029862481500602 0 0.3323736578161568 -0.42029862481500602 0 0.3490188236464663 -0.3967906735686495 0 0.33041102023925872 -0.40181641043478139 0 0.3323736578161568 -0.42029862481500602 0 0.3490188236464663 -0.3967906735686495 0 0.3323736578161568 -0.42029862481500602 0 0.33626246234743967 -0.43488315202843131 0 0.35040522234628729 -0.43050717115664061 0 0.32181918499864748 -0.43520469634077752 0 0.3323736578161568 -0.42029862481500602 0 0.33626246234743967 -0.43488315202843131 0 0.34541968474936419 -0.44255233216769491 0 0.33626246234743967 -0.43488315202843131 0 0.35040522234628729 -0.43050717115664061 0 0.3323736578161568 -0.42029862481500602 0 0.35040522234628729 -0.43050717115664061 0 0.3607518234764191 -0.4191529296869318 0 0.35040522234628729 -0.43050717115664061 0 0.36537830535248578 -0.42797067230507191 0 0.3607518234764191 -0.4191529296869318 0 0.35964418176794521 -0.44194827065919251 0 0.35040522234628729 -0.43050717115664061 0 0.36537830535248578 -0.42797067230507191 0 0.3724987380473973 -0.43811057589302699 0 0.35964418176794521 -0.44194827065919251 0 0.36537830535248578 -0.42797067230507191 0 0.36537830535248578 -0.42797067230507191 0 0.3607518234764191 -0.4191529296869318 0 0.37548337450279867 -0.42840129688791501 0 0.36537830535248578 -0.42797067230507191 0 0.3607518234764191 -0.4191529296869318 0 0.37548337450279867 -0.42840129688791501 0 0.3724987380473973 -0.43811057589302699 0 0.36537830535248578 -0.42797067230507191 0 0.3607518234764191 -0.4191529296869318 0 0.36629372395372473 -0.40858994043926822 0 0.3599451611117373 -0.40124292018579832 0 0.39048899687318589 -0.41795236813227238 0 0.3607518234764191 -0.4191529296869318 0 0.36629372395372473 -0.40858994043926822 0 0.3323736578161568 -0.42029862481500602 0 0.3607518234764191 -0.4191529296869318 0 0.3490188236464663 -0.3967906735686495 0 0.3323736578161568 -0.42029862481500602 0 0.3607518234764191 -0.4191529296869318 0 0.3607518234764191 -0.4191529296869318 0 0.3490188236464663 -0.3967906735686495 0 0.3607518234764191 -0.4191529296869318 0 0.3490188236464663 -0.3967906735686495 0 0.3599451611117373 -0.40124292018579832 0 0.3490188236464663 -0.3967906735686495 0 0.35520600299253141 -0.38805252629499098 0 0.3490188236464663 -0.3967906735686495 0 0.3599451611117373 -0.40124292018579832 0 0.35520600299253141 -0.38805252629499098 0 0.37549628442055649 -0.38446264978734329 0 0.36629372395372473 -0.40858994043926822 0 0.36845543148954357 -0.39362853093915051 0 0.37549628442055649 -0.38446264978734329 0 0.37935681853712688 -0.39889960707608191 0 0.36629372395372473 -0.40858994043926822 0 0.36629372395372473 -0.40858994043926822 0 0.3599451611117373 -0.40124292018579832 0 0.36845543148954357 -0.39362853093915051 0 0.37549628442055649 -0.38446264978734329 0 0.36629372395372473 -0.40858994043926822 0 0.36845543148954357 -0.39362853093915051 0 0.35520600299253141 -0.38805252629499098 0 0.3599451611117373 -0.40124292018579832 0 0.36845543148954357 -0.39362853093915051 0 0.35520600299253141 -0.38805252629499098 0 0.37549628442055649 -0.38446264978734329 0 0.37242863952391181 -0.37555121513872047 0 0.36429298253496822 -0.38498981470370092 0 0.37549628442055649 -0.38446264978734329 0 0.36845543148954357 -0.39362853093915051 0 0.36429298253496822 -0.38498981470370092 0 0.36429298253496822 -0.38498981470370092 0 0.36416379075267502 -0.37540145149721582 0 0.35520600299253141 -0.38805252629499098 0 0.36845543148954357 -0.39362853093915051 0 0.36429298253496822 -0.38498981470370092 0 0.35520600299253141 -0.38805252629499098 0 0.36416379075267502 -0.37540145149721582 0 0.35520600299253141 -0.38805252629499098 0 0.37242863952391181 -0.37555121513872047 0 0.36429298253496822 -0.38498981470370092 0 0.36416379075267502 -0.37540145149721582 0 0.36416379075267502 -0.37540145149721582 0 0.35289675037090312 -0.37859743212683211 0 0.35520600299253141 -0.38805252629499098 0 0.35289675037090312 -0.37859743212683211 0 0.35520600299253141 -0.38805252629499098 0 0.34138151334009348 -0.38223450791612301 0 0.3490188236464663 -0.3967906735686495 0 0.35520600299253141 -0.38805252629499098 0 0.34138151334009348 -0.38223450791612301 0 0.35520600299253141 -0.38805252629499098 0 0.34138151334009348 -0.38223450791612301 0 0.3490188236464663 -0.3967906735686495 0 0.34138151334009348 -0.38223450791612301 0 0.35289675037090312 -0.37859743212683211 0 0.34138151334009348 -0.38223450791612301 0 0.35083569439831191 -0.36870124279900002 0 0.34138151334009348 -0.38223450791612301 0 0.3319056956646585 -0.39042564581702499 0 0.31623547556305071 -0.37165183082490788 0 0.34138151334009348 -0.38223450791612301 0 0.31623547556305071 -0.37165183082490788 0 0.3490188236464663 -0.3967906735686495 0 0.34138151334009348 -0.38223450791612301 0 0.3319056956646585 -0.39042564581702499 0 0.3490188236464663 -0.3967906735686495 0 0.3319056956646585 -0.39042564581702499 0 0.33041102023925872 -0.40181641043478139 0 0.31771862418106628 -0.40725394573873303 0 0.32103829988794558 -0.39431316223449348 0 0.30596787319302171 -0.390895282270947 0 0.3319056956646585 -0.39042564581702499 0 0.33041102023925872 -0.40181641043478139 0 0.32103829988794558 -0.39431316223449348 0 0.31771862418106628 -0.40725394573873303 0 0.33041102023925872 -0.40181641043478139 0 0.32103829988794558 -0.39431316223449348 0 0.3319056956646585 -0.39042564581702499 0 0.32103829988794558 -0.39431316223449348 0 0.31623547556305071 -0.37165183082490788 0 0.32103829988794558 -0.39431316223449348 0 0.30596787319302171 -0.390895282270947 0 0.31623547556305071 -0.37165183082490788 0 0.30596787319302171 -0.390895282270947 0 0.29535170876549521 -0.37816480645353728 0 0.31623547556305071 -0.37165183082490788 0 0.30596787319302171 -0.390895282270947 0 0.29450990563430451 -0.38968532847873649 0 0.29535170876549521 -0.37816480645353728 0 0.30596787319302171 -0.390895282270947 0 0.29731567157365107 -0.39770812900888308 0 0.30444779147891848 -0.40657427859296658 0 0.31771862418106628 -0.40725394573873303 0 0.30596787319302171 -0.390895282270947 0 0.30444779147891848 -0.40657427859296658 0 0.29731567157365107 -0.39770812900888308 0 0.29366379664604297 -0.40663821166536568 0 0.30444779147891848 -0.40657427859296658 0 0.30596787319302171 -0.390895282270947 0 0.29731567157365107 -0.39770812900888308 0 0.29450990563430451 -0.38968532847873649 0 0.29731567157365107 -0.39770812900888308 0 0.28894995372848409 -0.39651127404197878 0 0.29450990563430451 -0.38968532847873649 0 0.29731567157365107 -0.39770812900888308 0 0.28894995372848409 -0.39651127404197878 0 0.29366379664604297 -0.40663821166536568 0 0.28894995372848409 -0.39651127404197878 0 0.2815092983686337 -0.40710072550750348 0 0.29366379664604297 -0.40663821166536568 0 0.28894995372848409 -0.39651127404197878 0 0.27616815359807662 -0.39439336948851023 0 0.2815092983686337 -0.40710072550750348 0 0.28894995372848409 -0.39651127404197878 0 0.28496432091087037 -0.38514715061833621 0 0.27616815359807662 -0.39439336948851023 0 0.28894995372848409 -0.39651127404197878 0 0.28496432091087037 -0.38514715061833621 0 0.29450990563430451 -0.38968532847873649 0 0.28496432091087037 -0.38514715061833621 0 0.29450990563430451 -0.38968532847873649 0 0.29535170876549521 -0.37816480645353728 0 0.28496432091087037 -0.38514715061833621 0 0.29535170876549521 -0.37816480645353728 0 0.28177906844467188 -0.37331109614804658 0 0.28496432091087037 -0.38514715061833621 0 0.27417348254937129 -0.38194079516095197 0 0.28177906844467188 -0.37331109614804658 0 0.27417348254937129 -0.38194079516095197 0 0.28177906844467188 -0.37331109614804658 0 0.26962957393813108 -0.37145162001575421 0 0.28496432091087037 -0.38514715061833621 0 0.27417348254937129 -0.38194079516095197 0 0.27616815359807662 -0.39439336948851023 0 0.27417348254937129 -0.38194079516095197 0 0.26499543035128209 -0.38662700064025812 0 0.27616815359807662 -0.39439336948851023 0 0.27417348254937129 -0.38194079516095197 0 0.25917113102860018 -0.37807428704217833 0 0.26499543035128209 -0.38662700064025812 0 0.27417348254937129 -0.38194079516095197 0 0.25917113102860018 -0.37807428704217833 0 0.26962957393813108 -0.37145162001575421 0 0.25917113102860018 -0.37807428704217833 0 0.26499543035128209 -0.38662700064025812 0 0.25624724933655108 -0.39128642178475592 0 0.25917113102860018 -0.37807428704217833 0 0.25624724933655108 -0.39128642178475592 0 0.24734391795286381 -0.38441917376600698 0 0.25624724933655108 -0.39128642178475592 0 0.25981884882988138 -0.40398287739287808 0 0.2491629991534493 -0.40150080443638358 0 0.25624724933655108 -0.39128642178475592 0 0.25981884882988138 -0.40398287739287808 0 0.26566283660620382 -0.3962874570397894 0 0.26499543035128209 -0.38662700064025812 0 0.25624724933655108 -0.39128642178475592 0 0.26566283660620382 -0.3962874570397894 0 0.27153816795931468 -0.40577031629477522 0 0.26566283660620382 -0.3962874570397894 0 0.27616815359807662 -0.39439336948851023 0 0.25981884882988138 -0.40398287739287808 0 0.27153816795931468 -0.40577031629477522 0 0.26566283660620382 -0.3962874570397894 0 0.26499543035128209 -0.38662700064025812 0 0.26566283660620382 -0.3962874570397894 0 0.27616815359807662 -0.39439336948851023 0 0.27153816795931468 -0.40577031629477522 0 0.27616815359807662 -0.39439336948851023 0 0.2815092983686337 -0.40710072550750348 0 0.27439446467920658 -0.41276222724855249 0 0.27955027561715462 -0.41724549304455028 0 0.2815092983686337 -0.40710072550750348 0 0.27153816795931468 -0.40577031629477522 0 0.27439446467920658 -0.41276222724855249 0 0.2815092983686337 -0.40710072550750348 0 0.27955027561715462 -0.41724549304455028 0 0.27763057560152132 -0.4223548138795396 0 0.28361350279284969 -0.42144012080746879 0 0.27439446467920658 -0.41276222724855249 0 0.27955027561715462 -0.41724549304455028 0 0.27303659032236482 -0.41922001595279001 0 0.27955027561715462 -0.41724549304455028 0 0.27303659032236482 -0.41922001595279001 0 0.27763057560152132 -0.4223548138795396 0 0.26633799112856538 -0.41447458544314342 0 0.27303659032236482 -0.41922001595279001 0 0.27097215381067702 -0.4264213842037935 0 0.27439446467920658 -0.41276222724855249 0 0.26633799112856538 -0.41447458544314342 0 0.27303659032236482 -0.41922001595279001 0 0.25981884882988138 -0.40398287739287808 0 0.27153816795931468 -0.40577031629477522 0 0.26633799112856538 -0.41447458544314342 0 0.27153816795931468 -0.40577031629477522 0 0.27439446467920658 -0.41276222724855249 0 0.26633799112856538 -0.41447458544314342 0 0.26633799112856538 -0.41447458544314342 0 0.27097215381067702 -0.4264213842037935 0 0.24974699242630519 -0.41370154864014491 0 0.25981884882988138 -0.40398287739287808 0 0.26633799112856538 -0.41447458544314342 0 0.24974699242630519 -0.41370154864014491 0 0.27097215381067702 -0.4264213842037935 0 0.24974699242630519 -0.41370154864014491 0 0.25981884882988138 -0.40398287739287808 0 0.24974699242630519 -0.41370154864014491 0 0.2491629991534493 -0.40150080443638358 0 0.26063297104264288 -0.42585595616586541 0 0.27097215381067702 -0.4264213842037935 0 0.24974699242630519 -0.41370154864014491 0 0.25055220863009692 -0.42848970676854908 0 0.2639577585467161 -0.43270764679546181 0 0.25753091473130918 -0.43980992396812418 0 0.25055220863009692 -0.42848970676854908 0 0.25753091473130918 -0.43980992396812418 0 0.24325533924919579 -0.44161904974508898 0 0.25055220863009692 -0.42848970676854908 0 0.26063297104264288 -0.42585595616586541 0 0.24974699242630519 -0.41370154864014491 0 0.25055220863009692 -0.42848970676854908 0 0.26063297104264288 -0.42585595616586541 0 0.2639577585467161 -0.43270764679546181 0 0.26063297104264288 -0.42585595616586541 0 0.2639577585467161 -0.43270764679546181 0 0.26764215056028551 -0.42901441774765942 0 0.2639577585467161 -0.43270764679546181 0 0.26708825074498449 -0.43717353628010708 0 0.25753091473130918 -0.43980992396812418 0 0.27097215381067702 -0.4264213842037935 0 0.29075880559619582 -0.43797436145774932 0 0.2639577585467161 -0.43270764679546181 0 0.26708825074498449 -0.43717353628010708 0 0.26927057340000271 -0.4324143928931683 0 0.27066355849006318 -0.42991932500225288 0 0.27097215381067702 -0.4264213842037935 0 0.27357090814651858 -0.43504459727457162 0 0.27097215381067702 -0.4264213842037935 0 0.27357090814651858 -0.43504459727457162 0 0.2834768419446877 -0.44905828752215771 0 0.2639577585467161 -0.43270764679546181 0 0.26927057340000271 -0.4324143928931683 0 0.26764215056028551 -0.42901441774765942 0 0.26927057340000271 -0.4324143928931683 0 0.27066355849006318 -0.42991932500225288 0 0.26764215056028551 -0.42901441774765942 0 0.26927057340000271 -0.4324143928931683 0 0.27066355849006318 -0.42991932500225288 0 0.27357090814651858 -0.43504459727457162 0 0.26708825074498449 -0.43717353628010708 0 0.27357090814651858 -0.43504459727457162 0 0.27027744776249618 -0.43958811483667659 0 0.26708825074498449 -0.43717353628010708 0 0.26927057340000271 -0.4324143928931683 0 0.27357090814651858 -0.43504459727457162 0 0.26063297104264288 -0.42585595616586541 0 0.26764215056028551 -0.42901441774765942 0 0.27097215381067702 -0.4264213842037935 0 0.27066355849006318 -0.42991932500225288 0 0.26764215056028551 -0.42901441774765942 0 0.26999857296554741 -0.42785608700574518 0 0.27066355849006318 -0.42991932500225288 0 0.26999857296554741 -0.42785608700574518 0 0.27097215381067702 -0.4264213842037935 0 0.26764215056028551 -0.42901441774765942 0 0.26999857296554741 -0.42785608700574518 0 0.27097215381067702 -0.4264213842037935 0 0.27097215381067702 -0.4264213842037935 0 0.27763057560152132 -0.4223548138795396 0 0.2824924724951976 -0.42746281048118689 0 0.27303659032236482 -0.41922001595279001 0 0.27097215381067702 -0.4264213842037935 0 0.27763057560152132 -0.4223548138795396 0 0.27763057560152132 -0.4223548138795396 0 0.2824924724951976 -0.42746281048118689 0 0.28361350279284969 -0.42144012080746879 0 0.29103081100320388 -0.42596206374315693 0 0.2824924724951976 -0.42746281048118689 0 0.29075880559619582 -0.43797436145774932 0 0.27097215381067702 -0.4264213842037935 0 0.2824924724951976 -0.42746281048118689 0 0.29075880559619582 -0.43797436145774932 0 0.29103081100320388 -0.42596206374315693 0 0.30093832001302112 -0.42770599611641319 0 0.29075880559619582 -0.43797436145774932 0 0.29103081100320388 -0.42596206374315693 0 0.2824924724951976 -0.42746281048118689 0 0.28361350279284969 -0.42144012080746879 0 0.27955027561715462 -0.41724549304455028 0 0.28361350279284969 -0.42144012080746879 0 0.28815447239797892 -0.41570953500653718 0 0.29103081100320388 -0.42596206374315693 0 0.28361350279284969 -0.42144012080746879 0 0.28815447239797892 -0.41570953500653718 0 0.28815447239797892 -0.41570953500653718 0 0.2815092983686337 -0.40710072550750348 0 0.29366379664604297 -0.40663821166536568 0 0.27955027561715462 -0.41724549304455028 0 0.28815447239797892 -0.41570953500653718 0 0.2815092983686337 -0.40710072550750348 0 0.28815447239797892 -0.41570953500653718 0 0.29366379664604297 -0.40663821166536568 0 0.29902992271380519 -0.41702185987915708 0 0.29103081100320388 -0.42596206374315693 0 0.28815447239797892 -0.41570953500653718 0 0.29902992271380519 -0.41702185987915708 0 0.29366379664604297 -0.40663821166536568 0 0.29902992271380519 -0.41702185987915708 0 0.30444779147891848 -0.40657427859296658 0 0.3144704070371736 -0.42102142231502199 0 0.31771862418106628 -0.40725394573873303 0 0.30444779147891848 -0.40657427859296658 0 0.3144704070371736 -0.42102142231502199 0 0.29902992271380519 -0.41702185987915708 0 0.30444779147891848 -0.40657427859296658 0 0.3144704070371736 -0.42102142231502199 0 0.29902992271380519 -0.41702185987915708 0 0.30093832001302112 -0.42770599611641319 0 0.3083093359432531 -0.4357570665023528 0 0.30093832001302112 -0.42770599611641319 0 0.29075880559619582 -0.43797436145774932 0 0.3144704070371736 -0.42102142231502199 0 0.3083093359432531 -0.4357570665023528 0 0.30093832001302112 -0.42770599611641319 0 0.29103081100320388 -0.42596206374315693 0 0.29902992271380519 -0.41702185987915708 0 0.30093832001302112 -0.42770599611641319 0 0.3083093359432531 -0.4357570665023528 0 0.31126471218114121 -0.45011076786655119 0 0.29075880559619582 -0.43797436145774932 0 0.31126471218114121 -0.45011076786655119 0 0.29075880559619582 -0.43797436145774932 0 0.31126471218114121 -0.45011076786655119 0 0.29565423478465269 -0.44835983485896702 0 0.29075880559619582 -0.43797436145774932 0 0.31126471218114121 -0.45011076786655119 0 0.29711657941658798 -0.45629592258941132 0 0.29565423478465269 -0.44835983485896702 0 0.31126471218114121 -0.45011076786655119 0 0.29711657941658798 -0.45629592258941132 0 0.29598153007869821 -0.47169519084052208 0 0.31336321830030611 -0.46770634080847612 0 0.31126471218114121 -0.45011076786655119 0 0.29598153007869821 -0.47169519084052208 0 0.31126471218114121 -0.45011076786655119 0 0.29598153007869821 -0.47169519084052208 0 0.2834768419446877 -0.44905828752215771 0 0.27957602047477081 -0.45991186036750198 0 0.29598153007869821 -0.47169519084052208 0 0.2834768419446877 -0.44905828752215771 0 0.29598153007869821 -0.47169519084052208 0 0.27957602047477081 -0.45991186036750198 0 0.27954497957318181 -0.46861725648546138 0 0.29598153007869821 -0.47169519084052208 0 0.29711657941658798 -0.45629592258941132 0 0.2834768419446877 -0.44905828752215771 0 0.29598153007869821 -0.47169519084052208 0 0.27097215381067702 -0.4264213842037935 0 0.2834768419446877 -0.44905828752215771 0 0.29075880559619582 -0.43797436145774932 0 0.29711657941658798 -0.45629592258941132 0 0.2834768419446877 -0.44905828752215771 0 0.29565423478465269 -0.44835983485896702 0 0.2834768419446877 -0.44905828752215771 0 0.29565423478465269 -0.44835983485896702 0 0.29075880559619582 -0.43797436145774932 0 0.27357090814651858 -0.43504459727457162 0 0.2834768419446877 -0.44905828752215771 0 0.27677428529051729 -0.44378246647296637 0 0.27097215381067702 -0.4264213842037935 0 0.2834768419446877 -0.44905828752215771 0 0.27357090814651858 -0.43504459727457162 0 0.27439129528981399 -0.44214757876530081 0 0.27677428529051729 -0.44378246647296637 0 0.27439129528981399 -0.44214757876530081 0 0.27677428529051729 -0.44378246647296637 0 0.275658095781049 -0.44887940232983542 0 0.2834768419446877 -0.44905828752215771 0 0.27677428529051729 -0.44378246647296637 0 0.275658095781049 -0.44887940232983542 0 0.2834768419446877 -0.44905828752215771 0 0.275658095781049 -0.44887940232983542 0 0.27957602047477081 -0.45991186036750198 0 0.27439129528981399 -0.44214757876530081 0 0.275658095781049 -0.44887940232983542 0 0.26605933686866762 -0.44398674702672741 0 0.27439129528981399 -0.44214757876530081 0 0.27027744776249618 -0.43958811483667659 0 0.26605933686866762 -0.44398674702672741 0 0.27357090814651858 -0.43504459727457162 0 0.27439129528981399 -0.44214757876530081 0 0.27027744776249618 -0.43958811483667659 0 0.26708825074498449 -0.43717353628010708 0 0.27027744776249618 -0.43958811483667659 0 0.26605933686866762 -0.44398674702672741 0 0.26708825074498449 -0.43717353628010708 0 0.26605933686866762 -0.44398674702672741 0 0.25753091473130918 -0.43980992396812418 0 0.26605933686866762 -0.44398674702672741 0 0.25753091473130918 -0.43980992396812418 0 0.24690134972361449 -0.45780391691628047 0 0.275658095781049 -0.44887940232983542 0 0.26605933686866762 -0.44398674702672741 0 0.24690134972361449 -0.45780391691628047 0 0.275658095781049 -0.44887940232983542 0 0.24690134972361449 -0.45780391691628047 0 0.275658095781049 -0.44887940232983542 0 0.26919399677712702 -0.46566941480999557 0 0.24690134972361449 -0.45780391691628047 0 0.26919399677712702 -0.46566941480999557 0 0.25851468836889691 -0.48015031187998147 0 0.24690134972361449 -0.45780391691628047 0 0.275658095781049 -0.44887940232983542 0 0.26919399677712702 -0.46566941480999557 0 0.27957602047477081 -0.45991186036750198 0 0.26919399677712702 -0.46566941480999557 0 0.27957602047477081 -0.45991186036750198 0 0.27954497957318181 -0.46861725648546138 0 0.26919399677712702 -0.46566941480999557 0 0.27954497957318181 -0.46861725648546138 0 0.27467261647664848 -0.47901899880423282 0 0.26919399677712702 -0.46566941480999557 0 0.27467261647664848 -0.47901899880423282 0 0.25851468836889691 -0.48015031187998147 0 0.27954497957318181 -0.46861725648546138 0 0.27467261647664848 -0.47901899880423282 0 0.28596070271442853 -0.48584759542025951 0 0.25851468836889691 -0.48015031187998147 0 0.27593987535016012 -0.49999999999999772 0 0.24840868062813529 -0.5 0 0.25851468836889691 -0.48015031187998147 0 0.24840868062813529 -0.5 0 0.24386290002639691 -0.47991278089067091 0 0.27467261647664848 -0.47901899880423282 0 0.27593987535016012 -0.49999999999999772 0 0.28596070271442853 -0.48584759542025951 0 0.27467261647664848 -0.47901899880423282 0 0.25851468836889691 -0.48015031187998147 0 0.27593987535016012 -0.49999999999999772 0 0.27593987535016012 -0.49999999999999772 0 0.28596070271442853 -0.48584759542025951 0 0.28596070271442853 -0.48584759542025951 0 0.29598153007869821 -0.47169519084052208 0 0.3010930202378066 -0.5 0 0.27593987535016012 -0.49999999999999772 0 0.28596070271442853 -0.48584759542025951 0 0.3010930202378066 -0.5 0 0.27954497957318181 -0.46861725648546138 0 0.28596070271442853 -0.48584759542025951 0 0.29598153007869821 -0.47169519084052208 0 0.28596070271442853 -0.48584759542025951 0 0.29598153007869821 -0.47169519084052208 0 0.31265939059256032 -0.4808735391469956 0 0.31336321830030611 -0.46770634080847612 0 0.29598153007869821 -0.47169519084052208 0 0.31265939059256032 -0.4808735391469956 0 0.29598153007869821 -0.47169519084052208 0 0.31007391207358947 -0.49720625399739948 0 0.29598153007869821 -0.47169519084052208 0 0.31007391207358947 -0.49720625399739948 0 0.32624616512545312 -0.5 0 0.3010930202378066 -0.5 0 0.31007391207358947 -0.49720625399739948 0 0.29598153007869821 -0.47169519084052208 0 0.3010930202378066 -0.5 0 0.31007391207358947 -0.49720625399739948 0 0.33745709777281108 -0.28654841139457188 0 0.33328406457009868 -0.29697244432242548 0 0.35055765701934299 -0.29889144224840858 0 0.33745709777281108 -0.28654841139457188 0 0.33328406457009868 -0.29697244432242548 0 0.32783827500084017 -0.28881756245386048 0 0.33745709777281108 -0.28654841139457188 0 0.32783827500084017 -0.28881756245386048 0 0.33111846635805342 -0.27881395066646641 0 0.35055765701934299 -0.29889144224840858 0 0.33326356423954973 -0.31634621051853501 0 0.33091233838665651 -0.31163645728041439 0 0.35055765701934299 -0.29889144224840858 0 0.33091233838665651 -0.31163645728041439 0 0.33328406457009868 -0.29697244432242548 0 0.35055765701934299 -0.29889144224840858 0 0.33091233838665651 -0.31163645728041439 0 0.35055765701934299 -0.29889144224840858 0 0.33326356423954973 -0.31634621051853501 0 0.33091233838665651 -0.31163645728041439 0 0.33328406457009868 -0.29697244432242548 0 0.31990736383551549 -0.301243210787001 0 0.31990736383551549 -0.301243210787001 0 0.31831298911890699 -0.28718630380448151 0 0.3069844095119601 -0.29202602878287198 0 0.33328406457009868 -0.29697244432242548 0 0.31990736383551549 -0.301243210787001 0 0.32783827500084017 -0.28881756245386048 0 0.31990736383551549 -0.301243210787001 0 0.32783827500084017 -0.28881756245386048 0 0.31831298911890699 -0.28718630380448151 0 0.31831298911890699 -0.28718630380448151 0 0.33111846635805342 -0.27881395066646641 0 0.32783827500084017 -0.28881756245386048 0 0.31831298911890699 -0.28718630380448151 0 0.33111846635805342 -0.27881395066646641 0 0.31831298911890699 -0.28718630380448151 0 0.32775472239112868 -0.27804833647462179 0 0.33111846635805342 -0.27881395066646641 0 0.31831298911890699 -0.28718630380448151 0 0.31943454580334962 -0.27799716772982269 0 0.30894275617869349 -0.28097996543997389 0 0.31943454580334962 -0.27799716772982269 0 0.31328414491916318 -0.2721365281860576 0 0.30894275617869349 -0.28097996543997389 0 0.31943454580334962 -0.27799716772982269 0 0.31328414491916318 -0.2721365281860576 0 0.320629592332286 -0.27069203077961629 0 0.31328414491916318 -0.2721365281860576 0 0.320629592332286 -0.27069203077961629 0 0.3126828127692412 -0.26078667732085881 0 0.320629592332286 -0.27069203077961629 0 0.3269405571611475 -0.2717081536848337 0 0.33153212659078263 -0.26726087665248199 0 0.31831298911890699 -0.28718630380448151 0 0.31943454580334962 -0.27799716772982269 0 0.32775472239112868 -0.27804833647462179 0 0.31943454580334962 -0.27799716772982269 0 0.3269405571611475 -0.2717081536848337 0 0.32775472239112868 -0.27804833647462179 0 0.31943454580334962 -0.27799716772982269 0 0.320629592332286 -0.27069203077961629 0 0.3269405571611475 -0.2717081536848337 0 0.320629592332286 -0.27069203077961629 0 0.32546114100035839 -0.25096911166471841 0 0.320629592332286 -0.27069203077961629 0 0.32546114100035839 -0.25096911166471841 0 0.33153212659078263 -0.26726087665248199 0 0.320629592332286 -0.27069203077961629 0 0.3126828127692412 -0.26078667732085881 0 0.32546114100035839 -0.25096911166471841 0 0.31333578311129251 -0.24688137415892061 0 0.3126828127692412 -0.26078667732085881 0 0.32546114100035839 -0.25096911166471841 0 0.33682175483416033 -0.23998261405678609 0 0.32546114100035839 -0.25096911166471841 0 0.34289542313465499 -0.266030606943093 0 0.33682175483416033 -0.23998261405678609 0 0.34289542313465499 -0.266030606943093 0 0.34482713688762151 -0.25159308428585442 0 0.33682175483416033 -0.23998261405678609 0 0.34289542313465499 -0.266030606943093 0 0.32546114100035839 -0.25096911166471841 0 0.33153212659078263 -0.26726087665248199 0 0.34289542313465499 -0.266030606943093 0 0.33745709777281108 -0.28654841139457188 0 0.33111846635805342 -0.27881395066646641 0 0.34392394359720102 -0.2704415975284532 0 0.32775472239112868 -0.27804833647462179 0 0.33111846635805342 -0.27881395066646641 0 0.34289542313465499 -0.266030606943093 0 0.32775472239112868 -0.27804833647462179 0 0.33153212659078263 -0.26726087665248199 0 0.34289542313465499 -0.266030606943093 0 0.3269405571611475 -0.2717081536848337 0 0.32775472239112868 -0.27804833647462179 0 0.33153212659078263 -0.26726087665248199 0 0.32775472239112868 -0.27804833647462179 0 0.34289542313465499 -0.266030606943093 0 0.33111846635805342 -0.27881395066646641 0 0.34289542313465499 -0.266030606943093 0 0.34392394359720102 -0.2704415975284532 0 0.34289542313465499 -0.266030606943093 0 0.34392394359720102 -0.2704415975284532 0 0.33111846635805342 -0.27881395066646641 0 0.34392394359720102 -0.2704415975284532 0 0.34392394359720102 -0.2704415975284532 0 0.35699228011096229 -0.27474467911101191 0 0.36362174633351529 -0.25756297086959801 0 0.34392394359720102 -0.2704415975284532 0 0.35699228011096229 -0.27474467911101191 0 0.35036281388841067 -0.29192638735242621 0 0.34482713688762151 -0.25159308428585442 0 0.36245329046492442 -0.25050681027277272 0 0.34289542313465499 -0.266030606943093 0 0.34392394359720102 -0.2704415975284532 0 0.36362174633351529 -0.25756297086959801 0 0.34289542313465499 -0.266030606943093 0 0.36245329046492442 -0.25050681027277272 0 0.36362174633351529 -0.25756297086959801 0 0.34289542313465499 -0.266030606943093 0 0.36245329046492442 -0.25050681027277272 0 0.34392394359720102 -0.2704415975284532 0 0.36362174633351529 -0.25756297086959801 0 0.34289542313465499 -0.266030606943093 0 0.34482713688762151 -0.25159308428585442 0 0.36245329046492442 -0.25050681027277272 0 0.36643910530968188 -0.25026117034527051 0 0.36245329046492442 -0.25050681027277272 0 0.36643910530968188 -0.25026117034527051 0 0.36245329046492442 -0.25050681027277272 0 0.36362174633351529 -0.25756297086959801 0 0.36643910530968188 -0.25026117034527051 0 0.36362174633351529 -0.25756297086959801 0 0.37565887922929531 -0.24969296919058201 0 0.36362174633351529 -0.25756297086959801 0 0.37565887922929531 -0.24969296919058201 0 0.36643910530968188 -0.25026117034527051 0 0.36362174633351529 -0.25756297086959801 0 0.37565887922929531 -0.24969296919058201 0 0.36362174633351529 -0.25756297086959801 0 0.37039766593308249 -0.26530491786777149 0 0.35699228011096229 -0.27474467911101191 0 0.36362174633351529 -0.25756297086959801 0 0.35699228011096229 -0.27474467911101191 0 0.36362174633351529 -0.25756297086959801 0 0.37039766593308249 -0.26530491786777149 0 0.37846357976979139 -0.27847271787954059 0 0.37039766593308249 -0.26530491786777149 0 0.36734355168217941 -0.28194959364858868 0 0.35699228011096229 -0.27474467911101191 0 0.37039766593308249 -0.26530491786777149 0 0.36734355168217941 -0.28194959364858868 0 0.35699228011096229 -0.27474467911101191 0 0.36734355168217941 -0.28194959364858868 0 0.35763338902298941 -0.28486187279625808 0 0.37846357976979139 -0.27847271787954059 0 0.35362394961069332 -0.29579666142862998 0 0.37846357976979139 -0.27847271787954059 0 0.36734355168217941 -0.28194959364858868 0 0.35362394961069332 -0.29579666142862998 0 0.37668291268412779 -0.30656527081950691 0 0.37846357976979139 -0.27847271787954059 0 0.35362394961069332 -0.29579666142862998 0 0.36734355168217941 -0.28194959364858868 0 0.35362394961069332 -0.29579666142862998 0 0.36734355168217941 -0.28194959364858868 0 0.35763338902298941 -0.28486187279625808 0 0.35362394961069332 -0.29579666142862998 0 0.35699228011096229 -0.27474467911101191 0 0.35036281388841067 -0.29192638735242621 0 0.34392394359720102 -0.2704415975284532 0 0.35055765701934299 -0.29889144224840858 0 0.34392394359720102 -0.2704415975284532 0 0.35036281388841067 -0.29192638735242621 0 0.35055765701934299 -0.29889144224840858 0 0.33745709777281108 -0.28654841139457188 0 0.34392394359720102 -0.2704415975284532 0 0.35055765701934299 -0.29889144224840858 0 0.35699228011096229 -0.27474467911101191 0 0.35763338902298941 -0.28486187279625808 0 0.35036281388841067 -0.29192638735242621 0 0.35763338902298941 -0.28486187279625808 0 0.35362394961069332 -0.29579666142862998 0 0.35036281388841067 -0.29192638735242621 0 0.35362394961069332 -0.29579666142862998 0 0.35036281388841067 -0.29192638735242621 0 0.35055765701934299 -0.29889144224840858 0 0.35055765701934299 -0.29889144224840858 0 0.36156373635495709 -0.30972979717960081 0 0.35648650181240349 -0.3243183340958305 0 0.35055765701934299 -0.29889144224840858 0 0.35648650181240349 -0.3243183340958305 0 0.35362394961069332 -0.29579666142862998 0 0.35055765701934299 -0.29889144224840858 0 0.36156373635495709 -0.30972979717960081 0 0.35362394961069332 -0.29579666142862998 0 0.35055765701934299 -0.29889144224840858 0 0.37668291268412779 -0.30656527081950691 0 0.35362394961069332 -0.29579666142862998 0 0.36156373635495709 -0.30972979717960081 0 0.36156373635495709 -0.30972979717960081 0 0.37490224559847363 -0.33465782375947378 0 0.35648650181240349 -0.3243183340958305 0 0.37668291268412779 -0.30656527081950691 0 0.36156373635495709 -0.30972979717960081 0 0.37490224559847363 -0.33465782375947378 0 0.35648650181240349 -0.3243183340958305 0 0.36241534660546632 -0.34974522594325169 0 0.37490224559847363 -0.33465782375947378 0 0.35648650181240349 -0.3243183340958305 0 0.36241534660546632 -0.34974522594325169 0 0.35648650181240349 -0.3243183340958305 0 0.35241056966696332 -0.34551506717349062 0 0.34344151124575339 -0.34128078080625601 0 0.35648650181240349 -0.3243183340958305 0 0.36241534660546632 -0.34974522594325169 0 0.35241056966696332 -0.34551506717349062 0 0.35648650181240349 -0.3243183340958305 0 0.34344151124575339 -0.34128078080625601 0 0.33293608566834648 -0.33165099694907191 0 0.35055765701934299 -0.29889144224840858 0 0.35648650181240349 -0.3243183340958305 0 0.33326356423954973 -0.31634621051853501 0 0.36416379075267502 -0.37540145149721582 0 0.3731215785128188 -0.36275037669944071 0 0.36095363985473561 -0.3636315678826389 0 0.36416379075267502 -0.37540145149721582 0 0.37278764284911858 -0.36801868619234562 0 0.3731215785128188 -0.36275037669944071 0 0.37242863952391181 -0.37555121513872047 0 0.36416379075267502 -0.37540145149721582 0 0.37278764284911858 -0.36801868619234562 0 0.36416379075267502 -0.37540145149721582 0 0.3731215785128188 -0.36275037669944071 0 0.37278764284911858 -0.36801868619234562 0 0.3731215785128188 -0.36275037669944071 0 0.37490224559847363 -0.33465782375947378 0 0.3731215785128188 -0.36275037669944071 0 0.37490224559847363 -0.33465782375947378 0 0.3731215785128188 -0.36275037669944071 0 0.36241534660546632 -0.34974522594325169 0 0.3731215785128188 -0.36275037669944071 0 0.36095363985473561 -0.3636315678826389 0 0.36241534660546632 -0.34974522594325169 0 0.36241534660546632 -0.34974522594325169 0 0.35241056966696332 -0.34551506717349062 0 0.35300834318766061 -0.35788204111902039 0 0.35241056966696332 -0.34551506717349062 0 0.3464198571855619 -0.35266651533788262 0 0.34344151124575339 -0.34128078080625601 0 0.35241056966696332 -0.34551506717349062 0 0.3464198571855619 -0.35266651533788262 0 0.35300834318766061 -0.35788204111902039 0 0.3464198571855619 -0.35266651533788262 0 0.35300834318766061 -0.35788204111902039 0 0.34433985949979479 -0.3629947750213508 0 0.36095363985473561 -0.3636315678826389 0 0.36241534660546632 -0.34974522594325169 0 0.35300834318766061 -0.35788204111902039 0 0.34138151334009348 -0.38223450791612301 0 0.34433985949979479 -0.3629947750213508 0 0.35083569439831191 -0.36870124279900002 0 0.36095363985473561 -0.3636315678826389 0 0.35300834318766061 -0.35788204111902039 0 0.35083569439831191 -0.36870124279900002 0 0.35300834318766061 -0.35788204111902039 0 0.34433985949979479 -0.3629947750213508 0 0.35083569439831191 -0.36870124279900002 0 0.36416379075267502 -0.37540145149721582 0 0.35289675037090312 -0.37859743212683211 0 0.35083569439831191 -0.36870124279900002 0 0.36416379075267502 -0.37540145149721582 0 0.36095363985473561 -0.3636315678826389 0 0.35083569439831191 -0.36870124279900002 0 0.34138151334009348 -0.38223450791612301 0 0.32954035595489839 -0.35966611125522668 0 0.31623547556305071 -0.37165183082490788 0 0.34138151334009348 -0.38223450791612301 0 0.34433985949979479 -0.3629947750213508 0 0.33427297210759221 -0.35949342197203682 0 0.34138151334009348 -0.38223450791612301 0 0.33427297210759221 -0.35949342197203682 0 0.32954035595489839 -0.35966611125522668 0 0.34138151334009348 -0.38223450791612301 0 0.32954035595489839 -0.35966611125522668 0 0.33427297210759221 -0.35949342197203682 0 0.32954035595489839 -0.35966611125522668 0 0.33427297210759221 -0.35949342197203682 0 0.32954035595489839 -0.35966611125522668 0 0.33246783397293961 -0.34681626532572118 0 0.33427297210759221 -0.35949342197203682 0 0.34018840680232842 -0.35265035169264952 0 0.33246783397293961 -0.34681626532572118 0 0.3464198571855619 -0.35266651533788262 0 0.34433985949979479 -0.3629947750213508 0 0.34018840680232842 -0.35265035169264952 0 0.34433985949979479 -0.3629947750213508 0 0.33427297210759221 -0.35949342197203682 0 0.34018840680232842 -0.35265035169264952 0 0.3464198571855619 -0.35266651533788262 0 0.34018840680232842 -0.35265035169264952 0 0.34344151124575339 -0.34128078080625601 0 0.34018840680232842 -0.35265035169264952 0 0.33246783397293961 -0.34681626532572118 0 0.34344151124575339 -0.34128078080625601 0 0.32954035595489839 -0.35966611125522668 0 0.31596947145975518 -0.33380097878866022 0 0.31031489687045272 -0.36036763249446202 0 0.32954035595489839 -0.35966611125522668 0 0.31596947145975518 -0.33380097878866022 0 0.32954035595489839 -0.35966611125522668 0 0.33246783397293961 -0.34681626532572118 0 0.31596947145975518 -0.33380097878866022 0 0.32954035595489839 -0.35966611125522668 0 0.31623547556305071 -0.37165183082490788 0 0.31031489687045272 -0.36036763249446202 0 0.32954035595489839 -0.35966611125522668 0 0.31031489687045272 -0.36036763249446202 0 0.35648650181240349 -0.3243183340958305 0 0.33326356423954973 -0.31634621051853501 0 0.33293608566834648 -0.33165099694907191 0 0.33246783397293961 -0.34681626532572118 0 0.34344151124575339 -0.34128078080625601 0 0.33293608566834648 -0.33165099694907191 0 0.33246783397293961 -0.34681626532572118 0 0.33293608566834648 -0.33165099694907191 0 0.31596947145975518 -0.33380097878866022 0 0.31596947145975518 -0.33380097878866022 0 0.31145880291606509 -0.32520396807522101 0 0.33091233838665651 -0.31163645728041439 0 0.31145880291606509 -0.32520396807522101 0 0.33326356423954973 -0.31634621051853501 0 0.33293608566834648 -0.33165099694907191 0 0.31596947145975518 -0.33380097878866022 0 0.33326356423954973 -0.31634621051853501 0 0.31596947145975518 -0.33380097878866022 0 0.33091233838665651 -0.31163645728041439 0 0.31990736383551549 -0.301243210787001 0 0.31145880291606509 -0.32520396807522101 0 0.33326356423954973 -0.31634621051853501 0 0.31596947145975518 -0.33380097878866022 0 0.31145880291606509 -0.32520396807522101 0 0.33091233838665651 -0.31163645728041439 0 0.33326356423954973 -0.31634621051853501 0 0.31145880291606509 -0.32520396807522101 0 0.30205645425177491 -0.32110500594707309 0 0.31145880291606509 -0.32520396807522101 0 0.30233214952752918 -0.307809221332284 0 0.31145880291606509 -0.32520396807522101 0 0.30233214952752918 -0.307809221332284 0 0.30205645425177491 -0.32110500594707309 0 0.29233713328709499 -0.31967415892926149 0 0.30233214952752918 -0.307809221332284 0 0.30205645425177491 -0.32110500594707309 0 0.30209773127640938 -0.33173267545152457 0 0.29233713328709499 -0.31967415892926149 0 0.30205645425177491 -0.32110500594707309 0 0.31145880291606509 -0.32520396807522101 0 0.30209773127640938 -0.33173267545152457 0 0.31145880291606509 -0.32520396807522101 0 0.30209773127640938 -0.33173267545152457 0 0.31596947145975518 -0.33380097878866022 0 0.30209773127640938 -0.33173267545152457 0 0.31596947145975518 -0.33380097878866022 0 0.29760954182451382 -0.34148238350840671 0 0.29772503640121339 -0.35221491875192168 0 0.31596947145975518 -0.33380097878866022 0 0.29760954182451382 -0.34148238350840671 0 0.30209773127640938 -0.33173267545152457 0 0.31596947145975518 -0.33380097878866022 0 0.31145880291606509 -0.32520396807522101 0 0.30209773127640938 -0.33173267545152457 0 0.31596947145975518 -0.33380097878866022 0 0.29772503640121339 -0.35221491875192168 0 0.30209773127640938 -0.33173267545152457 0 0.27971125961437998 -0.32868883628495998 0 0.30209773127640938 -0.33173267545152457 0 0.28690954286370018 -0.34232539832981712 0 0.27971125961437998 -0.32868883628495998 0 0.30209773127640938 -0.33173267545152457 0 0.28690954286370018 -0.34232539832981712 0 0.29760954182451382 -0.34148238350840671 0 0.30209773127640938 -0.33173267545152457 0 0.28690954286370018 -0.34232539832981712 0 0.30209773127640938 -0.33173267545152457 0 0.29233713328709499 -0.31967415892926149 0 0.27971125961437998 -0.32868883628495998 0 0.29233713328709499 -0.31967415892926149 0 0.27971125961437998 -0.32868883628495998 0 0.27526514204567692 -0.30802973585386922 0 0.31031489687045272 -0.36036763249446202 0 0.29108943778600671 -0.36106915373369608 0 0.31623547556305071 -0.37165183082490788 0 0.29108943778600671 -0.36106915373369608 0 0.31623547556305071 -0.37165183082490788 0 0.31031489687045272 -0.36036763249446202 0 0.29108943778600671 -0.36106915373369608 0 0.29535170876549521 -0.37816480645353728 0 0.31623547556305071 -0.37165183082490788 0 0.29108943778600671 -0.36106915373369608 0 0.31031489687045272 -0.36036763249446202 0 0.29772503640121339 -0.35221491875192168 0 0.29108943778600671 -0.36106915373369608 0 0.31596947145975518 -0.33380097878866022 0 0.31031489687045272 -0.36036763249446202 0 0.29772503640121339 -0.35221491875192168 0 0.28690954286370018 -0.34232539832981712 0 0.28842064364690312 -0.35120948022013532 0 0.27172135445099188 -0.35291812120811128 0 0.28842064364690312 -0.35120948022013532 0 0.29108943778600671 -0.36106915373369608 0 0.27172135445099188 -0.35291812120811128 0 0.29108943778600671 -0.36106915373369608 0 0.27172135445099188 -0.35291812120811128 0 0.29760954182451382 -0.34148238350840671 0 0.29772503640121339 -0.35221491875192168 0 0.28842064364690312 -0.35120948022013532 0 0.29760954182451382 -0.34148238350840671 0 0.28690954286370018 -0.34232539832981712 0 0.28842064364690312 -0.35120948022013532 0 0.29772503640121339 -0.35221491875192168 0 0.28842064364690312 -0.35120948022013532 0 0.29108943778600671 -0.36106915373369608 0 0.29535170876549521 -0.37816480645353728 0 0.29108943778600671 -0.36106915373369608 0 0.28177906844467188 -0.37331109614804658 0 0.29108943778600671 -0.36106915373369608 0 0.28177906844467188 -0.37331109614804658 0 0.27470454181800641 -0.36166702515376409 0 0.29108943778600671 -0.36106915373369608 0 0.27470454181800641 -0.36166702515376409 0 0.27470454181800641 -0.36166702515376409 0 0.25831964585000589 -0.36226489657383087 0 0.26962957393813108 -0.37145162001575421 0 0.27470454181800641 -0.36166702515376409 0 0.25831964585000589 -0.36226489657383087 0 0.28177906844467188 -0.37331109614804658 0 0.26962957393813108 -0.37145162001575421 0 0.27470454181800641 -0.36166702515376409 0 0.29108943778600671 -0.36106915373369608 0 0.27470454181800641 -0.36166702515376409 0 0.27172135445099188 -0.35291812120811128 0 0.27470454181800641 -0.36166702515376409 0 0.27172135445099188 -0.35291812120811128 0 0.25831964585000589 -0.36226489657383087 0 0.28690954286370018 -0.34232539832981712 0 0.27172135445099188 -0.35291812120811128 0 0.26905682998965952 -0.33860743415915739 0 0.28690954286370018 -0.34232539832981712 0 0.27172135445099188 -0.35291812120811128 0 0.27172135445099188 -0.35291812120811128 0 0.25696125275277609 -0.34670635172416209 0 0.26905682998965952 -0.33860743415915739 0 0.27172135445099188 -0.35291812120811128 0 0.25696125275277609 -0.34670635172416209 0 0.25696125275277609 -0.34670635172416209 0 0.25831964585000589 -0.36226489657383087 0 0.24791248246126721 -0.35315300130981692 0 0.27172135445099188 -0.35291812120811128 0 0.25696125275277609 -0.34670635172416209 0 0.25831964585000589 -0.36226489657383087 0 0.27172135445099188 -0.35291812120811128 0 0.25831964585000589 -0.36226489657383087 0 0.25917113102860018 -0.37807428704217833 0 0.25831964585000589 -0.36226489657383087 0 0.24291518253543351 -0.37300845640770652 0 0.25917113102860018 -0.37807428704217833 0 0.26962957393813108 -0.37145162001575421 0 0.25831964585000589 -0.36226489657383087 0 0.25831964585000589 -0.36226489657383087 0 0.24291518253543351 -0.37300845640770652 0 0.27971125961437998 -0.32868883628495998 0 0.25732478795235059 -0.32564499711839567 0 0.25732478795235059 -0.32564499711839567 0 0.27526514204567692 -0.30802973585386922 0 0.27971125961437998 -0.32868883628495998 0 0.25732478795235059 -0.32564499711839567 0 0.27526514204567692 -0.30802973585386922 0 0.27971125961437998 -0.32868883628495998 0 0.26905682998965952 -0.33860743415915739 0 0.25732478795235059 -0.32564499711839567 0 0.28690954286370018 -0.34232539832981712 0 0.27971125961437998 -0.32868883628495998 0 0.26905682998965952 -0.33860743415915739 0 0.25696125275277609 -0.34670635172416209 0 0.25732478795235059 -0.32564499711839567 0 0.2422011510545605 -0.34049458224021267 0 0.25696125275277609 -0.34670635172416209 0 0.26905682998965952 -0.33860743415915739 0 0.25732478795235059 -0.32564499711839567 0 0.25732478795235059 -0.32564499711839567 0 0.25765292763049308 -0.29698199606932518 0 0.24458665002710139 -0.31075868603106471 0 0.25732478795235059 -0.32564499711839567 0 0.25765292763049308 -0.29698199606932518 0 0.27526514204567692 -0.30802973585386922 0 0.25765292763049308 -0.29698199606932518 0 0.26302026009822688 -0.27945866640137501 0 0.2457004051126091 -0.28421829612496519 0 0.25765292763049308 -0.29698199606932518 0 0.27538882122166769 -0.28539379217500033 0 0.26302026009822688 -0.27945866640137501 0 0.25765292763049308 -0.29698199606932518 0 0.27538882122166769 -0.28539379217500033 0 0.27526514204567692 -0.30802973585386922 0 0.27538882122166769 -0.28539379217500033 0 0.27526514204567692 -0.30802973585386922 0 0.28341761824563622 -0.28961227250785249 0 0.27526514204567692 -0.30802973585386922 0 0.29320549613900271 -0.29041447458934211 0 0.30233214952752918 -0.307809221332284 0 0.27526514204567692 -0.30802973585386922 0 0.29320549613900271 -0.29041447458934211 0 0.29233713328709499 -0.31967415892926149 0 0.27526514204567692 -0.30802973585386922 0 0.30233214952752918 -0.307809221332284 0 0.27526514204567692 -0.30802973585386922 0 0.28341761824563622 -0.28961227250785249 0 0.29320549613900271 -0.29041447458934211 0 0.27538882122166769 -0.28539379217500033 0 0.28341761824563622 -0.28961227250785249 0 0.28831972619625967 -0.28110254751373892 0 0.28341761824563622 -0.28961227250785249 0 0.29320549613900271 -0.29041447458934211 0 0.28831972619625967 -0.28110254751373892 0 0.29456917107464198 -0.28142939043590343 0 0.29320549613900271 -0.29041447458934211 0 0.28831972619625967 -0.28110254751373892 0 0.29320549613900271 -0.29041447458934211 0 0.28831972619625967 -0.28110254751373892 0 0.29456917107464198 -0.28142939043590343 0 0.29320549613900271 -0.29041447458934211 0 0.29920570227211241 -0.28452299674414949 0 0.29320549613900271 -0.29041447458934211 0 0.29920570227211241 -0.28452299674414949 0 0.29320549613900271 -0.29041447458934211 0 0.3069844095119601 -0.29202602878287198 0 0.30233214952752918 -0.307809221332284 0 0.29320549613900271 -0.29041447458934211 0 0.29920570227211241 -0.28452299674414949 0 0.3069844095119601 -0.29202602878287198 0 0.29456917107464198 -0.28142939043590343 0 0.29920570227211241 -0.28452299674414949 0 0.29996602210790302 -0.27781159206728578 0 0.31831298911890699 -0.28718630380448151 0 0.3069844095119601 -0.29202602878287198 0 0.30894275617869349 -0.28097996543997389 0 0.29920570227211241 -0.28452299674414949 0 0.3069844095119601 -0.29202602878287198 0 0.30894275617869349 -0.28097996543997389 0 0.29320549613900271 -0.29041447458934211 0 0.30233214952752918 -0.307809221332284 0 0.31990736383551549 -0.301243210787001 0 0.3069844095119601 -0.29202602878287198 0 0.30233214952752918 -0.307809221332284 0 0.31990736383551549 -0.301243210787001 0 0.31145880291606509 -0.32520396807522101 0 0.30233214952752918 -0.307809221332284 0 0.3126828127692412 -0.26078667732085881 0 0.30057311758140542 -0.25356939058847511 0 0.30473101751224541 -0.27022679966001589 0 0.31333578311129251 -0.24688137415892061 0 0.3126828127692412 -0.26078667732085881 0 0.30057311758140542 -0.25356939058847511 0 0.31328414491916318 -0.2721365281860576 0 0.3126828127692412 -0.26078667732085881 0 0.30473101751224541 -0.27022679966001589 0 0.30057311758140542 -0.25356939058847511 0 0.30473101751224541 -0.27022679966001589 0 0.29240161994957597 -0.27485757961828938 0 0.31328414491916318 -0.2721365281860576 0 0.30473101751224541 -0.27022679966001589 0 0.30894275617869349 -0.28097996543997389 0 0.29920570227211241 -0.28452299674414949 0 0.30894275617869349 -0.28097996543997389 0 0.29996602210790302 -0.27781159206728578 0 0.30473101751224541 -0.27022679966001589 0 0.29996602210790302 -0.27781159206728578 0 0.29240161994957597 -0.27485757961828938 0 0.30473101751224541 -0.27022679966001589 0 0.30894275617869349 -0.28097996543997389 0 0.29996602210790302 -0.27781159206728578 0 0.29456917107464198 -0.28142939043590343 0 0.29996602210790302 -0.27781159206728578 0 0.29240161994957597 -0.27485757961828938 0 0.29456917107464198 -0.28142939043590343 0 0.29240161994957597 -0.27485757961828938 0 0.28831972619625967 -0.28110254751373892 0 0.27538882122166769 -0.28539379217500033 0 0.28389626817420188 -0.27388881769382689 0 0.28831972619625967 -0.28110254751373892 0 0.29240161994957597 -0.27485757961828938 0 0.28389626817420188 -0.27388881769382689 0 0.28831972619625967 -0.28110254751373892 0 0.28389626817420188 -0.27388881769382689 0 0.28746854242809039 -0.26512508358349568 0 0.27614980616117962 -0.26868250918501457 0 0.29240161994957597 -0.27485757961828938 0 0.28389626817420188 -0.27388881769382689 0 0.28746854242809039 -0.26512508358349568 0 0.30057311758140542 -0.25356939058847511 0 0.29240161994957597 -0.27485757961828938 0 0.28746854242809039 -0.26512508358349568 0 0.28746854242809039 -0.26512508358349568 0 0.28432190027408932 -0.25462712083187278 0 0.27614980616117962 -0.26868250918501457 0 0.30057311758140542 -0.25356939058847511 0 0.28746854242809039 -0.26512508358349568 0 0.28432190027408932 -0.25462712083187278 0 0.30057311758140542 -0.25356939058847511 0 0.29240161994957597 -0.27485757961828938 0 0.28432190027408932 -0.25462712083187278 0 0.27222306591769241 -0.25984777323646219 0 0.26853814997914588 -0.25061537758681363 0 0.28432190027408932 -0.25462712083187278 0 0.27222306591769241 -0.25984777323646219 0 0.27614980616117962 -0.26868250918501457 0 0.27222306591769241 -0.25984777323646219 0 0.26853814997914588 -0.25061537758681363 0 0.26233576048129481 -0.26471970207618939 0 0.27222306591769241 -0.25984777323646219 0 0.27614980616117962 -0.26868250918501457 0 0.26233576048129481 -0.26471970207618939 0 0.27538882122166769 -0.28539379217500033 0 0.27614980616117962 -0.26868250918501457 0 0.26302026009822688 -0.27945866640137501 0 0.27538882122166769 -0.28539379217500033 0 0.28389626817420188 -0.27388881769382689 0 0.27614980616117962 -0.26868250918501457 0 0.27614980616117962 -0.26868250918501457 0 0.26302026009822688 -0.27945866640137501 0 0.26233576048129481 -0.26471970207618939 0 0.26302026009822688 -0.27945866640137501 0 0.24494074978137581 -0.26833904787292961 0 0.2457004051126091 -0.28421829612496519 0 0.26302026009822688 -0.27945866640137501 0 0.26233576048129481 -0.26471970207618939 0 0.24494074978137581 -0.26833904787292961 0 0.26302026009822688 -0.27945866640137501 0 0.24494074978137581 -0.26833904787292961 0 0.25939332029667372 -0.24436000081709169 0 0.26853814997914588 -0.25061537758681363 0 0.249017018895621 -0.26157890960729158 0 0.26853814997914588 -0.25061537758681363 0 0.26233576048129481 -0.26471970207618939 0 0.249017018895621 -0.26157890960729158 0 0.26233576048129481 -0.26471970207618939 0 0.249017018895621 -0.26157890960729158 0 0.24494074978137581 -0.26833904787292961 0 0.25939332029667372 -0.24436000081709169 0 0.249017018895621 -0.26157890960729158 0 0.24776568051229031 -0.24923037600136069 0 0.26853814997914588 -0.25061537758681363 0 0.249017018895621 -0.26157890960729158 0 0.25939332029667372 -0.24436000081709169 0 0.249017018895621 -0.26157890960729158 0 0.2405796920342643 -0.25577910624290839 0 0.22364459586333399 -0.25524106548614017 0 0.23952988749967771 -0.24502616546444969 0 0.2405796920342643 -0.25577910624290839 0 0.23952988749967771 -0.24502616546444969 0 0.24776568051229031 -0.24923037600136069 0 0.249017018895621 -0.26157890960729158 0 0.2405796920342643 -0.25577910624290839 0 0.24776568051229031 -0.24923037600136069 0 0.2405796920342643 -0.25577910624290839 0 0.2411411859895369 -0.26600216489328582 0 0.22364459586333399 -0.25524106548614017 0 0.249017018895621 -0.26157890960729158 0 0.24494074978137581 -0.26833904787292961 0 0.2411411859895369 -0.26600216489328582 0 0.249017018895621 -0.26157890960729158 0 0.2405796920342643 -0.25577910624290839 0 0.2411411859895369 -0.26600216489328582 0 0.249017018895621 -0.26157890960729158 0 0.2411411859895369 -0.26600216489328582 0 0.249017018895621 -0.26157890960729158 0 0.24494074978137581 -0.26833904787292961 0 0.2411411859895369 -0.26600216489328582 0 0.2319917034456728 -0.28480324534786089 0 0.2457004051126091 -0.28421829612496519 0 0.24494074978137581 -0.26833904787292961 0 0.2411411859895369 -0.26600216489328582 0 0.2457004051126091 -0.28421829612496519 0 0.24494074978137581 -0.26833904787292961 0 0.2411411859895369 -0.26600216489328582 0 0.2411411859895369 -0.26600216489328582 0 0.22239746779781391 -0.26726880536985798 0 0.2148508128114365 -0.28076746445175921 0 0.2411411859895369 -0.26600216489328582 0 0.2148508128114365 -0.28076746445175921 0 0.2319917034456728 -0.28480324534786089 0 0.2411411859895369 -0.26600216489328582 0 0.2148508128114365 -0.28076746445175921 0 0.22239746779781391 -0.26726880536985798 0 0.22126561585408061 -0.26214671604507078 0 0.2148508128114365 -0.28076746445175921 0 0.2411411859895369 -0.26600216489328582 0 0.22239746779781391 -0.26726880536985798 0 0.22126561585408061 -0.26214671604507078 0 0.2411411859895369 -0.26600216489328582 0 0.22364459586333399 -0.25524106548614017 0 0.2411411859895369 -0.26600216489328582 0 0.22126561585408061 -0.26214671604507078 0 0.22364459586333399 -0.25524106548614017 0 0.22239746779781391 -0.26726880536985798 0 0.22126561585408061 -0.26214671604507078 0 0.22126561585408061 -0.26214671604507078 0 0.22364459586333399 -0.25524106548614017 0 0.22126561585408061 -0.26214671604507078 0 0.22364459586333399 -0.25524106548614017 0 0.21912545351961199 -0.25246161305313097 0 0.22126561585408061 -0.26214671604507078 0 0.21912545351961199 -0.25246161305313097 0 0.22364459586333399 -0.25524106548614017 0 0.21912545351961199 -0.25246161305313097 0 0.22126561585408061 -0.26214671604507078 0 0.21912545351961199 -0.25246161305313097 0 0.204482504977478 -0.25705322038503142 0 0.22126561585408061 -0.26214671604507078 0 0.204482504977478 -0.25705322038503142 0 0.2102778905908621 -0.26850471615154292 0 0.204482504977478 -0.25705322038503142 0 0.2102778905908621 -0.26850471615154292 0 0.200512628720453 -0.27405146372431088 0 0.22126561585408061 -0.26214671604507078 0 0.2148508128114365 -0.28076746445175921 0 0.22126561585408061 -0.26214671604507078 0 0.2148508128114365 -0.28076746445175921 0 0.2102778905908621 -0.26850471615154292 0 0.2148508128114365 -0.28076746445175921 0 0.2102778905908621 -0.26850471615154292 0 0.200512628720453 -0.27405146372431088 0 0.19099637950278439 -0.27463164331408441 0 0.19130962352468001 -0.28337537387545531 0 0.18219069027275309 -0.27712350265800628 0 0.200512628720453 -0.27405146372431088 0 0.19099637950278439 -0.27463164331408441 0 0.19130962352468001 -0.28337537387545531 0 0.200512628720453 -0.27405146372431088 0 0.19099637950278439 -0.27463164331408441 0 0.18926497556930161 -0.26522802513740912 0 0.204482504977478 -0.25705322038503142 0 0.18926497556930161 -0.26522802513740912 0 0.18526108334034891 -0.24993342049705089 0 0.204482504977478 -0.25705322038503142 0 0.200512628720453 -0.27405146372431088 0 0.18926497556930161 -0.26522802513740912 0 0.204482504977478 -0.25705322038503142 0 0.200512628720453 -0.27405146372431088 0 0.1927632639360419 -0.30723274691850683 0 0.19654275246343 -0.2910497070635909 0 0.20864892144287511 -0.29877017755953772 0 0.20864892144287511 -0.29877017755953772 0 0.20244703007431281 -0.3167728906673159 0 0.19629382954622421 -0.31330696211932318 0 0.1927632639360419 -0.30723274691850683 0 0.19654275246343 -0.2910497070635909 0 0.1927632639360419 -0.30723274691850683 0 0.20864892144287511 -0.29877017755953772 0 0.19629382954622421 -0.31330696211932318 0 0.1927632639360419 -0.30723274691850683 0 0.19362909335199041 -0.29268608739567209 0 0.19654275246343 -0.2910497070635909 0 0.1927632639360419 -0.30723274691850683 0 0.19362909335199041 -0.29268608739567209 0 0.18463111213085709 -0.29988289052315681 0 0.200512628720453 -0.27405146372431088 0 0.19654275246343 -0.2910497070635909 0 0.200512628720453 -0.27405146372431088 0 0.19130962352468001 -0.28337537387545531 0 0.19654275246343 -0.2910497070635909 0 0.19362909335199041 -0.29268608739567209 0 0.19654275246343 -0.2910497070635909 0 0.19362909335199041 -0.29268608739567209 0 0.19130962352468001 -0.28337537387545531 0 0.18399018389056199 -0.29013063531583472 0 0.19362909335199041 -0.29268608739567209 0 0.19130962352468001 -0.28337537387545531 0 0.19654275246343 -0.2910497070635909 0 0.2148508128114365 -0.28076746445175921 0 0.19654275246343 -0.2910497070635909 0 0.20864892144287511 -0.29877017755953772 0 0.2148508128114365 -0.28076746445175921 0 0.20864892144287511 -0.29877017755953772 0 0.22185909642121401 -0.29636439407958531 0 0.2148508128114365 -0.28076746445175921 0 0.19654275246343 -0.2910497070635909 0 0.2148508128114365 -0.28076746445175921 0 0.20864892144287511 -0.29877017755953772 0 0.2148508128114365 -0.28076746445175921 0 0.200512628720453 -0.27405146372431088 0 0.19654275246343 -0.2910497070635909 0 0.20864892144287511 -0.29877017755953772 0 0.2136199151071044 -0.31126008441641828 0 0.20244703007431281 -0.3167728906673159 0 0.20864892144287511 -0.29877017755953772 0 0.20244703007431281 -0.3167728906673159 0 0.20864892144287511 -0.29877017755953772 0 0.2136199151071044 -0.31126008441641828 0 0.22185909642121401 -0.29636439407958531 0 0.2136199151071044 -0.31126008441641828 0 0.2273472773210804 -0.30873998478895798 0 0.22185909642121401 -0.29636439407958531 0 0.2273472773210804 -0.30873998478895798 0 0.22185909642121401 -0.29636439407958531 0 0.2364070168935673 -0.29666390718970909 0 0.2148508128114365 -0.28076746445175921 0 0.22185909642121401 -0.29636439407958531 0 0.2319917034456728 -0.28480324534786089 0 0.22185909642121401 -0.29636439407958531 0 0.2319917034456728 -0.28480324534786089 0 0.2364070168935673 -0.29666390718970909 0 0.25765292763049308 -0.29698199606932518 0 0.2364070168935673 -0.29666390718970909 0 0.2457004051126091 -0.28421829612496519 0 0.2319917034456728 -0.28480324534786089 0 0.2364070168935673 -0.29666390718970909 0 0.2457004051126091 -0.28421829612496519 0 0.2273472773210804 -0.30873998478895798 0 0.2364070168935673 -0.29666390718970909 0 0.24458665002710139 -0.31075868603106471 0 0.25765292763049308 -0.29698199606932518 0 0.2364070168935673 -0.29666390718970909 0 0.24458665002710139 -0.31075868603106471 0 0.2273472773210804 -0.30873998478895798 0 0.24458665002710139 -0.31075868603106471 0 0.23134355680460419 -0.32211238643472012 0 0.25732478795235059 -0.32564499711839567 0 0.24458665002710139 -0.31075868603106471 0 0.23134355680460419 -0.32211238643472012 0 0.25732478795235059 -0.32564499711839567 0 0.23134355680460419 -0.32211238643472012 0 0.25732478795235059 -0.32564499711839567 0 0.2422011510545605 -0.34049458224021267 0 0.23134355680460419 -0.32211238643472012 0 0.25732478795235059 -0.32564499711839567 0 0.2422011510545605 -0.34049458224021267 0 0.25696125275277609 -0.34670635172416209 0 0.2422011510545605 -0.34049458224021267 0 0.2422011510545605 -0.34049458224021267 0 0.22127234458417941 -0.33168672142554512 0 0.2422011510545605 -0.34049458224021267 0 0.22127234458417941 -0.33168672142554512 0 0.23134355680460419 -0.32211238643472012 0 0.2422011510545605 -0.34049458224021267 0 0.22127234458417941 -0.33168672142554512 0 0.22432724695671999 -0.34446313882500762 0 0.22127234458417941 -0.33168672142554512 0 0.22432724695671999 -0.34446313882500762 0 0.2109408040148267 -0.34622005426941138 0 0.22127234458417941 -0.33168672142554512 0 0.22091915900550871 -0.31877074216228563 0 0.23134355680460419 -0.32211238643472012 0 0.2273472773210804 -0.30873998478895798 0 0.22091915900550871 -0.31877074216228563 0 0.23134355680460419 -0.32211238643472012 0 0.2136199151071044 -0.31126008441641828 0 0.2273472773210804 -0.30873998478895798 0 0.22091915900550871 -0.31877074216228563 0 0.25831964585000589 -0.36226489657383087 0 0.24791248246126721 -0.35315300130981692 0 0.23416788018772611 -0.36314617470106347 0 0.25831964585000589 -0.36226489657383087 0 0.24291518253543351 -0.37300845640770652 0 0.23416788018772611 -0.36314617470106347 0 0.25831964585000589 -0.36226489657383087 0 0.23416788018772611 -0.36314617470106347 0 0.2422011510545605 -0.34049458224021267 0 0.24791248246126721 -0.35315300130981692 0 0.23416788018772611 -0.36314617470106347 0 0.25696125275277609 -0.34670635172416209 0 0.2422011510545605 -0.34049458224021267 0 0.24791248246126721 -0.35315300130981692 0 0.2422011510545605 -0.34049458224021267 0 0.2228946881733132 -0.35945119736486181 0 0.2422011510545605 -0.34049458224021267 0 0.22432724695671999 -0.34446313882500762 0 0.2228946881733132 -0.35945119736486181 0 0.2422011510545605 -0.34049458224021267 0 0.23416788018772611 -0.36314617470106347 0 0.2228946881733132 -0.35945119736486181 0 0.22432724695671999 -0.34446313882500762 0 0.2228946881733132 -0.35945119736486181 0 0.2109408040148267 -0.34622005426941138 0 0.24291518253543351 -0.37300845640770652 0 0.23416788018772611 -0.36314617470106347 0 0.2242089779473655 -0.37179950871056722 0 0.23416788018772611 -0.36314617470106347 0 0.2228946881733132 -0.35945119736486181 0 0.2100161145254463 -0.36402745282829729 0 0.23416788018772611 -0.36314617470106347 0 0.2242089779473655 -0.37179950871056722 0 0.2100161145254463 -0.36402745282829729 0 0.23416788018772611 -0.36314617470106347 0 0.2100161145254463 -0.36402745282829729 0 0.2242089779473655 -0.37179950871056722 0 0.2100161145254463 -0.36402745282829729 0 0.20643499326736109 -0.37506344337418801 0 0.2100161145254463 -0.36402745282829729 0 0.2109408040148267 -0.34622005426941138 0 0.19998130272298029 -0.35476250845911111 0 0.2228946881733132 -0.35945119736486181 0 0.2100161145254463 -0.36402745282829729 0 0.2109408040148267 -0.34622005426941138 0 0.193103943488482 -0.34389379578320473 0 0.1858643488631665 -0.36490873095553128 0 0.193103943488482 -0.34389379578320473 0 0.18424871791314429 -0.34369038837889032 0 0.1858643488631665 -0.36490873095553128 0 0.2109408040148267 -0.34622005426941138 0 0.193103943488482 -0.34389379578320473 0 0.19998130272298029 -0.35476250845911111 0 0.193103943488482 -0.34389379578320473 0 0.19998130272298029 -0.35476250845911111 0 0.1858643488631665 -0.36490873095553128 0 0.2100161145254463 -0.36402745282829729 0 0.1858643488631665 -0.36490873095553128 0 0.1853592673138609 -0.3663748705068115 0 0.20643499326736109 -0.37506344337418801 0 0.19495058931479739 -0.38037920614636611 0 0.1853592673138609 -0.3663748705068115 0 0.1858643488631665 -0.36490873095553128 0 0.20643499326736109 -0.37506344337418801 0 0.2100161145254463 -0.36402745282829729 0 0.19998130272298029 -0.35476250845911111 0 0.1858643488631665 -0.36490873095553128 0 0.1853592673138609 -0.3663748705068115 0 0.20643499326736109 -0.37506344337418801 0 0.2100161145254463 -0.36402745282829729 0 0.1858643488631665 -0.36490873095553128 0 0.20643499326736109 -0.37506344337418801 0 0.18332475330090359 -0.37228061278967151 0 0.1853592673138609 -0.3663748705068115 0 0.19495058931479739 -0.38037920614636611 0 0.22127234458417941 -0.33168672142554512 0 0.20034353811379799 -0.32287886061087823 0 0.22127234458417941 -0.33168672142554512 0 0.21172039737698059 -0.3202738598564886 0 0.20034353811379799 -0.32287886061087823 0 0.2136199151071044 -0.31126008441641828 0 0.21172039737698059 -0.3202738598564886 0 0.20244703007431281 -0.3167728906673159 0 0.2136199151071044 -0.31126008441641828 0 0.20244703007431281 -0.3167728906673159 0 0.21172039737698059 -0.3202738598564886 0 0.20034353811379799 -0.32287886061087823 0 0.20244703007431281 -0.3167728906673159 0 0.2136199151071044 -0.31126008441641828 0 0.22091915900550871 -0.31877074216228563 0 0.21172039737698059 -0.3202738598564886 0 0.22127234458417941 -0.33168672142554512 0 0.22091915900550871 -0.31877074216228563 0 0.21172039737698059 -0.3202738598564886 0 0.22127234458417941 -0.33168672142554512 0 0.2109408040148267 -0.34622005426941138 0 0.20034353811379799 -0.32287886061087823 0 0.193103943488482 -0.34389379578320473 0 0.18898377540865441 -0.32341578677342281 0 0.20034353811379799 -0.32287886061087823 0 0.2109408040148267 -0.34622005426941138 0 0.193103943488482 -0.34389379578320473 0 0.20034353811379799 -0.32287886061087823 0 0.193103943488482 -0.34389379578320473 0 0.20034353811379799 -0.32287886061087823 0 0.193103943488482 -0.34389379578320473 0 0.18898377540865441 -0.32341578677342281 0 0.18424871791314429 -0.34369038837889032 0 0.1927632639360419 -0.30723274691850683 0 0.18898377540865441 -0.32341578677342281 0 0.18898377540865441 -0.32341578677342281 0 0.19480015003112139 -0.3205459329906114 0 0.20034353811379799 -0.32287886061087823 0 0.1927632639360419 -0.30723274691850683 0 0.18898377540865441 -0.32341578677342281 0 0.19134806799729751 -0.31909312878423252 0 0.18898377540865441 -0.32341578677342281 0 0.19480015003112139 -0.3205459329906114 0 0.18898377540865441 -0.32341578677342281 0 0.19480015003112139 -0.3205459329906114 0 0.19134806799729751 -0.31909312878423252 0 0.19480015003112139 -0.3205459329906114 0 0.20034353811379799 -0.32287886061087823 0 0.20034353811379799 -0.32287886061087823 0 0.20244703007431281 -0.3167728906673159 0 0.19480015003112139 -0.3205459329906114 0 0.20244703007431281 -0.3167728906673159 0 0.19480015003112139 -0.3205459329906114 0 0.20034353811379799 -0.32287886061087823 0 0.20244703007431281 -0.3167728906673159 0 0.19480015003112139 -0.3205459329906114 0 0.20244703007431281 -0.3167728906673159 0 0.19629382954622421 -0.31330696211932318 0 0.1927632639360419 -0.30723274691850683 0 0.19629382954622421 -0.31330696211932318 0 0.19134806799729751 -0.31909312878423252 0 0.19480015003112139 -0.3205459329906114 0 0.19629382954622421 -0.31330696211932318 0 0.19134806799729751 -0.31909312878423252 0 0.19480015003112139 -0.3205459329906114 0 0.19134806799729751 -0.31909312878423252 0 0.18898377540865441 -0.32341578677342281 0 0.16516088704675849 -0.33517022329455659 0 0.1782386935586418 -0.31178833214512602 0 0.1927632639360419 -0.30723274691850683 0 0.18898377540865441 -0.32341578677342281 0 0.1782386935586418 -0.31178833214512602 0 0.18898377540865441 -0.32341578677342281 0 0.18424871791314429 -0.34369038837889032 0 0.18898377540865441 -0.32341578677342281 0 0.16516088704675849 -0.33517022329455659 0 0.18424871791314429 -0.34369038837889032 0 0.16516088704675849 -0.33517022329455659 0 0.17967825701388421 -0.34755153318550269 0 0.18898377540865441 -0.32341578677342281 0 0.18424871791314429 -0.34369038837889032 0 0.16516088704675849 -0.33517022329455659 0 0.16516088704675849 -0.33517022329455659 0 0.17967825701388421 -0.34755153318550269 0 0.16516088704675849 -0.33517022329455659 0 0.16675495418240399 -0.34656021340743182 0 0.14390811692616479 -0.34565653937369317 0 0.16516088704675849 -0.33517022329455659 0 0.17967825701388421 -0.34755153318550269 0 0.16675495418240399 -0.34656021340743182 0 0.16516088704675849 -0.33517022329455659 0 0.1453227466818682 -0.3182510317279037 0 0.16057656025761161 -0.30771936678600598 0 0.16516088704675849 -0.33517022329455659 0 0.1782386935586418 -0.31178833214512602 0 0.16057656025761161 -0.30771936678600598 0 0.17454716481801569 -0.36934180115874121 0 0.1792379422180706 -0.36514556205909932 0 0.16868844538370309 -0.36930335474239728 0 0.17454716481801569 -0.36934180115874121 0 0.17795423583996789 -0.37374339981504617 0 0.1712062196078965 -0.37556276957269169 0 0.17454716481801569 -0.36934180115874121 0 0.17799358118127309 -0.36894893941989959 0 0.17795423583996789 -0.37374339981504617 0 0.17454716481801569 -0.36934180115874121 0 0.17799358118127309 -0.36894893941989959 0 0.1792379422180706 -0.36514556205909932 0 0.17799358118127309 -0.36894893941989959 0 0.17795423583996789 -0.37374339981504617 0 0.180827141379894 -0.3689759458364022 0 0.17799358118127309 -0.36894893941989959 0 0.180827141379894 -0.3689759458364022 0 0.1792379422180706 -0.36514556205909932 0 0.17795423583996789 -0.37374339981504617 0 0.18332475330090359 -0.37228061278967151 0 0.180827141379894 -0.3689759458364022 0 0.18332475330090359 -0.37228061278967151 0 0.1853592673138609 -0.3663748705068115 0 0.18332475330090359 -0.37228061278967151 0 0.180827141379894 -0.3689759458364022 0 0.1853592673138609 -0.3663748705068115 0 0.180827141379894 -0.3689759458364022 0 0.18213303189639499 -0.36504209009908112 0 0.1853592673138609 -0.3663748705068115 0 0.180827141379894 -0.3689759458364022 0 0.18213303189639499 -0.36504209009908112 0 0.1792379422180706 -0.36514556205909932 0 0.18213303189639499 -0.36504209009908112 0 0.1792379422180706 -0.36514556205909932 0 0.18213303189639499 -0.36504209009908112 0 0.1853592673138609 -0.3663748705068115 0 0.18213303189639499 -0.36504209009908112 0 0.1853592673138609 -0.3663748705068115 0 0.1858643488631665 -0.36490873095553128 0 0.18213303189639499 -0.36504209009908112 0 0.1858643488631665 -0.36490873095553128 0 0.1853592673138609 -0.3663748705068115 0 0.1858643488631665 -0.36490873095553128 0 0.18424871791314429 -0.34369038837889032 0 0.18213303189639499 -0.36504209009908112 0 0.1792379422180706 -0.36514556205909932 0 0.18424871791314429 -0.34369038837889032 0 0.18213303189639499 -0.36504209009908112 0 0.1858643488631665 -0.36490873095553128 0 0.1792379422180706 -0.36514556205909932 0 0.17249845220822221 -0.35339265270908748 0 0.17967825701388421 -0.34755153318550269 0 0.18424871791314429 -0.34369038837889032 0 0.1792379422180706 -0.36514556205909932 0 0.18424871791314429 -0.34369038837889032 0 0.1792379422180706 -0.36514556205909932 0 0.17967825701388421 -0.34755153318550269 0 0.17249845220822221 -0.35339265270908748 0 0.17967825701388421 -0.34755153318550269 0 0.16675495418240399 -0.34656021340743182 0 0.16675495418240399 -0.34656021340743182 0 0.161814800245804 -0.35666854683398957 0 0.14390811692616479 -0.34565653937369317 0 0.1792379422180706 -0.36514556205909932 0 0.17249845220822221 -0.35339265270908748 0 0.161814800245804 -0.35666854683398957 0 0.17249845220822221 -0.35339265270908748 0 0.16675495418240399 -0.34656021340743182 0 0.161814800245804 -0.35666854683398957 0 0.1792379422180706 -0.36514556205909932 0 0.161814800245804 -0.35666854683398957 0 0.1622112212404391 -0.36577181418952981 0 0.1792379422180706 -0.36514556205909932 0 0.1622112212404391 -0.36577181418952981 0 0.16868844538370309 -0.36930335474239728 0 0.161814800245804 -0.35666854683398957 0 0.1622112212404391 -0.36577181418952981 0 0.1460030775925491 -0.36089758149444912 0 0.1792379422180706 -0.36514556205909932 0 0.161814800245804 -0.35666854683398957 0 0.1792379422180706 -0.36514556205909932 0 0.1622112212404391 -0.36577181418952981 0 0.1622112212404391 -0.36577181418952981 0 0.15011464259650931 -0.37203526457508179 0 0.16200890588442471 -0.37530208022097628 0 0.1622112212404391 -0.36577181418952981 0 0.16868844538370309 -0.36930335474239728 0 0.16200890588442471 -0.37530208022097628 0 0.16868844538370309 -0.36930335474239728 0 0.1712062196078965 -0.37556276957269169 0 0.16200890588442471 -0.37530208022097628 0 0.17454716481801569 -0.36934180115874121 0 0.16868844538370309 -0.36930335474239728 0 0.1712062196078965 -0.37556276957269169 0 0.1622112212404391 -0.36577181418952981 0 0.1460030775925491 -0.36089758149444912 0 0.15011464259650931 -0.37203526457508179 0 0.1460030775925491 -0.36089758149444912 0 0.15011464259650931 -0.37203526457508179 0 0.1320557156387141 -0.3688478742013287 0 0.161814800245804 -0.35666854683398957 0 0.1460030775925491 -0.36089758149444912 0 0.14390811692616479 -0.34565653937369317 0 0.1460030775925491 -0.36089758149444912 0 0.14390811692616479 -0.34565653937369317 0 0.1226553468055713 -0.35614285545282981 0 0.14390811692616479 -0.34565653937369317 0 0.1226553468055713 -0.35614285545282981 0 0.14390811692616479 -0.34565653937369317 0 0.1164120666912927 -0.34183440338541049 0 0.1226553468055713 -0.35614285545282981 0 0.15011464259650931 -0.37203526457508179 0 0.1320557156387141 -0.3688478742013287 0 0.13729641414346869 -0.38217025962500001 0 0.1460030775925491 -0.36089758149444912 0 0.1320557156387141 -0.3688478742013287 0 0.1226553468055713 -0.35614285545282981 0 0.16516088704675849 -0.33517022329455659 0 0.1453227466818682 -0.3182510317279037 0 0.16516088704675849 -0.33517022329455659 0 0.14390811692616479 -0.34565653937369317 0 0.16516088704675849 -0.33517022329455659 0 0.14390811692616479 -0.34565653937369317 0 0.1453227466818682 -0.3182510317279037 0 0.14390811692616479 -0.34565653937369317 0 0.1234881940305048 -0.32646184031532172 0 0.1164120666912927 -0.34183440338541049 0 0.14390811692616479 -0.34565653937369317 0 0.1453227466818682 -0.3182510317279037 0 0.1234881940305048 -0.32646184031532172 0 0.1453227466818682 -0.3182510317279037 0 0.12548460631697761 -0.30133184016125109 0 0.1234881940305048 -0.32646184031532172 0 0.1453227466818682 -0.3182510317279037 0 0.12548460631697761 -0.30133184016125109 0 0.1453227466818682 -0.3182510317279037 0 0.12548460631697761 -0.30133184016125109 0 0.14608268902088001 -0.30318211822999358 0 0.12548460631697761 -0.30133184016125109 0 0.14608268902088001 -0.30318211822999358 0 0.14327426678781929 -0.29641891645397 0 0.14608268902088001 -0.30318211822999358 0 0.153106537636364 -0.29560945772013331 0 0.14327426678781929 -0.29641891645397 0 0.14608268902088001 -0.30318211822999358 0 0.153106537636364 -0.29560945772013331 0 0.16057656025761161 -0.30771936678600598 0 0.1453227466818682 -0.3182510317279037 0 0.14608268902088001 -0.30318211822999358 0 0.16057656025761161 -0.30771936678600598 0 0.14842323417705519 -0.28555224970450249 0 0.1452316578868682 -0.28115378557770881 0 0.16492854430883289 -0.28804979164636219 0 0.1452316578868682 -0.28115378557770881 0 0.16492854430883289 -0.28804979164636219 0 0.1452316578868682 -0.28115378557770881 0 0.15843695477752071 -0.2784186021505366 0 0.16492854430883289 -0.28804979164636219 0 0.153106537636364 -0.29560945772013331 0 0.14842323417705519 -0.28555224970450249 0 0.16492854430883289 -0.28804979164636219 0 0.153106537636364 -0.29560945772013331 0 0.14327426678781929 -0.29641891645397 0 0.14842323417705519 -0.28555224970450249 0 0.14143845490836349 -0.28612660547136681 0 0.14842323417705519 -0.28555224970450249 0 0.1362306816278144 -0.29066786873342959 0 0.14143845490836349 -0.28612660547136681 0 0.14842323417705519 -0.28555224970450249 0 0.1438744906464427 -0.28412662309222392 0 0.14842323417705519 -0.28555224970450249 0 0.1438744906464427 -0.28412662309222392 0 0.1452316578868682 -0.28115378557770881 0 0.1438744906464427 -0.28412662309222392 0 0.1404046156134838 -0.28367385161531761 0 0.1452316578868682 -0.28115378557770881 0 0.14143845490836349 -0.28612660547136681 0 0.1438744906464427 -0.28412662309222392 0 0.1404046156134838 -0.28367385161531761 0 0.1404046156134838 -0.28367385161531761 0 0.13608549596031619 -0.28593740254525618 0 0.13446469743841921 -0.28032931992471333 0 0.12548460631697761 -0.30133184016125109 0 0.14842323417705519 -0.28555224970450249 0 0.1362306816278144 -0.29066786873342959 0 0.12548460631697761 -0.30133184016125109 0 0.14327426678781929 -0.29641891645397 0 0.14842323417705519 -0.28555224970450249 0 0.1404046156134838 -0.28367385161531761 0 0.13446469743841921 -0.28032931992471333 0 0.1452316578868682 -0.28115378557770881 0 0.12548460631697761 -0.30133184016125109 0 0.14842323417705519 -0.28555224970450249 0 0.14143845490836349 -0.28612660547136681 0 0.1404046156134838 -0.28367385161531761 0 0.13608549596031619 -0.28593740254525618 0 0.14143845490836349 -0.28612660547136681 0 0.13608549596031619 -0.28593740254525618 0 0.1362306816278144 -0.29066786873342959 0 0.13608549596031619 -0.28593740254525618 0 0.1362306816278144 -0.29066786873342959 0 0.1325616885714454 -0.28897687537844507 0 0.13608549596031619 -0.28593740254525618 0 0.131415824566393 -0.28634888981253293 0 0.1325616885714454 -0.28897687537844507 0 0.13608549596031619 -0.28593740254525618 0 0.131415824566393 -0.28634888981253293 0 0.13446469743841921 -0.28032931992471333 0 0.1362306816278144 -0.29066786873342959 0 0.13004254577757421 -0.29274645077518441 0 0.1325616885714454 -0.28897687537844507 0 0.12548460631697761 -0.30133184016125109 0 0.1362306816278144 -0.29066786873342959 0 0.13004254577757421 -0.29274645077518441 0 0.12548460631697761 -0.30133184016125109 0 0.13004254577757421 -0.29274645077518441 0 0.1261097900802623 -0.29449150984196393 0 0.13004254577757421 -0.29274645077518441 0 0.1325616885714454 -0.28897687537844507 0 0.1286093164254179 -0.2887596828116249 0 0.13004254577757421 -0.29274645077518441 0 0.12523133040235679 -0.29045393838619737 0 0.1286093164254179 -0.2887596828116249 0 0.13004254577757421 -0.29274645077518441 0 0.12523133040235679 -0.29045393838619737 0 0.1261097900802623 -0.29449150984196393 0 0.1299188874233122 -0.28189240923735132 0 0.131415824566393 -0.28634888981253293 0 0.13446469743841921 -0.28032931992471333 0 0.1299188874233122 -0.28189240923735132 0 0.131415824566393 -0.28634888981253293 0 0.12735455052642761 -0.28529551239677459 0 0.131415824566393 -0.28634888981253293 0 0.1325616885714454 -0.28897687537844507 0 0.1286093164254179 -0.2887596828116249 0 0.131415824566393 -0.28634888981253293 0 0.12735455052642761 -0.28529551239677459 0 0.1286093164254179 -0.2887596828116249 0 0.12735455052642761 -0.28529551239677459 0 0.1286093164254179 -0.2887596828116249 0 0.1235083741144246 -0.28714055874716521 0 0.12523133040235679 -0.29045393838619737 0 0.1286093164254179 -0.2887596828116249 0 0.1235083741144246 -0.28714055874716521 0 0.1299188874233122 -0.28189240923735132 0 0.12735455052642761 -0.28529551239677459 0 0.12598568784125469 -0.2815087530436528 0 0.12735455052642761 -0.28529551239677459 0 0.12598568784125469 -0.2815087530436528 0 0.1218736263182264 -0.28340730483075433 0 0.12553477146490369 -0.27425777950905461 0 0.13875688942717571 -0.2722300739507913 0 0.14751756987647169 -0.25371240423406272 0 0.1299188874233122 -0.28189240923735132 0 0.12553477146490369 -0.27425777950905461 0 0.13446469743841921 -0.28032931992471333 0 0.1299188874233122 -0.28189240923735132 0 0.12598568784125469 -0.2815087530436528 0 0.12553477146490369 -0.27425777950905461 0 0.12553477146490369 -0.27425777950905461 0 0.13446469743841921 -0.28032931992471333 0 0.1452316578868682 -0.28115378557770881 0 0.12553477146490369 -0.27425777950905461 0 0.1452316578868682 -0.28115378557770881 0 0.12553477146490369 -0.27425777950905461 0 0.13875688942717571 -0.2722300739507913 0 0.1452316578868682 -0.28115378557770881 0 0.12553477146490369 -0.27425777950905461 0 0.12995820875369279 -0.25235635345497848 0 0.14751756987647169 -0.25371240423406272 0 0.12553477146490369 -0.27425777950905461 0 0.14751756987647169 -0.25371240423406272 0 0.13875688942717571 -0.2722300739507913 0 0.14751756987647169 -0.25371240423406272 0 0.1478942332044979 -0.26739150796765548 0 0.14751756987647169 -0.25371240423406272 0 0.1478942332044979 -0.26739150796765548 0 0.16157845838820231 -0.25657455779082111 0 0.13875688942717571 -0.2722300739507913 0 0.14590378781658259 -0.27390914029633978 0 0.1452316578868682 -0.28115378557770881 0 0.14590378781658259 -0.27390914029633978 0 0.1452316578868682 -0.28115378557770881 0 0.15173237074778881 -0.2748611936892037 0 0.13875688942717571 -0.2722300739507913 0 0.14590378781658259 -0.27390914029633978 0 0.1478942332044979 -0.26739150796765548 0 0.1478942332044979 -0.26739150796765548 0 0.15173237074778881 -0.2748611936892037 0 0.15987273321916301 -0.27091271560137647 0 0.14590378781658259 -0.27390914029633978 0 0.1478942332044979 -0.26739150796765548 0 0.15173237074778881 -0.2748611936892037 0 0.1452316578868682 -0.28115378557770881 0 0.15173237074778881 -0.2748611936892037 0 0.15843695477752071 -0.2784186021505366 0 0.15843695477752071 -0.2784186021505366 0 0.15987273321916301 -0.27091271560137647 0 0.17041946772495059 -0.27711552423803187 0 0.15173237074778881 -0.2748611936892037 0 0.15843695477752071 -0.2784186021505366 0 0.15987273321916301 -0.27091271560137647 0 0.15987273321916301 -0.27091271560137647 0 0.17041946772495059 -0.27711552423803187 0 0.17442985721634999 -0.26362809694871148 0 0.15843695477752071 -0.2784186021505366 0 0.17041946772495059 -0.27711552423803187 0 0.16492854430883289 -0.28804979164636219 0 0.1478942332044979 -0.26739150796765548 0 0.15987273321916301 -0.27091271560137647 0 0.16157845838820231 -0.25657455779082111 0 0.15987273321916301 -0.27091271560137647 0 0.16157845838820231 -0.25657455779082111 0 0.17442985721634999 -0.26362809694871148 0 0.16157845838820231 -0.25657455779082111 0 0.17269244180823551 -0.25082577604891387 0 0.17442985721634999 -0.26362809694871148 0 0.17269244180823551 -0.25082577604891387 0 0.17442985721634999 -0.26362809694871148 0 0.18526108334034891 -0.24993342049705089 0 0.18926497556930161 -0.26522802513740912 0 0.17442985721634999 -0.26362809694871148 0 0.18526108334034891 -0.24993342049705089 0 0.17041946772495059 -0.27711552423803187 0 0.18219069027275309 -0.27712350265800628 0 0.17521264242282961 -0.28599922093977592 0 0.17041946772495059 -0.27711552423803187 0 0.17442985721634999 -0.26362809694871148 0 0.18219069027275309 -0.27712350265800628 0 0.18926497556930161 -0.26522802513740912 0 0.17442985721634999 -0.26362809694871148 0 0.18219069027275309 -0.27712350265800628 0 0.19099637950278439 -0.27463164331408441 0 0.18926497556930161 -0.26522802513740912 0 0.18219069027275309 -0.27712350265800628 0 0.19130962352468001 -0.28337537387545531 0 0.18219069027275309 -0.27712350265800628 0 0.18399018389056199 -0.29013063531583472 0 0.18219069027275309 -0.27712350265800628 0 0.17521264242282961 -0.28599922093977592 0 0.18399018389056199 -0.29013063531583472 0 0.17521264242282961 -0.28599922093977592 0 0.18399018389056199 -0.29013063531583472 0 0.17453432591704929 -0.29757665084064422 0 0.18399018389056199 -0.29013063531583472 0 0.18463111213085709 -0.29988289052315681 0 0.17453432591704929 -0.29757665084064422 0 0.19362909335199041 -0.29268608739567209 0 0.18399018389056199 -0.29013063531583472 0 0.18463111213085709 -0.29988289052315681 0 0.1927632639360419 -0.30723274691850683 0 0.18463111213085709 -0.29988289052315681 0 0.1782386935586418 -0.31178833214512602 0 0.18463111213085709 -0.29988289052315681 0 0.1782386935586418 -0.31178833214512602 0 0.17453432591704929 -0.29757665084064422 0 0.1782386935586418 -0.31178833214512602 0 0.17453432591704929 -0.29757665084064422 0 0.16057656025761161 -0.30771936678600598 0 0.153106537636364 -0.29560945772013331 0 0.16057656025761161 -0.30771936678600598 0 0.16492854430883289 -0.28804979164636219 0 0.17453432591704929 -0.29757665084064422 0 0.16057656025761161 -0.30771936678600598 0 0.16492854430883289 -0.28804979164636219 0 0.17041946772495059 -0.27711552423803187 0 0.17521264242282961 -0.28599922093977592 0 0.16492854430883289 -0.28804979164636219 0 0.17521264242282961 -0.28599922093977592 0 0.17453432591704929 -0.29757665084064422 0 0.16492854430883289 -0.28804979164636219 0 0.19334629118408611 -0.5 0 0.20700193411841111 -0.4876963543616758 0 0.18415236199864479 -0.48195148884846117 0 0.20232248250208579 -0.47163874892304269 0 0.20700193411841111 -0.4876963543616758 0 0.18415236199864479 -0.48195148884846117 0 0.20232248250208579 -0.47163874892304269 0 0.1781102501660374 -0.45970279164374428 0 0.18415236199864479 -0.48195148884846117 0 0.20232248250208579 -0.47163874892304269 0 0.21275757600124939 -0.47687621001561942 0 0.20700193411841111 -0.4876963543616758 0 0.20232248250208579 -0.47163874892304269 0 0.21275757600124939 -0.47687621001561942 0 0.2181446036661801 -0.46672843150272569 0 0.21275757600124939 -0.47687621001561942 0 0.20700193411841111 -0.4876963543616758 0 0.22356128371832079 -0.48144130527503359 0 0.20232248250208579 -0.47163874892304269 0 0.2181446036661801 -0.46672843150272569 0 0.21275757600124939 -0.47687621001561942 0 0.22356128371832079 -0.48144130527503359 0 0.2181446036661801 -0.46672843150272569 0 0.19334629118408611 -0.5 0 0.20700193411841111 -0.4876963543616758 0 0.2208774859061107 -0.5 0 0.20700193411841111 -0.4876963543616758 0 0.2208774859061107 -0.5 0 0.22356128371832079 -0.48144130527503359 0 0.2208774859061107 -0.5 0 0.22897796377046151 -0.4961541790473416 0 0.22356128371832079 -0.48144130527503359 0 0.2208774859061107 -0.5 0 0.22897796377046151 -0.4961541790473416 0 0.24840868062813529 -0.5 0 0.22897796377046151 -0.4961541790473416 0 0.22356128371832079 -0.48144130527503359 0 0.22897796377046151 -0.4961541790473416 0 0.23464308184349469 -0.48653314367154621 0 0.22356128371832079 -0.48144130527503359 0 0.22897796377046151 -0.4961541790473416 0 0.24840868062813529 -0.5 0 0.23464308184349469 -0.48653314367154621 0 0.24840868062813529 -0.5 0 0.23464308184349469 -0.48653314367154621 0 0.24386290002639691 -0.47991278089067091 0 0.24386290002639691 -0.47991278089067091 0 0.2334226437956014 -0.47448391565125142 0 0.24690134972361449 -0.45780391691628047 0 0.25851468836889691 -0.48015031187998147 0 0.24386290002639691 -0.47991278089067091 0 0.24690134972361449 -0.45780391691628047 0 0.23464308184349469 -0.48653314367154621 0 0.24386290002639691 -0.47991278089067091 0 0.2334226437956014 -0.47448391565125142 0 0.23464308184349469 -0.48653314367154621 0 0.2334226437956014 -0.47448391565125142 0 0.22356128371832079 -0.48144130527503359 0 0.2334226437956014 -0.47448391565125142 0 0.22356128371832079 -0.48144130527503359 0 0.2181446036661801 -0.46672843150272569 0 0.22356128371832079 -0.48144130527503359 0 0.2181446036661801 -0.46672843150272569 0 0.24690134972361449 -0.45780391691628047 0 0.2181446036661801 -0.46672843150272569 0 0.24690134972361449 -0.45780391691628047 0 0.22755136898578379 -0.44789982653309879 0 0.2181446036661801 -0.46672843150272569 0 0.2334226437956014 -0.47448391565125142 0 0.24690134972361449 -0.45780391691628047 0 0.2181446036661801 -0.46672843150272569 0 0.24690134972361449 -0.45780391691628047 0 0.24325533924919579 -0.44161904974508898 0 0.22755136898578379 -0.44789982653309879 0 0.25753091473130918 -0.43980992396812418 0 0.24690134972361449 -0.45780391691628047 0 0.24325533924919579 -0.44161904974508898 0 0.24325533924919579 -0.44161904974508898 0 0.22755136898578379 -0.44789982653309879 0 0.23374085417517451 -0.43409187453939219 0 0.22755136898578379 -0.44789982653309879 0 0.20968319733881779 -0.44374542308569942 0 0.2181446036661801 -0.46672843150272569 0 0.22755136898578379 -0.44789982653309879 0 0.20968319733881779 -0.44374542308569942 0 0.21791941024017139 -0.42882980559401968 0 0.20232248250208579 -0.47163874892304269 0 0.2181446036661801 -0.46672843150272569 0 0.1962310246338333 -0.45332201030314229 0 0.20968319733881779 -0.44374542308569942 0 0.2181446036661801 -0.46672843150272569 0 0.1962310246338333 -0.45332201030314229 0 0.20968319733881779 -0.44374542308569942 0 0.2181446036661801 -0.46672843150272569 0 0.20232248250208579 -0.47163874892304269 0 0.1962310246338333 -0.45332201030314229 0 0.1781102501660374 -0.45970279164374428 0 0.20968319733881779 -0.44374542308569942 0 0.1962310246338333 -0.45332201030314229 0 0.19521316090412311 -0.43655673247077931 0 0.1962310246338333 -0.45332201030314229 0 0.19521316090412311 -0.43655673247077931 0 0.1784591243333952 -0.43271061578325859 0 0.19521316090412311 -0.43655673247077931 0 0.20122179101145529 -0.42076241466867309 0 0.1784591243333952 -0.43271061578325859 0 0.20122179101145529 -0.42076241466867309 0 0.1784591243333952 -0.43271061578325859 0 0.20968319733881779 -0.44374542308569942 0 0.19521316090412311 -0.43655673247077931 0 0.20122179101145529 -0.42076241466867309 0 0.18828353400414061 -0.41920468730849531 0 0.20122179101145529 -0.42076241466867309 0 0.1784591243333952 -0.43271061578325859 0 0.1971230253456239 -0.40962928122103343 0 0.20122179101145529 -0.42076241466867309 0 0.20679391766702629 -0.40260513783237728 0 0.18828353400414061 -0.41920468730849531 0 0.1971230253456239 -0.40962928122103343 0 0.17814458602434161 -0.41222885102462642 0 0.1971230253456239 -0.40962928122103343 0 0.18888567107604889 -0.39997289856246471 0 0.17814458602434161 -0.41222885102462642 0 0.1971230253456239 -0.40962928122103343 0 0.20122179101145529 -0.42076241466867309 0 0.18828353400414061 -0.41920468730849531 0 0.1971230253456239 -0.40962928122103343 0 0.20122179101145529 -0.42076241466867309 0 0.20122179101145529 -0.42076241466867309 0 0.21872703818392639 -0.4115738509236847 0 0.21791941024017139 -0.42882980559401968 0 0.20122179101145529 -0.42076241466867309 0 0.21872703818392639 -0.4115738509236847 0 0.20122179101145529 -0.42076241466867309 0 0.21872703818392639 -0.4115738509236847 0 0.20679391766702629 -0.40260513783237728 0 0.20968319733881779 -0.44374542308569942 0 0.20122179101145529 -0.42076241466867309 0 0.21791941024017139 -0.42882980559401968 0 0.20968319733881779 -0.44374542308569942 0 0.20122179101145529 -0.42076241466867309 0 0.22755136898578379 -0.44789982653309879 0 0.21791941024017139 -0.42882980559401968 0 0.23374085417517451 -0.43409187453939219 0 0.21791941024017139 -0.42882980559401968 0 0.23374085417517451 -0.43409187453939219 0 0.2344860885944903 -0.41879913096012478 0 0.25055220863009692 -0.42848970676854908 0 0.23374085417517451 -0.43409187453939219 0 0.2344860885944903 -0.41879913096012478 0 0.25055220863009692 -0.42848970676854908 0 0.24325533924919579 -0.44161904974508898 0 0.23374085417517451 -0.43409187453939219 0 0.25055220863009692 -0.42848970676854908 0 0.2344860885944903 -0.41879913096012478 0 0.24974699242630519 -0.41370154864014491 0 0.2344860885944903 -0.41879913096012478 0 0.24974699242630519 -0.41370154864014491 0 0.23623228535639809 -0.40238528717869759 0 0.21872703818392639 -0.4115738509236847 0 0.21791941024017139 -0.42882980559401968 0 0.2344860885944903 -0.41879913096012478 0 0.21872703818392639 -0.4115738509236847 0 0.23623228535639809 -0.40238528717869759 0 0.21872703818392639 -0.4115738509236847 0 0.2344860885944903 -0.41879913096012478 0 0.23623228535639809 -0.40238528717869759 0 0.22690754681932779 -0.39462058160409852 0 0.23623228535639809 -0.40238528717869759 0 0.23413909468179181 -0.38648459699876803 0 0.21872703818392639 -0.4115738509236847 0 0.22690754681932779 -0.39462058160409852 0 0.21649996337878591 -0.39143126554678709 0 0.21872703818392639 -0.4115738509236847 0 0.22690754681932779 -0.39462058160409852 0 0.23623228535639809 -0.40238528717869759 0 0.23623228535639809 -0.40238528717869759 0 0.24424693218194199 -0.39324210659662617 0 0.23413909468179181 -0.38648459699876803 0 0.25624724933655108 -0.39128642178475592 0 0.24424693218194199 -0.39324210659662617 0 0.2491629991534493 -0.40150080443638358 0 0.23623228535639809 -0.40238528717869759 0 0.24424693218194199 -0.39324210659662617 0 0.2491629991534493 -0.40150080443638358 0 0.24974699242630519 -0.41370154864014491 0 0.23623228535639809 -0.40238528717869759 0 0.2491629991534493 -0.40150080443638358 0 0.25917113102860018 -0.37807428704217833 0 0.24291518253543351 -0.37300845640770652 0 0.24734391795286381 -0.38441917376600698 0 0.25624724933655108 -0.39128642178475592 0 0.24424693218194199 -0.39324210659662617 0 0.24734391795286381 -0.38441917376600698 0 0.24424693218194199 -0.39324210659662617 0 0.24734391795286381 -0.38441917376600698 0 0.23413909468179181 -0.38648459699876803 0 0.24291518253543351 -0.37300845640770652 0 0.23413909468179181 -0.38648459699876803 0 0.22751071922085661 -0.38375201624157562 0 0.24291518253543351 -0.37300845640770652 0 0.24734391795286381 -0.38441917376600698 0 0.23413909468179181 -0.38648459699876803 0 0.24291518253543351 -0.37300845640770652 0 0.22751071922085661 -0.38375201624157562 0 0.2242089779473655 -0.37179950871056722 0 0.22751071922085661 -0.38375201624157562 0 0.20643499326736109 -0.37506344337418801 0 0.24291518253543351 -0.37300845640770652 0 0.2242089779473655 -0.37179950871056722 0 0.22751071922085661 -0.38375201624157562 0 0.22690754681932779 -0.39462058160409852 0 0.23413909468179181 -0.38648459699876803 0 0.22751071922085661 -0.38375201624157562 0 0.23413909468179181 -0.38648459699876803 0 0.22751071922085661 -0.38375201624157562 0 0.22690754681932779 -0.39462058160409852 0 0.22751071922085661 -0.38375201624157562 0 0.21649996337878591 -0.39143126554678709 0 0.22751071922085661 -0.38375201624157562 0 0.21649996337878591 -0.39143126554678709 0 0.22751071922085661 -0.38375201624157562 0 0.20643499326736109 -0.37506344337418801 0 0.21649996337878591 -0.39143126554678709 0 0.1986598632626129 -0.39291935016666391 0 0.19495058931479739 -0.38037920614636611 0 0.22751071922085661 -0.38375201624157562 0 0.20643499326736109 -0.37506344337418801 0 0.21649996337878591 -0.39143126554678709 0 0.20643499326736109 -0.37506344337418801 0 0.21649996337878591 -0.39143126554678709 0 0.19495058931479739 -0.38037920614636611 0 0.21649996337878591 -0.39143126554678709 0 0.20679391766702629 -0.40260513783237728 0 0.1986598632626129 -0.39291935016666391 0 0.21872703818392639 -0.4115738509236847 0 0.21649996337878591 -0.39143126554678709 0 0.20679391766702629 -0.40260513783237728 0 0.20679391766702629 -0.40260513783237728 0 0.1986598632626129 -0.39291935016666391 0 0.19786561933782801 -0.40128166694563477 0 0.1971230253456239 -0.40962928122103343 0 0.20679391766702629 -0.40260513783237728 0 0.19786561933782801 -0.40128166694563477 0 0.1971230253456239 -0.40962928122103343 0 0.19786561933782801 -0.40128166694563477 0 0.18888567107604889 -0.39997289856246471 0 0.1986598632626129 -0.39291935016666391 0 0.19786561933782801 -0.40128166694563477 0 0.18888567107604889 -0.39997289856246471 0 0.1986598632626129 -0.39291935016666391 0 0.18888567107604889 -0.39997289856246471 0 0.18929933612091521 -0.39251555814241551 0 0.1986598632626129 -0.39291935016666391 0 0.18929933612091521 -0.39251555814241551 0 0.18881897592042321 -0.38549640026476839 0 0.1986598632626129 -0.39291935016666391 0 0.18881897592042321 -0.38549640026476839 0 0.19495058931479739 -0.38037920614636611 0 0.18881897592042321 -0.38549640026476839 0 0.19495058931479739 -0.38037920614636611 0 0.18555630875963411 -0.37908850037567332 0 0.18332475330090359 -0.37228061278967151 0 0.19495058931479739 -0.38037920614636611 0 0.18555630875963411 -0.37908850037567332 0 0.17837584944100529 -0.38200870655219732 0 0.18083283422457561 -0.39167358357576509 0 0.1684160496373279 -0.38711404938985622 0 0.17837584944100529 -0.38200870655219732 0 0.1684160496373279 -0.38711404938985622 0 0.1712062196078965 -0.37556276957269169 0 0.17795423583996789 -0.37374339981504617 0 0.17837584944100529 -0.38200870655219732 0 0.1712062196078965 -0.37556276957269169 0 0.17795423583996789 -0.37374339981504617 0 0.17837584944100529 -0.38200870655219732 0 0.18555630875963411 -0.37908850037567332 0 0.18881897592042321 -0.38549640026476839 0 0.17837584944100529 -0.38200870655219732 0 0.18555630875963411 -0.37908850037567332 0 0.17795423583996789 -0.37374339981504617 0 0.18332475330090359 -0.37228061278967151 0 0.18555630875963411 -0.37908850037567332 0 0.18929933612091521 -0.39251555814241551 0 0.18881897592042321 -0.38549640026476839 0 0.18083283422457561 -0.39167358357576509 0 0.18881897592042321 -0.38549640026476839 0 0.17837584944100529 -0.38200870655219732 0 0.18083283422457561 -0.39167358357576509 0 0.18888567107604889 -0.39997289856246471 0 0.18929933612091521 -0.39251555814241551 0 0.18083283422457561 -0.39167358357576509 0 0.18888567107604889 -0.39997289856246471 0 0.18083283422457561 -0.39167358357576509 0 0.17525924605870641 -0.39902030467514538 0 0.18888567107604889 -0.39997289856246471 0 0.17525924605870641 -0.39902030467514538 0 0.17814458602434161 -0.41222885102462642 0 0.17525924605870641 -0.39902030467514538 0 0.16289683266541241 -0.40104670636940642 0 0.17814458602434161 -0.41222885102462642 0 0.18083283422457561 -0.39167358357576509 0 0.17525924605870641 -0.39902030467514538 0 0.1684160496373279 -0.38711404938985622 0 0.17525924605870641 -0.39902030467514538 0 0.16289683266541241 -0.40104670636940642 0 0.1684160496373279 -0.38711404938985622 0 0.16289683266541241 -0.40104670636940642 0 0.1684160496373279 -0.38711404938985622 0 0.15473905703432331 -0.38440269230224938 0 0.1684160496373279 -0.38711404938985622 0 0.1712062196078965 -0.37556276957269169 0 0.16200890588442471 -0.37530208022097628 0 0.1684160496373279 -0.38711404938985622 0 0.16200890588442471 -0.37530208022097628 0 0.15473905703432331 -0.38440269230224938 0 0.15473905703432331 -0.38440269230224938 0 0.13729641414346869 -0.38217025962500001 0 0.14516465197046771 -0.39759163452138457 0 0.15011464259650931 -0.37203526457508179 0 0.15473905703432331 -0.38440269230224938 0 0.13729641414346869 -0.38217025962500001 0 0.15011464259650931 -0.37203526457508179 0 0.16200890588442471 -0.37530208022097628 0 0.15473905703432331 -0.38440269230224938 0 0.13729641414346869 -0.38217025962500001 0 0.12256412464068531 -0.39793282435142191 0 0.1152607278426057 -0.37684903944505921 0 0.1320557156387141 -0.3688478742013287 0 0.13729641414346869 -0.38217025962500001 0 0.1152607278426057 -0.37684903944505921 0 0.13729641414346869 -0.38217025962500001 0 0.14516465197046771 -0.39759163452138457 0 0.12256412464068531 -0.39793282435142191 0 0.14516465197046771 -0.39759163452138457 0 0.13736028543369699 -0.41271904482153321 0 0.12256412464068531 -0.39793282435142191 0 0.16289683266541241 -0.40104670636940642 0 0.15473905703432331 -0.38440269230224938 0 0.14516465197046771 -0.39759163452138457 0 0.16289683266541241 -0.40104670636940642 0 0.14516465197046771 -0.39759163452138457 0 0.15104056192802609 -0.40859223385183091 0 0.15104056192802609 -0.40859223385183091 0 0.13736028543369699 -0.41271904482153321 0 0.15715866763252959 -0.42159458426377999 0 0.14516465197046771 -0.39759163452138457 0 0.15104056192802609 -0.40859223385183091 0 0.13736028543369699 -0.41271904482153321 0 0.13736028543369699 -0.41271904482153321 0 0.13600707465786491 -0.43295394887718669 0 0.1100121008960176 -0.42045483689860891 0 0.13600707465786491 -0.43295394887718669 0 0.15715866763252959 -0.42159458426377999 0 0.15569645765533571 -0.44465881689784542 0 0.13736028543369699 -0.41271904482153321 0 0.13600707465786491 -0.43295394887718669 0 0.15715866763252959 -0.42159458426377999 0 0.15715866763252959 -0.42159458426377999 0 0.1784591243333952 -0.43271061578325859 0 0.15569645765533571 -0.44465881689784542 0 0.15715866763252959 -0.42159458426377999 0 0.17814458602434161 -0.41222885102462642 0 0.1784591243333952 -0.43271061578325859 0 0.16289683266541241 -0.40104670636940642 0 0.15104056192802609 -0.40859223385183091 0 0.15715866763252959 -0.42159458426377999 0 0.16289683266541241 -0.40104670636940642 0 0.15715866763252959 -0.42159458426377999 0 0.17814458602434161 -0.41222885102462642 0 0.18828353400414061 -0.41920468730849531 0 0.17814458602434161 -0.41222885102462642 0 0.1784591243333952 -0.43271061578325859 0 0.1962310246338333 -0.45332201030314229 0 0.1784591243333952 -0.43271061578325859 0 0.1781102501660374 -0.45970279164374428 0 0.1781102501660374 -0.45970279164374428 0 0.15569645765533571 -0.44465881689784542 0 0.15831811755918701 -0.47267103816230471 0 0.1784591243333952 -0.43271061578325859 0 0.15569645765533571 -0.44465881689784542 0 0.1784591243333952 -0.43271061578325859 0 0.1781102501660374 -0.45970279164374428 0 0.15569645765533571 -0.44465881689784542 0 0.13600707465786491 -0.43295394887718669 0 0.15569645765533571 -0.44465881689784542 0 0.1388331263269961 -0.45585326328940468 0 0.13600707465786491 -0.43295394887718669 0 0.1388331263269961 -0.45585326328940468 0 0.1185388948134764 -0.44540794550726759 0 0.1388331263269961 -0.45585326328940468 0 0.1270656887309351 -0.47036105411592638 0 0.1185388948134764 -0.44540794550726759 0 0.1388331263269961 -0.45585326328940468 0 0.14110952809124849 -0.47618229237266357 0 0.1270656887309351 -0.47036105411592638 0 0.15569645765533571 -0.44465881689784542 0 0.1388331263269961 -0.45585326328940468 0 0.15831811755918701 -0.47267103816230471 0 0.1388331263269961 -0.45585326328940468 0 0.14110952809124849 -0.47618229237266357 0 0.15831811755918701 -0.47267103816230471 0 0.14110952809124849 -0.47618229237266357 0 0.14729531000159329 -0.48967674198641642 0 0.15831811755918701 -0.47267103816230471 0 0.1270656887309351 -0.47036105411592638 0 0.13559248264839391 -0.49531416272458523 0 0.14110952809124849 -0.47618229237266357 0 0.1270656887309351 -0.47036105411592638 0 0.13559248264839391 -0.49531416272458523 0 0.1382839017400366 -0.49999999999999978 0 0.11454070371648491 -0.49926309986027378 0 0.1270656887309351 -0.47036105411592638 0 0.13559248264839391 -0.49531416272458523 0 0.12423364320100171 -0.49284817598305358 0 0.1382839017400366 -0.49999999999999978 0 0.11454070371648491 -0.49926309986027378 0 0.12423364320100171 -0.49284817598305358 0 0.1382839017400366 -0.49999999999999978 0 0.13559248264839391 -0.49531416272458523 0 0.12423364320100171 -0.49284817598305358 0 0.1382839017400366 -0.49999999999999978 0 0.13559248264839391 -0.49531416272458523 0 0.14729531000159329 -0.48967674198641642 0 0.14110952809124849 -0.47618229237266357 0 0.13559248264839391 -0.49531416272458523 0 0.14729531000159329 -0.48967674198641642 0 0.1382839017400366 -0.49999999999999978 0 0.14729531000159329 -0.48967674198641642 0 0.1658150964620613 -0.5 0 0.14729531000159329 -0.48967674198641642 0 0.1658150964620613 -0.5 0 0.15831811755918701 -0.47267103816230471 0 0.1658150964620613 -0.5 0 0.15831811755918701 -0.47267103816230471 0 0.18415236199864479 -0.48195148884846117 0 0.1781102501660374 -0.45970279164374428 0 0.15831811755918701 -0.47267103816230471 0 0.18415236199864479 -0.48195148884846117 0 0.19334629118408611 -0.5 0 0.1658150964620613 -0.5 0 0.18415236199864479 -0.48195148884846117 0 0.067054307669381696 -0.49778929958082241 0 0.083874226880780944 -0.5 0 0.056669389451153178 -0.5 0 0.073818568314492752 -0.49030933551536088 0 0.067054307669381696 -0.49778929958082241 0 0.083670085070544589 -0.49173288148918548 0 0.073818568314492752 -0.49030933551536088 0 0.068077961459141245 -0.48602330882303491 0 0.07938830607865266 -0.4832590681756429 0 0.067054307669381696 -0.49778929958082241 0 0.068077961459141245 -0.48602330882303491 0 0.056453052244573462 -0.48890732663799019 0 0.073818568314492752 -0.49030933551536088 0 0.067054307669381696 -0.49778929958082241 0 0.068077961459141245 -0.48602330882303491 0 0.071851484212900857 -0.47542987984420509 0 0.078873714980636667 -0.46351047661630729 0 0.060835100993874909 -0.46820840556564458 0 0.068077961459141245 -0.48602330882303491 0 0.071851484212900857 -0.47542987984420509 0 0.059902050234846023 -0.4804449431841884 0 0.071851484212900857 -0.47542987984420509 0 0.060835100993874909 -0.46820840556564458 0 0.059902050234846023 -0.4804449431841884 0 0.068077961459141245 -0.48602330882303491 0 0.071851484212900857 -0.47542987984420509 0 0.07938830607865266 -0.4832590681756429 0 0.071851484212900857 -0.47542987984420509 0 0.07938830607865266 -0.4832590681756429 0 0.087924014642995471 -0.47398976935526632 0 0.071851484212900857 -0.47542987984420509 0 0.087924014642995471 -0.47398976935526632 0 0.078873714980636667 -0.46351047661630729 0 0.07938830607865266 -0.4832590681756429 0 0.087924014642995471 -0.47398976935526632 0 0.092298425623818431 -0.48519561589966143 0 0.067054307669381696 -0.49778929958082241 0 0.083874226880780944 -0.5 0 0.090797505692933322 -0.49852619972054812 0 0.067054307669381696 -0.49778929958082241 0 0.083670085070544589 -0.49173288148918548 0 0.090797505692933322 -0.49852619972054812 0 0.092417517438613081 -0.49169480328754339 0 0.092298425623818431 -0.48519561589966143 0 0.083670085070544589 -0.49173288148918548 0 0.067054307669381696 -0.49778929958082241 0 0.090797505692933322 -0.49852619972054812 0 0.07938830607865266 -0.4832590681756429 0 0.092298425623818431 -0.48519561589966143 0 0.083670085070544589 -0.49173288148918548 0 0.073818568314492752 -0.49030933551536088 0 0.07938830607865266 -0.4832590681756429 0 0.083670085070544589 -0.49173288148918548 0 0.092417517438613081 -0.49169480328754339 0 0.083670085070544589 -0.49173288148918548 0 0.090797505692933322 -0.49852619972054812 0 0.092417517438613081 -0.49169480328754339 0 0.090797505692933322 -0.49852619972054812 0 0.102904053367156 -0.49132451604077892 0 0.090797505692933322 -0.49852619972054812 0 0.102904053367156 -0.49132451604077892 0 0.11454070371648491 -0.49926309986027378 0 0.090797505692933322 -0.49852619972054812 0 0.1110790643104088 -0.5 0 0.11454070371648491 -0.49926309986027378 0 0.090797505692933322 -0.49852619972054812 0 0.11454070371648491 -0.49926309986027378 0 0.083874226880780944 -0.5 0 0.090797505692933322 -0.49852619972054812 0 0.1110790643104088 -0.5 0 0.092417517438613081 -0.49169480328754339 0 0.092298425623818431 -0.48519561589966143 0 0.102904053367156 -0.49132451604077892 0 0.092298425623818431 -0.48519561589966143 0 0.102904053367156 -0.49132451604077892 0 0.10429953465417249 -0.47821525253783298 0 0.102904053367156 -0.49132451604077892 0 0.11120486402585709 -0.49100919135913101 0 0.10429953465417249 -0.47821525253783298 0 0.102904053367156 -0.49132451604077892 0 0.11454070371648491 -0.49926309986027378 0 0.11120486402585709 -0.49100919135913101 0 0.1382839017400366 -0.49999999999999978 0 0.1110790643104088 -0.5 0 0.11454070371648491 -0.49926309986027378 0 0.11454070371648491 -0.49926309986027378 0 0.11681173493269439 -0.49236437598102778 0 0.11120486402585709 -0.49100919135913101 0 0.11120486402585709 -0.49100919135913101 0 0.1159610875460438 -0.48468305827804342 0 0.10429953465417249 -0.47821525253783298 0 0.11681173493269439 -0.49236437598102778 0 0.11120486402585709 -0.49100919135913101 0 0.1159610875460438 -0.48468305827804342 0 0.11681173493269439 -0.49236437598102778 0 0.1159610875460438 -0.48468305827804342 0 0.12423364320100171 -0.49284817598305358 0 0.11454070371648491 -0.49926309986027378 0 0.11681173493269439 -0.49236437598102778 0 0.12423364320100171 -0.49284817598305358 0 0.1270656887309351 -0.47036105411592638 0 0.10429953465417249 -0.47821525253783298 0 0.097673386526071854 -0.45939407724860393 0 0.1270656887309351 -0.47036105411592638 0 0.1159610875460438 -0.48468305827804342 0 0.12423364320100171 -0.49284817598305358 0 0.1270656887309351 -0.47036105411592638 0 0.1159610875460438 -0.48468305827804342 0 0.10429953465417249 -0.47821525253783298 0 0.087924014642995471 -0.47398976935526632 0 0.092298425623818431 -0.48519561589966143 0 0.10429953465417249 -0.47821525253783298 0 0.087924014642995471 -0.47398976935526632 0 0.10429953465417249 -0.47821525253783298 0 0.097673386526071854 -0.45939407724860393 0 0.1270656887309351 -0.47036105411592638 0 0.097673386526071854 -0.45939407724860393 0 0.1185388948134764 -0.44540794550726759 0 0.1270656887309351 -0.47036105411592638 0 0.1185388948134764 -0.44540794550726759 0 0.097673386526071854 -0.45939407724860393 0 0.1185388948134764 -0.44540794550726759 0 0.088874238601021199 -0.43514814086801618 0 0.097673386526071854 -0.45939407724860393 0 0.077580270539657048 -0.44934266634316922 0 0.088874238601021199 -0.43514814086801618 0 0.097673386526071854 -0.45939407724860393 0 0.078873714980636667 -0.46351047661630729 0 0.077580270539657048 -0.44934266634316922 0 0.087924014642995471 -0.47398976935526632 0 0.097673386526071854 -0.45939407724860393 0 0.078873714980636667 -0.46351047661630729 0 0.078873714980636667 -0.46351047661630729 0 0.06250466334069954 -0.45436036404074409 0 0.060835100993874909 -0.46820840556564458 0 0.078873714980636667 -0.46351047661630729 0 0.06250466334069954 -0.45436036404074409 0 0.077580270539657048 -0.44934266634316922 0 0.06250466334069954 -0.45436036404074409 0 0.077580270539657048 -0.44934266634316922 0 0.059975349249855953 -0.43430027294217433 0 0.077580270539657048 -0.44934266634316922 0 0.088874238601021199 -0.43514814086801618 0 0.059975349249855953 -0.43430027294217433 0 0.070935134209543504 -0.42020193825530922 0 0.088874238601021199 -0.43514814086801618 0 0.059975349249855953 -0.43430027294217433 0 0.070935134209543504 -0.42020193825530922 0 0.065691311618180259 -0.40316532523672272 0 0.053255629232072728 -0.41576475924890649 0 0.070935134209543504 -0.42020193825530922 0 0.087276799008940364 -0.41314537846223182 0 0.065691311618180259 -0.40316532523672272 0 0.070935134209543504 -0.42020193825530922 0 0.087276799008940364 -0.41314537846223182 0 0.088874238601021199 -0.43514814086801618 0 0.087276799008940364 -0.41314537846223182 0 0.088874238601021199 -0.43514814086801618 0 0.1100121008960176 -0.42045483689860891 0 0.1185388948134764 -0.44540794550726759 0 0.088874238601021199 -0.43514814086801618 0 0.1100121008960176 -0.42045483689860891 0 0.1185388948134764 -0.44540794550726759 0 0.1100121008960176 -0.42045483689860891 0 0.13600707465786491 -0.43295394887718669 0 0.1185388948134764 -0.44540794550726759 0 0.1100121008960176 -0.42045483689860891 0 0.13736028543369699 -0.41271904482153321 0 0.1100121008960176 -0.42045483689860891 0 0.12256412464068531 -0.39793282435142191 0 0.1100121008960176 -0.42045483689860891 0 0.1014853069785588 -0.39550172828995001 0 0.087276799008940364 -0.41314537846223182 0 0.1100121008960176 -0.42045483689860891 0 0.1014853069785588 -0.39550172828995001 0 0.1100121008960176 -0.42045483689860891 0 0.1014853069785588 -0.39550172828995001 0 0.12256412464068531 -0.39793282435142191 0 0.1014853069785588 -0.39550172828995001 0 0.12256412464068531 -0.39793282435142191 0 0.1152607278426057 -0.37684903944505921 0 0.1014853069785588 -0.39550172828995001 0 0.09295851306110009 -0.37054861968129121 0 0.1014853069785588 -0.39550172828995001 0 0.1152607278426057 -0.37684903944505921 0 0.09295851306110009 -0.37054861968129121 0 0.1014853069785588 -0.39550172828995001 0 0.077883508297157997 -0.38457364525744142 0 0.09295851306110009 -0.37054861968129121 0 0.087276799008940364 -0.41314537846223182 0 0.1014853069785588 -0.39550172828995001 0 0.077883508297157997 -0.38457364525744142 0 0.065691311618180259 -0.40316532523672272 0 0.077883508297157997 -0.38457364525744142 0 0.056725564565641498 -0.38454571870881071 0 0.087276799008940364 -0.41314537846223182 0 0.065691311618180259 -0.40316532523672272 0 0.077883508297157997 -0.38457364525744142 0 0.077883508297157997 -0.38457364525744142 0 0.056725564565641498 -0.38454571870881071 0 0.06287179252101785 -0.36914496787019352 0 0.056725564565641498 -0.38454571870881071 0 0.040792549774975977 -0.38265895870638122 0 0.046922580176367877 -0.37114302360188428 0 0.056725564565641498 -0.38454571870881071 0 0.046191645006149001 -0.39658839158024101 0 0.040792549774975977 -0.38265895870638122 0 0.065691311618180259 -0.40316532523672272 0 0.056725564565641498 -0.38454571870881071 0 0.046191645006149001 -0.39658839158024101 0 0.065691311618180259 -0.40316532523672272 0 0.046191645006149001 -0.39658839158024101 0 0.053255629232072728 -0.41576475924890649 0 0.046191645006149001 -0.39658839158024101 0 0.03152021316922618 -0.38855427280775429 0 0.035555839692165803 -0.40707929119970487 0 0.046191645006149001 -0.39658839158024101 0 0.03152021316922618 -0.38855427280775429 0 0.040792549774975977 -0.38265895870638122 0 0.040792549774975977 -0.38265895870638122 0 0.046922580176367877 -0.37114302360188428 0 0.033539814630865597 -0.3748460541253168 0 0.03152021316922618 -0.38855427280775429 0 0.040792549774975977 -0.38265895870638122 0 0.033539814630865597 -0.3748460541253168 0 0.03152021316922618 -0.38855427280775429 0 0.016737533982398339 -0.37594092426208692 0 0.033539814630865597 -0.3748460541253168 0 0.03152021316922618 -0.38855427280775429 0 0.016737533982398339 -0.37594092426208692 0 0.01630389592880235 -0.3942120169727954 0 -0.0029480478345611238 -0.38134474274588581 0 0.01630389592880235 -0.3942120169727954 0 -0.0029480478345611238 -0.38134474274588581 0 0.016737533982398339 -0.37594092426208692 0 0.01630389592880235 -0.3942120169727954 0 -0.0029480478345611238 -0.38134474274588581 0 0.0023567555045513411 -0.39424368807509219 0 0.01630389592880235 -0.3942120169727954 0 -0.0053933531450689126 -0.40583935730940551 0 0.0023567555045513411 -0.39424368807509219 0 0.0113342753813368 -0.41256277494006283 0 0.0023567555045513411 -0.39424368807509219 0 0.01630389592880235 -0.3942120169727954 0 0.0113342753813368 -0.41256277494006283 0 0.01630389592880235 -0.3942120169727954 0 0.0113342753813368 -0.41256277494006283 0 0.035555839692165803 -0.40707929119970487 0 0.01630389592880235 -0.3942120169727954 0 0.035555839692165803 -0.40707929119970487 0 0.03152021316922618 -0.38855427280775429 0 0.01630389592880235 -0.3942120169727954 0 0.035555839692165803 -0.40707929119970487 0 0.0113342753813368 -0.41256277494006283 0 0.034701872907281987 -0.43408252339393388 0 0.035555839692165803 -0.40707929119970487 0 -0.01023817967651721 -0.41905057484993791 0 0.0113342753813368 -0.41256277494006283 0 0.0094283965647081157 -0.43386477384569372 0 0.0094283965647081157 -0.43386477384569372 0 0.034701872907281987 -0.43408252339393388 0 0.0113342753813368 -0.41256277494006283 0 0.0094283965647081157 -0.43386477384569372 0 0.034701872907281987 -0.43408252339393388 0 0.046191645006149001 -0.39658839158024101 0 0.035555839692165803 -0.40707929119970487 0 0.053255629232072728 -0.41576475924890649 0 0.034701872907281987 -0.43408252339393388 0 0.035555839692165803 -0.40707929119970487 0 0.053255629232072728 -0.41576475924890649 0 0.034701872907281987 -0.43408252339393388 0 0.059975349249855953 -0.43430027294217433 0 0.070935134209543504 -0.42020193825530922 0 0.053255629232072728 -0.41576475924890649 0 0.059975349249855953 -0.43430027294217433 0 0.034701872907281987 -0.43408252339393388 0 0.053255629232072728 -0.41576475924890649 0 0.059975349249855953 -0.43430027294217433 0 0.06250466334069954 -0.45436036404074409 0 0.059975349249855953 -0.43430027294217433 0 0.043131746294161999 -0.45116754788316998 0 0.06250466334069954 -0.45436036404074409 0 0.048365135309260177 -0.46580385385779038 0 0.043131746294161999 -0.45116754788316998 0 0.06250466334069954 -0.45436036404074409 0 0.060835100993874909 -0.46820840556564458 0 0.048365135309260177 -0.46580385385779038 0 0.032203889205875927 -0.46605417778854591 0 0.043131746294161999 -0.45116754788316998 0 0.021039567751998431 -0.4524040952758317 0 0.048365135309260177 -0.46580385385779038 0 0.032203889205875927 -0.46605417778854591 0 0.043131746294161999 -0.45116754788316998 0 0.034701872907281987 -0.43408252339393388 0 0.059975349249855953 -0.43430027294217433 0 0.043131746294161999 -0.45116754788316998 0 0.034701872907281987 -0.43408252339393388 0 0.043131746294161999 -0.45116754788316998 0 0.021039567751998431 -0.4524040952758317 0 0.0094283965647081157 -0.43386477384569372 0 0.034701872907281987 -0.43408252339393388 0 0.021039567751998431 -0.4524040952758317 0 0.0094283965647081157 -0.43386477384569372 0 0.021039567751998431 -0.4524040952758317 0 0.0071471274566425411 -0.45023480780884062 0 -0.0058504529610899324 -0.44990152804784911 0 0.0094283965647081157 -0.43386477384569372 0 0.0071471274566425411 -0.45023480780884062 0 0.021039567751998431 -0.4524040952758317 0 0.0071471274566425411 -0.45023480780884062 0 0.0039709984709535521 -0.46476883406598812 0 0.021039567751998431 -0.4524040952758317 0 0.0039709984709535521 -0.46476883406598812 0 0.017935382878602649 -0.47640210638911701 0 -0.0058504529610899324 -0.44990152804784911 0 0.0071471274566425411 -0.45023480780884062 0 0.0039709984709535521 -0.46476883406598812 0 0.032203889205875927 -0.46605417778854591 0 0.021039567751998431 -0.4524040952758317 0 0.017935382878602649 -0.47640210638911701 0 0.032203889205875927 -0.46605417778854591 0 0.017935382878602649 -0.47640210638911701 0 0.033257830351245653 -0.48207974702950612 0 0.017935382878602649 -0.47640210638911701 0 0.026425360216540079 -0.48981402674646929 0 0.033257830351245653 -0.48207974702950612 0 0.0039709984709535521 -0.46476883406598812 0 0.017935382878602649 -0.47640210638911701 0 0.003558453197493754 -0.47918030164141068 0 0.017935382878602649 -0.47640210638911701 0 0.0096132321850488679 -0.48410570635862332 0 0.01416520248222692 -0.48952742593735632 0 0.017935382878602649 -0.47640210638911701 0 0.0096132321850488679 -0.48410570635862332 0 0.003558453197493754 -0.47918030164141068 0 0.0096132321850488679 -0.48410570635862332 0 0.003558453197493754 -0.47918030164141068 0 0.0030684139669997592 -0.48764090158259221 0 -0.0042147194705703427 -0.48381737062913271 0 0.003558453197493754 -0.47918030164141068 0 0.0030684139669997592 -0.48764090158259221 0 -0.0071170797511046196 -0.47591162345199173 0 0.0039709984709535521 -0.46476883406598812 0 0.003558453197493754 -0.47918030164141068 0 9.6776935416854892e-06 -0.49687009603016702 0 0.029464552021525332 -0.5 0 9.6776935416854892e-06 -0.49687009603016702 0 0.01416520248222692 -0.48952742593735632 0 0.029464552021525332 -0.5 0 0.0048481237265801669 -0.5 0 9.6776935416854892e-06 -0.49687009603016702 0 0.029464552021525332 -0.5 0 9.6776935416854892e-06 -0.49687009603016702 0 0.0030684139669997592 -0.48764090158259221 0 0.01416520248222692 -0.48952742593735632 0 0.0096132321850488679 -0.48410570635862332 0 0.0030684139669997592 -0.48764090158259221 0 0.01416520248222692 -0.48952742593735632 0 0.01416520248222692 -0.48952742593735632 0 0.026425360216540079 -0.48981402674646929 0 0.029464552021525332 -0.5 0 0.017935382878602649 -0.47640210638911701 0 0.01416520248222692 -0.48952742593735632 0 0.026425360216540079 -0.48981402674646929 0 0.029464552021525332 -0.5 0 0.043311109645830008 -0.49705239944109658 0 0.056669389451153178 -0.5 0 0.043311109645830008 -0.49705239944109658 0 0.033257830351245653 -0.48207974702950612 0 0.047069235399419353 -0.48013871596257252 0 0.026425360216540079 -0.48981402674646929 0 0.043311109645830008 -0.49705239944109658 0 0.033257830351245653 -0.48207974702950612 0 0.026425360216540079 -0.48981402674646929 0 0.029464552021525332 -0.5 0 0.043311109645830008 -0.49705239944109658 0 0.048365135309260177 -0.46580385385779038 0 0.032203889205875927 -0.46605417778854591 0 0.047069235399419353 -0.48013871596257252 0 0.032203889205875927 -0.46605417778854591 0 0.033257830351245653 -0.48207974702950612 0 0.047069235399419353 -0.48013871596257252 0 0.047069235399419353 -0.48013871596257252 0 0.059902050234846023 -0.4804449431841884 0 0.056453052244573462 -0.48890732663799019 0 0.060835100993874909 -0.46820840556564458 0 0.048365135309260177 -0.46580385385779038 0 0.047069235399419353 -0.48013871596257252 0 0.060835100993874909 -0.46820840556564458 0 0.047069235399419353 -0.48013871596257252 0 0.059902050234846023 -0.4804449431841884 0 0.043311109645830008 -0.49705239944109658 0 0.047069235399419353 -0.48013871596257252 0 0.056453052244573462 -0.48890732663799019 0 0.067054307669381696 -0.49778929958082241 0 0.043311109645830008 -0.49705239944109658 0 0.056669389451153178 -0.5 0 0.067054307669381696 -0.49778929958082241 0 0.043311109645830008 -0.49705239944109658 0 0.056453052244573462 -0.48890732663799019 0 0.068077961459141245 -0.48602330882303491 0 0.059902050234846023 -0.4804449431841884 0 0.056453052244573462 -0.48890732663799019 0 0.067054307669381696 -0.49778929958082241 0 0.043311109645830008 -0.49705239944109658 0 0.084069283358381014 -0.29327744624775109 0 0.091214140244612552 -0.30633423469431892 0 0.097713414616837441 -0.28785402247308162 0 0.084069283358381014 -0.29327744624775109 0 0.088557249922364217 -0.2830700500711365 0 0.076949367591435863 -0.28110586613744859 0 0.084069283358381014 -0.29327744624775109 0 0.088557249922364217 -0.2830700500711365 0 0.097713414616837441 -0.28785402247308162 0 0.091214140244612552 -0.30633423469431892 0 0.078533917269483972 -0.30472749062510179 0 0.074604077186426476 -0.31683555516197281 0 0.084069283358381014 -0.29327744624775109 0 0.091214140244612552 -0.30633423469431892 0 0.078533917269483972 -0.30472749062510179 0 0.078533917269483972 -0.30472749062510179 0 0.07092129649406223 -0.30882401684131677 0 0.071447610505552109 -0.29657301348541992 0 0.084069283358381014 -0.29327744624775109 0 0.078533917269483972 -0.30472749062510179 0 0.071447610505552109 -0.29657301348541992 0 0.078533917269483972 -0.30472749062510179 0 0.07092129649406223 -0.30882401684131677 0 0.074604077186426476 -0.31683555516197281 0 0.07092129649406223 -0.30882401684131677 0 0.064756441613239929 -0.31850303163859672 0 0.062266877878042207 -0.30713621996074331 0 0.07092129649406223 -0.30882401684131677 0 0.071447610505552109 -0.29657301348541992 0 0.062266877878042207 -0.30713621996074331 0 0.071447610505552109 -0.29657301348541992 0 0.059176892630314462 -0.29392585810347349 0 0.062266877878042207 -0.30713621996074331 0 0.071447610505552109 -0.29657301348541992 0 0.066926207552154712 -0.2853462175169123 0 0.059176892630314462 -0.29392585810347349 0 0.084069283358381014 -0.29327744624775109 0 0.071447610505552109 -0.29657301348541992 0 0.076949367591435863 -0.28110586613744859 0 0.071447610505552109 -0.29657301348541992 0 0.066926207552154712 -0.2853462175169123 0 0.076949367591435863 -0.28110586613744859 0 0.075428607925503488 -0.2586409926186895 0 0.078971228011400496 -0.27032024366815782 0 0.060001453046871857 -0.27505184771500968 0 0.076949367591435863 -0.28110586613744859 0 0.078971228011400496 -0.27032024366815782 0 0.060001453046871857 -0.27505184771500968 0 0.066926207552154712 -0.2853462175169123 0 0.076949367591435863 -0.28110586613744859 0 0.060001453046871857 -0.27505184771500968 0 0.074391824527062972 -0.25635230628365763 0 0.060001453046871857 -0.27505184771500968 0 0.075428607925503488 -0.2586409926186895 0 0.074391824527062972 -0.25635230628365763 0 0.060001453046871857 -0.27505184771500968 0 0.067720681390576964 -0.26252295075521481 0 0.074391824527062972 -0.25635230628365763 0 0.060001453046871857 -0.27505184771500968 0 0.067720681390576964 -0.26252295075521481 0 0.074391824527062972 -0.25635230628365763 0 0.061427279401925668 -0.25181333601470368 0 0.074391824527062972 -0.25635230628365763 0 0.061427279401925668 -0.25181333601470368 0 0.068741634782336344 -0.24612800292814049 0 0.074391824527062972 -0.25635230628365763 0 0.061427279401925668 -0.25181333601470368 0 0.074391824527062972 -0.25635230628365763 0 0.081749243712162481 -0.24679172161987331 0 0.075428607925503488 -0.2586409926186895 0 0.09084552592243797 -0.27178949263732838 0 0.096289262474385545 -0.26401873953294208 0 0.074391824527062972 -0.25635230628365763 0 0.096289262474385545 -0.26401873953294208 0 0.074391824527062972 -0.25635230628365763 0 0.096289262474385545 -0.26401873953294208 0 0.081749243712162481 -0.24679172161987331 0 0.096289262474385545 -0.26401873953294208 0 0.081749243712162481 -0.24679172161987331 0 0.075428607925503488 -0.2586409926186895 0 0.074391824527062972 -0.25635230628365763 0 0.096289262474385545 -0.26401873953294208 0 0.075428607925503488 -0.2586409926186895 0 0.09084552592243797 -0.27178949263732838 0 0.088557249922364217 -0.2830700500711365 0 0.09084552592243797 -0.27178949263732838 0 0.097713414616837441 -0.28785402247308162 0 0.076949367591435863 -0.28110586613744859 0 0.08383084286190963 -0.27657141312851791 0 0.078971228011400496 -0.27032024366815782 0 0.088557249922364217 -0.2830700500711365 0 0.076949367591435863 -0.28110586613744859 0 0.08383084286190963 -0.27657141312851791 0 0.08383084286190963 -0.27657141312851791 0 0.078971228011400496 -0.27032024366815782 0 0.09084552592243797 -0.27178949263732838 0 0.075428607925503488 -0.2586409926186895 0 0.078971228011400496 -0.27032024366815782 0 0.09084552592243797 -0.27178949263732838 0 0.088557249922364217 -0.2830700500711365 0 0.08383084286190963 -0.27657141312851791 0 0.09084552592243797 -0.27178949263732838 0 0.09084552592243797 -0.27178949263732838 0 0.1070385377156477 -0.27675448356202692 0 0.096289262474385545 -0.26401873953294208 0 0.09084552592243797 -0.27178949263732838 0 0.1062624439193729 -0.28493799265596681 0 0.09084552592243797 -0.27178949263732838 0 0.1070385377156477 -0.27675448356202692 0 0.1062624439193729 -0.28493799265596681 0 0.10801204215132471 -0.26812295976662781 0 0.096289262474385545 -0.26401873953294208 0 0.10801204215132471 -0.26812295976662781 0 0.1070385377156477 -0.27675448356202692 0 0.096289262474385545 -0.26401873953294208 0 0.10801204215132471 -0.26812295976662781 0 0.1070385377156477 -0.27675448356202692 0 0.10801204215132471 -0.26812295976662781 0 0.1097134624376946 -0.27728303992923498 0 0.1070385377156477 -0.27675448356202692 0 0.096289262474385545 -0.26401873953294208 0 0.1070385377156477 -0.27675448356202692 0 0.1062624439193729 -0.28493799265596681 0 0.10801204215132471 -0.26812295976662781 0 0.1070385377156477 -0.27675448356202692 0 0.1097134624376946 -0.27728303992923498 0 0.096289262474385545 -0.26401873953294208 0 0.081749243712162481 -0.24679172161987331 0 0.1038116942218397 -0.2455091916969975 0 0.10801204215132471 -0.26812295976662781 0 0.1098843437794145 -0.24674692530778741 0 0.1038116942218397 -0.2455091916969975 0 0.10801204215132471 -0.26812295976662781 0 0.096289262474385545 -0.26401873953294208 0 0.1038116942218397 -0.2455091916969975 0 0.10801204215132471 -0.26812295976662781 0 0.1038116942218397 -0.2455091916969975 0 0.10801204215132471 -0.26812295976662781 0 0.1098843437794145 -0.24674692530778741 0 0.12995820875369279 -0.25235635345497848 0 0.1184792223514632 -0.27178758658304503 0 0.10801204215132471 -0.26812295976662781 0 0.1177530590751522 -0.25825238830246849 0 0.1098843437794145 -0.24674692530778741 0 0.12995820875369279 -0.25235635345497848 0 0.1177530590751522 -0.25825238830246849 0 0.1184792223514632 -0.27178758658304503 0 0.1177530590751522 -0.25825238830246849 0 0.1211580271231746 -0.24512581039290279 0 0.1098843437794145 -0.24674692530778741 0 0.10801204215132471 -0.26812295976662781 0 0.1177530590751522 -0.25825238830246849 0 0.1130384518173512 -0.26643343544310388 0 0.1177530590751522 -0.25825238830246849 0 0.1130384518173512 -0.26643343544310388 0 0.1184792223514632 -0.27178758658304503 0 0.12995820875369279 -0.25235635345497848 0 0.1177530590751522 -0.25825238830246849 0 0.1211580271231746 -0.24512581039290279 0 0.12553477146490369 -0.27425777950905461 0 0.12995820875369279 -0.25235635345497848 0 0.1184792223514632 -0.27178758658304503 0 0.1184792223514632 -0.27178758658304503 0 0.11204259359061169 -0.28268329023041833 0 0.1184792223514632 -0.27178758658304503 0 0.11401693075750589 -0.28502248540593578 0 0.11204259359061169 -0.28268329023041833 0 0.1097134624376946 -0.27728303992923498 0 0.1184792223514632 -0.27178758658304503 0 0.11204259359061169 -0.28268329023041833 0 0.1070385377156477 -0.27675448356202692 0 0.11204259359061169 -0.28268329023041833 0 0.1070385377156477 -0.27675448356202692 0 0.1097134624376946 -0.27728303992923498 0 0.11204259359061169 -0.28268329023041833 0 0.10801204215132471 -0.26812295976662781 0 0.1184792223514632 -0.27178758658304503 0 0.10801204215132471 -0.26812295976662781 0 0.1097134624376946 -0.27728303992923498 0 0.1184792223514632 -0.27178758658304503 0 0.10801204215132471 -0.26812295976662781 0 0.1130384518173512 -0.26643343544310388 0 0.1184792223514632 -0.27178758658304503 0 0.12553477146490369 -0.27425777950905461 0 0.1184792223514632 -0.27178758658304503 0 0.12553477146490369 -0.27425777950905461 0 0.11401693075750589 -0.28502248540593578 0 0.12553477146490369 -0.27425777950905461 0 0.1218736263182264 -0.28340730483075433 0 0.11401693075750589 -0.28502248540593578 0 0.12598568784125469 -0.2815087530436528 0 0.12553477146490369 -0.27425777950905461 0 0.1218736263182264 -0.28340730483075433 0 0.12553477146490369 -0.27425777950905461 0 0.1184792223514632 -0.27178758658304503 0 0.11401693075750589 -0.28502248540593578 0 0.12523133040235679 -0.29045393838619737 0 0.1235083741144246 -0.28714055874716521 0 0.11401693075750589 -0.28502248540593578 0 0.1218736263182264 -0.28340730483075433 0 0.1235083741144246 -0.28714055874716521 0 0.11401693075750589 -0.28502248540593578 0 0.12548460631697761 -0.30133184016125109 0 0.1261097900802623 -0.29449150984196393 0 0.11401693075750589 -0.28502248540593578 0 0.12548460631697761 -0.30133184016125109 0 0.11401693075750589 -0.28502248540593578 0 0.12548460631697761 -0.30133184016125109 0 0.11401693075750589 -0.28502248540593578 0 0.110364281570605 -0.28843629318817482 0 0.12735455052642761 -0.28529551239677459 0 0.1218736263182264 -0.28340730483075433 0 0.1235083741144246 -0.28714055874716521 0 0.12548460631697761 -0.30133184016125109 0 0.110364281570605 -0.28843629318817482 0 0.12523133040235679 -0.29045393838619737 0 0.1261097900802623 -0.29449150984196393 0 0.11401693075750589 -0.28502248540593578 0 0.110364281570605 -0.28843629318817482 0 0.10652335526304541 -0.29202606692466387 0 0.1124009960826783 -0.30056090626794318 0 0.12548460631697761 -0.30133184016125109 0 0.110364281570605 -0.28843629318817482 0 0.1124009960826783 -0.30056090626794318 0 0.11401693075750589 -0.28502248540593578 0 0.110364281570605 -0.28843629318817482 0 0.11204259359061169 -0.28268329023041833 0 0.110364281570605 -0.28843629318817482 0 0.11204259359061169 -0.28268329023041833 0 0.110364281570605 -0.28843629318817482 0 0.11204259359061169 -0.28268329023041833 0 0.1062624439193729 -0.28493799265596681 0 0.11401693075750589 -0.28502248540593578 0 0.110364281570605 -0.28843629318817482 0 0.11401693075750589 -0.28502248540593578 0 0.11204259359061169 -0.28268329023041833 0 0.091214140244612552 -0.30633423469431892 0 0.10652335526304541 -0.29202606692466387 0 0.097713414616837441 -0.28785402247308162 0 0.1062624439193729 -0.28493799265596681 0 0.1058114182360739 -0.28969382603411198 0 0.097713414616837441 -0.28785402247308162 0 0.09084552592243797 -0.27178949263732838 0 0.1062624439193729 -0.28493799265596681 0 0.097713414616837441 -0.28785402247308162 0 0.1070385377156477 -0.27675448356202692 0 0.11204259359061169 -0.28268329023041833 0 0.1062624439193729 -0.28493799265596681 0 0.1062624439193729 -0.28493799265596681 0 0.1058114182360739 -0.28969382603411198 0 0.110364281570605 -0.28843629318817482 0 0.1062624439193729 -0.28493799265596681 0 0.1058114182360739 -0.28969382603411198 0 0.110364281570605 -0.28843629318817482 0 0.1062624439193729 -0.28493799265596681 0 0.10652335526304541 -0.29202606692466387 0 0.1070808953627716 -0.29724556208805192 0 0.1124009960826783 -0.30056090626794318 0 0.110364281570605 -0.28843629318817482 0 0.1058114182360739 -0.28969382603411198 0 0.10652335526304541 -0.29202606692466387 0 0.1058114182360739 -0.28969382603411198 0 0.10652335526304541 -0.29202606692466387 0 0.097713414616837441 -0.28785402247308162 0 0.110364281570605 -0.28843629318817482 0 0.10652335526304541 -0.29202606692466387 0 0.091214140244612552 -0.30633423469431892 0 0.1030810211186541 -0.30402194367854002 0 0.1040560868273193 -0.31607261993691349 0 0.091214140244612552 -0.30633423469431892 0 0.10652335526304541 -0.29202606692466387 0 0.1030810211186541 -0.30402194367854002 0 0.091214140244612552 -0.30633423469431892 0 0.10652335526304541 -0.29202606692466387 0 0.10652335526304541 -0.29202606692466387 0 0.1030810211186541 -0.30402194367854002 0 0.1070808953627716 -0.29724556208805192 0 0.1030810211186541 -0.30402194367854002 0 0.1070808953627716 -0.29724556208805192 0 0.1124009960826783 -0.30056090626794318 0 0.1030810211186541 -0.30402194367854002 0 0.1124009960826783 -0.30056090626794318 0 0.1040560868273193 -0.31607261993691349 0 0.12548460631697761 -0.30133184016125109 0 0.1124009960826783 -0.30056090626794318 0 0.1040560868273193 -0.31607261993691349 0 0.12548460631697761 -0.30133184016125109 0 0.1040560868273193 -0.31607261993691349 0 0.1234881940305048 -0.32646184031532172 0 0.10574554073940561 -0.3356246073067588 0 0.1040560868273193 -0.31607261993691349 0 0.12548460631697761 -0.30133184016125109 0 0.1234881940305048 -0.32646184031532172 0 0.1040560868273193 -0.31607261993691349 0 0.1234881940305048 -0.32646184031532172 0 0.1164120666912927 -0.34183440338541049 0 0.10574554073940561 -0.3356246073067588 0 0.10574554073940561 -0.3356246073067588 0 0.09426639826135233 -0.33666720000350492 0 0.1004901154738356 -0.35404156438911538 0 0.10574554073940561 -0.3356246073067588 0 0.09426639826135233 -0.33666720000350492 0 0.1040560868273193 -0.31607261993691349 0 0.091214140244612552 -0.30633423469431892 0 0.1040560868273193 -0.31607261993691349 0 0.08845067990894305 -0.31846566420194539 0 0.1152607278426057 -0.37684903944505921 0 0.1226553468055713 -0.35614285545282981 0 0.1004901154738356 -0.35404156438911538 0 0.1320557156387141 -0.3688478742013287 0 0.1152607278426057 -0.37684903944505921 0 0.1226553468055713 -0.35614285545282981 0 0.1164120666912927 -0.34183440338541049 0 0.1226553468055713 -0.35614285545282981 0 0.1004901154738356 -0.35404156438911538 0 0.1164120666912927 -0.34183440338541049 0 0.10574554073940561 -0.3356246073067588 0 0.1004901154738356 -0.35404156438911538 0 0.1152607278426057 -0.37684903944505921 0 0.1004901154738356 -0.35404156438911538 0 0.09295851306110009 -0.37054861968129121 0 0.09295851306110009 -0.37054861968129121 0 0.084431719143641337 -0.34559551107263242 0 0.076989777111241275 -0.36431955513319469 0 0.077883508297157997 -0.38457364525744142 0 0.09295851306110009 -0.37054861968129121 0 0.076989777111241275 -0.36431955513319469 0 0.1004901154738356 -0.35404156438911538 0 0.09295851306110009 -0.37054861968129121 0 0.084431719143641337 -0.34559551107263242 0 0.09426639826135233 -0.33666720000350492 0 0.1004901154738356 -0.35404156438911538 0 0.084431719143641337 -0.34559551107263242 0 0.09295851306110009 -0.37054861968129121 0 0.084431719143641337 -0.34559551107263242 0 0.084431719143641337 -0.34559551107263242 0 0.066803352533289062 -0.35173503178441501 0 0.070436314993802887 -0.33795490241753329 0 0.084431719143641337 -0.34559551107263242 0 0.066803352533289062 -0.35173503178441501 0 0.076989777111241275 -0.36431955513319469 0 0.066803352533289062 -0.35173503178441501 0 0.070436314993802887 -0.33795490241753329 0 0.060953212906195792 -0.34410694157730642 0 0.077883508297157997 -0.38457364525744142 0 0.06287179252101785 -0.36914496787019352 0 0.076989777111241275 -0.36431955513319469 0 0.066803352533289062 -0.35173503178441501 0 0.06287179252101785 -0.36914496787019352 0 0.076989777111241275 -0.36431955513319469 0 0.1040560868273193 -0.31607261993691349 0 0.082627567337660926 -0.33081339971257562 0 0.1040560868273193 -0.31607261993691349 0 0.08845067990894305 -0.31846566420194539 0 0.082627567337660926 -0.33081339971257562 0 0.091214140244612552 -0.30633423469431892 0 0.075904925226180142 -0.32064240246397452 0 0.074604077186426476 -0.31683555516197281 0 0.09426639826135233 -0.33666720000350492 0 0.1040560868273193 -0.31607261993691349 0 0.082627567337660926 -0.33081339971257562 0 0.08845067990894305 -0.31846566420194539 0 0.082627567337660926 -0.33081339971257562 0 0.075904925226180142 -0.32064240246397452 0 0.091214140244612552 -0.30633423469431892 0 0.075904925226180142 -0.32064240246397452 0 0.091214140244612552 -0.30633423469431892 0 0.08845067990894305 -0.31846566420194539 0 0.075904925226180142 -0.32064240246397452 0 0.084431719143641337 -0.34559551107263242 0 0.075904925226180142 -0.32064240246397452 0 0.084431719143641337 -0.34559551107263242 0 0.082627567337660926 -0.33081339971257562 0 0.075904925226180142 -0.32064240246397452 0 0.09426639826135233 -0.33666720000350492 0 0.084431719143641337 -0.34559551107263242 0 0.082627567337660926 -0.33081339971257562 0 0.070436314993802887 -0.33795490241753329 0 0.075904925226180142 -0.32064240246397452 0 0.054690621407592913 -0.34046953388692852 0 0.084431719143641337 -0.34559551107263242 0 0.070436314993802887 -0.33795490241753329 0 0.075904925226180142 -0.32064240246397452 0 0.075904925226180142 -0.32064240246397452 0 0.054690621407592913 -0.34046953388692852 0 0.075904925226180142 -0.32064240246397452 0 0.064756441613239929 -0.31850303163859672 0 0.054690621407592913 -0.34046953388692852 0 0.075904925226180142 -0.32064240246397452 0 0.074604077186426476 -0.31683555516197281 0 0.064756441613239929 -0.31850303163859672 0 0.075904925226180142 -0.32064240246397452 0 0.074604077186426476 -0.31683555516197281 0 0.07092129649406223 -0.30882401684131677 0 0.074604077186426476 -0.31683555516197281 0 0.064756441613239929 -0.31850303163859672 0 0.064756441613239929 -0.31850303163859672 0 0.05015085148713691 -0.31711046151664568 0 0.062266877878042207 -0.30713621996074331 0 0.064756441613239929 -0.31850303163859672 0 0.05015085148713691 -0.31711046151664568 0 0.054690621407592913 -0.34046953388692852 0 0.070436314993802887 -0.33795490241753329 0 0.054690621407592913 -0.34046953388692852 0 0.060953212906195792 -0.34410694157730642 0 0.05015085148713691 -0.31711046151664568 0 0.054690621407592913 -0.34046953388692852 0 0.045212427036891337 -0.33258855836570411 0 0.05015085148713691 -0.31711046151664568 0 0.054690621407592913 -0.34046953388692852 0 0.03548341757843719 -0.32508481536694478 0 0.040524817674398812 -0.34768942269229741 0 0.029038381756716049 -0.33842186162005983 0 0.03548341757843719 -0.32508481536694478 0 0.040524817674398812 -0.34768942269229741 0 0.045212427036891337 -0.33258855836570411 0 0.03548341757843719 -0.32508481536694478 0 0.040524817674398812 -0.34768942269229741 0 0.054690621407592913 -0.34046953388692852 0 0.045212427036891337 -0.33258855836570411 0 0.040524817674398812 -0.34768942269229741 0 0.03548341757843719 -0.32508481536694478 0 0.030442017482475891 -0.30248020804159209 0 0.05015085148713691 -0.31711046151664568 0 0.03548341757843719 -0.32508481536694478 0 0.040770332738596003 -0.3079265366689059 0 0.05015085148713691 -0.31711046151664568 0 0.045212427036891337 -0.33258855836570411 0 0.03548341757843719 -0.32508481536694478 0 0.056725564565641498 -0.38454571870881071 0 0.06287179252101785 -0.36914496787019352 0 0.046922580176367877 -0.37114302360188428 0 0.06287179252101785 -0.36914496787019352 0 0.046922580176367877 -0.37114302360188428 0 0.053506986587080869 -0.35642065836679071 0 0.066803352533289062 -0.35173503178441501 0 0.06287179252101785 -0.36914496787019352 0 0.053506986587080869 -0.35642065836679071 0 0.054690621407592913 -0.34046953388692852 0 0.053506986587080869 -0.35642065836679071 0 0.035714077694995919 -0.35820522907450802 0 0.054690621407592913 -0.34046953388692852 0 0.053506986587080869 -0.35642065836679071 0 0.059039622234992387 -0.348445864232453 0 0.066803352533289062 -0.35173503178441501 0 0.053506986587080869 -0.35642065836679071 0 0.059039622234992387 -0.348445864232453 0 0.054690621407592913 -0.34046953388692852 0 0.059039622234992387 -0.348445864232453 0 0.060953212906195792 -0.34410694157730642 0 0.066803352533289062 -0.35173503178441501 0 0.059039622234992387 -0.348445864232453 0 0.060953212906195792 -0.34410694157730642 0 0.054690621407592913 -0.34046953388692852 0 0.035714077694995919 -0.35820522907450802 0 0.054690621407592913 -0.34046953388692852 0 0.040524817674398812 -0.34768942269229741 0 0.035714077694995919 -0.35820522907450802 0 0.040524817674398812 -0.34768942269229741 0 0.02673333570969531 -0.34898526585681872 0 0.029038381756716049 -0.33842186162005983 0 0.040524817674398812 -0.34768942269229741 0 0.035714077694995919 -0.35820522907450802 0 0.02673333570969531 -0.34898526585681872 0 0.046922580176367877 -0.37114302360188428 0 0.035714077694995919 -0.35820522907450802 0 0.033539814630865597 -0.3748460541253168 0 0.046922580176367877 -0.37114302360188428 0 0.053506986587080869 -0.35642065836679071 0 0.035714077694995919 -0.35820522907450802 0 0.016737533982398339 -0.37594092426208692 0 0.023136125258509169 -0.35910951941381919 0 0.0133595536469471 -0.3533066584618636 0 0.016737533982398339 -0.37594092426208692 0 0.035714077694995919 -0.35820522907450802 0 0.023136125258509169 -0.35910951941381919 0 0.016737533982398339 -0.37594092426208692 0 0.035714077694995919 -0.35820522907450802 0 0.033539814630865597 -0.3748460541253168 0 0.016737533982398339 -0.37594092426208692 0 0.035714077694995919 -0.35820522907450802 0 0.023136125258509169 -0.35910951941381919 0 0.02673333570969531 -0.34898526585681872 0 0.0133595536469471 -0.3533066584618636 0 0.035714077694995919 -0.35820522907450802 0 0.023136125258509169 -0.35910951941381919 0 0.02673333570969531 -0.34898526585681872 0 0.02673333570969531 -0.34898526585681872 0 0.0133595536469471 -0.3533066584618636 0 0.0161906997794189 -0.34218337207731231 0 -0.001397510826794308 -0.36155409714311598 0 0.0133595536469471 -0.3533066584618636 0 0.0044074928226207309 -0.33817554634418401 0 0.0133595536469471 -0.3533066584618636 0 0.0161906997794189 -0.34218337207731231 0 0.0044074928226207309 -0.33817554634418401 0 -0.001397510826794308 -0.36155409714311598 0 -0.0029480478345611238 -0.38134474274588581 0 0.016737533982398339 -0.37594092426208692 0 -0.001397510826794308 -0.36155409714311598 0 0.016737533982398339 -0.37594092426208692 0 0.0133595536469471 -0.3533066584618636 0 0.03548341757843719 -0.32508481536694478 0 0.025585414110518401 -0.31706044209762407 0 0.030442017482475891 -0.30248020804159209 0 0.025585414110518401 -0.31706044209762407 0 0.02072881073856064 -0.33164067615365589 0 0.0056592100768920166 -0.31809331474906261 0 0.025585414110518401 -0.31706044209762407 0 0.0056592100768920166 -0.31809331474906261 0 0.019786879018190599 -0.30754631040877761 0 0.025585414110518401 -0.31706044209762407 0 0.02072881073856064 -0.33164067615365589 0 0.03548341757843719 -0.32508481536694478 0 0.025585414110518401 -0.31706044209762407 0 0.02072881073856064 -0.33164067615365589 0 0.03548341757843719 -0.32508481536694478 0 0.029038381756716049 -0.33842186162005983 0 0.02072881073856064 -0.33164067615365589 0 0.02673333570969531 -0.34898526585681872 0 0.029038381756716049 -0.33842186162005983 0 0.0161906997794189 -0.34218337207731231 0 0.029038381756716049 -0.33842186162005983 0 0.0161906997794189 -0.34218337207731231 0 0.02072881073856064 -0.33164067615365589 0 0.0161906997794189 -0.34218337207731231 0 0.02072881073856064 -0.33164067615365589 0 0.0044074928226207309 -0.33817554634418401 0 0.02072881073856064 -0.33164067615365589 0 0.0044074928226207309 -0.33817554634418401 0 0.0056592100768920166 -0.31809331474906261 0 -0.0042533295162894714 -0.30291953266693478 0 0.0056592100768920166 -0.31809331474906261 0 0.01310959655978982 -0.29697040225337729 0 0.0056592100768920166 -0.31809331474906261 0 0.01310959655978982 -0.29697040225337729 0 0.019786879018190599 -0.30754631040877761 0 -0.0011038354285470269 -0.27759262811925578 0 0.01310959655978982 -0.29697040225337729 0 0.014535034689397489 -0.28054061878323389 0 -0.0042533295162894714 -0.30291953266693478 0 -0.0011038354285470269 -0.27759262811925578 0 0.01310959655978982 -0.29697040225337729 0 0.01310959655978982 -0.29697040225337729 0 0.027062272921760801 -0.28732612441388111 0 0.030442017482475891 -0.30248020804159209 0 0.01310959655978982 -0.29697040225337729 0 0.027062272921760801 -0.28732612441388111 0 0.014535034689397489 -0.28054061878323389 0 0.027062272921760801 -0.28732612441388111 0 0.030442017482475891 -0.30248020804159209 0 0.035767538634668777 -0.28649221418612197 0 0.027062272921760801 -0.28732612441388111 0 0.030442017482475891 -0.30248020804159209 0 0.01310959655978982 -0.29697040225337729 0 0.019786879018190599 -0.30754631040877761 0 0.030442017482475891 -0.30248020804159209 0 0.025585414110518401 -0.31706044209762407 0 0.030442017482475891 -0.30248020804159209 0 0.025585414110518401 -0.31706044209762407 0 0.019786879018190599 -0.30754631040877761 0 0.030442017482475891 -0.30248020804159209 0 0.05015085148713691 -0.31711046151664568 0 0.045611081566682081 -0.29375138914636278 0 0.044009049137395471 -0.29583314720431741 0 0.05015085148713691 -0.31711046151664568 0 0.040770332738596003 -0.3079265366689059 0 0.044009049137395471 -0.29583314720431741 0 0.03548341757843719 -0.32508481536694478 0 0.030442017482475891 -0.30248020804159209 0 0.040770332738596003 -0.3079265366689059 0 0.040770332738596003 -0.3079265366689059 0 0.037753237049634868 -0.29711055801319353 0 0.044009049137395471 -0.29583314720431741 0 0.030442017482475891 -0.30248020804159209 0 0.040770332738596003 -0.3079265366689059 0 0.037753237049634868 -0.29711055801319353 0 0.045611081566682081 -0.29375138914636278 0 0.048541104528198417 -0.28111933062525851 0 0.041093059786861598 -0.2705042203306518 0 0.039983942805357053 -0.2910782895994205 0 0.045611081566682081 -0.29375138914636278 0 0.041093059786861598 -0.2705042203306518 0 0.035767538634668777 -0.28649221418612197 0 0.039983942805357053 -0.2910782895994205 0 0.041093059786861598 -0.2705042203306518 0 0.037753237049634868 -0.29711055801319353 0 0.035767538634668777 -0.28649221418612197 0 0.039983942805357053 -0.2910782895994205 0 0.045611081566682081 -0.29375138914636278 0 0.041093059786861598 -0.2705042203306518 0 0.030442017482475891 -0.30248020804159209 0 0.035767538634668777 -0.28649221418612197 0 0.030442017482475891 -0.30248020804159209 0 0.037753237049634868 -0.29711055801319353 0 0.035767538634668777 -0.28649221418612197 0 0.027062272921760801 -0.28732612441388111 0 0.035767538634668777 -0.28649221418612197 0 0.031881897376816501 -0.27634787204352979 0 0.037753237049634868 -0.29711055801319353 0 0.039983942805357053 -0.2910782895994205 0 0.044009049137395471 -0.29583314720431741 0 0.039983942805357053 -0.2910782895994205 0 0.045611081566682081 -0.29375138914636278 0 0.044009049137395471 -0.29583314720431741 0 0.045611081566682081 -0.29375138914636278 0 0.044009049137395471 -0.29583314720431741 0 0.045611081566682081 -0.29375138914636278 0 0.060001453046871857 -0.27505184771500968 0 0.066926207552154712 -0.2853462175169123 0 0.059176892630314462 -0.29392585810347349 0 0.060001453046871857 -0.27505184771500968 0 0.045611081566682081 -0.29375138914636278 0 0.059176892630314462 -0.29392585810347349 0 0.060001453046871857 -0.27505184771500968 0 0.045611081566682081 -0.29375138914636278 0 0.060001453046871857 -0.27505184771500968 0 0.048541104528198417 -0.28111933062525851 0 0.05015085148713691 -0.31711046151664568 0 0.045611081566682081 -0.29375138914636278 0 0.05015085148713691 -0.31711046151664568 0 0.045611081566682081 -0.29375138914636278 0 0.062266877878042207 -0.30713621996074331 0 0.045611081566682081 -0.29375138914636278 0 0.059176892630314462 -0.29392585810347349 0 0.062266877878042207 -0.30713621996074331 0 0.067720681390576964 -0.26252295075521481 0 0.04687883850936421 -0.25066157351144219 0 0.055322798427125133 -0.25045030680810948 0 0.067720681390576964 -0.26252295075521481 0 0.04687883850936421 -0.25066157351144219 0 0.055258736328047522 -0.2634873830687785 0 0.041093059786861598 -0.2705042203306518 0 0.046350997172513293 -0.25471912283279668 0 0.067720681390576964 -0.26252295075521481 0 0.04687883850936421 -0.25066157351144219 0 0.055258736328047522 -0.2634873830687785 0 0.04687883850936421 -0.25066157351144219 0 0.055258736328047522 -0.2634873830687785 0 0.046350997172513293 -0.25471912283279668 0 0.067720681390576964 -0.26252295075521481 0 0.055322798427125133 -0.25045030680810948 0 0.061427279401925668 -0.25181333601470368 0 0.067720681390576964 -0.26252295075521481 0 0.055258736328047522 -0.2634873830687785 0 0.060001453046871857 -0.27505184771500968 0 0.055258736328047522 -0.2634873830687785 0 0.060001453046871857 -0.27505184771500968 0 0.051223588422494852 -0.2725406954349246 0 0.048541104528198417 -0.28111933062525851 0 0.051223588422494852 -0.2725406954349246 0 0.041093059786861598 -0.2705042203306518 0 0.060001453046871857 -0.27505184771500968 0 0.048541104528198417 -0.28111933062525851 0 0.051223588422494852 -0.2725406954349246 0 0.055258736328047522 -0.2634873830687785 0 0.051223588422494852 -0.2725406954349246 0 0.041093059786861598 -0.2705042203306518 0 0.035767538634668777 -0.28649221418612197 0 0.041093059786861598 -0.2705042203306518 0 0.035767538634668777 -0.28649221418612197 0 0.041093059786861598 -0.2705042203306518 0 0.031881897376816501 -0.27634787204352979 0 0.041093059786861598 -0.2705042203306518 0 0.031881897376816501 -0.27634787204352979 0 0.03106940688168278 -0.26527976427422878 0 0.041093059786861598 -0.2705042203306518 0 0.038446977721826051 -0.25688898794269049 0 0.03106940688168278 -0.26527976427422878 0 0.038446977721826051 -0.25688898794269049 0 0.02985511644275252 -0.25799549728209958 0 0.03106940688168278 -0.26527976427422878 0 0.041093059786861598 -0.2705042203306518 0 0.046350997172513293 -0.25471912283279668 0 0.041093059786861598 -0.2705042203306518 0 0.046350997172513293 -0.25471912283279668 0 0.038446977721826051 -0.25688898794269049 0 0.041093059786861598 -0.2705042203306518 0 0.038446977721826051 -0.25688898794269049 0 0.046350997172513293 -0.25471912283279668 0 0.037673054087589093 -0.25000113343327313 0 0.038446977721826051 -0.25688898794269049 0 0.04687883850936421 -0.25066157351144219 0 0.046350997172513293 -0.25471912283279668 0 0.037673054087589093 -0.25000113343327313 0 0.038446977721826051 -0.25688898794269049 0 0.028805809295611551 -0.2512097145086889 0 0.02985511644275252 -0.25799549728209958 0 0.037673054087589093 -0.25000113343327313 0 0.038446977721826051 -0.25688898794269049 0 0.028805809295611551 -0.2512097145086889 0 0.028805809295611551 -0.2512097145086889 0 0.02985511644275252 -0.25799549728209958 0 0.021098271871889691 -0.25860352240279028 0 0.03106940688168278 -0.26527976427422878 0 0.021098271871889691 -0.25860352240279028 0 0.023682528361046059 -0.27217204078617002 0 0.02985511644275252 -0.25799549728209958 0 0.03106940688168278 -0.26527976427422878 0 0.021098271871889691 -0.25860352240279028 0 0.028805809295611551 -0.2512097145086889 0 0.021098271871889691 -0.25860352240279028 0 0.018280459298828561 -0.24757636525085719 0 0.027062272921760801 -0.28732612441388111 0 0.023682528361046059 -0.27217204078617002 0 0.027062272921760801 -0.28732612441388111 0 0.031881897376816501 -0.27634787204352979 0 0.023682528361046059 -0.27217204078617002 0 0.031881897376816501 -0.27634787204352979 0 0.03106940688168278 -0.26527976427422878 0 0.023682528361046059 -0.27217204078617002 0 0.021098271871889691 -0.25860352240279028 0 0.023682528361046059 -0.27217204078617002 0 0.012051531630596329 -0.26823490673260542 0 0.023682528361046059 -0.27217204078617002 0 0.014535034689397489 -0.28054061878323389 0 0.012051531630596329 -0.26823490673260542 0 0.027062272921760801 -0.28732612441388111 0 0.023682528361046059 -0.27217204078617002 0 0.014535034689397489 -0.28054061878323389 0 -0.0011038354285470269 -0.27759262811925578 0 0.014535034689397489 -0.28054061878323389 0 0.012051531630596329 -0.26823490673260542 0 -0.0011038354285470269 -0.27759262811925578 0 0.012051531630596329 -0.26823490673260542 0 0.002045658659195418 -0.25226572357157673 0 -0.0011038354285470269 -0.27759262811925578 0 0.002045658659195418 -0.25226572357157673 0 0.021098271871889691 -0.25860352240279028 0 0.012051531630596329 -0.26823490673260542 0 0.002045658659195418 -0.25226572357157673 0 0.021098271871889691 -0.25860352240279028 0 0.002045658659195418 -0.25226572357157673 0 0.018280459298828561 -0.24757636525085719 0 0.002045658659195418 -0.25226572357157673 0 0.011244779051839279 -0.2405503902729359 0 0.0051951527469382107 -0.2269388190238977 0 -0.0041937972378574863 -0.2384814372205343 0 0.002045658659195418 -0.25226572357157673 0 0.0051951527469382107 -0.2269388190238977 0 0.002045658659195418 -0.25226572357157673 0 0.011244779051839279 -0.2405503902729359 0 0.018280459298828561 -0.24757636525085719 0 0.002045658659195418 -0.25226572357157673 0 0.0051951527469382107 -0.2269388190238977 0 0.011244779051839279 -0.2405503902729359 0 0.0051951527469382107 -0.2269388190238977 0 0.02603699562815151 -0.2388001962676696 0 0.0051951527469382107 -0.2269388190238977 0 0.011742179822607401 -0.22647517341568449 0 0.02603699562815151 -0.2388001962676696 0 0.0051951527469382107 -0.2269388190238977 0 0.02603699562815151 -0.2388001962676696 0 0.005508109684769601 -0.2244221511810062 0 0.0091597614055564155 -0.2210627359476918 0 0.001564903750543953 -0.21508749120778081 0 0.0051951527469382107 -0.2269388190238977 0 0.005508109684769601 -0.2244221511810062 0 0.0051951527469382107 -0.2269388190238977 0 0.005508109684769601 -0.2244221511810062 0 0.0079505213992066975 -0.2247073179093127 0 0.005508109684769601 -0.2244221511810062 0 0.0091597614055564155 -0.2210627359476918 0 0.0079505213992066975 -0.2247073179093127 0 0.0091597614055564155 -0.2210627359476918 0 0.01484660876325879 -0.22079230525099861 0 0.0091691452499312303 -0.21536383839062179 0 0.0051951527469382107 -0.2269388190238977 0 0.0079505213992066975 -0.2247073179093127 0 0.011742179822607401 -0.22647517341568449 0 0.0091597614055564155 -0.2210627359476918 0 0.0079505213992066975 -0.2247073179093127 0 0.011742179822607401 -0.22647517341568449 0 0.0091597614055564155 -0.2210627359476918 0 0.011742179822607401 -0.22647517341568449 0 0.01484660876325879 -0.22079230525099861 0 0.03107668386331203 -0.22979640858640929 0 0.021354987341070959 -0.2135904640551588 0 0.03107668386331203 -0.22979640858640929 0 0.021354987341070959 -0.2135904640551588 0 0.034705280896153899 -0.21558182988449839 0 0.011742179822607401 -0.22647517341568449 0 0.021174013987469761 -0.22603482271835559 0 0.02603699562815151 -0.2388001962676696 0 0.021174013987469761 -0.22603482271835559 0 0.03107668386331203 -0.22979640858640929 0 0.021354987341070959 -0.2135904640551588 0 0.011742179822607401 -0.22647517341568449 0 0.01484660876325879 -0.22079230525099861 0 0.021174013987469761 -0.22603482271835559 0 0.01484660876325879 -0.22079230525099861 0 0.021174013987469761 -0.22603482271835559 0 0.021354987341070959 -0.2135904640551588 0 0.021174013987469761 -0.22603482271835559 0 0.03107668386331203 -0.22979640858640929 0 0.02603699562815151 -0.2388001962676696 0 0.028805809295611551 -0.2512097145086889 0 0.02603699562815151 -0.2388001962676696 0 0.018280459298828561 -0.24757636525085719 0 0.037673054087589093 -0.25000113343327313 0 0.028805809295611551 -0.2512097145086889 0 0.02603699562815151 -0.2388001962676696 0 0.011244779051839279 -0.2405503902729359 0 0.02603699562815151 -0.2388001962676696 0 0.018280459298828561 -0.24757636525085719 0 -0.0020900314666772268 -0.2056362374066513 0 -0.0072362567426319498 -0.1924080863237628 0 0.011015368670217639 -0.20413927921686631 0 0.01425453975357429 -0.20178440205379619 0 0.00016161218586271259 -0.1783170499424877 0 -0.0072362567426319498 -0.1924080863237628 0 0.011015368670217639 -0.20413927921686631 0 0.00016161218586271259 -0.1783170499424877 0 0.01425453975357429 -0.20178440205379619 0 0.011015368670217639 -0.20413927921686631 0 0.00016161218586271259 -0.1783170499424877 0 0.01425453975357429 -0.20178440205379619 0 0.011015368670217639 -0.20413927921686631 0 -0.0020900314666772268 -0.2056362374066513 0 0.021354987341070959 -0.2135904640551588 0 -0.0020900314666772268 -0.2056362374066513 0 0.011015368670217639 -0.20413927921686631 0 0.021354987341070959 -0.2135904640551588 0 -0.0020900314666772268 -0.2056362374066513 0 0.0091691452499312303 -0.21536383839062179 0 0.021354987341070959 -0.2135904640551588 0 0.01425453975357429 -0.20178440205379619 0 0.011015368670217639 -0.20413927921686631 0 0.021354987341070959 -0.2135904640551588 0 -0.0020900314666772268 -0.2056362374066513 0 0.001564903750543953 -0.21508749120778081 0 0.0091691452499312303 -0.21536383839062179 0 0.0091597614055564155 -0.2210627359476918 0 0.001564903750543953 -0.21508749120778081 0 0.0091691452499312303 -0.21536383839062179 0 0.01484660876325879 -0.22079230525099861 0 0.0091691452499312303 -0.21536383839062179 0 0.021354987341070959 -0.2135904640551588 0 0.01425453975357429 -0.20178440205379619 0 0.021354987341070959 -0.2135904640551588 0 0.031790105079028283 -0.20217458850019379 0 0.021354987341070959 -0.2135904640551588 0 0.031790105079028283 -0.20217458850019379 0 0.034705280896153899 -0.21558182988449839 0 0.01425453975357429 -0.20178440205379619 0 0.021354987341070959 -0.2135904640551588 0 0.01425453975357429 -0.20178440205379619 0 0.035719281229697523 -0.18617953642224741 0 0.018554992821627279 -0.17946904168417949 0 0.01425453975357429 -0.20178440205379619 0 0.035719281229697523 -0.18617953642224741 0 0.01425453975357429 -0.20178440205379619 0 0.031790105079028283 -0.20217458850019379 0 0.035719281229697523 -0.18617953642224741 0 0.031790105079028283 -0.20217458850019379 0 0.041222010837412067 -0.19597051263006299 0 0.035719281229697523 -0.18617953642224741 0 0.041222010837412067 -0.19597051263006299 0 0.048408253778191357 -0.1866768687542105 0 0.035719281229697523 -0.18617953642224741 0 0.041222010837412067 -0.19597051263006299 0 0.050471514642932751 -0.1983787975968033 0 0.048408253778191357 -0.1866768687542105 0 0.041222010837412067 -0.19597051263006299 0 0.04541411531369819 -0.20876538310954179 0 0.050471514642932751 -0.1983787975968033 0 0.031790105079028283 -0.20217458850019379 0 0.041222010837412067 -0.19597051263006299 0 0.04541411531369819 -0.20876538310954179 0 0.031790105079028283 -0.20217458850019379 0 0.04541411531369819 -0.20876538310954179 0 0.034705280896153899 -0.21558182988449839 0 0.04541411531369819 -0.20876538310954179 0 0.034705280896153899 -0.21558182988449839 0 0.043898239855422058 -0.22357766486695421 0 0.04541411531369819 -0.20876538310954179 0 0.060644542398981101 -0.21792749414755741 0 0.043898239855422058 -0.22357766486695421 0 0.04541411531369819 -0.20876538310954179 0 0.060644542398981101 -0.21792749414755741 0 0.058398330029931958 -0.2050308445951439 0 0.04541411531369819 -0.20876538310954179 0 0.058398330029931958 -0.2050308445951439 0 0.050471514642932751 -0.1983787975968033 0 0.058398330029931958 -0.2050308445951439 0 0.050471514642932751 -0.1983787975968033 0 0.061167309818916257 -0.1944131129870986 0 0.050471514642932751 -0.1983787975968033 0 0.061167309818916257 -0.1944131129870986 0 0.048408253778191357 -0.1866768687542105 0 0.04687883850936421 -0.25066157351144219 0 0.02603699562815151 -0.2388001962676696 0 0.03107668386331203 -0.22979640858640929 0 0.043450851783267609 -0.23490290560122801 0 0.040806107357315123 -0.24599771281342589 0 0.03107668386331203 -0.22979640858640929 0 0.040806107357315123 -0.24599771281342589 0 0.03107668386331203 -0.22979640858640929 0 0.02603699562815151 -0.2388001962676696 0 0.040806107357315123 -0.24599771281342589 0 0.04687883850936421 -0.25066157351144219 0 0.02603699562815151 -0.2388001962676696 0 0.040806107357315123 -0.24599771281342589 0 0.04687883850936421 -0.25066157351144219 0 0.037673054087589093 -0.25000113343327313 0 0.02603699562815151 -0.2388001962676696 0 0.043450851783267609 -0.23490290560122801 0 0.040806107357315123 -0.24599771281342589 0 0.04833812443013695 -0.24247593425878419 0 0.04687883850936421 -0.25066157351144219 0 0.040806107357315123 -0.24599771281342589 0 0.04833812443013695 -0.24247593425878419 0 0.03107668386331203 -0.22979640858640929 0 0.034705280896153899 -0.21558182988449839 0 0.043898239855422058 -0.22357766486695421 0 0.03107668386331203 -0.22979640858640929 0 0.043450851783267609 -0.23490290560122801 0 0.043898239855422058 -0.22357766486695421 0 0.043450851783267609 -0.23490290560122801 0 0.043898239855422058 -0.22357766486695421 0 0.053135103410151832 -0.23266680748056651 0 0.060644542398981101 -0.21792749414755741 0 0.053135103410151832 -0.23266680748056651 0 0.069006044419005846 -0.2316935758689615 0 0.060644542398981101 -0.21792749414755741 0 0.043898239855422058 -0.22357766486695421 0 0.053135103410151832 -0.23266680748056651 0 0.053135103410151832 -0.23266680748056651 0 0.057656211981169492 -0.24362179455802449 0 0.069006044419005846 -0.2316935758689615 0 0.043450851783267609 -0.23490290560122801 0 0.053135103410151832 -0.23266680748056651 0 0.04833812443013695 -0.24247593425878419 0 0.053135103410151832 -0.23266680748056651 0 0.04833812443013695 -0.24247593425878419 0 0.057656211981169492 -0.24362179455802449 0 0.055322798427125133 -0.25045030680810948 0 0.04833812443013695 -0.24247593425878419 0 0.057656211981169492 -0.24362179455802449 0 0.04687883850936421 -0.25066157351144219 0 0.055322798427125133 -0.25045030680810948 0 0.04833812443013695 -0.24247593425878419 0 0.055322798427125133 -0.25045030680810948 0 0.061427279401925668 -0.25181333601470368 0 0.057656211981169492 -0.24362179455802449 0 0.081749243712162481 -0.24679172161987331 0 0.082871062099559661 -0.23021529307688121 0 0.069006044419005846 -0.2316935758689615 0 0.061427279401925668 -0.25181333601470368 0 0.057656211981169492 -0.24362179455802449 0 0.068741634782336344 -0.24612800292814049 0 0.057656211981169492 -0.24362179455802449 0 0.068741634782336344 -0.24612800292814049 0 0.069006044419005846 -0.2316935758689615 0 0.068741634782336344 -0.24612800292814049 0 0.081749243712162481 -0.24679172161987331 0 0.069006044419005846 -0.2316935758689615 0 0.081749243712162481 -0.24679172161987331 0 0.069006044419005846 -0.2316935758689615 0 0.074391824527062972 -0.25635230628365763 0 0.068741634782336344 -0.24612800292814049 0 0.081749243712162481 -0.24679172161987331 0 0.081749243712162481 -0.24679172161987331 0 0.099713904752214172 -0.22344757627372039 0 0.082871062099559661 -0.23021529307688121 0 0.08101505551485591 -0.21892829854497031 0 0.099713904752214172 -0.22344757627372039 0 0.081749243712162481 -0.24679172161987331 0 0.082871062099559661 -0.23021529307688121 0 0.099713904752214172 -0.22344757627372039 0 0.060644542398981101 -0.21792749414755741 0 0.08101505551485591 -0.21892829854497031 0 0.069006044419005846 -0.2316935758689615 0 0.082871062099559661 -0.23021529307688121 0 0.08101505551485591 -0.21892829854497031 0 0.069006044419005846 -0.2316935758689615 0 0.060644542398981101 -0.21792749414755741 0 0.08101505551485591 -0.21892829854497031 0 0.071960971467164417 -0.20379210273649659 0 0.060644542398981101 -0.21792749414755741 0 0.058398330029931958 -0.2050308445951439 0 0.071960971467164417 -0.20379210273649659 0 0.071960971467164417 -0.20379210273649659 0 0.070461619908864154 -0.1918088203956855 0 0.080767145133696011 -0.18790694201456129 0 0.061167309818916257 -0.1944131129870986 0 0.070461619908864154 -0.1918088203956855 0 0.067951053215679957 -0.1811231238445854 0 0.061167309818916257 -0.1944131129870986 0 0.071960971467164417 -0.20379210273649659 0 0.070461619908864154 -0.1918088203956855 0 0.058398330029931958 -0.2050308445951439 0 0.061167309818916257 -0.1944131129870986 0 0.071960971467164417 -0.20379210273649659 0 0.071960971467164417 -0.20379210273649659 0 0.080767145133696011 -0.18790694201456129 0 0.095319910804942315 -0.19979125977539619 0 0.095319910804942315 -0.19979125977539619 0 0.090925916857668265 -0.17613494327707241 0 0.080767145133696011 -0.18790694201456129 0 0.095319910804942315 -0.19979125977539619 0 0.090925916857668265 -0.17613494327707241 0 0.08101505551485591 -0.21892829854497031 0 0.095319910804942315 -0.19979125977539619 0 0.099713904752214172 -0.22344757627372039 0 0.08101505551485591 -0.21892829854497031 0 0.071960971467164417 -0.20379210273649659 0 0.095319910804942315 -0.19979125977539619 0 0.095319910804942315 -0.19979125977539619 0 0.099713904752214172 -0.22344757627372039 0 0.095319910804942315 -0.19979125977539619 0 0.1138340639553141 -0.20509916168281231 0 0.099713904752214172 -0.22344757627372039 0 0.1138340639553141 -0.20509916168281231 0 0.099713904752214172 -0.22344757627372039 0 0.1138340639553141 -0.20509916168281231 0 0.11185920386736491 -0.2259230434952999 0 0.099713904752214172 -0.22344757627372039 0 0.095319910804942315 -0.19979125977539619 0 0.10365783962772469 -0.18861543749520979 0 0.1138340639553141 -0.20509916168281231 0 0.095319910804942315 -0.19979125977539619 0 0.10365783962772469 -0.18861543749520979 0 0.090925916857668265 -0.17613494327707241 0 0.1138340639553141 -0.20509916168281231 0 0.1310370370754356 -0.18274479028628399 0 0.1152425671181148 -0.19024722175369321 0 0.1164974382036728 -0.19911358623476469 0 0.1310370370754356 -0.18274479028628399 0 0.10365783962772469 -0.18861543749520979 0 0.1152425671181148 -0.19024722175369321 0 0.1138340639553141 -0.20509916168281231 0 0.1164974382036728 -0.19911358623476469 0 0.1138340639553141 -0.20509916168281231 0 0.1310370370754356 -0.18274479028628399 0 0.1152425671181148 -0.19024722175369321 0 0.1164974382036728 -0.19911358623476469 0 0.1152425671181148 -0.19024722175369321 0 0.1156360413974593 -0.18609823826908431 0 0.1152425671181148 -0.19024722175369321 0 0.1164974382036728 -0.19911358623476469 0 0.1138340639553141 -0.20509916168281231 0 0.1152425671181148 -0.19024722175369321 0 0.1138340639553141 -0.20509916168281231 0 0.1138340639553141 -0.20509916168281231 0 0.1190575905824279 -0.21828473585194541 0 0.13050871056543259 -0.20832441167824151 0 0.1138340639553141 -0.20509916168281231 0 0.11185920386736491 -0.2259230434952999 0 0.1138340639553141 -0.20509916168281231 0 0.1190575905824279 -0.21828473585194541 0 0.11185920386736491 -0.2259230434952999 0 0.1190575905824279 -0.21828473585194541 0 0.1200283839416008 -0.23379232655142851 0 0.13050871056543259 -0.20832441167824151 0 0.1190575905824279 -0.21828473585194541 0 0.11185920386736491 -0.2259230434952999 0 0.1200283839416008 -0.23379232655142851 0 0.11185920386736491 -0.2259230434952999 0 0.1200283839416008 -0.23379232655142851 0 0.1098843437794145 -0.24674692530778741 0 0.11185920386736491 -0.2259230434952999 0 0.1098843437794145 -0.24674692530778741 0 0.1200283839416008 -0.23379232655142851 0 0.1211580271231746 -0.24512581039290279 0 0.1098843437794145 -0.24674692530778741 0 0.11185920386736491 -0.2259230434952999 0 0.1098843437794145 -0.24674692530778741 0 0.1038116942218397 -0.2455091916969975 0 0.081749243712162481 -0.24679172161987331 0 0.1038116942218397 -0.2455091916969975 0 0.099713904752214172 -0.22344757627372039 0 0.1038116942218397 -0.2455091916969975 0 0.099713904752214172 -0.22344757627372039 0 0.11185920386736491 -0.2259230434952999 0 0.1038116942218397 -0.2455091916969975 0 0.099713904752214172 -0.22344757627372039 0 0.10730151500712121 -0.1341392572068997 0 0.109737050052069 -0.15134767141254241 0 0.086001732796643554 -0.14962419746325209 0 0.10730151500712121 -0.1341392572068997 0 0.086001732796643554 -0.14962419746325209 0 0.109737050052069 -0.15134767141254241 0 0.09912948919310817 -0.1613687623962278 0 0.086001732796643554 -0.14962419746325209 0 0.10730151500712121 -0.1341392572068997 0 0.109737050052069 -0.15134767141254241 0 0.10730151500712121 -0.1341392572068997 0 0.086001732796643554 -0.14962419746325209 0 0.093237019415289848 -0.1370389616240095 0 0.10730151500712121 -0.1341392572068997 0 0.09330525305103457 -0.1280316724612881 0 0.093237019415289848 -0.1370389616240095 0 0.10730151500712121 -0.1341392572068997 0 0.09330525305103457 -0.1280316724612881 0 0.099520147724360061 -0.1209815478789433 0 0.10730151500712121 -0.1341392572068997 0 0.1092563594043707 -0.11775996158525751 0 0.120219010926689 -0.12474823852889309 0 0.10730151500712121 -0.1341392572068997 0 0.1210136663870208 -0.13454681608983049 0 0.1209573165015211 -0.14393701063528189 0 0.10730151500712121 -0.1341392572068997 0 0.120219010926689 -0.12474823852889309 0 0.10730151500712121 -0.1341392572068997 0 0.1210136663870208 -0.13454681608983049 0 0.120219010926689 -0.12474823852889309 0 0.1210136663870208 -0.13454681608983049 0 0.120219010926689 -0.12474823852889309 0 0.13033544652893519 -0.13142463504060339 0 0.1210136663870208 -0.13454681608983049 0 0.1209573165015211 -0.14393701063528189 0 0.1300659421192398 -0.13905143622092861 0 0.10730151500712121 -0.1341392572068997 0 0.1209573165015211 -0.14393701063528189 0 0.109737050052069 -0.15134767141254241 0 0.1209573165015211 -0.14393701063528189 0 0.109737050052069 -0.15134767141254241 0 0.1217629365790301 -0.15487583447838049 0 0.109737050052069 -0.15134767141254241 0 0.1121725850970208 -0.1685560856181845 0 0.109737050052069 -0.15134767141254241 0 0.1217629365790301 -0.15487583447838049 0 0.1121725850970208 -0.1685560856181845 0 0.1121725850970208 -0.1685560856181845 0 0.13182097445505861 -0.1629723337750261 0 0.1217629365790301 -0.15487583447838049 0 0.1121725850970208 -0.1685560856181845 0 0.13182097445505861 -0.1629723337750261 0 0.1121725850970208 -0.1685560856181845 0 0.12471185084496871 -0.1735979207045413 0 0.13182097445505861 -0.1629723337750261 0 0.1137782120823024 -0.1799007362647593 0 0.1310370370754356 -0.18274479028628399 0 0.12471185084496871 -0.1735979207045413 0 0.1137782120823024 -0.1799007362647593 0 0.1310370370754356 -0.18274479028628399 0 0.1137782120823024 -0.1799007362647593 0 0.1156360413974593 -0.18609823826908431 0 0.1310370370754356 -0.18274479028628399 0 0.1152425671181148 -0.19024722175369321 0 0.1156360413974593 -0.18609823826908431 0 0.1310370370754356 -0.18274479028628399 0 0.1121725850970208 -0.1685560856181845 0 0.1137782120823024 -0.1799007362647593 0 0.1121725850970208 -0.1685560856181845 0 0.12471185084496871 -0.1735979207045413 0 0.1137782120823024 -0.1799007362647593 0 0.10365783962772469 -0.18861543749520979 0 0.1152425671181148 -0.19024722175369321 0 0.1137782120823024 -0.1799007362647593 0 0.1152425671181148 -0.19024722175369321 0 0.1137782120823024 -0.1799007362647593 0 0.1152425671181148 -0.19024722175369321 0 0.1137782120823024 -0.1799007362647593 0 0.1156360413974593 -0.18609823826908431 0 0.1121725850970208 -0.1685560856181845 0 0.1137782120823024 -0.1799007362647593 0 0.090925916857668265 -0.17613494327707241 0 0.10365783962772469 -0.18861543749520979 0 0.1137782120823024 -0.1799007362647593 0 0.090925916857668265 -0.17613494327707241 0 0.1137782120823024 -0.1799007362647593 0 0.090925916857668265 -0.17613494327707241 0 0.1121725850970208 -0.1685560856181845 0 0.090925916857668265 -0.17613494327707241 0 0.090654055589326155 -0.17467130079491469 0 0.1121725850970208 -0.1685560856181845 0 0.090654055589326155 -0.17467130079491469 0 0.109737050052069 -0.15134767141254241 0 0.1121725850970208 -0.1685560856181845 0 0.09912948919310817 -0.1613687623962278 0 0.1121725850970208 -0.1685560856181845 0 0.09912948919310817 -0.1613687623962278 0 0.090654055589326155 -0.17467130079491469 0 0.081616291293973228 -0.16660726723658631 0 0.090654055589326155 -0.17467130079491469 0 0.086001732796643554 -0.14962419746325209 0 0.09912948919310817 -0.1613687623962278 0 0.090654055589326155 -0.17467130079491469 0 0.086001732796643554 -0.14962419746325209 0 0.081616291293973228 -0.16660726723658631 0 0.07159287775123209 -0.16009943412697519 0 0.086001732796643554 -0.14962419746325209 0 0.090654055589326155 -0.17467130079491469 0 0.086001732796643554 -0.14962419746325209 0 0.081616291293973228 -0.16660726723658631 0 0.087493852653168391 -0.17556937893495991 0 0.072338937679495049 -0.17307202486282919 0 0.080767145133696011 -0.18790694201456129 0 0.087493852653168391 -0.17556937893495991 0 0.067951053215679957 -0.1811231238445854 0 0.080767145133696011 -0.18790694201456129 0 0.090925916857668265 -0.17613494327707241 0 0.087493852653168391 -0.17556937893495991 0 0.081616291293973228 -0.16660726723658631 0 0.090654055589326155 -0.17467130079491469 0 0.087493852653168391 -0.17556937893495991 0 0.090925916857668265 -0.17613494327707241 0 0.087493852653168391 -0.17556937893495991 0 0.090925916857668265 -0.17613494327707241 0 0.090654055589326155 -0.17467130079491469 0 0.090925916857668265 -0.17613494327707241 0 0.090654055589326155 -0.17467130079491469 0 0.087493852653168391 -0.17556937893495991 0 0.090654055589326155 -0.17467130079491469 0 0.087493852653168391 -0.17556937893495991 0 0.087493852653168391 -0.17556937893495991 0 0.072338937679495049 -0.17307202486282919 0 0.087493852653168391 -0.17556937893495991 0 0.067951053215679957 -0.1811231238445854 0 0.087493852653168391 -0.17556937893495991 0 0.072338937679495049 -0.17307202486282919 0 0.067951053215679957 -0.1811231238445854 0 0.070461619908864154 -0.1918088203956855 0 0.080767145133696011 -0.18790694201456129 0 0.067951053215679957 -0.1811231238445854 0 0.072338937679495049 -0.17307202486282919 0 0.067951053215679957 -0.1811231238445854 0 0.057184022705821479 -0.17057467079069949 0 0.07159287775123209 -0.16009943412697519 0 0.061721101914421587 -0.1508889195164001 0 0.057184022705821479 -0.17057467079069949 0 0.081616291293973228 -0.16660726723658631 0 0.072338937679495049 -0.17307202486282919 0 0.07159287775123209 -0.16009943412697519 0 0.07159287775123209 -0.16009943412697519 0 0.057184022705821479 -0.17057467079069949 0 0.072338937679495049 -0.17307202486282919 0 0.07159287775123209 -0.16009943412697519 0 0.057184022705821479 -0.17057467079069949 0 0.072338937679495049 -0.17307202486282919 0 0.057184022705821479 -0.17057467079069949 0 0.07159287775123209 -0.16009943412697519 0 0.073840492257681925 -0.1481146018307414 0 0.061721101914421587 -0.1508889195164001 0 0.073840492257681925 -0.1481146018307414 0 0.066247497620302284 -0.13641966802139061 0 0.061721101914421587 -0.1508889195164001 0 0.073840492257681925 -0.1481146018307414 0 0.080074082957030543 -0.1376346054981348 0 0.066247497620302284 -0.13641966802139061 0 0.07159287775123209 -0.16009943412697519 0 0.073840492257681925 -0.1481146018307414 0 0.086001732796643554 -0.14962419746325209 0 0.07159287775123209 -0.16009943412697519 0 0.086001732796643554 -0.14962419746325209 0 0.073840492257681925 -0.1481146018307414 0 0.082103860278770355 -0.14601724511995229 0 0.080074082957030543 -0.1376346054981348 0 0.083875466988418995 -0.14374679689161801 0 0.082103860278770355 -0.14601724511995229 0 0.080074082957030543 -0.1376346054981348 0 0.073840492257681925 -0.1481146018307414 0 0.082103860278770355 -0.14601724511995229 0 0.086001732796643554 -0.14962419746325209 0 0.083875466988418995 -0.14374679689161801 0 0.087359879735037352 -0.14191404255287529 0 0.080074082957030543 -0.1376346054981348 0 0.083875466988418995 -0.14374679689161801 0 0.087359879735037352 -0.14191404255287529 0 0.086001732796643554 -0.14962419746325209 0 0.083875466988418995 -0.14374679689161801 0 0.082103860278770355 -0.14601724511995229 0 0.086001732796643554 -0.14962419746325209 0 0.087359879735037352 -0.14191404255287529 0 0.086001732796643554 -0.14962419746325209 0 0.093237019415289848 -0.1370389616240095 0 0.09330525305103457 -0.1280316724612881 0 0.087106119948401631 -0.1344526861311354 0 0.082354442325948532 -0.12673985880105329 0 0.09330525305103457 -0.1280316724612881 0 0.093237019415289848 -0.1370389616240095 0 0.087106119948401631 -0.1344526861311354 0 0.087359879735037352 -0.14191404255287529 0 0.093237019415289848 -0.1370389616240095 0 0.087106119948401631 -0.1344526861311354 0 0.087106119948401631 -0.1344526861311354 0 0.080074082957030543 -0.1376346054981348 0 0.082354442325948532 -0.12673985880105329 0 0.087359879735037352 -0.14191404255287529 0 0.087106119948401631 -0.1344526861311354 0 0.080074082957030543 -0.1376346054981348 0 0.080074082957030543 -0.1376346054981348 0 0.082354442325948532 -0.12673985880105329 0 0.073207056259013734 -0.12808096387040599 0 0.080074082957030543 -0.1376346054981348 0 0.073207056259013734 -0.12808096387040599 0 0.066247497620302284 -0.13641966802139061 0 0.073207056259013734 -0.12808096387040599 0 0.066247497620302284 -0.13641966802139061 0 0.064352015854879929 -0.124012928121654 0 0.066247497620302284 -0.13641966802139061 0 0.056143271206335048 -0.12976389833915489 0 0.064352015854879929 -0.124012928121654 0 0.054913973079636962 -0.13973086366995061 0 0.046881983609629002 -0.15032980344898009 0 0.043576011047496872 -0.1312520290238271 0 0.056143271206335048 -0.12976389833915489 0 0.043576011047496872 -0.1312520290238271 0 0.051890864200379763 -0.11868494490789901 0 0.056143271206335048 -0.12976389833915489 0 0.054913973079636962 -0.13973086366995061 0 0.043576011047496872 -0.1312520290238271 0 0.066247497620302284 -0.13641966802139061 0 0.056143271206335048 -0.12976389833915489 0 0.054913973079636962 -0.13973086366995061 0 0.066247497620302284 -0.13641966802139061 0 0.054913973079636962 -0.13973086366995061 0 0.061721101914421587 -0.1508889195164001 0 0.054913973079636962 -0.13973086366995061 0 0.061721101914421587 -0.1508889195164001 0 0.046881983609629002 -0.15032980344898009 0 0.046881983609629002 -0.15032980344898009 0 0.031865912768471359 -0.14418803440915759 0 0.043576011047496872 -0.1312520290238271 0 0.046881983609629002 -0.15032980344898009 0 0.031865912768471359 -0.14418803440915759 0 0.031488746141869743 -0.16634038747911481 0 0.043576011047496872 -0.1312520290238271 0 0.024066503836519482 -0.12647219387591549 0 0.037625449065875297 -0.1194612291822995 0 0.031865912768471359 -0.14418803440915759 0 0.043576011047496872 -0.1312520290238271 0 0.024066503836519482 -0.12647219387591549 0 0.061167309818916257 -0.1944131129870986 0 0.067951053215679957 -0.1811231238445854 0 0.048408253778191357 -0.1866768687542105 0 0.048408253778191357 -0.1866768687542105 0 0.057184022705821479 -0.17057467079069949 0 0.035719281229697523 -0.18617953642224741 0 0.067951053215679957 -0.1811231238445854 0 0.048408253778191357 -0.1866768687542105 0 0.057184022705821479 -0.17057467079069949 0 0.067951053215679957 -0.1811231238445854 0 0.048408253778191357 -0.1866768687542105 0 0.061721101914421587 -0.1508889195164001 0 0.046881983609629002 -0.15032980344898009 0 0.057184022705821479 -0.17057467079069949 0 0.046881983609629002 -0.15032980344898009 0 0.057184022705821479 -0.17057467079069949 0 0.031488746141869743 -0.16634038747911481 0 0.057184022705821479 -0.17057467079069949 0 0.031488746141869743 -0.16634038747911481 0 0.057184022705821479 -0.17057467079069949 0 0.031488746141869743 -0.16634038747911481 0 0.035719281229697523 -0.18617953642224741 0 0.057184022705821479 -0.17057467079069949 0 0.035719281229697523 -0.18617953642224741 0 0.031488746141869743 -0.16634038747911481 0 0.035719281229697523 -0.18617953642224741 0 0.018554992821627279 -0.17946904168417949 0 0.031488746141869743 -0.16634038747911481 0 0.0057934695779179174 -0.1621061041675308 0 0.019763063344467331 -0.15365902286639629 0 0.031488746141869743 -0.16634038747911481 0 0.018554992821627279 -0.17946904168417949 0 0.0057934695779179174 -0.1621061041675308 0 0.031488746141869743 -0.16634038747911481 0 0.0057934695779179174 -0.1621061041675308 0 0.018554992821627279 -0.17946904168417949 0 0.0057934695779179174 -0.1621061041675308 0 0.00016161218586271259 -0.1783170499424877 0 0.01425453975357429 -0.20178440205379619 0 0.018554992821627279 -0.17946904168417949 0 0.00016161218586271259 -0.1783170499424877 0 0.031865912768471359 -0.14418803440915759 0 0.024066503836519482 -0.12647219387591549 0 0.015663025549151811 -0.14028165487470889 0 0.031865912768471359 -0.14418803440915759 0 0.031488746141869743 -0.16634038747911481 0 0.019763063344467331 -0.15365902286639629 0 0.031865912768471359 -0.14418803440915759 0 0.015663025549151811 -0.14028165487470889 0 0.019763063344467331 -0.15365902286639629 0 0.015663025549151811 -0.14028165487470889 0 0.0067517151124227561 -0.1502464962188175 0 0.0032140268818641178 -0.14153708485685071 0 0.015663025549151811 -0.14028165487470889 0 0.019763063344467331 -0.15365902286639629 0 0.0067517151124227561 -0.1502464962188175 0 0.0057934695779179174 -0.1621061041675308 0 0.019763063344467331 -0.15365902286639629 0 0.0067517151124227561 -0.1502464962188175 0 -0.0061180970615561971 -0.15098104411288141 0 0.0057934695779179174 -0.1621061041675308 0 0.0067517151124227561 -0.1502464962188175 0 -0.0061180970615561971 -0.15098104411288141 0 0.0067517151124227561 -0.1502464962188175 0 0.0032140268818641178 -0.14153708485685071 0 0.024066503836519482 -0.12647219387591549 0 0.015663025549151811 -0.14028165487470889 0 0.0061657884986084316 -0.12918962103613721 0 0.015663025549151811 -0.14028165487470889 0 0.0032140268818641178 -0.14153708485685071 0 0.0061657884986084316 -0.12918962103613721 0 -1.170615023791954e-05 -0.1034689084604536 0 -0.0051268486959103578 -0.122350190065947 0 0.010590465098306421 -0.11647466524778601 0 -0.0051268486959103578 -0.122350190065947 0 0.0061657884986084316 -0.12918962103613721 0 0.010590465098306421 -0.11647466524778601 0 0.024066503836519482 -0.12647219387591549 0 0.0061657884986084316 -0.12918962103613721 0 0.010590465098306421 -0.11647466524778601 0 0.024066503836519482 -0.12647219387591549 0 0.023047524557731461 -0.1052328942832514 0 0.037625449065875297 -0.1194612291822995 0 0.024066503836519482 -0.12647219387591549 0 0.010590465098306421 -0.11647466524778601 0 0.023047524557731461 -0.1052328942832514 0 0.023047524557731461 -0.1052328942832514 0 0.0055871776796167418 -0.096502554926749473 0 0.01329240485073465 -0.085293193931042233 0 0.023047524557731461 -0.1052328942832514 0 0.0055871776796167418 -0.096502554926749473 0 0.023047524557731461 -0.1052328942832514 0 0.010215874637284751 -0.1059557540903223 0 0.0055871776796167418 -0.096502554926749473 0 0.010590465098306421 -0.11647466524778601 0 0.023047524557731461 -0.1052328942832514 0 0.010215874637284751 -0.1059557540903223 0 -1.170615023791954e-05 -0.1034689084604536 0 0.010215874637284751 -0.1059557540903223 0 0.0055871776796167418 -0.096502554926749473 0 -1.170615023791954e-05 -0.1034689084604536 0 0.010590465098306421 -0.11647466524778601 0 0.010215874637284751 -0.1059557540903223 0 -1.170615023791954e-05 -0.1034689084604536 0 -0.0054880464665176369 -0.098150446906979827 0 0.0055871776796167418 -0.096502554926749473 0 0.0055871776796167418 -0.096502554926749473 0 0.0043764673912596299 -0.079956963037604731 0 0.01329240485073465 -0.085293193931042233 0 0.0043764673912596299 -0.079956963037604731 0 0.01329240485073465 -0.085293193931042233 0 0.01472151604931741 -0.069895153934734888 0 0.0043764673912596299 -0.079956963037604731 0 0.01472151604931741 -0.069895153934734888 0 0.00043414137965645799 -0.061061088137375992 0 0.01329240485073465 -0.085293193931042233 0 0.01472151604931741 -0.069895153934734888 0 0.03539465695266493 -0.077504734456034299 0 0.01472151604931741 -0.069895153934734888 0 0.03539465695266493 -0.077504734456034299 0 0.02408436756702179 -0.056165061874310453 0 0.01329240485073465 -0.085293193931042233 0 0.03539465695266493 -0.077504734456034299 0 0.023047524557731461 -0.1052328942832514 0 0.01329240485073465 -0.085293193931042233 0 0.02790683192969862 -0.09051432494890771 0 0.01329240485073465 -0.085293193931042233 0 0.02790683192969862 -0.09051432494890771 0 0.03539465695266493 -0.077504734456034299 0 0.02790683192969862 -0.09051432494890771 0 0.043348411875631362 -0.092504740327982393 0 0.03539465695266493 -0.077504734456034299 0 0.043348411875631362 -0.092504740327982393 0 0.03539465695266493 -0.077504734456034299 0 0.057496909054595237 -0.069716274981026352 0 0.03539465695266493 -0.077504734456034299 0 0.057496909054595237 -0.069716274981026352 0 0.042170783519918938 -0.060173197672559173 0 0.03539465695266493 -0.077504734456034299 0 0.057496909054595237 -0.069716274981026352 0 0.03539465695266493 -0.077504734456034299 0 0.02408436756702179 -0.056165061874310453 0 0.042170783519918938 -0.060173197672559173 0 0.043348411875631362 -0.092504740327982393 0 0.057496909054595237 -0.069716274981026352 0 0.063391545966866608 -0.091857318573479757 0 0.043348411875631362 -0.092504740327982393 0 0.055620651716451183 -0.1047669542865277 0 0.063391545966866608 -0.091857318573479757 0 0.043348411875631362 -0.092504740327982393 0 0.055620651716451183 -0.1047669542865277 0 0.04221450253157491 -0.10771351158838539 0 0.055620651716451183 -0.1047669542865277 0 0.051890864200379763 -0.11868494490789901 0 0.063453884172767636 -0.11382650688881719 0 0.056143271206335048 -0.12976389833915489 0 0.051890864200379763 -0.11868494490789901 0 0.064352015854879929 -0.124012928121654 0 0.051890864200379763 -0.11868494490789901 0 0.064352015854879929 -0.124012928121654 0 0.063453884172767636 -0.11382650688881719 0 0.055620651716451183 -0.1047669542865277 0 0.051890864200379763 -0.11868494490789901 0 0.04221450253157491 -0.10771351158838539 0 0.023047524557731461 -0.1052328942832514 0 0.037625449065875297 -0.1194612291822995 0 0.04221450253157491 -0.10771351158838539 0 0.051890864200379763 -0.11868494490789901 0 0.037625449065875297 -0.1194612291822995 0 0.04221450253157491 -0.10771351158838539 0 0.043576011047496872 -0.1312520290238271 0 0.051890864200379763 -0.11868494490789901 0 0.037625449065875297 -0.1194612291822995 0 0.023047524557731461 -0.1052328942832514 0 0.043348411875631362 -0.092504740327982393 0 0.04221450253157491 -0.10771351158838539 0 0.023047524557731461 -0.1052328942832514 0 0.02790683192969862 -0.09051432494890771 0 0.043348411875631362 -0.092504740327982393 0 -0.0045653430997711266 -0.018287619473552709 0 0.02504876253596517 -0.0076388332716327279 0 0.005904608835726727 -0.00024378440871443069 0 -0.0045653430997711266 -0.018287619473552709 0 0.02504876253596517 -0.0076388332716327279 0 0.01274145195781087 -0.034349960704504218 0 -0.0045653430997711266 -0.018287619473552709 0 -0.0056048939326261791 -0.039673260332606368 0 0.01274145195781087 -0.034349960704504218 0 0.02504876253596517 -0.0076388332716327279 0 0.01274145195781087 -0.034349960704504218 0 0.041673723819167119 -0.021345995674039539 0 0.02504876253596517 -0.0076388332716327279 0 0.01274145195781087 -0.034349960704504218 0 0.01274145195781087 -0.034349960704504218 0 0.02408436756702179 -0.056165061874310453 0 0.039625000983059613 -0.042565412497993817 0 -0.0056048939326261791 -0.039673260332606368 0 0.01274145195781087 -0.034349960704504218 0 0.00043414137965645799 -0.061061088137375992 0 0.01274145195781087 -0.034349960704504218 0 0.00043414137965645799 -0.061061088137375992 0 0.01274145195781087 -0.034349960704504218 0 0.00043414137965645799 -0.061061088137375992 0 0.02408436756702179 -0.056165061874310453 0 0.01472151604931741 -0.069895153934734888 0 0.00043414137965645799 -0.061061088137375992 0 0.02408436756702179 -0.056165061874310453 0 0.02408436756702179 -0.056165061874310453 0 0.042170783519918938 -0.060173197672559173 0 0.039625000983059613 -0.042565412497993817 0 0.057496909054595237 -0.069716274981026352 0 0.042170783519918938 -0.060173197672559173 0 0.059125828174125442 -0.050962194816853983 0 0.042170783519918938 -0.060173197672559173 0 0.059125828174125442 -0.050962194816853983 0 0.039625000983059613 -0.042565412497993817 0 0.059125828174125442 -0.050962194816853983 0 0.055196480385666782 -0.033528440586883902 0 0.07261190318880073 -0.03578167628516013 0 0.059125828174125442 -0.050962194816853983 0 0.055196480385666782 -0.033528440586883902 0 0.039625000983059613 -0.042565412497993817 0 0.055196480385666782 -0.033528440586883902 0 0.039625000983059613 -0.042565412497993817 0 0.041673723819167119 -0.021345995674039539 0 0.01274145195781087 -0.034349960704504218 0 0.039625000983059613 -0.042565412497993817 0 0.041673723819167119 -0.021345995674039539 0 0.055196480385666782 -0.033528440586883902 0 0.041673723819167119 -0.021345995674039539 0 0.062945945763181022 -0.01698692366037206 0 0.050151009438654581 0.0010426852504346359 0 0.041673723819167119 -0.021345995674039539 0 0.062945945763181022 -0.01698692366037206 0 0.050151009438654581 0.0010426852504346359 0 0.070155026607187643 0.0048614903205909579 0 0.062945945763181022 -0.01698692366037206 0 0.050151009438654581 0.0010426852504346359 0 0.062945945763181022 -0.01698692366037206 0 0.050151009438654581 0.0010426852504346359 0 0.02504876253596517 -0.0076388332716327279 0 0.041673723819167119 -0.021345995674039539 0 0.070155026607187643 0.0048614903205909579 0 0.092156790419798434 0.0087219627075932581 0 0.085876946045918556 -0.01609787401661043 0 0.070155026607187643 0.0048614903205909579 0 0.062945945763181022 -0.01698692366037206 0 0.085876946045918556 -0.01609787401661043 0 0.055196480385666782 -0.033528440586883902 0 0.062945945763181022 -0.01698692366037206 0 0.07261190318880073 -0.03578167628516013 0 0.062945945763181022 -0.01698692366037206 0 0.085876946045918556 -0.01609787401661043 0 0.07261190318880073 -0.03578167628516013 0 0.085876946045918556 -0.01609787401661043 0 0.091145399855767709 -0.037154699809372978 0 0.07261190318880073 -0.03578167628516013 0 0.085876946045918556 -0.01609787401661043 0 0.091145399855767709 -0.037154699809372978 0 0.099812361475043909 -0.0224058350039388 0 0.091145399855767709 -0.037154699809372978 0 0.07261190318880073 -0.03578167628516013 0 0.079599161156525489 -0.061927815506018447 0 0.057496909054595237 -0.069716274981026352 0 0.059125828174125442 -0.050962194816853983 0 0.079599161156525489 -0.061927815506018447 0 0.059125828174125442 -0.050962194816853983 0 0.07261190318880073 -0.03578167628516013 0 0.079599161156525489 -0.061927815506018447 0 0.079599161156525489 -0.061927815506018447 0 0.10170141325845559 -0.054139356031010548 0 0.091145399855767709 -0.037154699809372978 0 0.079599161156525489 -0.061927815506018447 0 0.10170141325845559 -0.054139356031010548 0 0.10170141325845559 -0.054139356031010548 0 0.1200793249631929 -0.057999034889130531 0 0.11527440869815291 -0.070894363050938561 0 0.10170141325845559 -0.054139356031010548 0 0.1200793249631929 -0.057999034889130531 0 0.1176913260746205 -0.045873692891969443 0 0.1200793249631929 -0.057999034889130531 0 0.1176913260746205 -0.045873692891969443 0 0.1335315377626268 -0.054091238588611402 0 0.1176913260746205 -0.045873692891969443 0 0.12441853162289419 -0.041728366852446713 0 0.1178628927107566 -0.034866190747789939 0 0.12441853162289419 -0.041728366852446713 0 0.1178628927107566 -0.034866190747789939 0 0.12858836994357309 -0.032082345181416103 0 0.1176913260746205 -0.045873692891969443 0 0.1178628927107566 -0.034866190747789939 0 0.1065035614986603 -0.033895097679603831 0 0.10170141325845559 -0.054139356031010548 0 0.1176913260746205 -0.045873692891969443 0 0.1065035614986603 -0.033895097679603831 0 0.091145399855767709 -0.037154699809372978 0 0.10170141325845559 -0.054139356031010548 0 0.1065035614986603 -0.033895097679603831 0 0.085876946045918556 -0.01609787401661043 0 0.099812361475043909 -0.0224058350039388 0 0.11037258018168571 -0.01168019123691148 0 0.1065035614986603 -0.033895097679603831 0 0.099812361475043909 -0.0224058350039388 0 0.11037258018168571 -0.01168019123691148 0 0.091145399855767709 -0.037154699809372978 0 0.1065035614986603 -0.033895097679603831 0 0.099812361475043909 -0.0224058350039388 0 0.11037258018168571 -0.01168019123691148 0 0.12858836994357309 -0.032082345181416103 0 0.1178628927107566 -0.034866190747789939 0 0.1065035614986603 -0.033895097679603831 0 0.11037258018168571 -0.01168019123691148 0 0.11037258018168571 -0.01168019123691148 0 0.1253231429190633 -0.015412787908653429 0 0.12748624211187801 -0.027175246159734729 0 0.1178628927107566 -0.034866190747789939 0 0.11037258018168571 -0.01168019123691148 0 0.12858836994357309 -0.032082345181416103 0 0.11037258018168571 -0.01168019123691148 0 0.12748624211187801 -0.027175246159734729 0 0.12858836994357309 -0.032082345181416103 0 0.1116446037739722 0.0061415384342651189 0 0.11037258018168571 -0.01168019123691148 0 0.12546205171341571 -0.0034538947084765959 0 0.11037258018168571 -0.01168019123691148 0 0.12546205171341571 -0.0034538947084765959 0 0.1253231429190633 -0.015412787908653429 0 0.092156790419798434 0.0087219627075932581 0 0.085876946045918556 -0.01609787401661043 0 0.11037258018168571 -0.01168019123691148 0 0.092156790419798434 0.0087219627075932581 0 0.11037258018168571 -0.01168019123691148 0 0.083811703292450163 -0.106757769922635 0 0.092254183228862613 -0.097808372748575928 0 0.077403160672149196 -0.096831856861526261 0 0.083811703292450163 -0.106757769922635 0 0.092650778047766044 -0.11222337156795011 0 0.095132549438549485 -0.1060676948739 0 0.083811703292450163 -0.106757769922635 0 0.092254183228862613 -0.097808372748575928 0 0.095132549438549485 -0.1060676948739 0 0.083811703292450163 -0.106757769922635 0 0.092650778047766044 -0.11222337156795011 0 0.087701868829095794 -0.1186736117858368 0 0.092650778047766044 -0.11222337156795011 0 0.087701868829095794 -0.1186736117858368 0 0.099520147724360061 -0.1209815478789433 0 0.09330525305103457 -0.1280316724612881 0 0.087701868829095794 -0.1186736117858368 0 0.099520147724360061 -0.1209815478789433 0 0.09330525305103457 -0.1280316724612881 0 0.082354442325948532 -0.12673985880105329 0 0.087701868829095794 -0.1186736117858368 0 0.082354442325948532 -0.12673985880105329 0 0.087701868829095794 -0.1186736117858368 0 0.074568888533015423 -0.1173074500831509 0 0.083811703292450163 -0.106757769922635 0 0.087701868829095794 -0.1186736117858368 0 0.074568888533015423 -0.1173074500831509 0 0.083811703292450163 -0.106757769922635 0 0.074568888533015423 -0.1173074500831509 0 0.069802609775563643 -0.10534379533908569 0 0.073207056259013734 -0.12808096387040599 0 0.074568888533015423 -0.1173074500831509 0 0.064352015854879929 -0.124012928121654 0 0.082354442325948532 -0.12673985880105329 0 0.073207056259013734 -0.12808096387040599 0 0.074568888533015423 -0.1173074500831509 0 0.074568888533015423 -0.1173074500831509 0 0.064352015854879929 -0.124012928121654 0 0.063453884172767636 -0.11382650688881719 0 0.074568888533015423 -0.1173074500831509 0 0.063453884172767636 -0.11382650688881719 0 0.069802609775563643 -0.10534379533908569 0 0.055620651716451183 -0.1047669542865277 0 0.063453884172767636 -0.11382650688881719 0 0.069802609775563643 -0.10534379533908569 0 0.083811703292450163 -0.106757769922635 0 0.069802609775563643 -0.10534379533908569 0 0.077403160672149196 -0.096831856861526261 0 0.055620651716451183 -0.1047669542865277 0 0.069802609775563643 -0.10534379533908569 0 0.063391545966866608 -0.091857318573479757 0 0.069802609775563643 -0.10534379533908569 0 0.077403160672149196 -0.096831856861526261 0 0.063391545966866608 -0.091857318573479757 0 0.057496909054595237 -0.069716274981026352 0 0.063391545966866608 -0.091857318573479757 0 0.077755761097002912 -0.082392027723854913 0 0.077403160672149196 -0.096831856861526261 0 0.063391545966866608 -0.091857318573479757 0 0.077755761097002912 -0.082392027723854913 0 0.057496909054595237 -0.069716274981026352 0 0.079599161156525489 -0.061927815506018447 0 0.057496909054595237 -0.069716274981026352 0 0.079599161156525489 -0.061927815506018447 0 0.077755761097002912 -0.082392027723854913 0 0.079599161156525489 -0.061927815506018447 0 0.10170141325845559 -0.054139356031010548 0 0.099387630412219874 -0.078223246321774104 0 0.079599161156525489 -0.061927815506018447 0 0.077755761097002912 -0.082392027723854913 0 0.099387630412219874 -0.078223246321774104 0 0.092254183228862613 -0.097808372748575928 0 0.077755761097002912 -0.082392027723854913 0 0.099387630412219874 -0.078223246321774104 0 0.092254183228862613 -0.097808372748575928 0 0.077403160672149196 -0.096831856861526261 0 0.077755761097002912 -0.082392027723854913 0 0.099387630412219874 -0.078223246321774104 0 0.1033445727096684 -0.1061812517643372 0 0.099387630412219874 -0.078223246321774104 0 0.11527440869815291 -0.070894363050938561 0 0.11028453098871679 -0.087592053904486572 0 0.099387630412219874 -0.078223246321774104 0 0.11028453098871679 -0.087592053904486572 0 0.1033445727096684 -0.1061812517643372 0 0.10170141325845559 -0.054139356031010548 0 0.099387630412219874 -0.078223246321774104 0 0.11527440869815291 -0.070894363050938561 0 0.1200793249631929 -0.057999034889130531 0 0.11527440869815291 -0.070894363050938561 0 0.13219793902210861 -0.064996523883122687 0 0.11527440869815291 -0.070894363050938561 0 0.1197828234047723 -0.08550800795681375 0 0.1275439853958687 -0.076884775978948439 0 0.11527440869815291 -0.070894363050938561 0 0.11028453098871679 -0.087592053904486572 0 0.1197828234047723 -0.08550800795681375 0 0.11028453098871679 -0.087592053904486572 0 0.1197828234047723 -0.08550800795681375 0 0.1136332197187705 -0.097153400428569237 0 0.1197828234047723 -0.08550800795681375 0 0.1136332197187705 -0.097153400428569237 0 0.12527198289055419 -0.09794485761484889 0 0.11664677183840701 -0.10252779214186571 0 0.1136332197187705 -0.097153400428569237 0 0.12527198289055419 -0.09794485761484889 0 0.1212834549155087 -0.10697196707242269 0 0.1090636856139979 -0.1047607839246807 0 0.1238288351874043 -0.1157675418236562 0 0.1212834549155087 -0.10697196707242269 0 0.11664677183840701 -0.10252779214186571 0 0.12527198289055419 -0.09794485761484889 0 0.1212834549155087 -0.10697196707242269 0 0.11664677183840701 -0.10252779214186571 0 0.1090636856139979 -0.1047607839246807 0 0.11664677183840701 -0.10252779214186571 0 0.1136332197187705 -0.097153400428569237 0 0.1090636856139979 -0.1047607839246807 0 0.11028453098871679 -0.087592053904486572 0 0.1136332197187705 -0.097153400428569237 0 0.1033445727096684 -0.1061812517643372 0 0.092254183228862613 -0.097808372748575928 0 0.099387630412219874 -0.078223246321774104 0 0.1033445727096684 -0.1061812517643372 0 0.1136332197187705 -0.097153400428569237 0 0.1090636856139979 -0.1047607839246807 0 0.1033445727096684 -0.1061812517643372 0 0.1090636856139979 -0.1047607839246807 0 0.1033445727096684 -0.1061812517643372 0 0.1090410989968572 -0.1115864609780122 0 0.092254183228862613 -0.097808372748575928 0 0.1033445727096684 -0.1061812517643372 0 0.095132549438549485 -0.1060676948739 0 0.1033445727096684 -0.1061812517643372 0 0.095132549438549485 -0.1060676948739 0 0.097662011980086005 -0.11136346652128259 0 0.10730151500712121 -0.1341392572068997 0 0.1033445727096684 -0.1061812517643372 0 0.10730151500712121 -0.1341392572068997 0 0.1033445727096684 -0.1061812517643372 0 0.099520147724360061 -0.1209815478789433 0 0.10730151500712121 -0.1341392572068997 0 0.1033445727096684 -0.1061812517643372 0 0.1092563594043707 -0.11775996158525751 0 0.1033445727096684 -0.1061812517643372 0 0.099520147724360061 -0.1209815478789433 0 0.097662011980086005 -0.11136346652128259 0 0.092650778047766044 -0.11222337156795011 0 0.099520147724360061 -0.1209815478789433 0 0.097662011980086005 -0.11136346652128259 0 0.092650778047766044 -0.11222337156795011 0 0.095132549438549485 -0.1060676948739 0 0.097662011980086005 -0.11136346652128259 0 0.1033445727096684 -0.1061812517643372 0 0.1090410989968572 -0.1115864609780122 0 0.1092563594043707 -0.11775996158525751 0 0.1092563594043707 -0.11775996158525751 0 0.1142817980258638 -0.1149245973680999 0 0.120219010926689 -0.12474823852889309 0 0.1238288351874043 -0.1157675418236562 0 0.120219010926689 -0.12474823852889309 0 0.13033544652893519 -0.13142463504060339 0 0.1090636856139979 -0.1047607839246807 0 0.1142817980258638 -0.1149245973680999 0 0.1238288351874043 -0.1157675418236562 0 0.1090636856139979 -0.1047607839246807 0 0.1238288351874043 -0.1157675418236562 0 0.1090636856139979 -0.1047607839246807 0 0.1090410989968572 -0.1115864609780122 0 0.1142817980258638 -0.1149245973680999 0 0.1090410989968572 -0.1115864609780122 0 0.1092563594043707 -0.11775996158525751 0 0.1142817980258638 -0.1149245973680999 0 0.1142817980258638 -0.1149245973680999 0 0.1238288351874043 -0.1157675418236562 0 0.120219010926689 -0.12474823852889309 0 0.1238288351874043 -0.1157675418236562 0 0.13859398476081131 -0.12677429972263091 0 0.1238288351874043 -0.1157675418236562 0 0.13033544652893519 -0.13142463504060339 0 0.13859398476081131 -0.12677429972263091 0 0.1238288351874043 -0.1157675418236562 0 0.1374024086429349 -0.1129659301307568 0 0.13004192684223909 -0.1071274133857686 0 0.1212834549155087 -0.10697196707242269 0 0.1238288351874043 -0.1157675418236562 0 0.13004192684223909 -0.1071274133857686 0 0.1238288351874043 -0.1157675418236562 0 0.1374024086429349 -0.1129659301307568 0 0.13859398476081131 -0.12677429972263091 0 0.14859164876071379 -0.1211446727001963 0 0.1435331771711969 -0.098622402348001459 0 0.16023253349551789 -0.11458975754514231 0 0.14859164876071379 -0.1211446727001963 0 0.13859398476081131 -0.12677429972263091 0 0.1374024086429349 -0.1129659301307568 0 0.14859164876071379 -0.1211446727001963 0 0.13859398476081131 -0.12677429972263091 0 0.14859164876071379 -0.1211446727001963 0 0.1435331771711969 -0.098622402348001459 0 0.1374024086429349 -0.1129659301307568 0 0.14859164876071379 -0.1211446727001963 0 0.1435331771711969 -0.098622402348001459 0 0.14859164876071379 -0.1211446727001963 0 0.16023253349551789 -0.11458975754514231 0 0.15818031160793411 -0.12690074118172709 0 0.14859164876071379 -0.1211446727001963 0 0.16023253349551789 -0.11458975754514231 0 0.1493536195385988 -0.095344944770474643 0 0.16023253349551789 -0.11458975754514231 0 0.1493536195385988 -0.095344944770474643 0 0.1435331771711969 -0.098622402348001459 0 0.16023253349551789 -0.11458975754514231 0 0.1435331771711969 -0.098622402348001459 0 0.12527198289055419 -0.09794485761484889 0 0.13092133488881441 -0.087012035178883895 0 0.1435331771711969 -0.098622402348001459 0 0.13004192684223909 -0.1071274133857686 0 0.12527198289055419 -0.09794485761484889 0 0.1374024086429349 -0.1129659301307568 0 0.1435331771711969 -0.098622402348001459 0 0.13004192684223909 -0.1071274133857686 0 0.1212834549155087 -0.10697196707242269 0 0.13004192684223909 -0.1071274133857686 0 0.12527198289055419 -0.09794485761484889 0 0.1435331771711969 -0.098622402348001459 0 0.13092133488881441 -0.087012035178883895 0 0.13847470558168001 -0.076100131995806772 0 0.1197828234047723 -0.08550800795681375 0 0.12527198289055419 -0.09794485761484889 0 0.13092133488881441 -0.087012035178883895 0 0.13092133488881441 -0.087012035178883895 0 0.1275439853958687 -0.076884775978948439 0 0.13847470558168001 -0.076100131995806772 0 0.1197828234047723 -0.08550800795681375 0 0.13092133488881441 -0.087012035178883895 0 0.1275439853958687 -0.076884775978948439 0 0.13847470558168001 -0.076100131995806772 0 0.1335315377626268 -0.054091238588611402 0 0.1434619608239821 -0.061477610795627483 0 0.13219793902210861 -0.064996523883122687 0 0.13847470558168001 -0.076100131995806772 0 0.1335315377626268 -0.054091238588611402 0 0.11527440869815291 -0.070894363050938561 0 0.13219793902210861 -0.064996523883122687 0 0.1275439853958687 -0.076884775978948439 0 0.13847470558168001 -0.076100131995806772 0 0.1335315377626268 -0.054091238588611402 0 0.13219793902210861 -0.064996523883122687 0 0.1275439853958687 -0.076884775978948439 0 0.13847470558168001 -0.076100131995806772 0 0.13219793902210861 -0.064996523883122687 0 0.13847470558168001 -0.076100131995806772 0 0.13847470558168001 -0.076100131995806772 0 0.15002465826388231 -0.070356589018943497 0 0.1434619608239821 -0.061477610795627483 0 0.13847470558168001 -0.076100131995806772 0 0.15002465826388231 -0.070356589018943497 0 0.15320666579918621 -0.081860430805388684 0 0.15002465826388231 -0.070356589018943497 0 0.15320666579918621 -0.081860430805388684 0 0.16116286758964871 -0.074884559716059215 0 0.15002465826388231 -0.070356589018943497 0 0.1434619608239821 -0.061477610795627483 0 0.15398981169329001 -0.060532614522711727 0 0.15002465826388231 -0.070356589018943497 0 0.16116286758964871 -0.074884559716059215 0 0.15398981169329001 -0.060532614522711727 0 0.1493536195385988 -0.095344944770474643 0 0.1435331771711969 -0.098622402348001459 0 0.13847470558168001 -0.076100131995806772 0 0.1493536195385988 -0.095344944770474643 0 0.13847470558168001 -0.076100131995806772 0 0.15320666579918621 -0.081860430805388684 0 0.1493536195385988 -0.095344944770474643 0 0.13847470558168001 -0.076100131995806772 0 0.1435331771711969 -0.098622402348001459 0 0.13847470558168001 -0.076100131995806772 0 0.1493536195385988 -0.095344944770474643 0 0.15320666579918621 -0.081860430805388684 0 0.16833592348600759 -0.089236504909406572 0 0.15320666579918621 -0.081860430805388684 0 0.16833592348600759 -0.089236504909406572 0 0.16116286758964871 -0.074884559716059215 0 0.16833592348600759 -0.089236504909406572 0 0.16116286758964871 -0.074884559716059215 0 0.17347989410755521 -0.080262762611184091 0 0.16833592348600759 -0.089236504909406572 0 0.16116286758964871 -0.074884559716059215 0 0.16116286758964871 -0.074884559716059215 0 0.165069404209613 -0.072942043656185382 0 0.15398981169329001 -0.060532614522711727 0 0.16116286758964871 -0.074884559716059215 0 0.15398981169329001 -0.060532614522711727 0 0.165069404209613 -0.072942043656185382 0 0.15398981169329001 -0.060532614522711727 0 0.165069404209613 -0.072942043656185382 0 0.15398981169329001 -0.060532614522711727 0 0.16699441180157809 -0.058836769932688722 0 0.165069404209613 -0.072942043656185382 0 0.1748885206672203 -0.068827708677214466 0 0.17347989410755521 -0.080262762611184091 0 0.16116286758964871 -0.074884559716059215 0 0.165069404209613 -0.072942043656185382 0 0.17347989410755521 -0.080262762611184091 0 0.165069404209613 -0.072942043656185382 0 0.1748885206672203 -0.068827708677214466 0 0.16699441180157809 -0.058836769932688722 0 0.1748885206672203 -0.068827708677214466 0 0.1861098475808505 -0.075327633577803157 0 0.18170366958553319 -0.057904077758479229 0 0.1748885206672203 -0.068827708677214466 0 0.1861098475808505 -0.075327633577803157 0 0.17347989410755521 -0.080262762611184091 0 0.1861098475808505 -0.075327633577803157 0 0.17347989410755521 -0.080262762611184091 0 0.185086681101372 -0.1005945301617418 0 0.16833592348600759 -0.089236504909406572 0 0.17347989410755521 -0.080262762611184091 0 0.185086681101372 -0.1005945301617418 0 0.185086681101372 -0.1005945301617418 0 0.16023253349551789 -0.11458975754514231 0 0.185086681101372 -0.1005945301617418 0 0.17698235222925379 -0.11819852528184641 0 0.19083396169934611 -0.12259923728331081 0 0.185086681101372 -0.1005945301617418 0 0.17698235222925379 -0.11819852528184641 0 0.16023253349551789 -0.11458975754514231 0 0.16023253349551789 -0.11458975754514231 0 0.1717762326207789 -0.13501057613719011 0 0.17698235222925379 -0.11819852528184641 0 0.16023253349551789 -0.11458975754514231 0 0.1717762326207789 -0.13501057613719011 0 0.1493536195385988 -0.095344944770474643 0 0.16833592348600759 -0.089236504909406572 0 0.16023253349551789 -0.11458975754514231 0 0.16833592348600759 -0.089236504909406572 0 0.185086681101372 -0.1005945301617418 0 0.16023253349551789 -0.11458975754514231 0 0.1541854101147071 -0.01484643015585833 0 0.14820201300634539 -0.003718295740844159 0 0.16113444179630981 -0.0069783374875720203 0 0.1541854101147071 -0.01484643015585833 0 0.14820201300634539 -0.003718295740844159 0 0.14505566032150691 -0.01588602845055417 0 0.14820201300634539 -0.003718295740844159 0 0.13711958973227861 -0.0073354970684072467 0 0.14505566032150691 -0.01588602845055417 0 0.13309451229529609 0.009536296927083663 0 0.14820201300634539 -0.003718295740844159 0 0.13711958973227861 -0.0073354970684072467 0 0.12546205171341571 -0.0034538947084765959 0 0.1253231429190633 -0.015412787908653429 0 0.1349713050400404 -0.022480134646554989 0 0.13711958973227861 -0.0073354970684072467 0 0.12546205171341571 -0.0034538947084765959 0 0.1349713050400404 -0.022480134646554989 0 0.12546205171341571 -0.0034538947084765959 0 0.1349713050400404 -0.022480134646554989 0 0.13309451229529609 0.009536296927083663 0 0.13711958973227861 -0.0073354970684072467 0 0.12546205171341571 -0.0034538947084765959 0 0.13711958973227861 -0.0073354970684072467 0 0.1349713050400404 -0.022480134646554989 0 0.14505566032150691 -0.01588602845055417 0 0.1253231429190633 -0.015412787908653429 0 0.1349713050400404 -0.022480134646554989 0 0.12748624211187801 -0.027175246159734729 0 0.1349713050400404 -0.022480134646554989 0 0.12748624211187801 -0.027175246159734729 0 0.13410787031588581 -0.031040428586035541 0 0.12748624211187801 -0.027175246159734729 0 0.12858836994357309 -0.032082345181416103 0 0.12748624211187801 -0.027175246159734729 0 0.13410787031588581 -0.031040428586035541 0 0.12858836994357309 -0.032082345181416103 0 0.1460576977158945 -0.030271268961375952 0 0.14276909975169619 -0.023397242002887311 0 0.15254762911755981 -0.026296576726334901 0 0.1349713050400404 -0.022480134646554989 0 0.1460576977158945 -0.030271268961375952 0 0.14276909975169619 -0.023397242002887311 0 0.14505566032150691 -0.01588602845055417 0 0.14276909975169619 -0.023397242002887311 0 0.15254762911755981 -0.026296576726334901 0 0.1349713050400404 -0.022480134646554989 0 0.14505566032150691 -0.01588602845055417 0 0.14276909975169619 -0.023397242002887311 0 0.1541854101147071 -0.01484643015585833 0 0.14505566032150691 -0.01588602845055417 0 0.15254762911755981 -0.026296576726334901 0 0.1349713050400404 -0.022480134646554989 0 0.1460576977158945 -0.030271268961375952 0 0.14448055836666501 -0.041506374584633417 0 0.1460576977158945 -0.030271268961375952 0 0.15254762911755981 -0.026296576726334901 0 0.15551989630351101 -0.037676016846469117 0 0.1460576977158945 -0.030271268961375952 0 0.15551989630351101 -0.037676016846469117 0 0.14448055836666501 -0.041506374584633417 0 0.15551989630351101 -0.037676016846469117 0 0.14448055836666501 -0.041506374584633417 0 0.15777178538405989 -0.048872251945800173 0 0.14128909081843161 -0.046307479852063828 0 0.14448055836666501 -0.041506374584633417 0 0.13711647236113891 -0.037734157051037227 0 0.12858836994357309 -0.032082345181416103 0 0.1335315377626268 -0.054091238588611402 0 0.1349713050400404 -0.022480134646554989 0 0.13410787031588581 -0.031040428586035541 0 0.14448055836666501 -0.041506374584633417 0 0.13410787031588581 -0.031040428586035541 0 0.13711647236113891 -0.037734157051037227 0 0.12858836994357309 -0.032082345181416103 0 0.1349713050400404 -0.022480134646554989 0 0.14448055836666501 -0.041506374584633417 0 0.13410787031588581 -0.031040428586035541 0 0.14448055836666501 -0.041506374584633417 0 0.13711647236113891 -0.037734157051037227 0 0.14128909081843161 -0.046307479852063828 0 0.13711647236113891 -0.037734157051037227 0 0.12858836994357309 -0.032082345181416103 0 0.14128909081843161 -0.046307479852063828 0 0.12858836994357309 -0.032082345181416103 0 0.1335315377626268 -0.054091238588611402 0 0.12441853162289419 -0.041728366852446713 0 0.12858836994357309 -0.032082345181416103 0 0.1335315377626268 -0.054091238588611402 0 0.14128909081843161 -0.046307479852063828 0 0.12858836994357309 -0.032082345181416103 0 0.1176913260746205 -0.045873692891969443 0 0.12441853162289419 -0.041728366852446713 0 0.1335315377626268 -0.054091238588611402 0 0.14128909081843161 -0.046307479852063828 0 0.1335315377626268 -0.054091238588611402 0 0.1434619608239821 -0.061477610795627483 0 0.1200793249631929 -0.057999034889130531 0 0.13219793902210861 -0.064996523883122687 0 0.1335315377626268 -0.054091238588611402 0 0.14448055836666501 -0.041506374584633417 0 0.15398981169329001 -0.060532614522711727 0 0.15777178538405989 -0.048872251945800173 0 0.14128909081843161 -0.046307479852063828 0 0.1434619608239821 -0.061477610795627483 0 0.15398981169329001 -0.060532614522711727 0 0.14128909081843161 -0.046307479852063828 0 0.14448055836666501 -0.041506374584633417 0 0.15398981169329001 -0.060532614522711727 0 0.14448055836666501 -0.041506374584633417 0 0.15398981169329001 -0.060532614522711727 0 0.14128909081843161 -0.046307479852063828 0 0.15398981169329001 -0.060532614522711727 0 0.15398981169329001 -0.060532614522711727 0 0.15777178538405989 -0.048872251945800173 0 0.16699441180157809 -0.058836769932688722 0 0.15777178538405989 -0.048872251945800173 0 0.16699441180157809 -0.058836769932688722 0 0.1683171592591331 -0.04417832806704719 0 0.18170366958553319 -0.057904077758479229 0 0.18282700099502999 -0.041414302771724483 0 0.1978356020582076 -0.04581855327385851 0 0.1748885206672203 -0.068827708677214466 0 0.16699441180157809 -0.058836769932688722 0 0.18170366958553319 -0.057904077758479229 0 0.18170366958553319 -0.057904077758479229 0 0.18282700099502999 -0.041414302771724483 0 0.1683171592591331 -0.04417832806704719 0 0.16699441180157809 -0.058836769932688722 0 0.18170366958553319 -0.057904077758479229 0 0.1683171592591331 -0.04417832806704719 0 0.18282700099502999 -0.041414302771724483 0 0.1764009313679939 -0.029489157169150251 0 0.19178298873369809 -0.025428178521616829 0 0.18282700099502999 -0.041414302771724483 0 0.1683171592591331 -0.04417832806704719 0 0.1764009313679939 -0.029489157169150251 0 0.16424199718880669 -0.031453722859392887 0 0.1683171592591331 -0.04417832806704719 0 0.1764009313679939 -0.029489157169150251 0 0.15551989630351101 -0.037676016846469117 0 0.15777178538405989 -0.048872251945800173 0 0.1683171592591331 -0.04417832806704719 0 0.15254762911755981 -0.026296576726334901 0 0.15551989630351101 -0.037676016846469117 0 0.16424199718880669 -0.031453722859392887 0 0.15551989630351101 -0.037676016846469117 0 0.16424199718880669 -0.031453722859392887 0 0.1683171592591331 -0.04417832806704719 0 0.15254762911755981 -0.026296576726334901 0 0.16424199718880669 -0.031453722859392887 0 0.16430642628770589 -0.021037636189080011 0 0.1541854101147071 -0.01484643015585833 0 0.15254762911755981 -0.026296576726334901 0 0.16430642628770589 -0.021037636189080011 0 0.16424199718880669 -0.031453722859392887 0 0.16430642628770589 -0.021037636189080011 0 0.1764009313679939 -0.029489157169150251 0 0.1764009313679939 -0.029489157169150251 0 0.17881872095859261 -0.01307389191319702 0 0.19178298873369809 -0.025428178521616829 0 0.16430642628770589 -0.021037636189080011 0 0.1764009313679939 -0.029489157169150251 0 0.17881872095859261 -0.01307389191319702 0 0.17155948924044981 0.0029446891077993861 0 0.17881872095859261 -0.01307389191319702 0 0.19323724650424601 -0.0056727131426336716 0 0.17155948924044981 0.0029446891077993861 0 0.17881872095859261 -0.01307389191319702 0 0.16113444179630981 -0.0069783374875720203 0 0.16430642628770589 -0.021037636189080011 0 0.17881872095859261 -0.01307389191319702 0 0.16113444179630981 -0.0069783374875720203 0 0.1541854101147071 -0.01484643015585833 0 0.16430642628770589 -0.021037636189080011 0 0.16113444179630981 -0.0069783374875720203 0 0.21512577951275161 0.0003575513731272871 0 0.19323724650424601 -0.0056727131426336716 0 0.20778209484144819 -0.01660246387467381 0 0.21512577951275161 0.0003575513731272871 0 0.20778209484144819 -0.01660246387467381 0 0.22279832619765111 -0.016242500858556799 0 0.17881872095859261 -0.01307389191319702 0 0.19323724650424601 -0.0056727131426336716 0 0.19178298873369809 -0.025428178521616829 0 0.19323724650424601 -0.0056727131426336716 0 0.19178298873369809 -0.025428178521616829 0 0.20778209484144819 -0.01660246387467381 0 0.19178298873369809 -0.025428178521616829 0 0.20778209484144819 -0.01660246387467381 0 0.20496607692676949 -0.03260845950319987 0 0.20778209484144819 -0.01660246387467381 0 0.20496607692676949 -0.03260845950319987 0 0.21935206489039041 -0.0292302659567544 0 0.20778209484144819 -0.01660246387467381 0 0.21935206489039041 -0.0292302659567544 0 0.22279832619765111 -0.016242500858556799 0 0.20496607692676949 -0.03260845950319987 0 0.1978356020582076 -0.04581855327385851 0 0.21521799394257499 -0.048545478953628242 0 0.20496607692676949 -0.03260845950319987 0 0.21521799394257499 -0.048545478953628242 0 0.21935206489039041 -0.0292302659567544 0 0.19178298873369809 -0.025428178521616829 0 0.20496607692676949 -0.03260845950319987 0 0.1978356020582076 -0.04581855327385851 0 0.18282700099502999 -0.041414302771724483 0 0.19178298873369809 -0.025428178521616829 0 0.1978356020582076 -0.04581855327385851 0 0.19178298873369809 -0.025428178521616829 0 0.1978356020582076 -0.04581855327385851 0 0.18170366958553319 -0.057904077758479229 0 0.1978356020582076 -0.04581855327385851 0 0.2038882153827172 -0.066208928026100247 0 0.1978356020582076 -0.04581855327385851 0 0.2038882153827172 -0.066208928026100247 0 0.21521799394257499 -0.048545478953628242 0 0.2038882153827172 -0.066208928026100247 0 0.21659697417887891 -0.068824411988667483 0 0.1978356020582076 -0.04581855327385851 0 0.21521799394257499 -0.048545478953628242 0 0.2038882153827172 -0.066208928026100247 0 0.21521799394257499 -0.048545478953628242 0 0.23102691720913199 -0.058423431534054347 0 0.21659697417887891 -0.068824411988667483 0 0.21521799394257499 -0.048545478953628242 0 0.23102691720913199 -0.058423431534054347 0 0.23171458013990801 -0.03815853731182061 0 0.23102691720913199 -0.058423431534054347 0 0.2455159746555155 -0.047865654197653443 0 0.24611665153357609 -0.075293756484378221 0 0.2455159746555155 -0.047865654197653443 0 0.24611665153357609 -0.075293756484378221 0 0.23102691720913199 -0.058423431534054347 0 0.2455159746555155 -0.047865654197653443 0 0.23171458013990801 -0.03815853731182061 0 0.2455159746555155 -0.047865654197653443 0 0.23171458013990801 -0.03815853731182061 0 0.24491529777745491 -0.020437551910928661 0 0.2519421459068964 -0.045554591633291973 0 0.24491529777745491 -0.020437551910928661 0 0.2519421459068964 -0.045554591633291973 0 0.2455159746555155 -0.047865654197653443 0 0.24491529777745491 -0.020437551910928661 0 0.2455159746555155 -0.047865654197653443 0 0.24491529777745491 -0.020437551910928661 0 0.21521799394257499 -0.048545478953628242 0 0.23171458013990801 -0.03815853731182061 0 0.21935206489039041 -0.0292302659567544 0 0.22279832619765111 -0.016242500858556799 0 0.23150996801552909 -0.023139005123643211 0 0.24022172372813619 -0.012598320710839869 0 0.21935206489039041 -0.0292302659567544 0 0.22279832619765111 -0.016242500858556799 0 0.23150996801552909 -0.023139005123643211 0 0.23171458013990801 -0.03815853731182061 0 0.21935206489039041 -0.0292302659567544 0 0.23150996801552909 -0.023139005123643211 0 0.23171458013990801 -0.03815853731182061 0 0.23150996801552909 -0.023139005123643211 0 0.24491529777745491 -0.020437551910928661 0 0.23150996801552909 -0.023139005123643211 0 0.24491529777745491 -0.020437551910928661 0 0.24022172372813619 -0.012598320710839869 0 0.23716813797051731 0.0073742097263363804 0 0.24491529777745491 -0.020437551910928661 0 0.248186192367364 -0.0029083560372354569 0 0.25436349861753688 -0.01633049199459868 0 0.24491529777745491 -0.020437551910928661 0 0.248186192367364 -0.0029083560372354569 0 0.23716813797051731 0.0073742097263363804 0 0.24491529777745491 -0.020437551910928661 0 0.23716813797051731 0.0073742097263363804 0 0.22764494036157859 0.0046275227758226962 0 0.24022172372813619 -0.012598320710839869 0 0.23716813797051731 0.0073742097263363804 0 0.24491529777745491 -0.020437551910928661 0 0.24022172372813619 -0.012598320710839869 0 0.22764494036157859 0.0046275227758226962 0 0.21512577951275161 0.0003575513731272871 0 0.24022172372813619 -0.012598320710839869 0 0.21512577951275161 0.0003575513731272871 0 0.24022172372813619 -0.012598320710839869 0 0.21512577951275161 0.0003575513731272871 0 0.22279832619765111 -0.016242500858556799 0 0.24022172372813619 -0.012598320710839869 0 0.185086681101372 -0.1005945301617418 0 0.21735556635137909 -0.1115784764257966 0 0.19083396169934611 -0.12259923728331081 0 0.185086681101372 -0.1005945301617418 0 0.21735556635137909 -0.1115784764257966 0 0.20994082870722641 -0.086599302778342185 0 0.21735556635137909 -0.1115784764257966 0 0.19083396169934611 -0.12259923728331081 0 0.22477030399553161 -0.13655765007325121 0 0.21735556635137909 -0.1115784764257966 0 0.20994082870722641 -0.086599302778342185 0 0.21735556635137909 -0.1115784764257966 0 0.20994082870722641 -0.086599302778342185 0 0.22335651222736011 -0.097324371073200425 0 0.185086681101372 -0.1005945301617418 0 0.20994082870722641 -0.086599302778342185 0 0.1861098475808505 -0.075327633577803157 0 0.185086681101372 -0.1005945301617418 0 0.19625639319304161 -0.082182598635996806 0 0.185086681101372 -0.1005945301617418 0 0.19625639319304161 -0.082182598635996806 0 0.20994082870722641 -0.086599302778342185 0 0.1861098475808505 -0.075327633577803157 0 0.18170366958553319 -0.057904077758479229 0 0.2038882153827172 -0.066208928026100247 0 0.1861098475808505 -0.075327633577803157 0 0.19625639319304161 -0.082182598635996806 0 0.2038882153827172 -0.066208928026100247 0 0.2038882153827172 -0.066208928026100247 0 0.21659697417887891 -0.068824411988667483 0 0.20994082870722641 -0.086599302778342185 0 0.2038882153827172 -0.066208928026100247 0 0.20994082870722641 -0.086599302778342185 0 0.19625639319304161 -0.082182598635996806 0 0.2038882153827172 -0.066208928026100247 0 0.20994082870722641 -0.086599302778342185 0 0.21659697417887891 -0.068824411988667483 0 0.20994082870722641 -0.086599302778342185 0 0.21879905649288131 -0.08161128572620853 0 0.20994082870722641 -0.086599302778342185 0 0.21879905649288131 -0.08161128572620853 0 0.22335651222736011 -0.097324371073200425 0 0.20994082870722641 -0.086599302778342185 0 0.21879905649288131 -0.08161128572620853 0 0.21879905649288131 -0.08161128572620853 0 0.2334015944970573 -0.086214304730828417 0 0.22335651222736011 -0.097324371073200425 0 0.21879905649288131 -0.08161128572620853 0 0.2334015944970573 -0.086214304730828417 0 0.2291882387823051 -0.074073438092827404 0 0.23102691720913199 -0.058423431534054347 0 0.21659697417887891 -0.068824411988667483 0 0.2291882387823051 -0.074073438092827404 0 0.21659697417887891 -0.068824411988667483 0 0.21879905649288131 -0.08161128572620853 0 0.2291882387823051 -0.074073438092827404 0 0.23102691720913199 -0.058423431534054347 0 0.2291882387823051 -0.074073438092827404 0 0.24611665153357609 -0.075293756484378221 0 0.2334015944970573 -0.086214304730828417 0 0.2291882387823051 -0.074073438092827404 0 0.24611665153357609 -0.075293756484378221 0 0.2518691933921911 -0.095332813920422074 0 0.24611665153357609 -0.075293756484378221 0 0.24671732841163671 -0.102721858771103 0 0.24611665153357609 -0.075293756484378221 0 0.24671732841163671 -0.102721858771103 0 0.2334015944970573 -0.086214304730828417 0 0.24611665153357609 -0.075293756484378221 0 0.24671732841163671 -0.102721858771103 0 0.2334015944970573 -0.086214304730828417 0 0.24671732841163671 -0.102721858771103 0 0.22335651222736011 -0.097324371073200425 0 0.24671732841163671 -0.102721858771103 0 0.22335651222736011 -0.097324371073200425 0 0.23230415713809671 -0.1193818931869824 0 0.21735556635137909 -0.1115784764257966 0 0.23230415713809671 -0.1193818931869824 0 0.22477030399553161 -0.13655765007325121 0 0.21735556635137909 -0.1115784764257966 0 0.22477030399553161 -0.13655765007325121 0 0.21735556635137909 -0.1115784764257966 0 0.22335651222736011 -0.097324371073200425 0 0.23230415713809671 -0.1193818931869824 0 0.24671732841163671 -0.102721858771103 0 0.24731800528969849 -0.13014996105782781 0 0.24671732841163671 -0.102721858771103 0 0.23230415713809671 -0.1193818931869824 0 0.24731800528969849 -0.13014996105782781 0 0.23230415713809671 -0.1193818931869824 0 0.24731800528969849 -0.13014996105782781 0 0.22477030399553161 -0.13655765007325121 0 0.24731800528969849 -0.13014996105782781 0 0.24781927526331571 -0.1530389461542046 0 0.22477030399553161 -0.13655765007325121 0 0.24731800528969849 -0.13014996105782781 0 0.22477030399553161 -0.13655765007325121 0 0.24781927526331571 -0.1530389461542046 0 0.22477030399553161 -0.13655765007325121 0 0.23139561152198959 -0.15887734837056031 0 0.24731800528969849 -0.13014996105782781 0 0.24781927526331571 -0.1530389461542046 0 0.22477030399553161 -0.13655765007325121 0 0.23139561152198959 -0.15887734837056031 0 0.22060493030855099 -0.15435638695511819 0 0.22477030399553161 -0.13655765007325121 0 0.23139561152198959 -0.15887734837056031 0 0.19083396169934611 -0.12259923728331081 0 0.22477030399553161 -0.13655765007325121 0 0.19832548136784009 -0.14407283742009369 0 0.22477030399553161 -0.13655765007325121 0 0.19832548136784009 -0.14407283742009369 0 0.22060493030855099 -0.15435638695511819 0 0.22477030399553161 -0.13655765007325121 0 0.2089820458300759 -0.1530198056556836 0 0.22477030399553161 -0.13655765007325121 0 0.2089820458300759 -0.1530198056556836 0 0.19832548136784009 -0.14407283742009369 0 0.19832548136784009 -0.14407283742009369 0 0.19509687612405721 -0.1557563918440506 0 0.17927022539456949 -0.15385777975150711 0 0.2089820458300759 -0.1530198056556836 0 0.19832548136784009 -0.14407283742009369 0 0.19509687612405721 -0.1557563918440506 0 0.202870187677688 -0.17889993910680221 0 0.18953091168415481 -0.16474549804850969 0 0.18470203388423029 -0.179217107988317 0 0.202870187677688 -0.17889993910680221 0 0.1939897733818273 -0.19383874118862279 0 0.18470203388423029 -0.179217107988317 0 0.20175625562697699 -0.17385894456941281 0 0.202870187677688 -0.17889993910680221 0 0.18953091168415481 -0.16474549804850969 0 0.20175625562697699 -0.17385894456941281 0 0.202870187677688 -0.17889993910680221 0 0.19509687612405721 -0.1557563918440506 0 0.18953091168415481 -0.16474549804850969 0 0.17927022539456949 -0.15385777975150711 0 0.19509687612405721 -0.1557563918440506 0 0.18953091168415481 -0.16474549804850969 0 0.19937571634364529 -0.1630860383444592 0 0.2089820458300759 -0.1530198056556836 0 0.19509687612405721 -0.1557563918440506 0 0.19937571634364529 -0.1630860383444592 0 0.20175625562697699 -0.17385894456941281 0 0.18953091168415481 -0.16474549804850969 0 0.19937571634364529 -0.1630860383444592 0 0.20175625562697699 -0.17385894456941281 0 0.19937571634364529 -0.1630860383444592 0 0.20175625562697699 -0.17385894456941281 0 0.18953091168415481 -0.16474549804850969 0 0.202870187677688 -0.17889993910680221 0 0.18953091168415481 -0.16474549804850969 0 0.20175625562697699 -0.17385894456941281 0 0.19937571634364529 -0.1630860383444592 0 0.20835367855762499 -0.16637182379665899 0 0.20175625562697699 -0.17385894456941281 0 0.20835367855762499 -0.16637182379665899 0 0.21422977298213469 -0.17447298016576851 0 0.2089820458300759 -0.1530198056556836 0 0.19937571634364529 -0.1630860383444592 0 0.20835367855762499 -0.16637182379665899 0 0.2089820458300759 -0.1530198056556836 0 0.20835367855762499 -0.16637182379665899 0 0.2195309434354327 -0.16619633227407879 0 0.22060493030855099 -0.15435638695511819 0 0.2089820458300759 -0.1530198056556836 0 0.2195309434354327 -0.16619633227407879 0 0.20835367855762499 -0.16637182379665899 0 0.21422977298213469 -0.17447298016576851 0 0.2195309434354327 -0.16619633227407879 0 0.20175625562697699 -0.17385894456941281 0 0.2196170183493851 -0.1871733434652183 0 0.20175625562697699 -0.17385894456941281 0 0.202870187677688 -0.17889993910680221 0 0.2196170183493851 -0.1871733434652183 0 0.20175625562697699 -0.17385894456941281 0 0.21422977298213469 -0.17447298016576851 0 0.2196170183493851 -0.1871733434652183 0 0.2196170183493851 -0.1871733434652183 0 0.2235360746744911 -0.17839276553162439 0 0.23448961261347501 -0.19121775862638099 0 0.2235360746744911 -0.17839276553162439 0 0.23265431407923101 -0.1740593385431381 0 0.23448961261347501 -0.19121775862638099 0 0.21422977298213469 -0.17447298016576851 0 0.2196170183493851 -0.1871733434652183 0 0.2235360746744911 -0.17839276553162439 0 0.21422977298213469 -0.17447298016576851 0 0.2235360746744911 -0.17839276553162439 0 0.2195309434354327 -0.16619633227407879 0 0.2235360746744911 -0.17839276553162439 0 0.23265431407923101 -0.1740593385431381 0 0.2195309434354327 -0.16619633227407879 0 0.22060493030855099 -0.15435638695511819 0 0.2195309434354327 -0.16619633227407879 0 0.23139561152198959 -0.15887734837056031 0 0.23265431407923101 -0.1740593385431381 0 0.2195309434354327 -0.16619633227407879 0 0.23139561152198959 -0.15887734837056031 0 0.24781927526331571 -0.1530389461542046 0 0.24148172900703271 -0.165741214637565 0 0.248320545236934 -0.1759279312505814 0 0.24781927526331571 -0.1530389461542046 0 0.248320545236934 -0.1759279312505814 0 0.24781927526331571 -0.1530389461542046 0 0.23139561152198959 -0.15887734837056031 0 0.24148172900703271 -0.165741214637565 0 0.23265431407923101 -0.1740593385431381 0 0.24148172900703271 -0.165741214637565 0 0.24098415856390171 -0.17339825971188691 0 0.23265431407923101 -0.1740593385431381 0 0.23139561152198959 -0.15887734837056031 0 0.24148172900703271 -0.165741214637565 0 0.24148172900703271 -0.165741214637565 0 0.24098415856390171 -0.17339825971188691 0 0.248320545236934 -0.1759279312505814 0 0.23265431407923101 -0.1740593385431381 0 0.2407074632453258 -0.1796645723903314 0 0.23448961261347501 -0.19121775862638099 0 0.2407074632453258 -0.1796645723903314 0 0.24805621810297609 -0.18437954832002859 0 0.23448961261347501 -0.19121775862638099 0 0.23265431407923101 -0.1740593385431381 0 0.24098415856390171 -0.17339825971188691 0 0.2407074632453258 -0.1796645723903314 0 0.25119966764876139 -0.1752548124969612 0 0.248320545236934 -0.1759279312505814 0 0.24805621810297609 -0.18437954832002859 0 0.24098415856390171 -0.17339825971188691 0 0.2407074632453258 -0.1796645723903314 0 0.248320545236934 -0.1759279312505814 0 0.25119966764876139 -0.1752548124969612 0 0.24805621810297609 -0.18437954832002859 0 0.2407074632453258 -0.1796645723903314 0 0.248320545236934 -0.1759279312505814 0 0.24805621810297609 -0.18437954832002859 0 0.25278334061465851 -0.20194747427335999 0 0.24805621810297609 -0.18437954832002859 0 0.23991901068976429 -0.20800005404206659 0 0.24805621810297609 -0.18437954832002859 0 0.23991901068976429 -0.20800005404206659 0 0.23448961261347501 -0.19121775862638099 0 0.23991901068976429 -0.20800005404206659 0 0.23088151273114429 -0.200577872634711 0 0.24805621810297609 -0.18437954832002859 0 0.23448961261347501 -0.19121775862638099 0 0.23991901068976429 -0.20800005404206659 0 0.24805621810297609 -0.18437954832002859 0 0.23448961261347501 -0.19121775862638099 0 0.25278334061465851 -0.20194747427335999 0 0.23991901068976429 -0.20800005404206659 0 0.24291625706960429 -0.2268715697819616 0 0.25278334061465851 -0.20194747427335999 0 0.24291625706960429 -0.2268715697819616 0 0.23991901068976429 -0.20800005404206659 0 0.23169914932706459 -0.2094906427278764 0 0.23088151273114429 -0.200577872634711 0 0.23991901068976429 -0.20800005404206659 0 0.23169914932706459 -0.2094906427278764 0 0.22815126831765151 -0.21954344279946769 0 0.23169914932706459 -0.2094906427278764 0 0.21895448202971529 -0.21173951997706761 0 0.22815126831765151 -0.21954344279946769 0 0.23169914932706459 -0.2094906427278764 0 0.22092300712397481 -0.19805596893273519 0 0.23169914932706459 -0.2094906427278764 0 0.21895448202971529 -0.21173951997706761 0 0.22046355493666531 -0.20574048003748979 0 0.23169914932706459 -0.2094906427278764 0 0.22046355493666531 -0.20574048003748979 0 0.22092300712397481 -0.19805596893273519 0 0.2196170183493851 -0.1871733434652183 0 0.23448961261347501 -0.19121775862638099 0 0.22092300712397481 -0.19805596893273519 0 0.23448961261347501 -0.19121775862638099 0 0.22092300712397481 -0.19805596893273519 0 0.23448961261347501 -0.19121775862638099 0 0.22092300712397481 -0.19805596893273519 0 0.23088151273114429 -0.200577872634711 0 0.23169914932706459 -0.2094906427278764 0 0.22092300712397481 -0.19805596893273519 0 0.23088151273114429 -0.200577872634711 0 0.25030848383521492 -0.23940769787506169 0 0.23952988749967771 -0.24502616546444969 0 0.24776568051229031 -0.24923037600136069 0 0.25030848383521492 -0.23940769787506169 0 0.23952988749967771 -0.24502616546444969 0 0.24113410792026169 -0.23573149822139419 0 0.23952988749967771 -0.24502616546444969 0 0.24113410792026169 -0.23573149822139419 0 0.23178180327654979 -0.2316205597641037 0 0.23991901068976429 -0.20800005404206659 0 0.23178180327654979 -0.2316205597641037 0 0.23991901068976429 -0.20800005404206659 0 0.24291625706960429 -0.2268715697819616 0 0.23178180327654979 -0.2316205597641037 0 0.24113410792026169 -0.23573149822139419 0 0.24291625706960429 -0.2268715697819616 0 0.23178180327654979 -0.2316205597641037 0 0.25030848383521492 -0.23940769787506169 0 0.24113410792026169 -0.23573149822139419 0 0.24291625706960429 -0.2268715697819616 0 0.25030848383521492 -0.23940769787506169 0 0.25617580749430352 -0.23088513540590999 0 0.24291625706960429 -0.2268715697819616 0 0.22815126831765151 -0.21954344279946769 0 0.23178180327654979 -0.2316205597641037 0 0.21370703157230361 -0.22794105507102139 0 0.23991901068976429 -0.20800005404206659 0 0.22815126831765151 -0.21954344279946769 0 0.23178180327654979 -0.2316205597641037 0 0.21895448202971529 -0.21173951997706761 0 0.22815126831765151 -0.21954344279946769 0 0.21370703157230361 -0.22794105507102139 0 0.22364459586333399 -0.25524106548614017 0 0.23952988749967771 -0.24502616546444969 0 0.23178180327654979 -0.2316205597641037 0 0.21912545351961199 -0.25246161305313097 0 0.23178180327654979 -0.2316205597641037 0 0.21370703157230361 -0.22794105507102139 0 0.22364459586333399 -0.25524106548614017 0 0.21912545351961199 -0.25246161305313097 0 0.23178180327654979 -0.2316205597641037 0 0.22364459586333399 -0.25524106548614017 0 0.23178180327654979 -0.2316205597641037 0 0.21912545351961199 -0.25246161305313097 0 0.19748938538536459 -0.2391545698925597 0 0.21912545351961199 -0.25246161305313097 0 0.21370703157230361 -0.22794105507102139 0 0.21912545351961199 -0.25246161305313097 0 0.21370703157230361 -0.22794105507102139 0 0.19748938538536459 -0.2391545698925597 0 0.21912545351961199 -0.25246161305313097 0 0.204482504977478 -0.25705322038503142 0 0.19748938538536459 -0.2391545698925597 0 0.21370703157230361 -0.22794105507102139 0 0.19748938538536459 -0.2391545698925597 0 0.18714697657574941 -0.21576397611414419 0 0.204482504977478 -0.25705322038503142 0 0.19748938538536459 -0.2391545698925597 0 0.18526108334034891 -0.24993342049705089 0 0.202870187677688 -0.17889993910680221 0 0.21188103518426801 -0.2026135501018583 0 0.20828860962499601 -0.20342049708891169 0 0.202870187677688 -0.17889993910680221 0 0.22092300712397481 -0.19805596893273519 0 0.21188103518426801 -0.2026135501018583 0 0.202870187677688 -0.17889993910680221 0 0.20828860962499601 -0.20342049708891169 0 0.202870187677688 -0.17889993910680221 0 0.22092300712397481 -0.19805596893273519 0 0.202870187677688 -0.17889993910680221 0 0.2196170183493851 -0.1871733434652183 0 0.22092300712397481 -0.19805596893273519 0 0.22046355493666531 -0.20574048003748979 0 0.22092300712397481 -0.19805596893273519 0 0.21188103518426801 -0.2026135501018583 0 0.22092300712397481 -0.19805596893273519 0 0.21188103518426801 -0.2026135501018583 0 0.21895448202971529 -0.21173951997706761 0 0.22046355493666531 -0.20574048003748979 0 0.21188103518426801 -0.2026135501018583 0 0.21895448202971529 -0.21173951997706761 0 0.21188103518426801 -0.2026135501018583 0 0.20828860962499601 -0.20342049708891169 0 0.21895448202971529 -0.21173951997706761 0 0.21370703157230361 -0.22794105507102139 0 0.20828860962499601 -0.20342049708891169 0 0.21370703157230361 -0.22794105507102139 0 0.20828860962499601 -0.20342049708891169 0 0.20828860962499601 -0.20342049708891169 0 0.1939897733818273 -0.19383874118862279 0 0.18714697657574941 -0.21576397611414419 0 0.21370703157230361 -0.22794105507102139 0 0.20828860962499601 -0.20342049708891169 0 0.18714697657574941 -0.21576397611414419 0 0.202870187677688 -0.17889993910680221 0 0.20828860962499601 -0.20342049708891169 0 0.1939897733818273 -0.19383874118862279 0 0.1939897733818273 -0.19383874118862279 0 0.17780632915678959 -0.1955803058152715 0 0.18470203388423029 -0.179217107988317 0 0.1939897733818273 -0.19383874118862279 0 0.17780632915678959 -0.1955803058152715 0 0.18714697657574941 -0.21576397611414419 0 0.17780632915678959 -0.1955803058152715 0 0.18714697657574941 -0.21576397611414419 0 0.17025033727519329 -0.21133026465966101 0 0.17780632915678959 -0.1955803058152715 0 0.18714697657574941 -0.21576397611414419 0 0.17025033727519329 -0.21133026465966101 0 0.1561949706534759 -0.19457713825532461 0 0.1529161815581517 -0.21349388719884549 0 0.17780632915678959 -0.1955803058152715 0 0.1561949706534759 -0.19457713825532461 0 0.16185041263224509 -0.18496159294645109 0 0.17780632915678959 -0.1955803058152715 0 0.17025033727519329 -0.21133026465966101 0 0.1561949706534759 -0.19457713825532461 0 0.1561949706534759 -0.19457713825532461 0 0.1512942029583223 -0.1850765999825843 0 0.16185041263224509 -0.18496159294645109 0 0.19748938538536459 -0.2391545698925597 0 0.18526108334034891 -0.24993342049705089 0 0.16950036828804069 -0.2331670289590721 0 0.17269244180823551 -0.25082577604891387 0 0.18526108334034891 -0.24993342049705089 0 0.16950036828804069 -0.2331670289590721 0 0.19748938538536459 -0.2391545698925597 0 0.18714697657574941 -0.21576397611414419 0 0.16950036828804069 -0.2331670289590721 0 0.18714697657574941 -0.21576397611414419 0 0.17025033727519329 -0.21133026465966101 0 0.16950036828804069 -0.2331670289590721 0 0.17025033727519329 -0.21133026465966101 0 0.16950036828804069 -0.2331670289590721 0 0.1529161815581517 -0.21349388719884549 0 0.14751756987647169 -0.25371240423406272 0 0.16157845838820231 -0.25657455779082111 0 0.16950036828804069 -0.2331670289590721 0 0.16157845838820231 -0.25657455779082111 0 0.17269244180823551 -0.25082577604891387 0 0.16950036828804069 -0.2331670289590721 0 0.14751756987647169 -0.25371240423406272 0 0.16950036828804069 -0.2331670289590721 0 0.14751756987647169 -0.25371240423406272 0 0.16950036828804069 -0.2331670289590721 0 0.14143719515592221 -0.23292512032691209 0 0.14143719515592221 -0.23292512032691209 0 0.1529161815581517 -0.21349388719884549 0 0.16950036828804069 -0.2331670289590721 0 0.14143719515592221 -0.23292512032691209 0 0.1529161815581517 -0.21349388719884549 0 0.1200283839416008 -0.23379232655142851 0 0.14143719515592221 -0.23292512032691209 0 0.13050871056543259 -0.20832441167824151 0 0.1200283839416008 -0.23379232655142851 0 0.13050871056543259 -0.20832441167824151 0 0.1200283839416008 -0.23379232655142851 0 0.1211580271231746 -0.24512581039290279 0 0.14143719515592221 -0.23292512032691209 0 0.12995820875369279 -0.25235635345497848 0 0.14143719515592221 -0.23292512032691209 0 0.12995820875369279 -0.25235635345497848 0 0.1211580271231746 -0.24512581039290279 0 0.14143719515592221 -0.23292512032691209 0 0.12995820875369279 -0.25235635345497848 0 0.14751756987647169 -0.25371240423406272 0 0.14143719515592221 -0.23292512032691209 0 0.14147695524426371 -0.19794762262202301 0 0.1561949706534759 -0.19457713825532461 0 0.1529161815581517 -0.21349388719884549 0 0.14147695524426371 -0.19794762262202301 0 0.14638448331033979 -0.1893225252512456 0 0.1561949706534759 -0.19457713825532461 0 0.14147695524426371 -0.19794762262202301 0 0.14638448331033979 -0.1893225252512456 0 0.14098903718926439 -0.1828564968050545 0 0.14638448331033979 -0.1893225252512456 0 0.1561949706534759 -0.19457713825532461 0 0.1512942029583223 -0.1850765999825843 0 0.14143719515592221 -0.23292512032691209 0 0.1529161815581517 -0.21349388719884549 0 0.13050871056543259 -0.20832441167824151 0 0.14147695524426371 -0.19794762262202301 0 0.1529161815581517 -0.21349388719884549 0 0.13050871056543259 -0.20832441167824151 0 0.14147695524426371 -0.19794762262202301 0 0.13050871056543259 -0.20832441167824151 0 0.14098903718926439 -0.1828564968050545 0 0.1138340639553141 -0.20509916168281231 0 0.13050871056543259 -0.20832441167824151 0 0.1310370370754356 -0.18274479028628399 0 0.13050871056543259 -0.20832441167824151 0 0.1310370370754356 -0.18274479028628399 0 0.13937567315642321 -0.18411890071904191 0 0.13050871056543259 -0.20832441167824151 0 0.14098903718926439 -0.1828564968050545 0 0.13050871056543259 -0.20832441167824151 0 0.13937567315642321 -0.18411890071904191 0 0.14098903718926439 -0.1828564968050545 0 0.12471185084496871 -0.1735979207045413 0 0.1310370370754356 -0.18274479028628399 0 0.1365144525734629 -0.17562717291392069 0 0.1365144525734629 -0.17562717291392069 0 0.14098903718926439 -0.1828564968050545 0 0.1410779406079459 -0.1686283600099375 0 0.1310370370754356 -0.18274479028628399 0 0.1365144525734629 -0.17562717291392069 0 0.1365144525734629 -0.17562717291392069 0 0.13937567315642321 -0.18411890071904191 0 0.14098903718926439 -0.1828564968050545 0 0.1310370370754356 -0.18274479028628399 0 0.13937567315642321 -0.18411890071904191 0 0.1310370370754356 -0.18274479028628399 0 0.1365144525734629 -0.17562717291392069 0 0.13937567315642321 -0.18411890071904191 0 0.14638448331033979 -0.1893225252512456 0 0.1460092483678192 -0.1841981261408816 0 0.14098903718926439 -0.1828564968050545 0 0.1460092483678192 -0.1841981261408816 0 0.14098903718926439 -0.1828564968050545 0 0.14703867106305291 -0.17520340619890551 0 0.14638448331033979 -0.1893225252512456 0 0.1460092483678192 -0.1841981261408816 0 0.1512942029583223 -0.1850765999825843 0 0.1460092483678192 -0.1841981261408816 0 0.14703867106305291 -0.17520340619890551 0 0.14968703488203111 -0.17637041991781721 0 0.14968703488203111 -0.17637041991781721 0 0.15549087865480801 -0.1741772851626763 0 0.1512942029583223 -0.1850765999825843 0 0.1460092483678192 -0.1841981261408816 0 0.14968703488203111 -0.17637041991781721 0 0.1512942029583223 -0.1850765999825843 0 0.15549087865480801 -0.1741772851626763 0 0.1512942029583223 -0.1850765999825843 0 0.16185041263224509 -0.18496159294645109 0 0.14098903718926439 -0.1828564968050545 0 0.1514693638130965 -0.1573885819318678 0 0.14703867106305291 -0.17520340619890551 0 0.14968703488203111 -0.17637041991781721 0 0.1514693638130965 -0.1573885819318678 0 0.14098903718926439 -0.1828564968050545 0 0.14703867106305291 -0.17520340619890551 0 0.1514693638130965 -0.1573885819318678 0 0.14098903718926439 -0.1828564968050545 0 0.1514693638130965 -0.1573885819318678 0 0.1410779406079459 -0.1686283600099375 0 0.14968703488203111 -0.17637041991781721 0 0.15549087865480801 -0.1741772851626763 0 0.1514693638130965 -0.1573885819318678 0 0.1514693638130965 -0.1573885819318678 0 0.1410779406079459 -0.1686283600099375 0 0.13182097445505861 -0.1629723337750261 0 0.15549087865480801 -0.1741772851626763 0 0.1514693638130965 -0.1573885819318678 0 0.15761886354435509 -0.1613373214650658 0 0.1514693638130965 -0.1573885819318678 0 0.13182097445505861 -0.1629723337750261 0 0.14479703817411069 -0.15101108835019361 0 0.1514693638130965 -0.1573885819318678 0 0.13182097445505861 -0.1629723337750261 0 0.1514693638130965 -0.1573885819318678 0 0.15641623655774869 -0.15598276136803091 0 0.15761886354435509 -0.1613373214650658 0 0.1514693638130965 -0.1573885819318678 0 0.15641623655774869 -0.15598276136803091 0 0.1365144525734629 -0.17562717291392069 0 0.1410779406079459 -0.1686283600099375 0 0.13182097445505861 -0.1629723337750261 0 0.12471185084496871 -0.1735979207045413 0 0.1365144525734629 -0.17562717291392069 0 0.13182097445505861 -0.1629723337750261 0 0.1217629365790301 -0.15487583447838049 0 0.13182097445505861 -0.1629723337750261 0 0.13412675678948099 -0.14756607095086779 0 0.1209573165015211 -0.14393701063528189 0 0.1217629365790301 -0.15487583447838049 0 0.13412675678948099 -0.14756607095086779 0 0.1209573165015211 -0.14393701063528189 0 0.13412675678948099 -0.14756607095086779 0 0.1300659421192398 -0.13905143622092861 0 0.13412675678948099 -0.14756607095086779 0 0.13904963152588931 -0.1370344415116595 0 0.14446058470231049 -0.1431937464266943 0 0.13412675678948099 -0.14756607095086779 0 0.1300659421192398 -0.13905143622092861 0 0.13904963152588931 -0.1370344415116595 0 0.13182097445505861 -0.1629723337750261 0 0.13412675678948099 -0.14756607095086779 0 0.14479703817411069 -0.15101108835019361 0 0.1210136663870208 -0.13454681608983049 0 0.13033544652893519 -0.13142463504060339 0 0.1300659421192398 -0.13905143622092861 0 0.13033544652893519 -0.13142463504060339 0 0.1300659421192398 -0.13905143622092861 0 0.13904963152588931 -0.1370344415116595 0 0.13904963152588931 -0.1370344415116595 0 0.13859398476081131 -0.12677429972263091 0 0.144199782639192 -0.1368384839737827 0 0.13033544652893519 -0.13142463504060339 0 0.13859398476081131 -0.12677429972263091 0 0.13033544652893519 -0.13142463504060339 0 0.13904963152588931 -0.1370344415116595 0 0.13859398476081131 -0.12677429972263091 0 0.14859164876071379 -0.1211446727001963 0 0.15212083155472861 -0.13685795834437869 0 0.14859164876071379 -0.1211446727001963 0 0.15212083155472861 -0.13685795834437869 0 0.1502460985920181 -0.1354604288616458 0 0.14859164876071379 -0.1211446727001963 0 0.15212083155472861 -0.13685795834437869 0 0.15818031160793411 -0.12690074118172709 0 0.14859164876071379 -0.1211446727001963 0 0.13859398476081131 -0.12677429972263091 0 0.1502460985920181 -0.1354604288616458 0 0.13859398476081131 -0.12677429972263091 0 0.1502460985920181 -0.1354604288616458 0 0.13859398476081131 -0.12677429972263091 0 0.144199782639192 -0.1368384839737827 0 0.1502460985920181 -0.1354604288616458 0 0.13904963152588931 -0.1370344415116595 0 0.144199782639192 -0.1368384839737827 0 0.14446058470231049 -0.1431937464266943 0 0.144199782639192 -0.1368384839737827 0 0.14446058470231049 -0.1431937464266943 0 0.14881037920368759 -0.14151250092506709 0 0.144199782639192 -0.1368384839737827 0 0.1502460985920181 -0.1354604288616458 0 0.14881037920368759 -0.14151250092506709 0 0.1502460985920181 -0.1354604288616458 0 0.1535260092468313 -0.14311435245758489 0 0.15212083155472861 -0.13685795834437869 0 0.1502460985920181 -0.1354604288616458 0 0.1535260092468313 -0.14311435245758489 0 0.1502460985920181 -0.1354604288616458 0 0.14881037920368759 -0.14151250092506709 0 0.1535260092468313 -0.14311435245758489 0 0.15212083155472861 -0.13685795834437869 0 0.1535260092468313 -0.14311435245758489 0 0.15212083155472861 -0.13685795834437869 0 0.1502460985920181 -0.1354604288616458 0 0.14479703817411069 -0.15101108835019361 0 0.14446058470231049 -0.1431937464266943 0 0.1497984025748644 -0.14776671978537059 0 0.13412675678948099 -0.14756607095086779 0 0.14479703817411069 -0.15101108835019361 0 0.14446058470231049 -0.1431937464266943 0 0.14446058470231049 -0.1431937464266943 0 0.1497984025748644 -0.14776671978537059 0 0.14881037920368759 -0.14151250092506709 0 0.1497984025748644 -0.14776671978537059 0 0.1535260092468313 -0.14311435245758489 0 0.15350867040522709 -0.15243292658324339 0 0.1497984025748644 -0.14776671978537059 0 0.14881037920368759 -0.14151250092506709 0 0.1535260092468313 -0.14311435245758489 0 0.1514693638130965 -0.1573885819318678 0 0.14479703817411069 -0.15101108835019361 0 0.15350867040522709 -0.15243292658324339 0 0.1535260092468313 -0.14311435245758489 0 0.15641623655774869 -0.15598276136803091 0 0.1535260092468313 -0.14311435245758489 0 0.15350867040522709 -0.15243292658324339 0 0.15641623655774869 -0.15598276136803091 0 0.14479703817411069 -0.15101108835019361 0 0.1497984025748644 -0.14776671978537059 0 0.15350867040522709 -0.15243292658324339 0 0.1514693638130965 -0.1573885819318678 0 0.15350867040522709 -0.15243292658324339 0 0.15641623655774869 -0.15598276136803091 0 0.1514693638130965 -0.1573885819318678 0 0.15350867040522709 -0.15243292658324339 0 0.15212083155472861 -0.13685795834437869 0 0.1535260092468313 -0.14311435245758489 0 0.17188065874014979 -0.15158802476693969 0 0.15212083155472861 -0.13685795834437869 0 0.17188065874014979 -0.15158802476693969 0 0.1535260092468313 -0.14311435245758489 0 0.15641623655774869 -0.15598276136803091 0 0.15912503431886951 -0.1552129652175262 0 0.1535260092468313 -0.14311435245758489 0 0.15912503431886951 -0.1552129652175262 0 0.15212083155472861 -0.13685795834437869 0 0.1717762326207789 -0.13501057613719011 0 0.17188065874014979 -0.15158802476693969 0 0.15641623655774869 -0.15598276136803091 0 0.15912503431886951 -0.1552129652175262 0 0.1535260092468313 -0.14311435245758489 0 0.15912503431886951 -0.1552129652175262 0 0.17188065874014979 -0.15158802476693969 0 0.15912503431886951 -0.1552129652175262 0 0.17188065874014979 -0.15158802476693969 0 0.16023253349551789 -0.11458975754514231 0 0.1717762326207789 -0.13501057613719011 0 0.15818031160793411 -0.12690074118172709 0 0.15212083155472861 -0.13685795834437869 0 0.1717762326207789 -0.13501057613719011 0 0.15818031160793411 -0.12690074118172709 0 0.17698235222925379 -0.11819852528184641 0 0.19083396169934611 -0.12259923728331081 0 0.1717762326207789 -0.13501057613719011 0 0.19083396169934611 -0.12259923728331081 0 0.19832548136784009 -0.14407283742009369 0 0.1717762326207789 -0.13501057613719011 0 0.19832548136784009 -0.14407283742009369 0 0.1717762326207789 -0.13501057613719011 0 0.17188065874014979 -0.15158802476693969 0 0.19832548136784009 -0.14407283742009369 0 0.17188065874014979 -0.15158802476693969 0 0.17927022539456949 -0.15385777975150711 0 0.19832548136784009 -0.14407283742009369 0 0.17188065874014979 -0.15158802476693969 0 0.18953091168415481 -0.16474549804850969 0 0.17188065874014979 -0.15158802476693969 0 0.18953091168415481 -0.16474549804850969 0 0.17188065874014979 -0.15158802476693969 0 0.17639951925312189 -0.16621759843051381 0 0.18953091168415481 -0.16474549804850969 0 0.17927022539456949 -0.15385777975150711 0 0.18953091168415481 -0.16474549804850969 0 0.17188065874014979 -0.15158802476693969 0 0.17927022539456949 -0.15385777975150711 0 0.17188065874014979 -0.15158802476693969 0 0.17639951925312189 -0.16621759843051381 0 0.16896772351249259 -0.16210380598284399 0 0.18953091168415481 -0.16474549804850969 0 0.17639951925312189 -0.16621759843051381 0 0.18470203388423029 -0.179217107988317 0 0.17780632915678959 -0.1955803058152715 0 0.16846568173782969 -0.17539663551639881 0 0.17780632915678959 -0.1955803058152715 0 0.18470203388423029 -0.179217107988317 0 0.16846568173782969 -0.17539663551639881 0 0.17639951925312189 -0.16621759843051381 0 0.18470203388423029 -0.179217107988317 0 0.16846568173782969 -0.17539663551639881 0 0.17780632915678959 -0.1955803058152715 0 0.16846568173782969 -0.17539663551639881 0 0.16185041263224509 -0.18496159294645109 0 0.15549087865480801 -0.1741772851626763 0 0.16846568173782969 -0.17539663551639881 0 0.16185041263224509 -0.18496159294645109 0 0.15912503431886951 -0.1552129652175262 0 0.16846568173782969 -0.17539663551639881 0 0.15549087865480801 -0.1741772851626763 0 0.16846568173782969 -0.17539663551639881 0 0.15761886354435509 -0.1613373214650658 0 0.15912503431886951 -0.1552129652175262 0 0.16846568173782969 -0.17539663551639881 0 0.15761886354435509 -0.1613373214650658 0 0.15912503431886951 -0.1552129652175262 0 0.16846568173782969 -0.17539663551639881 0 0.16896772351249259 -0.16210380598284399 0 0.15641623655774869 -0.15598276136803091 0 0.15761886354435509 -0.1613373214650658 0 0.15641623655774869 -0.15598276136803091 0 0.15912503431886951 -0.1552129652175262 0 0.15761886354435509 -0.1613373214650658 0 0.15912503431886951 -0.1552129652175262 0 0.17188065874014979 -0.15158802476693969 0 0.16896772351249259 -0.16210380598284399 0 0.17639951925312189 -0.16621759843051381 0 0.16846568173782969 -0.17539663551639881 0 0.16896772351249259 -0.16210380598284399 0 
</DataArray>
</Points>
<Cells>
<DataArray type="UInt32" Name="connectivity" format="ascii">
0 1 2 3 4 5 6 7 8 9 10 11 12 13 14 15 16 17 18 19 20 21 22 23 24 25 26 27 28 29 30 31 32 33 34 35 36 37 38 39 40 41 42 43 44 45 46 47 48 49 50 51 52 53 54 55 56 57 58 59 60 61 62 63 64 65 66 67 68 69 70 71 72 73 74 75 76 77 78 79 80 81 82 83 84 85 86 87 88 89 90 91 92 93 94 95 96 97 98 99 100 101 102 103 104 105 106 107 108 109 110 111 112 113 114 115 116 117 118 119 120 121 122 123 124 125 126 127 128 129 130 131 132 133 134 135 136 137 138 139 140 141 142 143 144 145 146 147 148 149 150 151 152 153 154 155 156 157 158 159 160 161 162 163 164 165 166 167 168 169 170 171 172 173 174 175 176 177 178 179 180 181 182 183 184 185 186 187 188 189 190 191 192 193 194 195 196 197 198 199 200 201 202 203 204 205 206 207 208 209 210 211 212 213 214 215 216 217 218 219 220 221 222 223 224 225 226 227 228 229 230 231 232 233 234 235 236 237 238 239 240 241 242 243 244 245 246 247 248 249 250 251 252 253 254 255 256 257 258 259 260 261 262 263 264 265 266 267 268 269 270 271 272 273 274 275 276 277 278 279 280 281 282 283 284 285 286 287 288 289 290 291 292 293 294 295 296 297 298 299 300 301 302 303 304 305 306 307 308 309 310 311 312 313 314 315 316 317 318 319 320 321 322 323 324 325 326 327 328 329 330 331 332 333 334 335 336 337 338 339 340 341 342 343 344 345 346 347 348 349 350 351 352 353 354 355 356 357 358 359 360 361 362 363 364 365 366 367 368 369 370 371 372 373 374 375 376 377 378 379 380 381 382 383 384 385 386 387 388 389 390 391 392 393 394 395 396 397 398 399 400 401 402 403 404 405 406 407 408 409 410 411 412 413 414 415 416 417 418 419 420 421 422 423 424 425 426 427 428 429 430 431 432 433 434 435 436 437 438 439 440 441 442 443 444 445 446 447 448 449 450 451 452 453 454 455 456 457 458 459 460 461 462 463 464 465 466 467 468 469 470 471 472 473 474 475 476 477 478 479 480 481 482 483 484 485 486 487 488 489 490 491 492 493 494 495 496 497 498 499 500 501 502 503 504 505 506 507 508 509 510 511 512 513 514 515 516 517 518 519 520 521 522 523 524 525 526 527 528 529 530 531 532 533 534 535 536 537 538 539 540 541 542 543 544 545 546 547 548 549 550 551 552 553 554 555 556 557 558 559 560 561 562 563 564 565 566 567 568 569 570 571 572 573 574 575 576 577 578 579 580 581 582 583 584 585 586 587 588 589 590 591 592 593 594 595 596 597 598 599 600 601 602 603 604 605 606 607 608 609 610 611 612 613 614 615 616 617 618 619 620 621 622 623 624 625 626 627 628 629 630 631 632 633 634 635 636 637 638 639 640 641 642 643 644 645 646 647 648 649 650 651 652 653 654 655 656 657 658 659 660 661 662 663 664 665 666 667 668 669 670 671 672 673 674 675 676 677 678 679 680 681 682 683 684 685 686 687 688 689 690 691 692 693 694 695 696 697 698 699 700 701 702 703 704 705 706 707 708 709 710 711 712 713 714 715 716 717 718 719 720 721 722 723 724 725 726 727 728 729 730 731 732 733 734 735 736 737 738 739 740 741 742 743 744 745 746 747 748 749 750 751 752 753 754 755 756 757 758 759 760 761 762 763 764 765 766 767 768 769 770 771 772 773 774 775 776 777 778 779 780 781 782 783 784 785 786 787 788 789 790 791 792 793 794 795 796 797 798 799 800 801 802 803 804 805 806 807 808 809 810 811 812 813 814 815 816 817 818 819 820 821 822 823 824 825 826 827 828 829 830 831 832 833 834 835 836 837 838 839 840 841 842 843 844 845 846 847 848 849 850 851 852 853 854 855 856 857 858 859 860 861 862 863 864 865 866 867 868 869 870 871 872 873 874 875 876 877 878 879 880 881 882 883 884 885 886 887 888 889 890 891 892 893 894 895 896 897 898 899 900 901 902 903 904 905 906 907 908 909 910 911 912 913 914 915 916 917 918 919 920 921 922 923 924 925 926 927 928 929 930 931 932 933 934 935 936 937 938 939 940 941 942 943 944 945 946 947 948 949 950 951 952 953 954 955 956 957 958 959 960 961 962 963 964 965 966 967 968 969 970 971 972 973 974 975 976 977 978 979 980 981 982 983 984 985 986 987 988 989 990 991 992 993 994 995 996 997 998 999 1000 1001 1002 1003 1004 1005 1006 1007 1008 1009 1010 1011 1012 1013 1014 1015 1016 1017 1018 1019 1020 1021 1022 1023 1024 1025 1026 1027 1028 1029 1030 1031 1032 1033 1034 1035 1036 1037 1038 1039 1040 1041 1042 1043 1044 1045 1046 1047 1048 1049 1050 1051 1052 1053 1054 1055 1056 1057 1058 1059 1060 1061 1062 1063 1064 1065 1066 1067 1068 1069 1070 1071 1072 1073 1074 1075 1076 1077 1078 1079 1080 1081 1082 1083 1084 1085 1086 1087 1088 1089 1090 1091 1092 1093 1094 1095 1096 1097 1098 1099 1100 1101 1102 1103 1104 1105 1106 1107 1108 1109 1110 1111 1112 1113 1114 1115 1116 1117 1118 1119 1120 1121 1122 1123 1124 1125 1126 1127 1128 1129 1130 1131 1132 1133 1134 1135 1136 1137 1138 1139 1140 1141 1142 1143 1144 1145 1146 1147 1148 1149 1150 1151 1152 1153 1154 1155 1156 1157 1158 1159 1160 1161 1162 1163 1164 1165 1166 1167 1168 1169 1170 1171 1172 1173 1174 1175 1176 1177 1178 1179 1180 1181 1182 1183 1184 1185 1186 1187 1188 1189 1190 1191 1192 1193 1194 1195 1196 1197 1198 1199 1200 1201 1202 1203 1204 1205 1206 1207 1208 1209 1210 1211 1212 1213 1214 1215 1216 1217 1218 1219 1220 1221 1222 1223 1224 1225 1226 1227 1228 1229 1230 1231 1232 1233 1234 1235 1236 1237 1238 1239 1240 1241 1242 1243 1244 1245 1246 1247 1248 1249 1250 1251 1252 1253 1254 1255 1256 1257 1258 1259 1260 1261 1262 1263 1264 1265 1266 1267 1268 1269 1270 1271 1272 1273 1274 1275 1276 1277 1278 1279 1280 1281 1282 1283 1284 1285 1286 1287 1288 1289 1290 1291 1292 1293 1294 1295 1296 1297 1298 1299 1300 1301 1302 1303 1304 1305 1306 1307 1308 1309 1310 1311 1312 1313 1314 1315 1316 1317 1318 1319 1320 1321 1322 1323 1324 1325 1326 1327 1328 1329 1330 1331 1332 1333 1334 1335 1336 1337 1338 1339 1340 1341 1342 1343 1344 1345 1346 1347 1348 1349 1350 1351 1352 1353 1354 1355 1356 1357 1358 1359 1360 1361 1362 1363 1364 1365 1366 1367 1368 1369 1370 1371 1372 1373 1374 1375 1376 1377 1378 1379 1380 1381 1382 1383 1384 1385 1386 1387 1388 1389 1390 1391 1392 1393 1394 1395 1396 1397 1398 1399 1400 1401 1402 1403 1404 1405 1406 1407 1408 1409 1410 1411 1412 1413 1414 1415 1416 1417 1418 1419 1420 1421 1422 1423 1424 1425 1426 1427 1428 1429 1430 1431 1432 1433 1434 1435 1436 1437 1438 1439 1440 1441 1442 1443 1444 1445 1446 1447 1448 1449 1450 1451 1452 1453 1454 1455 1456 1457 1458 1459 1460 1461 1462 1463 1464 1465 1466 1467 1468 1469 1470 1471 1472 1473 1474 1475 1476 1477 1478 1479 1480 1481 1482 1483 1484 1485 1486 1487 1488 1489 1490 1491 1492 1493 1494 1495 1496 1497 1498 1499 1500 1501 1502 1503 1504 1505 1506 1507 1508 1509 1510 1511 1512 1513 1514 1515 1516 1517 1518 1519 1520 1521 1522 1523 1524 1525 1526 1527 1528 1529 1530 1531 1532 1533 1534 1535 1536 1537 1538 1539 1540 1541 1542 1543 1544 1545 1546 1547 1548 1549 1550 1551 1552 1553 1554 1555 1556 1557 1558 1559 1560 1561 1562 1563 1564 1565 1566 1567 1568 1569 1570 1571 1572 1573 1574 1575 1576 1577 1578 1579 1580 1581 1582 1583 1584 1585 1586 1587 1588 1589 1590 1591 1592 1593 1594 1595 1596 1597 1598 1599 1600 1601 1602 1603 1604 1605 1606 1607 1608 1609 1610 1611 1612 1613 1614 1615 1616 1617 1618 1619 1620 1621 1622 1623 1624 1625 1626 1627 1628 1629 1630 1631 1632 1633 1634 1635 1636 1637 1638 1639 1640 1641 1642 1643 1644 1645 1646 1647 1648 1649 1650 1651 1652 1653 1654 1655 1656 1657 1658 1659 1660 1661 1662 1663 1664 1665 1666 1667 1668 1669 1670 1671 1672 1673 1674 1675 1676 1677 1678 1679 1680 1681 1682 1683 1684 1685 1686 1687 1688 1689 1690 1691 1692 1693 1694 1695 1696 1697 1698 1699 1700 1701 1702 1703 1704 1705 1706 1707 1708 1709 1710 1711 1712 1713 1714 1715 1716 1717 1718 1719 1720 1721 1722 1723 1724 1725 1726 1727 1728 1729 1730 1731 1732 1733 1734 1735 1736 1737 1738 1739 1740 1741 1742 1743 1744 1745 1746 1747 1748 1749 1750 1751 1752 1753 1754 1755 1756 1757 1758 1759 1760 1761 1762 1763 1764 1765 1766 1767 1768 1769 1770 1771 1772 1773 1774 1775 1776 1777 1778 1779 1780 1781 1782 1783 1784 1785 1786 1787 1788 1789 1790 1791 1792 1793 1794 1795 1796 1797 1798 1799 1800 1801 1802 1803 1804 1805 1806 1807 1808 1809 1810 1811 1812 1813 1814 1815 1816 1817 1818 1819 1820 1821 1822 1823 1824 1825 1826 1827 1828 1829 1830 1831 1832 1833 1834 1835 1836 1837 1838 1839 1840 1841 1842 1843 1844 1845 1846 1847 1848 1849 1850 1851 1852 1853 1854 1855 1856 1857 1858 1859 1860 1861 1862 1863 1864 1865 1866 1867 1868 1869 1870 1871 1872 1873 1874 1875 1876 1877 1878 1879 1880 1881 1882 1883 1884 1885 1886 1887 1888 1889 1890 1891 1892 1893 1894 1895 1896 1897 1898 1899 1900 1901 1902 1903 1904 1905 1906 1907 1908 1909 1910 1911 1912 1913 1914 1915 1916 1917 1918 1919 1920 1921 1922 1923 1924 1925 1926 1927 1928 1929 1930 1931 1932 1933 1934 1935 1936 1937 1938 1939 1940 1941 1942 1943 1944 1945 1946 1947 1948 1949 1950 1951 1952 1953 1954 1955 1956 1957 1958 1959 1960 1961 1962 1963 1964 1965 1966 1967 1968 1969 1970 1971 1972 1973 1974 1975 1976 1977 1978 1979 1980 1981 1982 1983 1984 1985 1986 1987 1988 1989 1990 1991 1992 1993 1994 1995 1996 1997 1998 1999 2000 2001 2002 2003 2004 2005 2006 2007 2008 2009 2010 2011 2012 2013 2014 2015 2016 2017 2018 2019 2020 2021 2022 2023 2024 2025 2026 2027 2028 2029 2030 2031 2032 2033 2034 2035 2036 2037 2038 2039 2040 2041 2042 2043 2044 2045 2046 2047 2048 2049 2050 2051 2052 2053 2054 2055 2056 2057 2058 2059 2060 2061 2062 2063 2064 2065 2066 2067 2068 2069 2070 2071 2072 2073 2074 2075 2076 2077 2078 2079 2080 2081 2082 2083 2084 2085 2086 2087 2088 2089 2090 2091 2092 2093 2094 2095 2096 2097 2098 2099 2100 2101 2102 2103 2104 2105 2106 2107 2108 2109 2110 2111 2112 2113 2114 2115 2116 2117 2118 2119 2120 2121 2122 2123 2124 2125 2126 2127 2128 2129 2130 2131 2132 2133 2134 2135 2136 2137 2138 2139 2140 2141 2142 2143 2144 2145 2146 2147 2148 2149 2150 2151 2152 2153 2154 2155 2156 2157 2158 2159 2160 2161 2162 2163 2164 2165 2166 2167 2168 2169 2170 2171 2172 2173 2174 2175 2176 2177 2178 2179 2180 2181 2182 2183 2184 2185 2186 2187 2188 2189 2190 2191 2192 2193 2194 2195 2196 2197 2198 2199 2200 2201 2202 2203 2204 2205 2206 2207 2208 2209 2210 2211 2212 2213 2214 2215 2216 2217 2218 2219 2220 2221 2222 2223 2224 2225 2226 2227 2228 2229 2230 2231 2232 2233 2234 2235 2236 2237 2238 2239 2240 2241 2242 2243 2244 2245 2246 2247 2248 2249 2250 2251 2252 2253 2254 2255 2256 2257 2258 2259 2260 2261 2262 2263 2264 2265 2266 2267 2268 2269 2270 2271 2272 2273 2274 2275 2276 2277 2278 2279 2280 2281 2282 2283 2284 2285 2286 2287 2288 2289 2290 2291 2292 2293 2294 2295 2296 2297 2298 2299 2300 2301 2302 2303 2304 2305 2306 2307 2308 2309 2310 2311 2312 2313 2314 2315 2316 2317 2318 2319 2320 2321 2322 2323 2324 2325 2326 2327 2328 2329 2330 2331 2332 2333 2334 2335 2336 2337 2338 2339 2340 2341 2342 2343 2344 2345 2346 2347 2348 2349 2350 2351 2352 2353 2354 2355 2356 2357 2358 2359 2360 2361 2362 2363 2364 2365 2366 2367 2368 2369 2370 2371 2372 2373 2374 2375 2376 2377 2378 2379 2380 2381 2382 2383 2384 2385 2386 2387 2388 2389 2390 2391 2392 2393 2394 2395 2396 2397 2398 2399 2400 2401 2402 2403 2404 2405 2406 2407 2408 2409 2410 2411 2412 2413 2414 2415 2416 2417 2418 2419 2420 2421 2422 2423 2424 2425 2426 2427 2428 2429 2430 2431 2432 2433 2434 2435 2436 2437 2438 2439 2440 2441 2442 2443 2444 2445 2446 2447 2448 2449 2450 2451 2452 2453 2454 2455 2456 2457 2458 2459 2460 2461 2462 2463 2464 2465 2466 2467 2468 2469 2470 2471 2472 2473 2474 2475 2476 2477 2478 2479 2480 2481 2482 2483 2484 2485 2486 2487 2488 2489 2490 2491 2492 2493 2494 2495 2496 2497 2498 2499 2500 2501 2502 2503 2504 2505 2506 2507 2508 2509 2510 2511 2512 2513 2514 2515 2516 2517 2518 2519 2520 2521 2522 2523 2524 2525 2526 2527 2528 2529 2530 2531 2532 2533 2534 2535 2536 2537 2538 2539 2540 2541 2542 2543 2544 2545 2546 2547 2548 2549 2550 2551 2552 2553 2554 2555 2556 2557 2558 2559 2560 2561 2562 2563 2564 2565 2566 2567 2568 2569 2570 2571 2572 2573 2574 2575 2576 2577 2578 2579 2580 2581 2582 2583 2584 2585 2586 2587 2588 2589 2590 2591 2592 2593 2594 2595 2596 2597 2598 2599 2600 2601 2602 2603 2604 2605 2606 2607 2608 2609 2610 2611 2612 2613 2614 2615 2616 2617 2618 2619 2620 2621 2622 2623 2624 2625 2626 2627 2628 2629 2630 2631 2632 2633 2634 2635 2636 2637 2638 2639 2640 2641 2642 2643 2644 2645 2646 2647 2648 2649 2650 2651 2652 2653 2654 2655 2656 2657 2658 2659 2660 2661 2662 2663 2664 2665 2666 2667 2668 2669 2670 2671 2672 2673 2674 2675 2676 2677 2678 2679 2680 2681 2682 2683 2684 2685 2686 2687 2688 2689 2690 2691 2692 2693 2694 2695 2696 2697 2698 2699 2700 2701 2702 2703 2704 2705 2706 2707 2708 2709 2710 2711 2712 2713 2714 2715 2716 2717 2718 2719 2720 2721 2722 2723 2724 2725 2726 2727 2728 2729 2730 2731 2732 2733 2734 2735 2736 2737 2738 2739 2740 2741 2742 2743 2744 2745 2746 2747 2748 2749 2750 2751 2752 2753 2754 2755 2756 2757 2758 2759 2760 2761 2762 2763 2764 2765 2766 2767 2768 2769 2770 2771 2772 2773 2774 2775 2776 2777 2778 2779 2780 2781 2782 2783 2784 2785 2786 2787 2788 2789 2790 2791 2792 2793 2794 2795 2796 2797 2798 2799 2800 2801 2802 2803 2804 2805 2806 2807 2808 2809 2810 2811 2812 2813 2814 2815 2816 2817 2818 2819 2820 2821 2822 2823 2824 2825 2826 2827 2828 2829 2830 2831 2832 2833 2834 2835 2836 2837 2838 2839 2840 2841 2842 2843 2844 2845 2846 2847 2848 2849 2850 2851 2852 2853 2854 2855 2856 2857 2858 2859 2860 2861 2862 2863 2864 2865 2866 2867 2868 2869 2870 2871 2872 2873 2874 2875 2876 2877 2878 2879 2880 2881 2882 2883 2884 2885 2886 2887 2888 2889 2890 2891 2892 2893 2894 2895 2896 2897 2898 2899 2900 2901 2902 2903 2904 2905 2906 2907 2908 2909 2910 2911 2912 2913 2914 2915 2916 2917 2918 2919 2920 2921 2922 2923 2924 2925 2926 2927 2928 2929 2930 2931 2932 2933 2934 2935 2936 2937 2938 2939 2940 2941 2942 2943 2944 2945 2946 2947 2948 2949 2950 2951 2952 2953 2954 2955 2956 2957 2958 2959 2960 2961 2962 2963 2964 2965 2966 2967 2968 2969 2970 2971 2972 2973 2974 2975 2976 2977 2978 2979 2980 2981 2982 2983 2984 2985 2986 2987 2988 2989 2990 2991 2992 2993 2994 2995 2996 2997 2998 2999 3000 3001 3002 3003 3004 3005 3006 3007 3008 3009 3010 3011 3012 3013 3014 3015 3016 3017 3018 3019 3020 3021 3022 3023 3024 3025 3026 3027 3028 3029 3030 3031 3032 3033 3034 3035 3036 3037 3038 3039 3040 3041 3042 3043 3044 3045 3046 3047 3048 3049 3050 3051 3052 3053 3054 3055 3056 3057 3058 3059 3060 3061 3062 3063 3064 3065 3066 3067 3068 3069 3070 3071 3072 3073 3074 3075 3076 3077 3078 3079 3080 3081 3082 3083 3084 3085 3086 3087 3088 3089 3090 3091 3092 3093 3094 3095 3096 3097 3098 3099 3100 3101 3102 3103 3104 3105 3106 3107 3108 3109 3110 3111 3112 3113 3114 3115 3116 3117 3118 3119 3120 3121 3122 3123 3124 3125 3126 3127 3128 3129 3130 3131 3132 3133 3134 3135 3136 3137 3138 3139 3140 3141 3142 3143 3144 3145 3146 3147 3148 3149 3150 3151 3152 3153 3154 3155 3156 3157 3158 3159 3160 3161 3162 3163 3164 3165 3166 3167 3168 3169 3170 3171 3172 3173 3174 3175 3176 3177 3178 3179 3180 3181 3182 3183 3184 3185 3186 3187 3188 3189 3190 3191 3192 3193 3194 3195 3196 3197 3198 3199 3200 3201 3202 3203 3204 3205 3206 3207 3208 3209 3210 3211 3212 3213 3214 3215 3216 3217 3218 3219 3220 3221 3222 3223 3224 3225 3226 3227 3228 3229 3230 3231 3232 3233 3234 3235 3236 3237 3238 3239 3240 3241 3242 3243 3244 3245 3246 3247 3248 3249 3250 3251 3252 3253 3254 3255 3256 3257 3258 3259 3260 3261 3262 3263 3264 3265 3266 3267 3268 3269 3270 3271 3272 3273 3274 3275 3276 3277 3278 3279 3280 3281 3282 3283 3284 3285 3286 3287 3288 3289 3290 3291 3292 3293 3294 3295 3296 3297 3298 3299 3300 3301 3302 3303 3304 3305 3306 3307 3308 3309 3310 3311 3312 3313 3314 3315 3316 3317 3318 3319 3320 3321 3322 3323 3324 3325 3326 3327 3328 3329 3330 3331 3332 3333 3334 3335 3336 3337 3338 3339 3340 3341 3342 3343 3344 3345 3346 3347 3348 3349 3350 3351 3352 3353 3354 3355 3356 3357 3358 3359 3360 3361 3362 3363 3364 3365 3366 3367 3368 3369 3370 3371 3372 3373 3374 3375 3376 3377 3378 3379 3380 3381 3382 3383 3384 3385 3386 3387 3388 3389 3390 3391 3392 3393 3394 3395 3396 3397 3398 3399 3400 3401 3402 3403 3404 3405 3406 3407 3408 3409 3410 3411 3412 3413 3414 3415 3416 3417 3418 3419 3420 3421 3422 3423 3424 3425 3426 3427 3428 3429 3430 3431 3432 3433 3434 3435 3436 3437 3438 3439 3440 3441 3442 3443 3444 3445 3446 3447 3448 3449 3450 3451 3452 3453 3454 3455 3456 3457 3458 3459 3460 3461 3462 3463 3464 3465 3466 3467 3468 3469 3470 3471 3472 3473 3474 3475 3476 3477 3478 3479 3480 3481 3482 3483 3484 3485 3486 3487 3488 3489 3490 3491 3492 3493 3494 3495 3496 3497 3498 3499 3500 3501 3502 3503 3504 3505 3506 3507 3508 3509 3510 3511 3512 3513 3514 3515 3516 3517 3518 3519 3520 3521 3522 3523 3524 3525 3526 3527 3528 3529 3530 3531 3532 3533 3534 3535 3536 3537 3538 3539 3540 3541 3542 3543 3544 3545 3546 3547 3548 3549 3550 3551 3552 3553 3554 3555 3556 3557 3558 3559 3560 3561 3562 3563 3564 3565 3566 3567 3568 3569 3570 3571 3572 3573 3574 3575 3576 3577 3578 3579 3580 3581 3582 3583 3584 3585 3586 3587 3588 3589 3590 3591 3592 3593 3594 3595 3596 3597 3598 3599 3600 3601 3602 3603 3604 3605 3606 3607 3608 3609 3610 3611 3612 3613 3614 3615 3616 3617 3618 3619 3620 3621 3622 3623 3624 3625 3626 3627 3628 3629 3630 3631 3632 3633 3634 3635 3636 3637 3638 3639 3640 3641 3642 3643 3644 3645 3646 3647 3648 3649 3650 3651 3652 3653 3654 3655 3656 3657 3658 3659 3660 3661 3662 3663 3664 3665 3666 3667 3668 3669 3670 3671 3672 3673 3674 3675 3676 3677 3678 3679 3680 3681 3682 3683 3684 3685 3686 3687 3688 3689 3690 3691 3692 3693 3694 3695 3696 3697 3698 3699 3700 3701 3702 3703 3704 3705 3706 3707 3708 3709 3710 3711 3712 3713 3714 3715 3716 3717 3718 3719 3720 3721 3722 3723 3724 3725 3726 3727 3728 3729 3730 3731 3732 3733 3734 3735 3736 3737 3738 3739 3740 3741 3742 3743 3744 3745 3746 3747 3748 3749 3750 3751 3752 3753 3754 3755 3756 3757 3758 3759 3760 3761 3762 3763 3764 3765 3766 3767 3768 3769 3770 3771 3772 3773 3774 3775 3776 3777 3778 3779 3780 3781 3782 3783 3784 3785 3786 3787 3788 3789 3790 3791 3792 3793 3794 3795 3796 3797 3798 3799 3800 3801 3802 3803 3804 3805 3806 3807 3808 3809 3810 3811 3812 3813 3814 3815 3816 3817 3818 3819 3820 3821 3822 3823 3824 3825 3826 3827 3828 3829 3830 3831 3832 3833 3834 3835 3836 3837 3838 3839 3840 3841 3842 3843 3844 3845 3846 3847 3848 3849 3850 3851 3852 3853 3854 3855 3856 3857 3858 3859 3860 3861 3862 3863 3864 3865 3866 3867 3868 3869 3870 3871 3872 3873 3874 3875 3876 3877 3878 3879 3880 3881 3882 3883 3884 3885 3886 3887 3888 3889 3890 3891 3892 3893 3894 3895 3896 3897 3898 3899 3900 3901 3902 3903 3904 3905 3906 3907 3908 3909 3910 3911 3912 3913 3914 3915 3916 3917 3918 3919 3920 3921 3922 3923 3924 3925 3926 3927 3928 3929 3930 3931 3932 3933 3934 3935 3936 3937 3938 3939 3940 3941 3942 3943 3944 3945 3946 3947 3948 3949 3950 3951 3952 3953 3954 3955 3956 3957 3958 3959 3960 3961 3962 3963 3964 3965 3966 3967 3968 3969 3970 3971 3972 3973 3974 3975 3976 3977 3978 3979 3980 3981 3982 3983 3984 3985 3986 3987 3988 3989 3990 3991 3992 3993 3994 3995 3996 3997 3998 3999 4000 4001 4002 4003 4004 4005 4006 4007 4008 4009 4010 4011 4012 4013 4014 4015 4016 4017 4018 4019 4020 4021 4022 4023 4024 4025 4026 4027 4028 4029 4030 4031 4032 4033 4034 4035 4036 4037 4038 4039 4040 4041 4042 4043 4044 4045 4046 4047 4048 4049 4050 4051 4052 4053 4054 4055 4056 4057 4058 4059 4060 4061 4062 4063 4064 4065 4066 4067 4068 4069 4070 4071 4072 4073 4074 4075 4076 4077 4078 4079 4080 4081 4082 4083 4084 4085 4086 4087 4088 4089 4090 4091 4092 4093 4094 4095 4096 4097 4098 4099 4100 4101 4102 4103 4104 4105 4106 4107 4108 4109 4110 4111 4112 4113 4114 4115 4116 4117 4118 4119 4120 4121 4122 4123 4124 4125 4126 4127 4128 4129 4130 4131 4132 4133 4134 4135 4136 4137 4138 4139 4140 4141 4142 4143 4144 4145 4146 4147 4148 4149 4150 4151 4152 4153 4154 4155 4156 4157 4158 4159 4160 4161 4162 4163 4164 4165 4166 4167 4168 4169 4170 4171 4172 4173 4174 4175 4176 4177 4178 4179 4180 4181 4182 4183 4184 4185 4186 4187 4188 4189 4190 4191 4192 4193 4194 4195 4196 4197 4198 4199 4200 4201 4202 4203 4204 4205 4206 4207 4208 4209 4210 4211 4212 4213 4214 4215 4216 4217 4218 4219 4220 4221 4222 4223 4224 4225 4226 4227 4228 4229 4230 4231 4232 4233 4234 4235 4236 4237 4238 4239 4240 4241 4242 4243 4244 4245 4246 4247 4248 4249 4250 4251 4252 4253 4254 4255 4256 4257 4258 4259 4260 4261 4262 4263 4264 4265 4266 4267 4268 4269 4270 4271 4272 4273 4274 4275 4276 4277 4278 4279 4280 4281 4282 4283 4284 4285 4286 4287 4288 4289 4290 4291 4292 4293 4294 4295 4296 4297 4298 4299 4300 4301 4302 4303 4304 4305 4306 4307 4308 4309 4310 4311 4312 4313 4314 4315 4316 4317 4318 4319 4320 4321 4322 4323 4324 4325 4326 4327 4328 4329 4330 4331 4332 4333 4334 4335 4336 4337 4338 4339 4340 4341 4342 4343 4344 4345 4346 4347 4348 4349 4350 4351 4352 4353 4354 4355 4356 4357 4358 4359 4360 4361 4362 4363 4364 4365 4366 4367 4368 4369 4370 4371 4372 4373 4374 4375 4376 4377 4378 4379 4380 4381 4382 4383 4384 4385 4386 4387 4388 4389 4390 4391 4392 4393 4394 4395 4396 4397 4398 4399 4400 4401 4402 4403 4404 4405 4406 4407 4408 4409 4410 4411 4412 4413 4414 4415 4416 4417 4418 4419 4420 4421 4422 4423 4424 4425 4426 4427 4428 4429 4430 4431 4432 4433 4434 4435 4436 4437 4438 4439 4440 4441 4442 4443 4444 4445 4446 4447 4448 4449 4450 4451 4452 4453 4454 4455 4456 4457 4458 4459 4460 4461 4462 4463 4464 4465 4466 4467 4468 4469 4470 4471 4472 4473 4474 4475 4476 4477 4478 4479 4480 4481 4482 4483 4484 4485 4486 4487 4488 4489 4490 4491 4492 4493 4494 4495 4496 4497 4498 4499 4500 4501 4502 4503 4504 4505 4506 4507 4508 4509 4510 4511 4512 4513 4514 4515 4516 4517 4518 4519 4520 4521 4522 4523 4524 4525 4526 4527 4528 4529 4530 4531 4532 4533 4534 4535 4536 4537 4538 4539 4540 4541 4542 4543 4544 4545 4546 4547 4548 4549 4550 4551 4552 4553 4554 4555 4556 4557 4558 4559 4560 4561 4562 4563 4564 4565 4566 4567 4568 4569 4570 4571 4572 4573 4574 4575 4576 4577 4578 4579 4580 4581 4582 4583 4584 4585 4586 4587 4588 4589 4590 4591 4592 4593 4594 4595 4596 4597 4598 4599 4600 4601 4602 4603 4604 4605 4606 4607 4608 4609 4610 4611 4612 4613 4614 4615 4616 4617 4618 4619 4620 4621 4622 4623 4624 4625 4626 4627 4628 4629 4630 4631 4632 4633 4634 4635 4636 4637 4638 4639 4640 4641 4642 4643 4644 4645 4646 4647 4648 4649 4650 4651 4652 4653 4654 4655 4656 4657 4658 4659 4660 4661 4662 4663 4664 4665 4666 4667 4668 4669 4670 4671 4672 4673 4674 4675 4676 4677 4678 4679 4680 4681 4682 4683 4684 4685 4686 4687 4688 4689 4690 4691 4692 4693 4694 4695 4696 4697 4698 4699 4700 4701 4702 4703 4704 4705 4706 4707 4708 4709 4710 4711 4712 4713 4714 4715 4716 4717 4718 4719 4720 4721 4722 4723 4724 4725 4726 4727 4728 4729 4730 4731 4732 4733 4734 4735 4736 4737 4738 4739 4740 4741 4742 4743 4744 4745 4746 4747 4748 4749 4750 4751 4752 4753 4754 4755 4756 4757 4758 4759 4760 4761 4762 4763 4764 4765 4766 4767 4768 4769 4770 4771 4772 4773 4774 4775 4776 4777 4778 4779 4780 4781 4782 4783 4784 4785 4786 4787 4788 4789 4790 4791 4792 4793 4794 4795 4796 4797 4798 4799 4800 4801 4802 4803 4804 4805 4806 4807 4808 4809 4810 4811 4812 4813 4814 4815 4816 4817 4818 4819 4820 4821 4822 4823 4824 4825 4826 4827 4828 4829 4830 4831 4832 4833 4834 4835 4836 4837 4838 4839 4840 4841 4842 4843 4844 4845 4846 4847 4848 4849 4850 4851 4852 4853 4854 4855 4856 4857 4858 4859 4860 4861 4862 4863 4864 4865 4866 4867 4868 4869 4870 4871 4872 4873 4874 4875 4876 4877 4878 4879 4880 4881 4882 4883 4884 4885 4886 4887 4888 4889 4890 4891 4892 4893 4894 4895 4896 4897 4898 4899 4900 4901 4902 4903 4904 4905 4906 4907 4908 4909 4910 4911 4912 4913 4914 4915 4916 4917 4918 4919 4920 4921 4922 4923 4924 4925 4926 4927 4928 4929 4930 4931 4932 4933 4934 4935 4936 4937 4938 4939 4940 4941 4942 4943 4944 4945 4946 4947 4948 4949 4950 4951 4952 4953 4954 4955 4956 4957 4958 4959 4960 4961 4962 4963 4964 4965 4966 4967 4968 4969 4970 4971 4972 4973 4974 4975 4976 4977 4978 4979 4980 4981 4982 4983 4984 4985 4986 4987 4988 4989 4990 4991 4992 4993 4994 4995 4996 4997 4998 4999 5000 5001 5002 5003 5004 5005 5006 5007 5008 5009 5010 5011 5012 5013 5014 5015 5016 5017 5018 5019 5020 5021 5022 5023 5024 5025 5026 5027 5028 5029 5030 5031 5032 5033 5034 5035 5036 5037 5038 5039 5040 5041 5042 5043 5044 5045 5046 5047 5048 5049 5050 5051 5052 5053 5054 5055 5056 5057 5058 5059 5060 5061 5062 5063 5064 5065 5066 5067 5068 5069 5070 5071 5072 5073 5074 5075 5076 5077 5078 5079 5080 5081 5082 5083 5084 5085 5086 5087 5088 5089 5090 5091 5092 5093 5094 5095 5096 5097 5098 5099 5100 5101 5102 5103 5104 5105 5106 5107 5108 5109 5110 5111 5112 5113 5114 5115 5116 5117 5118 5119 5120 5121 5122 5123 5124 5125 5126 5127 5128 5129 5130 5131 5132 5133 5134 5135 5136 5137 5138 5139 5140 5141 5142 5143 5144 5145 5146 5147 5148 5149 5150 5151 5152 5153 5154 5155 5156 5157 5158 5159 5160 5161 5162 5163 5164 5165 5166 5167 5168 5169 5170 5171 5172 5173 5174 5175 5176 5177 5178 5179 5180 5181 5182 5183 5184 5185 5186 5187 5188 5189 5190 5191 5192 5193 5194 5195 5196 5197 5198 5199 5200 5201 5202 5203 5204 5205 5206 5207 5208 5209 5210 5211 5212 5213 5214 5215 5216 5217 5218 5219 5220 5221 5222 5223 5224 5225 5226 5227 5228 5229 5230 5231 5232 5233 5234 5235 5236 5237 5238 5239 5240 5241 5242 5243 5244 5245 5246 5247 5248 5249 5250 5251 5252 5253 5254 5255 5256 5257 5258 5259 5260 5261 5262 5263 5264 5265 5266 5267 5268 5269 5270 5271 5272 5273 5274 5275 5276 5277 5278 5279 5280 5281 5282 5283 5284 5285 5286 5287 5288 5289 5290 5291 5292 5293 5294 5295 5296 5297 5298 5299 5300 5301 5302 5303 5304 5305 5306 5307 5308 5309 5310 5311 5312 5313 5314 5315 5316 5317 5318 5319 5320 5321 5322 5323 5324 5325 5326 5327 5328 5329 5330 5331 5332 5333 5334 5335 5336 5337 5338 5339 5340 5341 5342 5343 5344 5345 5346 5347 5348 5349 5350 5351 5352 5353 5354 5355 5356 5357 5358 5359 5360 5361 5362 5363 5364 5365 5366 5367 5368 5369 5370 5371 5372 5373 5374 5375 5376 5377 5378 5379 5380 5381 5382 5383 5384 5385 5386 5387 5388 5389 5390 5391 5392 5393 5394 5395 5396 5397 5398 5399 5400 5401 5402 5403 5404 5405 5406 5407 5408 5409 5410 5411 5412 5413 5414 5415 5416 5417 5418 5419 5420 5421 5422 5423 5424 5425 5426 5427 5428 5429 5430 5431 5432 5433 5434 5435 5436 5437 5438 5439 5440 5441 5442 5443 5444 5445 5446 5447 5448 5449 5450 5451 5452 5453 5454 5455 5456 5457 5458 5459 5460 5461 5462 5463 5464 5465 5466 5467 5468 5469 5470 5471 5472 5473 5474 5475 5476 5477 5478 5479 5480 5481 5482 5483 5484 5485 5486 5487 5488 5489 5490 5491 5492 5493 5494 5495 5496 5497 5498 5499 5500 5501 5502 5503 5504 5505 5506 5507 5508 5509 5510 5511 5512 5513 5514 5515 5516 5517 5518 5519 5520 5521 5522 5523 5524 5525 5526 5527 5528 5529 5530 5531 5532 5533 5534 5535 5536 5537 5538 5539 5540 5541 5542 5543 5544 5545 5546 5547 5548 5549 5550 5551 5552 5553 5554 5555 5556 5557 5558 5559 5560 5561 5562 5563 5564 5565 5566 5567 5568 5569 5570 5571 5572 5573 5574 5575 5576 5577 5578 5579 5580 5581 5582 5583 5584 5585 5586 5587 5588 5589 5590 5591 5592 5593 5594 5595 5596 5597 5598 5599 5600 5601 5602 5603 5604 5605 5606 5607 5608 5609 5610 5611 5612 5613 5614 5615 5616 5617 5618 5619 5620 5621 5622 5623 5624 5625 5626 5627 5628 5629 5630 5631 5632 5633 5634 5635 5636 5637 5638 5639 5640 5641 5642 5643 5644 5645 5646 5647 5648 5649 5650 5651 5652 5653 5654 5655 5656 5657 5658 5659 5660 5661 5662 5663 5664 5665 5666 5667 5668 5669 5670 5671 5672 5673 5674 5675 5676 5677 5678 5679 5680 5681 5682 5683 5684 5685 5686 5687 5688 5689 5690 5691 5692 5693 5694 5695 5696 5697 5698 5699 5700 5701 5702 5703 5704 5705 5706 5707 5708 5709 5710 5711 5712 5713 5714 5715 5716 5717 5718 5719 5720 5721 5722 5723 5724 5725 5726 5727 5728 5729 5730 5731 5732 5733 5734 5735 5736 5737 5738 5739 5740 5741 5742 5743 5744 5745 5746 5747 5748 5749 5750 5751 5752 5753 5754 5755 5756 5757 5758 5759 5760 5761 5762 5763 5764 5765 5766 5767 5768 5769 5770 5771 5772 5773 5774 5775 5776 5777 5778 5779 5780 5781 5782 5783 5784 5785 5786 5787 5788 5789 5790 5791 5792 5793 5794 5795 5796 5797 5798 5799 5800 5801 5802 5803 5804 5805 5806 5807 5808 5809 5810 5811 5812 5813 5814 5815 5816 5817 5818 5819 5820 5821 5822 5823 5824 5825 5826 5827 5828 5829 5830 5831 5832 5833 5834 5835 5836 5837 5838 5839 5840 5841 5842 5843 5844 5845 5846 5847 5848 5849 5850 5851 5852 5853 5854 5855 5856 5857 5858 5859 5860 5861 5862 5863 5864 5865 5866 5867 5868 5869 5870 5871 5872 5873 5874 5875 5876 5877 5878 5879 5880 5881 5882 5883 5884 5885 5886 5887 5888 5889 5890 5891 5892 5893 5894 5895 5896 5897 5898 5899 5900 5901 5902 5903 5904 5905 5906 5907 5908 5909 5910 5911 5912 5913 5914 5915 5916 5917 5918 5919 5920 5921 5922 5923 5924 5925 5926 5927 5928 5929 5930 5931 5932 5933 5934 5935 5936 5937 5938 5939 5940 5941 5942 5943 5944 5945 5946 5947 5948 5949 5950 5951 5952 5953 5954 5955 5956 5957 5958 5959 5960 5961 5962 5963 5964 5965 5966 5967 5968 5969 5970 5971 5972 5973 5974 5975 5976 5977 5978 5979 5980 5981 5982 5983 5984 5985 5986 5987 5988 5989 5990 5991 5992 5993 5994 5995 5996 5997 5998 5999 6000 6001 6002 6003 6004 6005 6006 6007 6008 6009 6010 6011 6012 6013 6014 6015 6016 6017 6018 6019 6020 6021 6022 6023 6024 6025 6026 6027 6028 6029 6030 6031 6032 6033 6034 6035 6036 6037 6038 6039 6040 6041 6042 6043 6044 6045 6046 6047 6048 6049 6050 6051 6052 6053 6054 6055 6056 6057 6058 6059 6060 6061 6062 6063 6064 6065 6066 6067 6068 6069 6070 6071 6072 6073 6074 6075 6076 6077 6078 6079 6080 6081 6082 6083 6084 6085 6086 6087 6088 6089 6090 6091 6092 6093 6094 6095 6096 6097 6098 6099 6100 6101 6102 6103 6104 6105 6106 6107 6108 6109 6110 6111 6112 6113 6114 6115 6116 6117 6118 6119 6120 6121 6122 6123 6124 6125 6126 6127 6128 6129 6130 6131 6132 6133 6134 6135 6136 6137 6138 6139 6140 6141 6142 6143 6144 6145 6146 6147 6148 6149 6150 6151 6152 6153 6154 6155 6156 6157 6158 6159 6160 6161 6162 6163 6164 6165 6166 6167 6168 6169 6170 6171 6172 6173 6174 6175 6176 6177 6178 6179 6180 6181 6182 6183 6184 6185 6186 6187 6188 6189 6190 6191 6192 6193 6194 6195 6196 6197 6198 6199 6200 6201 6202 6203 6204 6205 6206 6207 6208 6209 6210 6211 6212 6213 6214 6215 6216 6217 6218 6219 6220 6221 6222 6223 6224 6225 6226 6227 6228 6229 6230 6231 6232 6233 6234 6235 6236 6237 6238 6239 6240 6241 6242 6243 6244 6245 6246 6247 6248 6249 6250 6251 6252 6253 6254 6255 6256 6257 6258 6259 6260 6261 6262 6263 6264 6265 6266 6267 6268 6269 6270 6271 6272 6273 6274 6275 6276 6277 6278 6279 6280 6281 6282 6283 6284 6285 6286 6287 6288 6289 6290 6291 6292 6293 6294 6295 6296 6297 6298 6299 6300 6301 6302 6303 6304 6305 6306 6307 6308 6309 6310 6311 6312 6313 6314 6315 6316 6317 6318 6319 6320 6321 6322 6323 6324 6325 6326 6327 6328 6329 6330 6331 6332 6333 6334 6335 6336 6337 6338 6339 6340 6341 6342 6343 6344 6345 6346 6347 6348 6349 6350 6351 6352 6353 6354 6355 6356 6357 6358 6359 6360 6361 6362 6363 6364 6365 6366 6367 6368 6369 6370 6371 6372 6373 6374 6375 6376 6377 6378 6379 6380 6381 6382 6383 6384 6385 6386 6387 6388 6389 6390 6391 6392 6393 6394 6395 6396 6397 6398 6399 6400 6401 6402 6403 6404 6405 6406 6407 6408 6409 6410 6411 6412 6413 6414 6415 6416 6417 6418 6419 6420 6421 6422 6423 6424 6425 6426 6427 6428 6429 6430 6431 6432 6433 6434 6435 6436 6437 6438 6439 6440 6441 6442 6443 6444 6445 6446 6447 6448 6449 6450 6451 6452 6453 6454 6455 6456 6457 6458 6459 6460 6461 6462 6463 6464 6465 6466 6467 6468 6469 6470 6471 6472 6473 6474 6475 6476 6477 6478 6479 6480 6481 6482 6483 6484 6485 6486 6487 6488 6489 6490 6491 6492 6493 6494 6495 6496 6497 6498 6499 6500 6501 6502 6503 6504 6505 6506 6507 6508 6509 6510 6511 6512 6513 6514 6515 6516 6517 6518 6519 6520 6521 6522 6523 6524 6525 6526 6527 6528 6529 6530 6531 6532 6533 6534 6535 6536 6537 6538 6539 6540 6541 6542 6543 6544 6545 6546 6547 6548 6549 6550 6551 6552 6553 6554 6555 6556 6557 6558 6559 6560 6561 6562 6563 6564 6565 6566 6567 6568 6569 6570 6571 6572 6573 6574 6575 6576 6577 6578 6579 6580 6581 6582 6583 6584 6585 6586 6587 6588 6589 6590 6591 6592 6593 6594 6595 6596 6597 6598 6599 6600 6601 6602 6603 6604 6605 6606 6607 6608 6609 6610 6611 6612 6613 6614 6615 6616 6617 6618 6619 6620 6621 6622 6623 6624 6625 6626 6627 6628 6629 6630 6631 6632 6633 6634 6635 6636 6637 6638 6639 6640 6641 6642 6643 6644 6645 6646 6647 6648 6649 6650 6651 6652 6653 6654 6655 6656 6657 6658 6659 6660 6661 6662 6663 6664 6665 6666 6667 6668 6669 6670 6671 6672 6673 6674 6675 6676 6677 6678 6679 6680 6681 6682 6683 6684 6685 6686 6687 6688 6689 6690 6691 6692 6693 6694 6695 6696 6697 6698 6699 6700 6701 6702 6703 6704 6705 6706 6707 6708 6709 6710 6711 6712 6713 6714 6715 6716 6717 6718 6719 6720 6721 6722 6723 6724 6725 6726 6727 6728 6729 6730 6731 6732 6733 6734 6735 6736 6737 6738 6739 6740 6741 6742 6743 6744 6745 6746 6747 6748 6749 6750 6751 6752 6753 6754 6755 6756 6757 6758 6759 6760 6761 6762 6763 6764 6765 6766 6767 6768 6769 6770 6771 6772 6773 6774 6775 6776 6777 6778 6779 6780 6781 6782 6783 6784 6785 6786 6787 6788 6789 6790 6791 6792 6793 6794 6795 6796 6797 6798 6799 6800 6801 6802 6803 6804 6805 6806 6807 6808 6809 6810 6811 6812 6813 6814 6815 6816 6817 6818 6819 6820 6821 6822 6823 6824 6825 6826 6827 6828 6829 6830 6831 6832 6833 6834 6835 6836 6837 6838 6839 6840 6841 6842 6843 6844 6845 6846 6847 6848 6849 6850 6851 6852 6853 6854 6855 6856 6857 6858 6859 6860 6861 6862 6863 6864 6865 6866 6867 6868 6869 6870 6871 6872 6873 6874 6875 6876 6877 6878 6879 6880 6881 6882 6883 6884 6885 6886 6887 6888 6889 6890 6891 6892 6893 6894 6895 6896 6897 6898 6899 6900 6901 6902 6903 6904 6905 6906 6907 6908 6909 6910 6911 6912 6913 6914 6915 6916 6917 6918 6919 6920 6921 6922 6923 6924 6925 6926 6927 6928 6929 6930 6931 6932 6933 6934 6935 6936 6937 6938 6939 6940 6941 6942 6943 6944 6945 6946 6947 6948 6949 6950 6951 6952 6953 6954 6955 6956 6957 6958 6959 6960 6961 6962 6963 6964 6965 6966 6967 6968 6969 6970 6971 6972 6973 6974 6975 6976 6977 6978 6979 6980 6981 6982 6983 6984 6985 6986 6987 6988 6989 6990 6991 6992 6993 6994 6995 6996 6997 6998 6999 7000 7001 7002 7003 7004 7005 7006 7007 7008 7009 7010 7011 7012 7013 7014 7015 7016 7017 7018 7019 7020 7021 7022 7023 7024 7025 7026 7027 7028 7029 7030 7031 7032 7033 7034 7035 7036 7037 7038 7039 7040 7041 7042 7043 7044 7045 7046 7047 7048 7049 7050 7051 7052 7053 7054 7055 7056 7057 7058 7059 7060 7061 7062 7063 7064 7065 7066 7067 7068 7069 7070 7071 7072 7073 7074 7075 7076 7077 7078 7079 7080 7081 7082 7083 7084 7085 7086 7087 7088 7089 7090 7091 7092 7093 7094 7095 7096 7097 7098 7099 7100 7101 7102 7103 7104 7105 7106 7107 7108 7109 7110 7111 7112 7113 7114 7115 7116 7117 7118 7119 7120 7121 7122 7123 7124 7125 7126 7127 7128 7129 7130 7131 7132 7133 7134 7135 7136 7137 7138 7139 7140 7141 7142 7143 7144 7145 7146 7147 7148 7149 7150 7151 7152 7153 7154 7155 7156 7157 7158 7159 7160 7161 7162 7163 7164 7165 7166 7167 7168 7169 7170 7171 7172 7173 7174 7175 7176 7177 7178 7179 7180 7181 7182 7183 7184 7185 7186 7187 7188 7189 7190 7191 7192 7193 7194 7195 7196 7197 7198 7199 7200 7201 7202 7203 7204 7205 7206 7207 7208 7209 7210 7211 7212 7213 7214 7215 7216 7217 7218 7219 7220 7221 7222 7223 7224 7225 7226 7227 7228 7229 7230 7231 7232 7233 7234 7235 7236 7237 7238 7239 7240 7241 7242 7243 7244 7245 7246 7247 7248 7249 7250 7251 7252 7253 7254 7255 7256 7257 7258 7259 7260 7261 7262 7263 7264 7265 7266 7267 7268 7269 7270 7271 7272 7273 7274 7275 7276 7277 7278 7279 7280 7281 7282 7283 7284 7285 7286 7287 7288 7289 7290 7291 7292 7293 7294 7295 7296 7297 7298 7299 7300 7301 7302 7303 7304 7305 7306 7307 7308 7309 7310 7311 7312 7313 7314 7315 7316 7317 7318 7319 7320 7321 7322 7323 7324 7325 7326 7327 7328 7329 7330 7331 7332 7333 7334 7335 7336 7337 7338 7339 7340 7341 7342 7343 7344 7345 7346 7347 7348 7349 7350 7351 7352 7353 7354 7355 7356 7357 7358 7359 7360 7361 7362 7363 7364 7365 7366 7367 7368 7369 7370 7371 7372 7373 7374 7375 7376 7377 7378 7379 7380 7381 7382 7383 7384 7385 7386 7387 7388 7389 7390 7391 7392 7393 7394 7395 7396 7397 7398 7399 7400 7401 7402 7403 7404 7405 7406 7407 7408 7409 7410 7411 7412 7413 7414 7415 7416 7417 7418 7419 7420 7421 7422 7423 7424 7425 7426 7427 7428 7429 7430 7431 7432 7433 7434 7435 7436 7437 7438 7439 7440 7441 7442 7443 7444 7445 7446 7447 7448 7449 7450 7451 7452 7453 7454 7455 7456 7457 7458 7459 7460 7461 7462 7463 7464 7465 7466 7467 7468 7469 7470 7471 7472 7473 7474 7475 7476 7477 7478 7479 7480 7481 7482 7483 7484 7485 7486 7487 7488 7489 7490 7491 7492 7493 7494 7495 7496 7497 7498 7499 7500 7501 7502 7503 7504 7505 7506 7507 7508 7509 7510 7511 7512 7513 7514 7515 7516 7517 7518 7519 7520 7521 7522 7523 7524 7525 7526 7527 7528 7529 7530 7531 7532 7533 7534 7535 7536 7537 7538 7539 7540 7541 7542 7543 7544 7545 7546 7547 7548 7549 7550 7551 7552 7553 7554 7555 7556 7557 7558 7559 7560 7561 7562 7563 7564 7565 7566 7567 7568 7569 7570 7571 7572 7573 7574 7575 7576 7577 7578 7579 7580 7581 7582 7583 7584 7585 7586 7587 7588 7589 7590 7591 7592 7593 7594 7595 7596 7597 7598 7599 7600 7601 7602 7603 7604 7605 7606 7607 7608 7609 7610 7611 7612 7613 7614 7615 7616 7617 7618 7619 7620 7621 7622 7623 7624 7625 7626 7627 7628 7629 7630 7631 7632 7633 7634 7635 7636 7637 7638 7639 7640 7641 7642 7643 7644 7645 7646 7647 7648 7649 7650 7651 7652 7653 7654 7655 7656 7657 7658 7659 7660 7661 7662 7663 7664 7665 7666 7667 7668 7669 7670 7671 7672 7673 7674 7675 7676 7677 7678 7679 7680 7681 7682 7683 7684 7685 7686 7687 7688 7689 7690 7691 7692 7693 7694 7695 7696 7697 7698 7699 7700 7701 7702 7703 7704 7705 7706 7707 7708 7709 7710 7711 7712 7713 7714 7715 7716 7717 7718 7719 7720 7721 7722 7723 7724 7725 7726 7727 7728 7729 7730 7731 7732 7733 7734 7735 7736 7737 7738 7739 7740 7741 7742 7743 7744 7745 7746 7747 7748 7749 7750 7751 7752 7753 7754 7755 7756 7757 7758 7759 7760 7761 7762 7763 7764 7765 7766 7767 7768 7769 7770 7771 7772 7773 7774 7775 7776 7777 7778 7779 7780 7781 7782 7783 7784 7785 7786 7787 7788 7789 7790 7791 7792 7793 7794 7795 7796 7797 7798 7799 7800 7801 7802 7803 7804 7805 7806 7807 7808 7809 7810 7811 7812 7813 7814 7815 7816 7817 7818 7819 7820 7821 7822 7823 7824 7825 7826 7827 7828 7829 7830 7831 7832 7833 7834 7835 7836 7837 7838 7839 7840 7841 7842 7843 7844 7845 7846 7847 7848 7849 7850 7851 7852 7853 7854 7855 7856 7857 7858 7859 7860 7861 7862 7863 7864 7865 7866 7867 7868 7869 7870 7871 7872 7873 7874 7875 7876 7877 7878 7879 7880 7881 7882 7883 7884 7885 7886 7887 7888 7889 7890 7891 7892 7893 7894 7895 7896 7897 7898 7899 7900 7901 7902 7903 7904 7905 7906 7907 7908 7909 7910 7911 7912 7913 7914 7915 7916 7917 7918 7919 7920 7921 7922 7923 7924 7925 7926 7927 7928 7929 7930 7931 7932 7933 7934 7935 7936 7937 7938 7939 7940 7941 7942 7943 7944 7945 7946 7947 7948 7949 7950 7951 7952 7953 7954 7955 7956 7957 7958 7959 7960 7961 7962 7963 7964 7965 7966 7967 7968 7969 7970 7971 7972 7973 7974 7975 7976 7977 7978 7979 7980 7981 7982 7983 7984 7985 7986 7987 7988 7989 7990 7991 7992 7993 7994 7995 7996 7997 7998 7999 8000 8001 8002 8003 8004 8005 8006 8007 8008 8009 8010 8011 8012 8013 8014 8015 8016 8017 8018 8019 8020 8021 8022 8023 8024 8025 8026 8027 8028 8029 8030 8031 8032 8033 8034 8035 8036 8037 8038 8039 8040 8041 8042 8043 8044 8045 8046 8047 8048 8049 8050 8051 8052 8053 8054 8055 8056 8057 8058 8059 8060 8061 8062 8063 8064 8065 8066 8067 8068 8069 8070 8071 8072 8073 8074 8075 8076 8077 8078 8079 8080 8081 8082 8083 8084 8085 8086 8087 8088 8089 8090 8091 8092 8093 8094 8095 8096 8097 8098 8099 8100 8101 8102 8103 8104 8105 8106 8107 8108 8109 8110 8111 8112 8113 8114 8115 8116 8117 8118 8119 8120 8121 8122 8123 8124 8125 8126 8127 8128 8129 8130 8131 8132 8133 8134 8135 8136 8137 8138 8139 8140 8141 8142 8143 8144 8145 8146 8147 8148 8149 8150 8151 8152 8153 8154 8155 8156 8157 8158 8159 8160 8161 8162 8163 8164 8165 8166 8167 8168 8169 8170 8171 8172 8173 8174 8175 8176 8177 8178 8179 8180 8181 8182 8183 8184 8185 8186 8187 8188 8189 8190 8191 8192 8193 8194 8195 8196 8197 8198 8199 8200 8201 8202 8203 8204 8205 8206 8207 8208 8209 8210 8211 8212 8213 8214 8215 8216 8217 8218 8219 8220 8221 8222 8223 8224 8225 8226 8227 8228 8229 8230 8231 8232 8233 8234 8235 8236 8237 8238 8239 8240 8241 8242 8243 8244 8245 8246 8247 8248 8249 8250 8251 8252 8253 8254 8255 8256 8257 8258 8259 8260 8261 8262 8263 8264 8265 8266 8267 8268 8269 8270 8271 8272 8273 8274 8275 8276 8277 8278 8279 8280 8281 8282 8283 8284 8285 8286 8287 8288 8289 8290 8291 8292 8293 8294 8295 8296 8297 8298 8299 8300 8301 8302 8303 8304 8305 8306 8307 8308 8309 8310 8311 8312 8313 8314 8315 8316 8317 8318 8319 8320 8321 8322 8323 8324 8325 8326 8327 8328 8329 8330 8331 8332 8333 8334 8335 8336 8337 8338 8339 8340 8341 8342 8343 8344 8345 8346 8347 8348 8349 8350 8351 8352 8353 8354 8355 8356 8357 8358 8359 8360 8361 8362 8363 8364 8365 8366 8367 8368 8369 8370 8371 8372 8373 8374 8375 8376 8377 8378 8379 8380 8381 8382 8383 8384 8385 8386 8387 8388 8389 8390 8391 8392 8393 8394 8395 8396 8397 8398 8399 8400 8401 8402 8403 8404 8405 8406 8407 8408 8409 8410 8411 8412 8413 8414 8415 8416 8417 8418 8419 8420 8421 8422 8423 8424 8425 8426 8427 8428 8429 8430 8431 8432 8433 8434 8435 8436 8437 8438 8439 8440 8441 8442 8443 8444 8445 8446 8447 8448 8449 8450 8451 8452 8453 8454 8455 8456 8457 8458 8459 8460 8461 8462 8463 8464 8465 8466 8467 8468 8469 8470 8471 8472 8473 8474 8475 8476 8477 8478 8479 8480 8481 8482 8483 8484 8485 8486 8487 8488 8489 8490 8491 8492 8493 8494 8495 8496 8497 8498 8499 8500 8501 8502 8503 8504 8505 8506 8507 8508 8509 8510 8511 8512 8513 8514 8515 8516 8517 8518 8519 8520 8521 8522 8523 8524 8525 8526 8527 8528 8529 8530 8531 8532 8533 8534 8535 8536 8537 8538 8539 8540 8541 8542 8543 8544 8545 8546 8547 8548 8549 8550 8551 8552 8553 8554 8555 8556 8557 8558 8559 8560 8561 8562 8563 8564 8565 8566 8567 8568 8569 8570 8571 8572 8573 8574 8575 8576 8577 8578 8579 8580 8581 8582 8583 8584 8585 8586 8587 8588 8589 8590 8591 8592 8593 8594 8595 8596 8597 8598 8599 8600 8601 8602 8603 8604 8605 8606 8607 8608 8609 8610 8611 8612 8613 8614 8615 8616 8617 8618 8619 8620 8621 8622 8623 8624 8625 8626 8627 8628 8629 8630 8631 8632 8633 8634 8635 8636 8637 8638 8639 8640 8641 8642 8643 8644 8645 8646 8647 8648 8649 8650 8651 8652 8653 8654 8655 8656 8657 8658 8659 8660 8661 8662 8663 8664 8665 8666 8667 8668 8669 8670 8671 8672 8673 8674 8675 8676 8677 8678 8679 8680 8681 8682 8683 8684 8685 8686 8687 8688 8689 8690 8691 8692 8693 8694 8695 8696 8697 8698 8699 8700 8701 8702 8703 8704 8705 8706 8707 8708 8709 8710 8711 8712 8713 8714 8715 8716 8717 8718 8719 8720 8721 8722 8723 8724 8725 8726 8727 8728 8729 8730 8731 8732 8733 8734 8735 8736 8737 8738 8739 8740 8741 8742 8743 8744 8745 8746 8747 8748 8749 8750 8751 8752 8753 8754 8755 8756 8757 8758 8759 8760 8761 8762 8763 8764 8765 8766 8767 8768 8769 8770 8771 8772 8773 8774 8775 8776 8777 8778 8779 8780 8781 8782 8783 8784 8785 8786 8787 8788 8789 8790 8791 8792 8793 8794 8795 8796 8797 8798 8799 8800 8801 8802 8803 8804 8805 8806 8807 8808 8809 8810 8811 8812 8813 8814 8815 8816 8817 8818 8819 8820 8821 8822 8823 8824 8825 8826 8827 8828 8829 8830 8831 8832 8833 8834 8835 8836 8837 8838 8839 8840 8841 8842 8843 8844 8845 8846 8847 8848 8849 8850 8851 8852 8853 8854 8855 8856 8857 8858 8859 8860 8861 8862 8863 8864 8865 8866 8867 8868 8869 8870 8871 8872 8873 8874 8875 8876 8877 8878 8879 8880 8881 8882 8883 8884 8885 8886 8887 8888 8889 8890 8891 8892 8893 8894 8895 8896 8897 8898 8899 8900 8901 8902 8903 8904 8905 8906 8907 8908 8909 8910 8911 8912 8913 8914 8915 8916 8917 8918 8919 8920 8921 8922 8923 8924 8925 8926 8927 8928 8929 8930 8931 8932 8933 8934 8935 8936 8937 8938 8939 8940 8941 8942 8943 8944 8945 8946 8947 8948 8949 8950 8951 8952 8953 8954 8955 8956 8957 8958 8959 8960 8961 8962 8963 8964 8965 8966 8967 8968 8969 8970 8971 8972 8973 8974 8975 8976 8977 8978 8979 8980 8981 8982 8983 8984 8985 8986 8987 8988 8989 8990 8991 8992 8993 8994 8995 8996 8997 8998 8999 9000 9001 9002 9003 9004 9005 9006 9007 9008 9009 9010 9011 9012 9013 9014 9015 9016 9017 9018 9019 9020 9021 9022 9023 9024 9025 9026 9027 9028 9029 9030 9031 9032 9033 9034 9035 9036 9037 9038 9039 9040 9041 9042 9043 9044 9045 9046 9047 9048 9049 9050 9051 9052 9053 9054 9055 9056 9057 9058 9059 9060 9061 9062 9063 9064 9065 9066 9067 9068 9069 9070 9071 9072 9073 9074 9075 9076 9077 9078 9079 9080 9081 9082 9083 9084 9085 9086 9087 9088 9089 9090 9091 9092 9093 9094 9095 9096 9097 9098 9099 9100 9101 9102 9103 9104 9105 9106 9107 9108 9109 9110 9111 9112 9113 9114 9115 9116 9117 9118 9119 9120 9121 9122 9123 9124 9125 9126 9127 9128 9129 9130 9131 9132 9133 9134 9135 9136 9137 9138 9139 9140 9141 9142 9143 9144 9145 9146 9147 9148 9149 9150 9151 9152 9153 9154 9155 9156 9157 9158 9159 9160 9161 9162 9163 9164 9165 9166 9167 9168 9169 9170 9171 9172 9173 9174 9175 9176 9177 9178 9179 9180 9181 9182 9183 9184 9185 9186 9187 9188 9189 9190 9191 9192 9193 9194 9195 9196 9197 9198 9199 9200 9201 9202 9203 9204 9205 9206 9207 9208 9209 9210 9211 9212 9213 9214 9215 9216 9217 9218 9219 9220 9221 9222 9223 9224 9225 9226 9227 9228 9229 9230 9231 9232 9233 9234 9235 9236 9237 9238 9239 9240 9241 9242 9243 9244 9245 9246 9247 9248 9249 9250 9251 9252 9253 9254 9255 9256 9257 9258 9259 9260 9261 9262 9263 9264 9265 9266 9267 9268 9269 9270 9271 9272 9273 9274 9275 9276 9277 9278 9279 9280 9281 9282 9283 9284 9285 9286 9287 9288 9289 9290 9291 9292 9293 9294 9295 9296 9297 9298 9299 9300 9301 9302 9303 9304 9305 9306 9307 9308 9309 9310 9311 9312 9313 9314 9315 9316 9317 9318 9319 9320 9321 9322 9323 9324 9325 9326 9327 9328 9329 9330 9331 9332 9333 9334 9335 9336 9337 9338 9339 9340 9341 9342 9343 9344 9345 9346 9347 9348 9349 9350 9351 9352 9353 9354 9355 9356 9357 9358 9359 9360 9361 9362 9363 9364 9365 9366 9367 9368 9369 9370 9371 9372 9373 9374 9375 9376 9377 9378 9379 9380 9381 9382 9383 9384 9385 9386 9387 9388 9389 9390 9391 9392 9393 9394 9395 9396 9397 9398 9399 9400 9401 9402 9403 9404 9405 9406 9407 9408 9409 9410 9411 9412 9413 9414 9415 9416 9417 9418 9419 9420 9421 9422 9423 9424 9425 9426 9427 9428 9429 9430 9431 9432 9433 9434 9435 9436 9437 9438 9439 9440 9441 9442 9443 9444 9445 9446 9447 9448 9449 9450 9451 9452 9453 9454 9455 9456 9457 9458 9459 9460 9461 9462 9463 9464 9465 9466 9467 9468 9469 9470 9471 9472 9473 9474 9475 9476 9477 9478 9479 9480 9481 9482 9483 9484 9485 9486 9487 9488 9489 9490 9491 9492 9493 9494 9495 9496 9497 9498 9499 9500 9501 9502 9503 9504 9505 9506 9507 9508 9509 9510 9511 9512 9513 9514 9515 9516 9517 9518 9519 9520 9521 9522 9523 9524 9525 9526 9527 9528 9529 9530 9531 9532 9533 9534 9535 9536 9537 9538 9539 9540 9541 9542 9543 9544 9545 9546 9547 9548 9549 9550 9551 9552 9553 9554 9555 9556 9557 9558 9559 9560 9561 9562 9563 9564 9565 9566 9567 9568 9569 9570 9571 9572 9573 9574 9575 9576 9577 9578 9579 9580 9581 9582 9583 9584 9585 9586 9587 9588 9589 9590 9591 9592 9593 9594 9595 9596 9597 9598 9599 9600 9601 9602 9603 9604 9605 9606 9607 9608 9609 9610 9611 9612 9613 9614 9615 9616 9617 9618 9619 9620 9621 9622 9623 9624 9625 9626 9627 9628 9629 9630 9631 9632 9633 9634 9635 9636 9637 9638 9639 9640 9641 9642 9643 9644 9645 9646 9647 9648 9649 9650 9651 9652 9653 9654 9655 9656 9657 9658 9659 9660 9661 9662 9663 9664 9665 9666 9667 9668 9669 9670 9671 9672 9673 9674 9675 9676 9677 9678 9679 9680 9681 9682 9683 9684 9685 9686 9687 9688 9689 9690 9691 9692 9693 9694 9695 9696 9697 9698 9699 9700 9701 9702 9703 9704 9705 9706 9707 9708 9709 9710 9711 9712 9713 9714 9715 9716 9717 9718 9719 9720 9721 9722 9723 9724 9725 9726 9727 9728 9729 9730 9731 9732 9733 9734 9735 9736 9737 9738 9739 9740 9741 9742 9743 9744 9745 9746 9747 9748 9749 9750 9751 9752 9753 9754 9755 9756 9757 9758 9759 9760 9761 9762 9763 9764 9765 9766 9767 9768 9769 9770 9771 9772 9773 9774 9775 9776 9777 9778 9779 9780 9781 9782 9783 9784 9785 9786 9787 9788 9789 9790 9791 9792 9793 9794 9795 9796 9797 9798 9799 9800 9801 9802 9803 9804 9805 9806 9807 9808 9809 9810 9811 9812 9813 9814 9815 9816 9817 9818 9819 9820 9821 9822 9823 9824 9825 9826 9827 9828 9829 9830 9831 9832 9833 9834 9835 9836 9837 9838 9839 9840 9841 9842 9843 9844 9845 9846 9847 9848 9849 9850 9851 9852 9853 9854 9855 9856 9857 9858 9859 9860 9861 9862 9863 9864 9865 9866 9867 9868 9869 9870 9871 9872 9873 9874 9875 9876 9877 9878 9879 9880 9881 9882 9883 9884 9885 9886 9887 9888 9889 9890 9891 9892 9893 9894 9895 9896 9897 9898 9899 9900 9901 9902 9903 9904 9905 9906 9907 9908 9909 9910 9911 9912 9913 9914 9915 9916 9917 9918 9919 9920 9921 9922 9923 9924 9925 9926 9927 9928 9929 9930 9931 9932 9933 9934 9935 9936 9937 9938 9939 9940 9941 9942 9943 9944 9945 9946 9947 9948 9949 9950 9951 9952 9953 9954 9955 9956 9957 9958 9959 9960 9961 9962 9963 9964 9965 9966 9967 9968 9969 9970 9971 9972 9973 9974 9975 9976 9977 9978 9979 9980 9981 9982 9983 9984 9985 9986 9987 9988 9989 9990 9991 9992 9993 9994 9995 9996 9997 9998 9999 10000 10001 10002 10003 10004 10005 10006 10007 10008 10009 10010 10011 10012 10013 10014 10015 10016 10017 10018 10019 10020 10021 10022 10023 10024 10025 10026 10027 10028 10029 10030 10031 10032 10033 10034 10035 10036 10037 10038 10039 10040 10041 10042 10043 10044 10045 10046 10047 10048 10049 10050 10051 10052 10053 10054 10055 10056 10057 10058 10059 10060 10061 10062 10063 10064 10065 10066 10067 10068 10069 10070 10071 10072 10073 10074 10075 10076 10077 10078 10079 10080 10081 10082 10083 10084 10085 10086 10087 10088 10089 10090 10091 10092 10093 10094 10095 10096 10097 10098 10099 10100 10101 10102 10103 10104 10105 10106 10107 10108 10109 10110 10111 10112 10113 10114 10115 10116 10117 10118 10119 10120 10121 10122 10123 10124 10125 10126 10127 10128 10129 10130 10131 10132 10133 10134 10135 10136 10137 10138 10139 10140 10141 10142 10143 10144 10145 10146 10147 10148 10149 10150 10151 10152 10153 10154 10155 10156 10157 10158 10159 10160 10161 10162 10163 10164 10165 10166 10167 10168 10169 10170 10171 10172 10173 10174 10175 10176 10177 10178 10179 10180 10181 10182 10183 10184 10185 10186 10187 10188 10189 10190 10191 10192 10193 10194 10195 10196 10197 10198 10199 10200 10201 10202 10203 10204 10205 10206 10207 10208 10209 10210 10211 10212 10213 10214 10215 10216 10217 10218 10219 10220 10221 10222 10223 10224 10225 10226 10227 10228 10229 10230 10231 10232 10233 10234 10235 10236 10237 10238 10239 10240 10241 10242 10243 10244 10245 10246 10247 10248 10249 10250 10251 10252 10253 10254 10255 10256 10257 10258 10259 10260 10261 10262 10263 10264 10265 10266 10267 10268 10269 10270 10271 10272 10273 10274 10275 10276 10277 10278 10279 10280 10281 10282 10283 10284 10285 10286 10287 10288 10289 10290 10291 10292 10293 10294 10295 10296 10297 10298 10299 10300 10301 10302 10303 10304 10305 10306 10307 10308 10309 10310 10311 10312 10313 10314 10315 10316 10317 10318 10319 10320 10321 10322 10323 10324 10325 10326 10327 10328 10329 10330 10331 10332 10333 10334 10335 10336 10337 10338 10339 10340 10341 10342 10343 10344 10345 10346 10347 10348 10349 10350 10351 10352 10353 10354 10355 10356 10357 10358 10359 10360 10361 10362 10363 10364 10365 10366 10367 10368 10369 10370 10371 10372 10373 10374 10375 10376 10377 10378 10379 10380 10381 10382 10383 10384 10385 10386 10387 10388 10389 10390 10391 10392 10393 10394 10395 10396 10397 10398 10399 10400 10401 10402 10403 10404 10405 10406 10407 10408 10409 10410 10411 10412 10413 10414 10415 10416 10417 10418 10419 10420 10421 10422 10423 10424 10425 10426 10427 10428 10429 10430 10431 10432 10433 10434 10435 10436 10437 10438 10439 10440 10441 10442 10443 10444 10445 10446 10447 10448 10449 10450 10451 10452 10453 10454 10455 10456 10457 10458 10459 10460 10461 10462 10463 10464 10465 10466 10467 10468 10469 10470 10471 10472 10473 10474 10475 10476 10477 10478 10479 10480 10481 10482 10483 10484 10485 10486 10487 10488 10489 10490 10491 10492 10493 10494 10495 10496 10497 10498 10499 10500 10501 10502 10503 10504 10505 10506 10507 10508 10509 10510 10511 10512 10513 10514 10515 10516 10517 10518 10519 10520 10521 10522 10523 10524 10525 10526 10527 10528 10529 10530 10531 10532 10533 10534 10535 10536 10537 10538 10539 10540 10541 10542 10543 10544 10545 10546 10547 10548 10549 10550 10551 10552 10553 10554 10555 10556 10557 10558 10559 10560 10561 10562 10563 10564 10565 10566 10567 10568 10569 10570 10571 10572 10573 10574 10575 10576 10577 10578 10579 10580 10581 10582 10583 10584 10585 10586 10587 10588 10589 10590 10591 10592 10593 10594 10595 10596 10597 10598 10599 10600 10601 10602 10603 10604 10605 10606 10607 10608 10609 10610 10611 10612 10613 10614 10615 10616 10617 10618 10619 10620 10621 10622 10623 10624 10625 10626 10627 10628 10629 10630 10631 10632 10633 10634 10635 10636 10637 10638 10639 10640 10641 10642 10643 10644 10645 10646 10647 10648 10649 10650 10651 10652 10653 10654 10655 10656 10657 10658 10659 10660 10661 10662 10663 10664 10665 10666 10667 10668 10669 10670 10671 10672 10673 10674 10675 10676 10677 10678 10679 10680 10681 10682 10683 10684 10685 10686 10687 10688 10689 10690 10691 10692 10693 10694 10695 10696 10697 10698 10699 10700 10701 10702 10703 10704 10705 10706 10707 10708 10709 10710 10711 10712 10713 10714 10715 10716 10717 10718 10719 10720 10721 10722 10723 10724 10725 10726 10727 10728 10729 10730 10731 10732 10733 10734 10735 10736 10737 10738 10739 10740 10741 10742 10743 10744 10745 10746 10747 10748 10749 10750 10751 10752 10753 10754 10755 10756 10757 10758 10759 10760 10761 10762 10763 10764 10765 10766 10767 10768 10769 10770 10771 10772 10773 10774 10775 10776 10777 10778 10779 10780 10781 10782 10783 10784 10785 10786 10787 10788 10789 10790 10791 10792 10793 10794 10795 10796 10797 10798 10799 10800 10801 10802 10803 10804 10805 10806 10807 10808 10809 10810 10811 10812 10813 10814 10815 10816 10817 10818 10819 10820 10821 10822 10823 10824 10825 10826 10827 10828 10829 10830 10831 10832 10833 10834 10835 10836 10837 10838 10839 10840 10841 10842 10843 10844 10845 10846 10847 10848 10849 10850 10851 10852 10853 10854 10855 10856 10857 10858 10859 10860 10861 10862 10863 10864 10865 10866 10867 10868 10869 10870 10871 10872 10873 10874 10875 10876 10877 10878 10879 10880 10881 10882 10883 10884 10885 10886 10887 10888 10889 10890 10891 10892 10893 10894 10895 10896 10897 10898 10899 10900 10901 10902 10903 10904 10905 10906 10907 10908 10909 10910 10911 10912 10913 10914 10915 10916 10917 10918 10919 10920 10921 10922 10923 10924 10925 10926 10927 10928 10929 10930 10931 10932 10933 10934 10935 10936 10937 10938 10939 10940 10941 10942 10943 10944 10945 10946 10947 10948 10949 10950 10951 10952 10953 10954 10955 10956 10957 10958 10959 10960 10961 10962 10963 10964 10965 10966 10967 10968 10969 10970 10971 10972 10973 10974 10975 10976 10977 10978 10979 10980 10981 10982 10983 10984 10985 10986 10987 10988 10989 10990 10991 10992 10993 10994 10995 10996 10997 10998 10999 11000 11001 11002 11003 11004 11005 11006 11007 11008 11009 11010 11011 11012 11013 11014 11015 11016 11017 11018 11019 11020 11021 11022 11023 11024 11025 11026 11027 11028 11029 11030 11031 11032 11033 11034 11035 11036 11037 11038 11039 11040 11041 11042 11043 11044 11045 11046 11047 11048 11049 11050 11051 11052 11053 11054 11055 11056 11057 11058 11059 11060 11061 11062 11063 11064 11065 11066 11067 11068 11069 11070 11071 11072 11073 11074 11075 11076 11077 11078 11079 11080 11081 11082 11083 11084 11085 11086 11087 11088 11089 11090 11091 11092 11093 11094 11095 11096 11097 11098 11099 11100 11101 11102 11103 11104 11105 11106 11107 11108 11109 11110 11111 11112 11113 11114 11115 11116 11117 11118 11119 11120 11121 11122 11123 11124 11125 11126 11127 11128 11129 11130 11131 11132 11133 11134 11135 11136 11137 11138 11139 11140 11141 11142 11143 11144 11145 11146 11147 11148 11149 11150 11151 11152 11153 11154 11155 11156 11157 11158 11159 11160 11161 11162 11163 11164 11165 11166 11167 11168 11169 11170 11171 11172 11173 11174 11175 11176 11177 11178 11179 11180 11181 11182 11183 11184 11185 11186 11187 11188 11189 11190 11191 11192 11193 11194 11195 11196 11197 11198 11199 11200 11201 11202 11203 11204 11205 11206 11207 11208 11209 11210 11211 11212 11213 11214 11215 11216 11217 11218 11219 11220 11221 11222 11223 11224 11225 11226 11227 11228 11229 11230 11231 11232 11233 11234 11235 11236 11237 11238 11239 11240 11241 11242 11243 11244 11245 11246 11247 11248 11249 11250 11251 11252 11253 11254 11255 11256 11257 11258 11259 11260 11261 11262 11263 11264 11265 11266 11267 11268 11269 11270 11271 11272 11273 11274 11275 11276 11277 11278 11279 11280 11281 11282 11283 11284 11285 11286 11287 11288 11289 11290 11291 11292 11293 11294 11295 11296 11297 11298 11299 11300 11301 11302 11303 11304 11305 11306 11307 11308 11309 11310 11311 11312 11313 11314 11315 11316 11317 11318 11319 11320 11321 11322 11323 11324 11325 11326 11327 11328 11329 11330 11331 11332 11333 11334 11335 11336 11337 11338 11339 11340 11341 11342 11343 11344 11345 11346 11347 11348 11349 11350 11351 11352 11353 11354 11355 11356 11357 11358 11359 11360 11361 11362 11363 11364 11365 11366 11367 11368 11369 11370 11371 11372 11373 11374 11375 11376 11377 11378 11379 11380 11381 11382 11383 11384 11385 11386 11387 11388 11389 11390 11391 11392 11393 11394 11395 11396 11397 11398 11399 11400 11401 11402 11403 11404 11405 11406 11407 11408 11409 11410 11411 11412 11413 11414 11415 11416 11417 11418 11419 11420 11421 11422 11423 11424 11425 11426 11427 11428 11429 11430 11431 11432 11433 11434 11435 11436 11437 11438 11439 11440 11441 11442 11443 11444 11445 11446 11447 11448 11449 11450 11451 11452 11453 11454 11455 11456 11457 11458 11459 11460 11461 11462 11463 11464 11465 11466 11467 11468 11469 11470 11471 11472 11473 11474 11475 11476 11477 11478 11479 11480 11481 11482 11483 11484 11485 11486 11487 11488 11489 11490 11491 11492 11493 11494 11495 11496 11497 11498 11499 11500 11501 11502 11503 11504 11505 11506 11507 11508 11509 11510 11511 11512 11513 11514 11515 11516 11517 11518 11519 11520 11521 11522 11523 11524 11525 11526 11527 11528 11529 11530 11531 11532 11533 11534 11535 11536 11537 11538 11539 11540 11541 11542 11543 11544 11545 11546 11547 11548 11549 11550 11551 11552 11553 11554 11555 11556 11557 11558 11559 11560 11561 11562 11563 11564 11565 11566 11567 11568 11569 11570 11571 11572 11573 11574 11575 11576 11577 11578 11579 11580 11581 11582 11583 11584 11585 11586 11587 11588 11589 11590 11591 11592 11593 11594 11595 11596 11597 11598 11599 11600 11601 11602 11603 11604 11605 11606 11607 11608 11609 11610 11611 11612 11613 11614 11615 11616 11617 11618 11619 11620 11621 11622 11623 11624 11625 11626 11627 11628 11629 11630 11631 11632 11633 11634 11635 11636 11637 11638 11639 11640 11641 11642 11643 11644 11645 11646 11647 11648 11649 11650 11651 11652 11653 11654 11655 11656 11657 11658 11659 11660 11661 11662 11663 11664 11665 11666 11667 11668 11669 11670 11671 11672 11673 11674 11675 11676 11677 11678 11679 11680 11681 11682 11683 11684 11685 11686 11687 11688 11689 11690 11691 11692 11693 11694 11695 11696 11697 11698 11699 11700 11701 11702 11703 11704 11705 11706 11707 11708 11709 11710 11711 11712 11713 11714 11715 11716 11717 11718 11719 11720 11721 11722 11723 11724 11725 11726 11727 11728 11729 11730 11731 11732 11733 11734 11735 11736 11737 11738 11739 11740 11741 11742 11743 11744 11745 11746 11747 11748 11749 11750 11751 11752 11753 11754 11755 11756 11757 11758 11759 11760 11761 11762 11763 11764 11765 11766 11767 11768 11769 11770 11771 11772 11773 11774 11775 11776 11777 11778 11779 11780 11781 11782 11783 11784 11785 11786 11787 11788 11789 11790 11791 11792 11793 11794 11795 11796 11797 11798 11799 11800 11801 11802 11803 11804 11805 11806 11807 11808 11809 11810 11811 11812 11813 11814 11815 11816 11817 11818 11819 11820 11821 11822 11823 11824 11825 11826 11827 11828 11829 11830 11831 11832 11833 11834 11835 11836 11837 11838 11839 11840 11841 11842 11843 11844 11845 11846 11847 11848 11849 11850 11851 11852 11853 11854 11855 11856 11857 11858 11859 11860 11861 11862 11863 11864 11865 11866 11867 11868 11869 11870 11871 11872 11873 11874 11875 11876 11877 11878 11879 11880 11881 11882 11883 11884 11885 11886 11887 11888 11889 11890 11891 11892 11893 11894 11895 11896 11897 11898 11899 11900 11901 11902 11903 11904 11905 11906 11907 11908 11909 11910 11911 11912 11913 11914 11915 11916 11917 11918 11919 11920 11921 11922 11923 11924 11925 11926 11927 11928 11929 11930 11931 11932 11933 11934 11935 11936 11937 11938 11939 11940 11941 11942 11943 11944 11945 11946 11947 11948 11949 11950 11951 11952 11953 11954 11955 11956 11957 11958 11959 11960 11961 11962 11963 11964 11965 11966 11967 11968 11969 11970 11971 11972 11973 11974 11975 11976 11977 11978 11979 11980 11981 11982 11983 11984 11985 11986 11987 11988 11989 11990 11991 11992 11993 11994 11995 11996 11997 11998 11999 12000 12001 12002 12003 12004 12005 12006 12007 12008 12009 12010 12011 12012 12013 12014 12015 12016 12017 12018 12019 12020 12021 12022 12023 12024 12025 12026 12027 12028 12029 12030 12031 12032 12033 12034 12035 12036 12037 12038 12039 12040 12041 12042 12043 12044 12045 12046 12047 12048 12049 12050 12051 12052 12053 12054 12055 12056 12057 12058 12059 12060 12061 12062 12063 12064 12065 12066 12067 12068 12069 12070 12071 12072 12073 12074 12075 12076 12077 12078 12079 12080 12081 12082 12083 12084 12085 12086 12087 12088 12089 12090 12091 12092 12093 12094 12095 12096 12097 12098 12099 12100 12101 12102 12103 12104 12105 12106 12107 12108 12109 12110 12111 12112 12113 12114 12115 12116 12117 12118 12119 12120 12121 12122 12123 12124 12125 12126 12127 12128 12129 12130 12131 12132 12133 12134 12135 12136 12137 12138 12139 12140 12141 12142 12143 12144 12145 12146 12147 12148 12149 12150 12151 12152 12153 12154 12155 12156 12157 12158 12159 12160 12161 12162 12163 12164 12165 12166 12167 12168 12169 12170 12171 12172 12173 12174 12175 12176 12177 12178 12179 12180 12181 12182 12183 12184 12185 12186 12187 12188 12189 12190 12191 12192 12193 12194 12195 12196 12197 12198 12199 12200 12201 12202 12203 12204 12205 12206 12207 12208 12209 12210 12211 12212 12213 12214 12215 12216 12217 12218 12219 12220 12221 12222 12223 12224 12225 12226 12227 12228 12229 12230 12231 12232 12233 12234 12235 12236 12237 12238 12239 12240 12241 12242 12243 12244 12245 12246 12247 12248 12249 12250 12251 12252 12253 12254 12255 12256 12257 12258 12259 12260 12261 12262 12263 12264 12265 12266 12267 12268 12269 12270 12271 12272 12273 12274 12275 12276 12277 12278 12279 12280 12281 12282 12283 12284 12285 12286 12287 12288 12289 12290 12291 12292 12293 12294 12295 12296 12297 12298 12299 12300 12301 12302 12303 12304 12305 12306 12307 12308 12309 12310 12311 12312 12313 12314 12315 12316 12317 12318 12319 12320 12321 12322 12323 12324 12325 12326 12327 12328 12329 12330 12331 12332 12333 12334 12335 12336 12337 12338 12339 12340 12341 12342 12343 12344 12345 12346 12347 12348 12349 12350 12351 12352 12353 12354 12355 12356 12357 12358 12359 12360 12361 12362 12363 12364 12365 12366 12367 12368 12369 12370 12371 12372 12373 12374 12375 12376 12377 12378 12379 12380 12381 12382 12383 12384 12385 12386 12387 12388 12389 12390 12391 12392 12393 12394 12395 12396 12397 12398 12399 12400 12401 12402 12403 12404 12405 12406 12407 12408 12409 12410 12411 12412 12413 12414 12415 12416 12417 12418 12419 12420 12421 12422 12423 12424 12425 12426 12427 12428 12429 12430 12431 12432 12433 12434 12435 12436 12437 12438 12439 12440 12441 12442 12443 12444 12445 12446 12447 12448 12449 12450 12451 12452 12453 12454 12455 12456 12457 12458 12459 12460 12461 12462 12463 12464 12465 12466 12467 12468 12469 12470 12471 12472 12473 12474 12475 12476 12477 12478 12479 12480 12481 12482 12483 12484 12485 12486 12487 12488 12489 12490 12491 12492 12493 12494 12495 12496 12497 12498 12499 12500 12501 12502 12503 12504 12505 12506 12507 12508 12509 12510 12511 12512 12513 12514 12515 12516 12517 12518 12519 12520 12521 12522 12523 12524 12525 12526 12527 12528 12529 12530 12531 12532 12533 12534 12535 12536 12537 12538 12539 12540 12541 12542 12543 12544 12545 12546 12547 12548 12549 12550 12551 12552 12553 12554 12555 12556 12557 12558 12559 12560 12561 12562 12563 12564 12565 12566 12567 12568 12569 12570 12571 12572 12573 12574 12575 12576 12577 12578 12579 12580 12581 12582 12583 12584 12585 12586 12587 12588 12589 12590 12591 12592 12593 12594 12595 12596 12597 12598 12599 12600 12601 12602 12603 12604 12605 12606 12607 12608 12609 12610 12611 12612 12613 12614 12615 12616 12617 12618 12619 12620 12621 12622 12623 12624 12625 12626 12627 12628 12629 12630 12631 12632 12633 12634 12635 12636 12637 12638 12639 12640 12641 12642 12643 12644 12645 12646 12647 12648 12649 12650 12651 12652 12653 12654 12655 12656 12657 12658 12659 12660 12661 12662 12663 12664 12665 12666 12667 12668 12669 12670 12671 12672 12673 12674 12675 12676 12677 12678 12679 12680 12681 12682 12683 12684 12685 12686 12687 12688 12689 12690 12691 12692 12693 12694 12695 12696 12697 12698 12699 12700 12701 12702 12703 12704 12705 12706 12707 12708 12709 12710 12711 12712 12713 12714 12715 12716 12717 12718 12719 12720 12721 12722 12723 12724 12725 12726 12727 12728 12729 12730 12731 12732 12733 12734 12735 12736 12737 12738 12739 12740 12741 12742 12743 12744 12745 12746 12747 12748 12749 12750 12751 12752 12753 12754 12755 12756 12757 12758 12759 12760 12761 12762 12763 12764 12765 12766 12767 12768 12769 12770 12771 12772 12773 12774 12775 12776 12777 12778 12779 12780 12781 12782 12783 12784 12785 12786 12787 12788 12789 12790 12791 12792 12793 12794 12795 12796 12797 12798 12799 12800 12801 12802 12803 12804 12805 12806 12807 12808 12809 12810 12811 12812 12813 12814 12815 12816 12817 12818 12819 12820 12821 12822 12823 12824 12825 12826 12827 12828 12829 12830 12831 12832 12833 12834 12835 12836 12837 12838 12839 12840 12841 12842 12843 12844 12845 12846 12847 12848 12849 12850 12851 12852 12853 12854 12855 12856 12857 12858 12859 12860 12861 12862 12863 12864 12865 12866 12867 12868 12869 12870 12871 12872 12873 12874 12875 12876 12877 12878 12879 12880 12881 12882 12883 12884 12885 12886 12887 12888 12889 12890 12891 12892 12893 12894 12895 12896 12897 12898 12899 12900 12901 12902 12903 12904 12905 12906 12907 12908 12909 12910 12911 12912 12913 12914 12915 12916 12917 12918 12919 12920 12921 12922 12923 12924 12925 12926 12927 12928 12929 12930 12931 12932 12933 12934 12935 12936 12937 12938 12939 12940 12941 12942 12943 12944 12945 12946 12947 12948 12949 12950 12951 12952 12953 12954 12955 12956 12957 12958 12959 12960 12961 12962 12963 12964 12965 12966 12967 12968 12969 12970 12971 12972 12973 12974 12975 12976 12977 12978 12979 12980 12981 12982 12983 12984 12985 12986 12987 12988 12989 12990 12991 12992 12993 12994 12995 12996 12997 12998 12999 13000 13001 13002 13003 13004 13005 13006 13007 13008 13009 13010 13011 13012 13013 13014 13015 13016 13017 13018 13019 13020 13021 13022 13023 13024 13025 13026 13027 13028 13029 13030 13031 13032 13033 13034 13035 13036 13037 13038 13039 13040 13041 13042 13043 13044 13045 13046 13047 13048 13049 13050 13051 13052 13053 13054 13055 13056 13057 13058 13059 13060 13061 13062 13063 13064 13065 13066 13067 13068 13069 13070 13071 13072 13073 13074 13075 13076 13077 13078 13079 13080 13081 13082 13083 13084 13085 13086 13087 13088 13089 13090 13091 13092 13093 13094 13095 13096 13097 13098 13099 13100 13101 13102 13103 13104 13105 13106 13107 13108 13109 13110 13111 13112 13113 13114 13115 13116 13117 13118 13119 13120 13121 13122 13123 13124 13125 13126 13127 13128 13129 13130 13131 13132 13133 13134 13135 13136 13137 13138 13139 13140 13141 13142 13143 13144 13145 13146 13147 13148 13149 13150 13151 13152 13153 13154 13155 13156 13157 13158 13159 13160 13161 13162 13163 13164 13165 13166 13167 13168 13169 13170 13171 13172 13173 13174 13175 13176 13177 13178 13179 13180 13181 13182 13183 13184 13185 13186 13187 13188 13189 13190 13191 13192 13193 13194 13195 13196 13197 13198 13199 13200 13201 13202 13203 13204 13205 13206 13207 13208 13209 13210 13211 13212 13213 13214 13215 13216 13217 13218 13219 13220 13221 13222 13223 13224 13225 13226 13227 13228 13229 13230 13231 13232 13233 13234 13235 13236 13237 13238 13239 13240 13241 13242 13243 13244 13245 13246 13247 13248 13249 13250 13251 13252 13253 13254 13255 13256 13257 13258 13259 13260 13261 13262 13263 13264 13265 13266 13267 13268 13269 13270 13271 13272 13273 13274 13275 13276 13277 13278 13279 13280 13281 13282 13283 13284 13285 13286 13287 13288 13289 13290 13291 13292 13293 13294 13295 13296 13297 13298 13299 13300 13301 13302 13303 13304 13305 13306 13307 13308 13309 13310 13311 13312 13313 13314 13315 13316 13317 13318 13319 13320 13321 13322 13323 13324 13325 13326 13327 13328 13329 13330 13331 13332 13333 13334 13335 13336 13337 13338 13339 13340 13341 13342 13343 13344 13345 13346 13347 13348 13349 13350 13351 13352 13353 13354 13355 13356 13357 13358 13359 13360 13361 13362 13363 13364 13365 13366 13367 13368 13369 13370 13371 13372 13373 13374 13375 13376 13377 13378 13379 13380 13381 13382 13383 13384 13385 13386 13387 13388 13389 13390 13391 13392 13393 13394 13395 13396 13397 13398 13399 13400 13401 13402 13403 13404 13405 13406 13407 13408 13409 13410 13411 13412 13413 13414 13415 13416 13417 13418 13419 13420 13421 13422 13423 13424 13425 13426 13427 13428 13429 13430 13431 13432 13433 13434 13435 13436 13437 13438 13439 13440 13441 13442 13443 13444 13445 13446 13447 13448 13449 13450 13451 13452 13453 13454 13455 13456 13457 13458 13459 13460 13461 13462 13463 13464 13465 13466 13467 13468 13469 13470 13471 13472 13473 13474 13475 13476 13477 13478 13479 13480 13481 13482 13483 13484 13485 13486 13487 13488 13489 13490 13491 13492 13493 13494 13495 13496 13497 13498 13499 13500 13501 13502 13503 13504 13505 13506 13507 13508 13509 13510 13511 13512 13513 13514 13515 13516 13517 13518 13519 13520 13521 13522 13523 13524 13525 13526 13527 13528 13529 13530 13531 13532 13533 13534 13535 13536 13537 13538 13539 13540 13541 13542 13543 13544 13545 13546 13547 13548 13549 13550 13551 13552 13553 13554 13555 13556 13557 13558 13559 13560 13561 13562 13563 13564 13565 13566 13567 13568 13569 13570 13571 13572 13573 13574 13575 13576 13577 13578 13579 13580 13581 13582 13583 13584 13585 13586 13587 13588 13589 13590 13591 13592 13593 13594 13595 13596 13597 13598 13599 13600 13601 13602 13603 13604 13605 13606 13607 13608 13609 13610 13611 13612 13613 13614 13615 13616 13617 13618 13619 13620 13621 13622 13623 13624 13625 13626 13627 13628 13629 13630 13631 13632 13633 13634 13635 13636 13637 13638 13639 13640 13641 13642 13643 13644 13645 13646 13647 13648 13649 13650 13651 13652 13653 13654 13655 13656 13657 13658 13659 13660 13661 13662 13663 13664 13665 13666 13667 13668 13669 13670 13671 13672 13673 13674 13675 13676 13677 13678 13679 13680 13681 13682 13683 13684 13685 13686 13687 13688 13689 13690 13691 13692 13693 13694 13695 13696 13697 13698 13699 13700 13701 13702 13703 13704 13705 13706 13707 13708 13709 13710 13711 13712 13713 13714 13715 13716 13717 13718 13719 13720 13721 13722 13723 13724 13725 13726 13727 13728 13729 13730 13731 13732 13733 13734 13735 13736 13737 13738 13739 13740 13741 13742 13743 13744 13745 13746 13747 13748 13749 13750 13751 13752 13753 13754 13755 13756 13757 13758 13759 13760 13761 13762 13763 13764 13765 13766 13767 13768 13769 13770 13771 13772 13773 13774 13775 13776 13777 13778 13779 13780 13781 13782 13783 13784 13785 13786 13787 13788 13789 13790 13791 13792 13793 13794 13795 13796 13797 13798 13799 13800 13801 13802 13803 13804 13805 13806 13807 13808 13809 13810 13811 13812 13813 13814 13815 13816 13817 13818 13819 13820 13821 13822 13823 13824 13825 13826 13827 13828 13829 13830 13831 13832 13833 13834 13835 13836 13837 13838 13839 13840 13841 13842 13843 13844 13845 13846 13847 13848 13849 13850 13851 13852 13853 13854 13855 13856 13857 13858 13859 13860 13861 13862 13863 13864 13865 13866 13867 13868 13869 13870 13871 13872 13873 13874 13875 13876 13877 13878 13879 13880 13881 13882 13883 13884 13885 13886 13887 13888 13889 13890 13891 13892 13893 13894 13895 13896 13897 13898 13899 13900 13901 13902 13903 13904 13905 13906 13907 13908 13909 13910 13911 13912 13913 13914 13915 13916 13917 13918 13919 13920 13921 13922 13923 13924 13925 13926 13927 13928 13929 13930 13931 13932 13933 13934 13935 13936 13937 13938 13939 13940 13941 13942 13943 13944 13945 13946 13947 13948 13949 13950 13951 13952 13953 13954 13955 13956 13957 13958 13959 13960 13961 13962 13963 13964 13965 13966 13967 13968 13969 13970 13971 13972 13973 13974 13975 13976 13977 13978 13979 13980 13981 13982 13983 13984 13985 13986 13987 13988 13989 13990 13991 13992 13993 13994 13995 13996 13997 13998 13999 14000 14001 14002 14003 14004 14005 14006 14007 14008 14009 14010 14011 14012 14013 14014 14015 14016 14017 14018 14019 14020 14021 14022 14023 14024 14025 14026 14027 14028 14029 14030 14031 14032 14033 14034 14035 14036 14037 14038 14039 14040 14041 14042 14043 14044 14045 14046 14047 14048 14049 14050 14051 14052 14053 14054 14055 14056 14057 14058 14059 14060 14061 14062 14063 14064 14065 14066 14067 14068 14069 14070 14071 14072 14073 14074 14075 14076 14077 14078 14079 14080 14081 14082 14083 14084 14085 14086 14087 14088 14089 14090 14091 14092 14093 14094 14095 14096 14097 14098 14099 14100 14101 14102 14103 14104 14105 14106 14107 14108 14109 14110 14111 14112 14113 14114 14115 14116 14117 14118 14119 14120 14121 14122 14123 14124 14125 14126 14127 14128 14129 14130 14131 14132 14133 14134 14135 14136 14137 14138 14139 14140 14141 14142 14143 14144 14145 14146 14147 14148 14149 14150 14151 14152 14153 14154 14155 14156 14157 14158 14159 14160 14161 14162 14163 14164 14165 14166 14167 14168 14169 14170 14171 14172 14173 14174 14175 14176 14177 14178 14179 14180 14181 14182 14183 14184 14185 14186 14187 14188 14189 14190 14191 14192 14193 14194 14195 14196 14197 14198 14199 14200 14201 14202 14203 14204 14205 14206 14207 14208 14209 14210 14211 14212 14213 14214 14215 14216 14217 14218 14219 14220 14221 14222 14223 14224 14225 14226 14227 14228 14229 14230 14231 14232 14233 14234 14235 14236 14237 14238 14239 14240 14241 14242 14243 14244 14245 14246 14247 14248 14249 14250 14251 14252 14253 14254 14255 14256 14257 14258 14259 14260 14261 14262 14263 14264 14265 14266 14267 14268 14269 14270 14271 14272 14273 14274 14275 14276 14277 14278 14279 14280 14281 14282 14283 14284 14285 14286 14287 14288 14289 14290 14291 14292 14293 14294 14295 14296 14297 14298 14299 14300 14301 14302 14303 14304 14305 14306 14307 14308 14309 14310 14311 14312 14313 14314 14315 14316 14317 14318 14319 14320 14321 14322 14323 14324 14325 14326 14327 14328 14329 14330 14331 14332 14333 14334 14335 14336 14337 14338 14339 14340 14341 14342 14343 14344 14345 14346 14347 14348 14349 14350 14351 14352 14353 14354 14355 14356 14357 14358 14359 14360 14361 14362 14363 14364 14365 14366 14367 14368 14369 14370 14371 14372 14373 14374 14375 14376 14377 14378 14379 14380 14381 14382 14383 14384 14385 14386 14387 14388 14389 14390 14391 14392 14393 14394 14395 14396 14397 14398 14399 14400 14401 14402 14403 14404 14405 14406 14407 14408 14409 14410 14411 14412 14413 14414 14415 14416 14417 14418 14419 14420 14421 14422 14423 14424 14425 14426 14427 14428 14429 14430 14431 14432 14433 14434 14435 14436 14437 14438 14439 14440 14441 14442 14443 14444 14445 14446 14447 14448 14449 14450 14451 14452 14453 14454 14455 14456 14457 14458 14459 14460 14461 14462 14463 14464 14465 14466 14467 14468 14469 14470 14471 14472 14473 14474 14475 14476 14477 14478 14479 14480 14481 14482 14483 14484 14485 14486 14487 14488 14489 14490 14491 14492 14493 14494 14495 14496 14497 14498 14499 14500 14501 14502 14503 14504 14505 14506 14507 14508 14509 14510 14511 14512 14513 14514 14515 14516 14517 14518 14519 14520 14521 14522 14523 14524 14525 14526 14527 14528 14529 14530 14531 14532 14533 14534 14535 14536 14537 14538 14539 14540 14541 14542 14543 14544 14545 14546 14547 14548 14549 14550 14551 14552 14553 14554 14555 14556 14557 14558 14559 14560 14561 14562 14563 14564 14565 14566 14567 14568 14569 14570 14571 14572 14573 14574 14575 14576 14577 14578 14579 14580 14581 14582 14583 14584 14585 14586 14587 14588 14589 14590 14591 14592 14593 14594 14595 14596 14597 14598 14599 14600 14601 14602 14603 14604 14605 14606 14607 14608 14609 14610 14611 14612 14613 14614 14615 14616 14617 14618 14619 14620 14621 14622 14623 14624 14625 14626 14627 14628 14629 14630 14631 14632 14633 14634 14635 14636 14637 14638 14639 14640 14641 14642 14643 14644 14645 14646 14647 14648 14649 14650 14651 14652 14653 14654 14655 14656 14657 14658 14659 14660 14661 14662 14663 14664 14665 14666 14667 14668 14669 14670 14671 14672 14673 14674 14675 14676 14677 14678 14679 14680 14681 14682 14683 14684 14685 14686 14687 14688 14689 14690 14691 14692 14693 14694 14695 14696 14697 14698 14699 14700 14701 14702 14703 14704 14705 14706 14707 14708 14709 14710 14711 14712 14713 14714 14715 14716 14717 14718 14719 14720 14721 14722 14723 14724 14725 14726 14727 14728 14729 14730 14731 14732 14733 14734 14735 14736 14737 14738 14739 14740 14741 14742 14743 14744 14745 14746 14747 14748 14749 14750 14751 14752 14753 14754 14755 14756 14757 14758 14759 14760 14761 14762 14763 14764 14765 14766 14767 14768 14769 14770 14771 14772 14773 14774 14775 14776 14777 14778 14779 14780 14781 14782 14783 14784 14785 14786 14787 14788 14789 14790 14791 14792 14793 14794 14795 14796 14797 14798 14799 14800 14801 14802 14803 14804 14805 14806 14807 14808 14809 14810 14811 14812 14813 14814 14815 14816 14817 14818 14819 14820 14821 14822 14823 14824 14825 14826 14827 14828 14829 14830 14831 14832 14833 14834 14835 14836 14837 14838 14839 14840 14841 14842 14843 14844 14845 14846 14847 14848 14849 14850 14851 14852 14853 14854 14855 14856 14857 14858 14859 14860 14861 14862 14863 14864 14865 14866 14867 14868 14869 14870 14871 14872 14873 14874 14875 14876 14877 14878 14879 14880 14881 14882 14883 14884 14885 14886 14887 14888 14889 14890 14891 14892 14893 14894 14895 14896 14897 14898 14899 14900 14901 14902 14903 14904 14905 14906 14907 14908 14909 14910 14911 14912 14913 14914 14915 14916 14917 14918 14919 14920 14921 14922 14923 14924 14925 14926 14927 14928 14929 14930 14931 14932 14933 14934 14935 14936 14937 14938 14939 14940 14941 14942 14943 14944 14945 14946 14947 14948 14949 14950 14951 14952 14953 14954 14955 14956 14957 14958 14959 14960 14961 14962 14963 14964 14965 14966 14967 14968 14969 14970 14971 14972 14973 14974 14975 14976 14977 14978 14979 14980 14981 14982 14983 14984 14985 14986 14987 14988 14989 14990 14991 14992 14993 14994 14995 14996 14997 14998 14999 15000 15001 15002 15003 15004 15005 15006 15007 15008 15009 15010 15011 15012 15013 15014 15015 15016 15017 15018 15019 15020 15021 15022 15023 15024 15025 15026 15027 15028 15029 15030 15031 15032 15033 15034 15035 15036 15037 15038 15039 15040 15041 15042 15043 15044 15045 15046 15047 15048 15049 15050 15051 15052 15053 15054 15055 15056 15057 15058 15059 15060 15061 15062 15063 15064 15065 15066 15067 15068 15069 15070 15071 15072 15073 15074 15075 15076 15077 15078 15079 15080 15081 15082 15083 15084 15085 15086 15087 15088 15089 15090 15091 15092 15093 15094 15095 15096 15097 15098 15099 15100 15101 15102 15103 15104 15105 15106 15107 15108 15109 15110 15111 15112 15113 15114 15115 15116 15117 15118 15119 15120 15121 15122 15123 15124 15125 15126 15127 15128 15129 15130 15131 15132 15133 15134 15135 15136 15137 15138 15139 15140 15141 15142 15143 15144 15145 15146 15147 15148 15149 15150 15151 15152 15153 15154 15155 15156 15157 15158 15159 15160 15161 15162 15163 15164 15165 15166 15167 15168 15169 15170 15171 15172 15173 15174 15175 15176 15177 15178 15179 15180 15181 15182 15183 15184 15185 15186 15187 15188 15189 15190 15191 15192 15193 15194 15195 15196 15197 15198 15199 15200 15201 15202 15203 15204 15205 15206 15207 15208 15209 15210 15211 15212 15213 15214 15215 15216 15217 15218 15219 15220 15221 15222 15223 15224 15225 15226 15227 15228 15229 15230 15231 15232 15233 15234 15235 15236 15237 15238 15239 15240 15241 15242 15243 15244 15245 15246 15247 15248 15249 15250 15251 15252 15253 15254 15255 15256 15257 15258 15259 15260 15261 15262 15263 15264 15265 15266 15267 15268 15269 15270 15271 15272 15273 15274 15275 15276 15277 15278 15279 15280 15281 15282 15283 15284 15285 15286 15287 15288 15289 15290 15291 15292 15293 15294 15295 15296 15297 15298 15299 15300 15301 15302 15303 15304 15305 15306 15307 15308 15309 15310 15311 15312 15313 15314 15315 15316 15317 15318 15319 15320 15321 15322 15323 15324 15325 15326 15327 15328 15329 15330 15331 15332 15333 15334 15335 15336 15337 15338 15339 15340 15341 15342 15343 15344 15345 15346 15347 15348 15349 15350 15351 15352 15353 15354 15355 15356 15357 15358 15359 15360 15361 15362 15363 15364 15365 15366 15367 15368 15369 15370 15371 15372 15373 15374 15375 15376 15377 15378 15379 15380 15381 15382 15383 15384 15385 15386 15387 15388 15389 15390 15391 15392 15393 15394 15395 15396 15397 15398 15399 15400 15401 15402 15403 15404 15405 15406 15407 15408 15409 15410 15411 15412 15413 15414 15415 15416 15417 15418 15419 15420 15421 15422 15423 15424 15425 15426 15427 15428 15429 15430 15431 15432 15433 15434 15435 15436 15437 15438 15439 15440 15441 15442 15443 15444 15445 15446 15447 15448 15449 15450 15451 15452 15453 15454 15455 15456 15457 15458 15459 15460 15461 15462 15463 15464 15465 15466 15467 15468 15469 15470 15471 15472 15473 15474 15475 15476 15477 15478 15479 15480 15481 15482 15483 15484 15485 15486 15487 15488 15489 15490 15491 15492 15493 15494 15495 15496 15497 15498 15499 15500 15501 15502 15503 15504 15505 15506 15507 15508 15509 15510 15511 15512 15513 15514 15515 15516 15517 15518 15519 15520 15521 15522 15523 15524 15525 15526 15527 15528 15529 15530 15531 15532 15533 15534 15535 15536 15537 15538 15539 15540 15541 15542 15543 15544 15545 15546 15547 15548 15549 15550 15551 15552 15553 15554 15555 15556 15557 15558 15559 15560 15561 15562 15563 15564 15565 15566 15567 15568 15569 15570 15571 15572 15573 15574 15575 15576 15577 15578 15579 15580 15581 15582 15583 15584 15585 15586 15587 15588 15589 15590 15591 15592 15593 15594 15595 15596 15597 15598 15599 15600 15601 15602 15603 15604 15605 15606 15607 15608 15609 15610 15611 15612 15613 15614 15615 15616 15617 15618 15619 15620 15621 15622 15623 15624 15625 15626 15627 15628 15629 15630 15631 15632 15633 15634 15635 15636 15637 15638 15639 15640 15641 15642 15643 15644 15645 15646 15647 15648 15649 15650 15651 15652 15653 15654 15655 15656 15657 15658 15659 15660 15661 15662 15663 15664 15665 15666 15667 15668 15669 15670 15671 15672 15673 15674 15675 15676 15677 15678 15679 15680 15681 15682 15683 15684 15685 15686 15687 15688 15689 15690 15691 15692 15693 15694 15695 15696 15697 15698 15699 15700 15701 15702 15703 15704 15705 15706 15707 15708 15709 15710 15711 15712 15713 15714 15715 15716 15717 15718 15719 15720 15721 15722 15723 15724 15725 15726 15727 15728 15729 15730 15731 15732 15733 15734 15735 15736 15737 15738 15739 15740 15741 15742 15743 15744 15745 15746 15747 15748 15749 15750 15751 15752 15753 15754 15755 15756 15757 15758 15759 15760 15761 15762 15763 15764 15765 15766 15767 15768 15769 15770 15771 15772 15773 15774 15775 15776 15777 15778 15779 15780 15781 15782 15783 15784 15785 15786 15787 15788 15789 15790 15791 15792 15793 15794 15795 15796 15797 15798 15799 15800 15801 15802 15803 15804 15805 15806 15807 15808 15809 15810 15811 15812 15813 15814 15815 15816 15817 15818 15819 15820 15821 15822 15823 15824 15825 15826 15827 15828 15829 15830 15831 15832 15833 15834 15835 15836 15837 15838 15839 15840 15841 15842 15843 15844 15845 15846 15847 15848 15849 15850 15851 15852 15853 15854 15855 15856 15857 15858 15859 15860 15861 15862 15863 15864 15865 15866 15867 15868 15869 15870 15871 15872 15873 15874 15875 15876 15877 15878 15879 15880 15881 15882 15883 15884 15885 15886 15887 15888 15889 15890 15891 15892 15893 15894 15895 15896 15897 15898 15899 15900 15901 15902 15903 15904 15905 15906 15907 15908 15909 15910 15911 15912 15913 15914 15915 15916 15917 15918 15919 15920 15921 15922 15923 15924 15925 15926 15927 15928 15929 15930 15931 15932 15933 15934 15935 15936 15937 15938 15939 15940 15941 15942 15943 15944 15945 15946 15947 15948 15949 15950 15951 15952 15953 15954 15955 15956 15957 15958 15959 15960 15961 15962 15963 15964 15965 15966 15967 15968 15969 15970 15971 15972 15973 15974 15975 15976 15977 15978 15979 15980 15981 15982 15983 15984 15985 15986 15987 15988 15989 15990 15991 15992 15993 15994 15995 15996 15997 15998 15999 16000 16001 16002 16003 16004 16005 16006 16007 16008 16009 16010 16011 16012 16013 16014 16015 16016 16017 16018 16019 16020 16021 16022 16023 16024 16025 16026 16027 16028 16029 16030 16031 16032 16033 16034 16035 16036 16037 16038 16039 16040 16041 16042 16043 16044 16045 16046 16047 16048 16049 16050 16051 16052 16053 16054 16055 16056 16057 16058 16059 16060 16061 16062 16063 16064 16065 16066 16067 16068 16069 16070 16071 16072 16073 16074 16075 16076 16077 16078 16079 16080 16081 16082 16083 16084 16085 16086 16087 16088 16089 16090 16091 16092 16093 16094 16095 16096 16097 16098 16099 16100 16101 16102 16103 16104 16105 16106 16107 16108 16109 16110 16111 16112 16113 16114 16115 16116 16117 16118 16119 16120 16121 16122 16123 16124 16125 16126 16127 16128 16129 16130 16131 16132 16133 16134 16135 16136 16137 16138 16139 16140 16141 16142 16143 16144 16145 16146 16147 16148 16149 16150 16151 16152 16153 16154 16155 16156 16157 16158 16159 16160 16161 16162 16163 16164 16165 16166 16167 16168 16169 16170 16171 16172 16173 16174 16175 16176 16177 16178 16179 16180 16181 16182 16183 16184 16185 16186 16187 16188 16189 16190 16191 16192 16193 16194 16195 16196 16197 16198 16199 16200 16201 16202 16203 16204 16205 16206 16207 16208 16209 16210 16211 16212 16213 16214 16215 16216 16217 16218 16219 16220 16221 16222 16223 16224 16225 16226 16227 16228 16229 16230 16231 16232 16233 16234 16235 16236 16237 16238 16239 16240 16241 16242 16243 16244 16245 16246 16247 16248 16249 16250 16251 16252 16253 16254 16255 16256 16257 16258 16259 16260 16261 16262 16263 16264 16265 16266 16267 16268 16269 16270 16271 16272 16273 16274 16275 16276 16277 16278 16279 16280 16281 16282 16283 16284 16285 16286 16287 16288 16289 16290 16291 16292 16293 16294 16295 16296 16297 16298 16299 16300 16301 16302 16303 16304 16305 16306 16307 16308 16309 16310 16311 16312 16313 16314 16315 16316 16317 16318 16319 16320 16321 16322 16323 16324 16325 16326 16327 16328 16329 16330 16331 16332 16333 16334 16335 16336 16337 16338 16339 16340 16341 16342 16343 16344 16345 16346 16347 16348 16349 16350 16351 16352 16353 16354 16355 16356 16357 16358 16359 16360 16361 16362 16363 16364 16365 16366 16367 16368 16369 16370 16371 16372 16373 16374 16375 16376 16377 16378 16379 16380 16381 16382 16383 16384 16385 16386 16387 16388 16389 16390 16391 16392 16393 16394 16395 16396 16397 16398 16399 16400 16401 16402 16403 16404 16405 16406 16407 16408 16409 16410 16411 16412 16413 16414 16415 16416 16417 16418 16419 16420 16421 16422 16423 16424 16425 16426 16427 16428 16429 16430 16431 16432 16433 16434 16435 16436 16437 16438 16439 16440 16441 16442 16443 16444 16445 16446 16447 16448 16449 16450 16451 16452 16453 16454 16455 16456 16457 16458 16459 16460 16461 16462 16463 16464 16465 16466 16467 16468 16469 16470 16471 16472 16473 16474 16475 16476 16477 16478 16479 16480 16481 16482 16483 16484 16485 16486 16487 16488 16489 16490 16491 16492 16493 16494 16495 16496 16497 16498 16499 16500 16501 16502 16503 16504 16505 16506 16507 16508 16509 16510 16511 16512 16513 16514 16515 16516 16517 16518 16519 16520 16521 16522 16523 16524 16525 16526 16527 16528 16529 16530 16531 16532 16533 16534 16535 16536 16537 16538 16539 16540 16541 16542 16543 16544 16545 16546 16547 16548 16549 16550 16551 16552 16553 16554 16555 16556 16557 16558 16559 16560 16561 16562 16563 16564 16565 16566 16567 16568 16569 16570 16571 16572 16573 16574 16575 16576 16577 16578 16579 16580 16581 16582 16583 16584 16585 16586 16587 16588 16589 16590 16591 16592 16593 16594 16595 16596 16597 16598 16599 16600 16601 16602 16603 16604 16605 16606 16607 16608 16609 16610 16611 16612 16613 16614 16615 16616 16617 16618 16619 16620 16621 16622 16623 16624 16625 16626 16627 16628 16629 16630 16631 16632 16633 16634 16635 16636 16637 16638 16639 16640 16641 16642 16643 16644 16645 16646 16647 16648 16649 16650 16651 16652 16653 16654 16655 16656 16657 16658 16659 16660 16661 16662 16663 16664 16665 16666 16667 16668 16669 16670 16671 16672 16673 16674 16675 16676 16677 16678 16679 16680 16681 16682 16683 16684 16685 16686 16687 16688 16689 16690 16691 16692 16693 16694 16695 16696 16697 16698 16699 16700 16701 16702 16703 16704 16705 16706 16707 16708 16709 16710 16711 16712 16713 16714 16715 16716 16717 16718 16719 16720 16721 16722 16723 16724 16725 16726 16727 16728 16729 16730 16731 16732 16733 16734 16735 16736 16737 16738 16739 16740 16741 16742 16743 16744 16745 16746 16747 16748 16749 16750 16751 16752 16753 16754 16755 16756 16757 16758 16759 16760 16761 16762 16763 16764 16765 16766 16767 16768 16769 16770 16771 16772 16773 16774 16775 16776 16777 16778 16779 16780 16781 16782 16783 16784 16785 16786 16787 16788 16789 16790 16791 16792 16793 16794 16795 16796 16797 16798 16799 16800 16801 16802 16803 16804 16805 16806 16807 16808 16809 16810 16811 16812 16813 16814 16815 16816 16817 16818 16819 16820 16821 16822 16823 16824 16825 16826 16827 16828 16829 16830 16831 16832 16833 16834 16835 16836 16837 16838 16839 16840 16841 16842 16843 16844 16845 16846 16847 16848 16849 16850 16851 16852 16853 16854 16855 16856 16857 16858 16859 16860 16861 16862 16863 16864 16865 16866 16867 16868 16869 16870 16871 16872 16873 16874 16875 16876 16877 16878 16879 16880 16881 16882 16883 16884 16885 16886 16887 16888 16889 16890 16891 16892 16893 16894 16895 16896 16897 16898 16899 16900 16901 16902 16903 16904 16905 16906 16907 16908 16909 16910 16911 16912 16913 16914 16915 16916 16917 16918 16919 16920 16921 16922 16923 16924 16925 16926 16927 16928 16929 16930 16931 16932 16933 16934 16935 16936 16937 16938 16939 16940 16941 16942 16943 16944 16945 16946 16947 16948 16949 16950 16951 16952 16953 16954 16955 16956 16957 16958 16959 16960 16961 16962 16963 16964 16965 16966 16967 16968 16969 16970 16971 16972 16973 16974 16975 16976 16977 16978 16979 16980 16981 16982 16983 16984 16985 16986 16987 16988 16989 16990 16991 16992 16993 16994 16995 16996 16997 16998 16999 17000 17001 17002 17003 17004 17005 17006 17007 17008 17009 17010 17011 17012 17013 17014 17015 17016 17017 17018 17019 17020 17021 17022 17023 17024 17025 17026 17027 17028 17029 17030 17031 17032 17033 17034 17035 17036 17037 17038 17039 17040 17041 17042 17043 17044 17045 17046 17047 17048 17049 17050 17051 17052 17053 17054 17055 17056 17057 17058 17059 17060 17061 17062 17063 17064 17065 17066 17067 17068 17069 17070 17071 17072 17073 17074 17075 17076 17077 17078 17079 17080 17081 17082 17083 17084 17085 17086 17087 17088 17089 17090 17091 17092 17093 17094 17095 17096 17097 17098 17099 17100 17101 17102 17103 17104 17105 17106 17107 17108 17109 17110 17111 17112 17113 17114 17115 17116 17117 17118 17119 17120 17121 17122 17123 17124 17125 17126 17127 17128 17129 17130 17131 17132 17133 17134 17135 17136 17137 17138 17139 17140 17141 17142 17143 17144 17145 17146 17147 17148 17149 17150 17151 17152 17153 17154 17155 17156 17157 17158 17159 17160 17161 17162 17163 17164 17165 17166 17167 17168 17169 17170 17171 17172 17173 17174 17175 17176 17177 17178 17179 17180 17181 17182 17183 17184 17185 17186 17187 17188 17189 17190 17191 17192 17193 17194 17195 17196 17197 17198 17199 17200 17201 17202 17203 17204 17205 17206 17207 17208 17209 17210 17211 17212 17213 17214 17215 17216 17217 17218 17219 17220 17221 17222 17223 17224 17225 17226 17227 17228 17229 17230 17231 17232 17233 17234 17235 17236 17237 17238 17239 17240 17241 17242 17243 17244 17245 17246 17247 17248 17249 17250 17251 17252 17253 17254 17255 17256 17257 17258 17259 17260 17261 17262 17263 17264 17265 17266 17267 17268 17269 17270 17271 17272 17273 17274 17275 17276 17277 17278 17279 17280 17281 17282 17283 17284 17285 17286 17287 17288 17289 17290 17291 17292 17293 17294 17295 17296 17297 17298 17299 17300 17301 17302 17303 17304 17305 17306 17307 17308 17309 17310 17311 17312 17313 17314 17315 17316 17317 17318 17319 17320 17321 17322 17323 17324 17325 17326 17327 17328 17329 17330 17331 17332 17333 17334 17335 17336 17337 17338 17339 17340 17341 17342 17343 17344 17345 17346 17347 17348 17349 17350 17351 17352 17353 17354 17355 17356 17357 17358 17359 17360 17361 17362 17363 17364 17365 17366 17367 17368 17369 17370 17371 17372 17373 17374 17375 17376 17377 17378 17379 17380 17381 17382 17383 17384 17385 17386 17387 17388 17389 17390 17391 17392 17393 17394 17395 17396 17397 17398 17399 17400 17401 17402 17403 17404 17405 17406 17407 17408 17409 17410 17411 17412 17413 17414 17415 17416 17417 17418 17419 17420 17421 17422 17423 17424 17425 17426 17427 17428 17429 17430 17431 17432 17433 17434 17435 17436 17437 17438 17439 17440 17441 17442 17443 17444 17445 17446 17447 17448 17449 17450 17451 17452 17453 17454 17455 17456 17457 17458 17459 17460 17461 17462 17463 17464 17465 17466 17467 17468 17469 17470 17471 17472 17473 17474 17475 17476 17477 17478 17479 17480 17481 17482 17483 17484 17485 17486 17487 17488 17489 17490 17491 17492 17493 17494 17495 17496 17497 17498 17499 17500 17501 17502 17503 17504 17505 17506 17507 17508 17509 17510 17511 17512 17513 17514 17515 17516 17517 17518 17519 17520 17521 17522 17523 17524 17525 17526 17527 17528 17529 17530 17531 17532 17533 17534 17535 17536 17537 17538 17539 17540 17541 17542 17543 17544 17545 17546 17547 17548 17549 17550 17551 17552 17553 17554 17555 17556 17557 17558 17559 17560 17561 17562 17563 17564 17565 17566 17567 17568 17569 17570 17571 17572 17573 17574 17575 17576 17577 17578 17579 17580 17581 17582 17583 17584 17585 17586 17587 17588 17589 17590 17591 17592 17593 17594 17595 17596 17597 17598 17599 17600 17601 17602 17603 17604 17605 17606 17607 17608 17609 17610 17611 17612 17613 17614 17615 17616 17617 17618 17619 17620 17621 17622 17623 17624 17625 17626 17627 17628 17629 17630 17631 17632 17633 17634 17635 17636 17637 17638 17639 17640 17641 17642 17643 17644 17645 17646 17647 17648 17649 17650 17651 17652 17653 17654 17655 17656 17657 17658 17659 17660 17661 17662 17663 17664 17665 17666 17667 17668 17669 17670 17671 17672 17673 17674 17675 17676 17677 17678 17679 17680 17681 17682 17683 17684 17685 17686 17687 17688 17689 17690 17691 17692 17693 17694 17695 17696 17697 17698 17699 17700 17701 17702 17703 17704 17705 17706 17707 17708 17709 17710 17711 17712 17713 17714 17715 17716 17717 17718 17719 17720 17721 17722 17723 17724 17725 17726 17727 17728 17729 17730 17731 17732 17733 17734 17735 17736 17737 17738 17739 17740 17741 17742 17743 17744 17745 17746 17747 17748 17749 17750 17751 17752 17753 17754 17755 17756 17757 17758 17759 17760 17761 17762 17763 17764 17765 17766 17767 17768 17769 17770 17771 17772 17773 17774 17775 17776 17777 17778 17779 17780 17781 17782 17783 17784 17785 17786 17787 17788 17789 17790 17791 17792 17793 17794 17795 17796 17797 17798 17799 17800 17801 17802 17803 17804 17805 17806 17807 17808 17809 17810 17811 17812 17813 17814 17815 17816 17817 17818 17819 17820 17821 17822 17823 17824 17825 17826 17827 17828 17829 17830 17831 17832 17833 17834 17835 17836 17837 17838 17839 17840 17841 17842 17843 17844 17845 17846 17847 17848 17849 17850 17851 17852 17853 17854 17855 17856 17857 17858 17859 17860 17861 17862 17863 17864 17865 17866 17867 17868 17869 17870 17871 17872 17873 17874 17875 17876 17877 17878 17879 17880 17881 17882 17883 17884 17885 17886 17887 17888 17889 17890 17891 17892 17893 17894 17895 17896 17897 17898 17899 17900 17901 17902 17903 17904 17905 17906 17907 17908 17909 17910 17911 17912 17913 17914 17915 17916 17917 17918 17919 17920 17921 17922 17923 17924 17925 17926 17927 17928 17929 17930 17931 17932 17933 17934 17935 17936 17937 17938 17939 17940 17941 17942 17943 17944 17945 17946 17947 17948 17949 17950 17951 17952 17953 17954 17955 17956 17957 17958 17959 17960 17961 17962 17963 17964 17965 17966 17967 17968 17969 17970 17971 17972 17973 17974 17975 17976 17977 17978 17979 17980 17981 17982 17983 17984 17985 17986 17987 17988 17989 17990 17991 17992 17993 17994 17995 17996 17997 17998 17999 18000 18001 18002 18003 18004 18005 18006 18007 18008 18009 18010 18011 18012 18013 18014 18015 18016 18017 18018 18019 18020 18021 18022 18023 18024 18025 18026 18027 18028 18029 18030 18031 18032 18033 18034 18035 18036 18037 18038 18039 18040 18041 18042 18043 18044 18045 18046 18047 18048 18049 18050 18051 18052 18053 18054 18055 18056 18057 18058 18059 18060 18061 18062 18063 18064 18065 18066 18067 18068 18069 18070 18071 18072 18073 18074 18075 18076 18077 18078 18079 18080 18081 18082 18083 18084 18085 18086 18087 18088 18089 18090 18091 18092 18093 18094 18095 18096 18097 18098 18099 18100 18101 18102 18103 18104 18105 18106 18107 18108 18109 18110 18111 18112 18113 18114 18115 18116 18117 18118 18119 18120 18121 18122 18123 18124 18125 18126 18127 18128 18129 18130 18131 18132 18133 18134 18135 18136 18137 18138 18139 18140 18141 18142 18143 18144 18145 18146 18147 18148 18149 18150 18151 18152 18153 18154 18155 18156 18157 18158 18159 18160 18161 18162 18163 18164 18165 18166 18167 18168 18169 18170 18171 18172 18173 18174 18175 18176 18177 18178 18179 18180 18181 18182 18183 18184 18185 18186 18187 18188 18189 18190 18191 18192 18193 18194 18195 18196 18197 18198 18199 18200 18201 18202 18203 18204 18205 18206 18207 18208 18209 18210 18211 18212 18213 18214 18215 18216 18217 18218 18219 18220 18221 18222 18223 18224 18225 18226 18227 18228 18229 18230 18231 18232 18233 18234 18235 18236 18237 18238 18239 18240 18241 18242 18243 18244 18245 18246 18247 18248 18249 18250 18251 18252 18253 18254 18255 18256 18257 18258 18259 18260 18261 18262 18263 18264 18265 18266 18267 18268 18269 18270 18271 18272 18273 18274 18275 18276 18277 18278 18279 18280 18281 18282 18283 18284 18285 18286 18287 18288 18289 18290 18291 18292 18293 18294 18295 18296 18297 18298 18299 18300 18301 18302 18303 18304 18305 18306 18307 18308 18309 18310 18311 18312 18313 18314 18315 18316 18317 18318 18319 18320 18321 18322 18323 18324 18325 18326 18327 18328 18329 18330 18331 18332 18333 18334 18335 18336 18337 18338 18339 18340 18341 18342 18343 18344 18345 18346 18347 18348 18349 18350 18351 18352 18353 18354 18355 18356 18357 18358 18359 18360 18361 18362 18363 18364 18365 18366 18367 18368 18369 18370 18371 18372 18373 18374 18375 18376 18377 18378 18379 18380 18381 18382 18383 18384 18385 18386 18387 18388 18389 18390 18391 18392 18393 18394 18395 18396 18397 18398 18399 18400 18401 18402 18403 18404 18405 18406 18407 18408 18409 18410 18411 18412 18413 18414 18415 18416 18417 18418 18419 18420 18421 18422 18423 18424 18425 18426 18427 18428 18429 18430 18431 18432 18433 18434 18435 18436 18437 18438 18439 18440 18441 18442 18443 18444 18445 18446 18447 18448 18449 18450 18451 18452 18453 18454 18455 18456 18457 18458 18459 18460 18461 18462 18463 18464 18465 18466 18467 18468 18469 18470 18471 18472 18473 18474 18475 18476 18477 18478 18479 18480 18481 18482 18483 18484 18485 18486 18487 18488 18489 18490 18491 18492 18493 18494 18495 18496 18497 18498 18499 18500 18501 18502 18503 18504 18505 18506 18507 18508 18509 18510 18511 18512 18513 18514 18515 18516 18517 18518 18519 18520 18521 18522 18523 18524 18525 18526 18527 18528 18529 18530 18531 18532 18533 18534 18535 18536 18537 18538 18539 18540 18541 18542 18543 18544 18545 18546 18547 18548 18549 18550 18551 18552 18553 18554 18555 18556 18557 18558 18559 18560 18561 18562 18563 18564 18565 18566 18567 18568 18569 18570 18571 18572 18573 18574 18575 18576 18577 18578 18579 18580 18581 18582 18583 18584 18585 18586 18587 18588 18589 18590 18591 18592 18593 18594 18595 18596 18597 18598 18599 18600 18601 18602 18603 18604 18605 18606 18607 18608 18609 18610 18611 18612 18613 18614 18615 18616 18617 18618 18619 18620 18621 18622 18623 18624 18625 18626 18627 18628 18629 18630 18631 18632 18633 18634 18635 18636 18637 18638 18639 18640 18641 18642 18643 18644 18645 18646 18647 18648 18649 18650 18651 18652 18653 18654 18655 18656 18657 18658 18659 18660 18661 18662 18663 18664 18665 18666 18667 18668 18669 18670 18671 18672 18673 18674 18675 18676 18677 18678 18679 18680 18681 18682 18683 18684 18685 18686 18687 18688 18689 18690 18691 18692 18693 18694 18695 18696 18697 18698 18699 18700 18701 18702 18703 18704 18705 18706 18707 18708 18709 18710 18711 18712 18713 18714 18715 18716 18717 18718 18719 18720 18721 18722 18723 18724 18725 18726 18727 18728 18729 18730 18731 18732 18733 18734 18735 18736 18737 18738 18739 18740 18741 18742 18743 18744 18745 18746 18747 18748 18749 18750 18751 18752 18753 18754 18755 18756 18757 18758 18759 18760 18761 18762 18763 18764 18765 18766 18767 18768 18769 18770 18771 18772 18773 18774 18775 18776 18777 18778 18779 18780 18781 18782 18783 18784 18785 18786 18787 18788 18789 18790 18791 18792 18793 18794 18795 18796 18797 18798 18799 18800 18801 18802 18803 18804 18805 18806 18807 18808 18809 18810 18811 18812 18813 18814 18815 18816 18817 18818 18819 18820 18821 18822 18823 18824 18825 18826 18827 18828 18829 18830 18831 18832 18833 18834 18835 18836 18837 18838 18839 18840 18841 18842 18843 18844 18845 18846 18847 18848 18849 18850 18851 18852 18853 18854 18855 18856 18857 18858 18859 18860 18861 18862 18863 18864 18865 18866 18867 18868 18869 18870 18871 18872 18873 18874 18875 18876 18877 18878 18879 18880 18881 18882 18883 18884 18885 18886 18887 18888 18889 18890 18891 18892 18893 18894 18895 18896 18897 18898 18899 18900 18901 18902 18903 18904 18905 18906 18907 18908 18909 18910 18911 18912 18913 18914 18915 18916 18917 18918 18919 18920 18921 18922 18923 18924 18925 18926 18927 18928 18929 18930 18931 18932 18933 18934 18935 18936 18937 18938 18939 18940 18941 18942 18943 18944 18945 18946 18947 18948 18949 18950 18951 18952 18953 18954 18955 18956 18957 18958 18959 18960 18961 18962 18963 18964 18965 18966 18967 18968 18969 18970 18971 18972 18973 18974 18975 18976 18977 18978 18979 18980 18981 18982 18983 18984 18985 18986 18987 18988 18989 18990 18991 18992 18993 18994 18995 18996 18997 18998 18999 19000 19001 19002 19003 19004 19005 19006 19007 19008 19009 19010 19011 19012 19013 19014 19015 19016 19017 19018 19019 19020 19021 19022 19023 19024 19025 19026 19027 19028 19029 19030 19031 19032 19033 19034 19035 19036 19037 19038 19039 19040 19041 19042 19043 19044 19045 19046 19047 19048 19049 19050 19051 19052 19053 19054 19055 19056 19057 19058 19059 19060 19061 19062 19063 19064 19065 19066 19067 19068 19069 19070 19071 19072 19073 19074 19075 19076 19077 19078 19079 19080 19081 19082 19083 19084 19085 19086 19087 19088 19089 19090 19091 19092 19093 19094 19095 19096 19097 19098 19099 19100 19101 19102 19103 19104 19105 19106 19107 19108 19109 19110 19111 19112 19113 19114 19115 19116 19117 19118 19119 19120 19121 19122 19123 19124 19125 19126 19127 19128 19129 19130 19131 19132 19133 19134 19135 19136 19137 19138 19139 19140 19141 19142 19143 19144 19145 19146 19147 19148 19149 19150 19151 19152 19153 19154 19155 19156 19157 19158 19159 19160 19161 19162 19163 19164 19165 19166 19167 19168 19169 19170 19171 19172 19173 19174 19175 19176 19177 19178 19179 19180 19181 19182 19183 19184 19185 19186 19187 19188 19189 19190 19191 19192 19193 19194 19195 19196 19197 19198 19199 19200 19201 19202 19203 19204 19205 19206 19207 19208 19209 19210 19211 19212 19213 19214 19215 19216 19217 19218 19219 19220 19221 19222 19223 19224 19225 19226 19227 19228 19229 19230 19231 19232 19233 19234 19235 19236 19237 19238 19239 19240 19241 19242 19243 19244 19245 19246 19247 19248 19249 19250 19251 19252 19253 19254 19255 19256 19257 19258 19259 19260 19261 19262 19263 19264 19265 19266 19267 19268 19269 19270 19271 19272 19273 19274 19275 19276 19277 19278 19279 19280 19281 19282 19283 19284 19285 19286 19287 19288 19289 19290 19291 19292 19293 19294 19295 19296 19297 19298 19299 19300 19301 19302 19303 19304 19305 19306 19307 19308 19309 19310 19311 19312 19313 19314 19315 19316 19317 19318 19319 19320 19321 19322 19323 19324 19325 19326 19327 19328 19329 19330 19331 19332 19333 19334 19335 19336 19337 19338 19339 19340 19341 19342 19343 19344 19345 19346 19347 19348 19349 19350 19351 19352 19353 19354 19355 19356 19357 19358 19359 19360 19361 19362 19363 19364 19365 19366 19367 19368 19369 19370 19371 19372 19373 19374 19375 19376 19377 19378 19379 19380 19381 19382 19383 19384 19385 19386 19387 19388 19389 19390 19391 19392 19393 19394 19395 19396 19397 19398 19399 19400 19401 19402 19403 19404 19405 19406 19407 19408 19409 19410 19411 19412 19413 19414 19415 19416 19417 19418 19419 19420 19421 19422 19423 19424 19425 19426 19427 19428 19429 19430 19431 19432 19433 19434 19435 19436 19437 19438 19439 19440 19441 19442 19443 19444 19445 19446 19447 19448 19449 19450 19451 19452 19453 19454 19455 19456 19457 19458 19459 19460 19461 19462 19463 19464 19465 19466 19467 19468 19469 19470 19471 19472 19473 19474 19475 19476 19477 19478 19479 19480 19481 19482 19483 19484 19485 19486 19487 19488 19489 19490 19491 19492 19493 19494 19495 19496 19497 19498 19499 19500 19501 19502 19503 19504 19505 19506 19507 19508 19509 19510 19511 19512 19513 19514 19515 19516 19517 19518 19519 19520 19521 19522 19523 19524 19525 19526 19527 19528 19529 19530 19531 19532 19533 19534 19535 19536 19537 19538 19539 19540 19541 19542 19543 19544 19545 19546 19547 19548 19549 19550 19551 19552 19553 19554 19555 19556 19557 19558 19559 19560 19561 19562 19563 19564 19565 19566 19567 19568 19569 19570 19571 19572 19573 19574 19575 19576 19577 19578 19579 19580 19581 19582 19583 19584 19585 19586 19587 19588 19589 19590 19591 19592 19593 19594 19595 19596 19597 19598 19599 19600 19601 19602 19603 19604 19605 19606 19607 19608 19609 19610 19611 19612 19613 19614 19615 19616 19617 19618 19619 19620 19621 19622 19623 19624 19625 19626 19627 19628 19629 19630 19631 19632 19633 19634 19635 19636 19637 19638 19639 19640 19641 19642 19643 19644 19645 19646 19647 19648 19649 19650 19651 19652 19653 19654 19655 19656 19657 19658 19659 19660 19661 19662 19663 19664 19665 19666 19667 19668 19669 19670 19671 19672 19673 19674 19675 19676 19677 19678 19679 19680 19681 19682 19683 19684 19685 19686 19687 19688 19689 19690 19691 19692 19693 19694 19695 19696 19697 19698 19699 19700 19701 19702 19703 19704 19705 19706 19707 19708 19709 19710 19711 19712 19713 19714 19715 19716 19717 19718 19719 19720 19721 19722 19723 19724 19725 19726 19727 19728 19729 19730 19731 19732 19733 19734 19735 19736 19737 19738 19739 19740 19741 19742 19743 19744 19745 19746 19747 19748 19749 19750 19751 19752 19753 19754 19755 19756 19757 19758 19759 19760 19761 19762 19763 19764 19765 19766 19767 19768 19769 19770 19771 19772 19773 19774 19775 19776 19777 19778 19779 19780 19781 19782 19783 19784 19785 19786 19787 19788 19789 19790 19791 19792 19793 19794 19795 19796 19797 19798 19799 19800 19801 19802 19803 19804 19805 19806 19807 19808 19809 19810 19811 19812 19813 19814 19815 19816 19817 19818 19819 19820 19821 19822 19823 19824 19825 19826 19827 19828 19829 19830 19831 19832 19833 19834 19835 19836 19837 19838 19839 19840 19841 19842 19843 19844 19845 19846 19847 19848 19849 19850 19851 19852 19853 19854 19855 19856 19857 19858 19859 19860 19861 19862 19863 19864 19865 19866 19867 19868 19869 19870 19871 19872 19873 19874 19875 19876 19877 19878 19879 19880 19881 19882 19883 19884 19885 19886 19887 19888 19889 19890 19891 19892 19893 19894 19895 19896 19897 19898 19899 19900 19901 19902 19903 19904 19905 19906 19907 19908 19909 19910 19911 19912 19913 19914 19915 19916 19917 19918 19919 19920 19921 19922 19923 19924 19925 19926 19927 19928 19929 19930 19931 19932 19933 19934 19935 19936 19937 19938 19939 19940 19941 19942 19943 19944 19945 19946 19947 19948 19949 19950 19951 19952 19953 19954 19955 19956 19957 19958 19959 19960 19961 19962 19963 19964 19965 19966 19967 19968 19969 19970 19971 19972 19973 19974 19975 19976 19977 19978 19979 19980 19981 19982 19983 19984 19985 19986 19987 19988 19989 19990 19991 19992 19993 19994 19995 19996 19997 19998 19999 20000 20001 20002 20003 20004 20005 20006 20007 20008 20009 20010 20011 20012 20013 20014 20015 20016 20017 20018 20019 20020 20021 20022 20023 20024 20025 20026 20027 20028 20029 20030 20031 20032 20033 20034 20035 20036 20037 20038 20039 20040 20041 20042 20043 20044 20045 20046 20047 20048 20049 20050 20051 20052 20053 20054 20055 20056 20057 20058 20059 20060 20061 20062 20063 20064 20065 20066 20067 20068 20069 20070 20071 20072 20073 20074 20075 20076 20077 20078 20079 20080 20081 20082 20083 20084 20085 20086 20087 20088 20089 20090 20091 20092 20093 20094 20095 20096 20097 20098 20099 20100 20101 20102 20103 20104 20105 20106 20107 20108 20109 20110 20111 20112 20113 20114 20115 20116 20117 20118 20119 20120 20121 20122 20123 20124 20125 20126 20127 20128 20129 20130 20131 20132 20133 20134 20135 20136 20137 20138 20139 20140 20141 20142 20143 20144 20145 20146 20147 20148 20149 20150 20151 20152 20153 20154 20155 20156 20157 20158 20159 20160 20161 20162 20163 20164 20165 20166 20167 20168 20169 20170 20171 20172 20173 20174 20175 20176 20177 20178 20179 20180 20181 20182 20183 20184 20185 20186 20187 20188 20189 20190 20191 20192 20193 20194 20195 20196 20197 20198 20199 20200 20201 20202 20203 20204 20205 20206 20207 20208 20209 20210 20211 20212 20213 20214 20215 20216 20217 20218 20219 20220 20221 20222 20223 20224 20225 20226 20227 20228 20229 20230 20231 20232 20233 20234 20235 20236 20237 20238 20239 20240 20241 20242 20243 20244 20245 20246 20247 20248 20249 20250 20251 20252 20253 20254 20255 20256 20257 20258 20259 20260 20261 20262 20263 20264 20265 20266 20267 20268 20269 20270 20271 20272 20273 20274 20275 20276 20277 20278 20279 20280 20281 20282 20283 20284 20285 20286 20287 20288 20289 20290 20291 20292 20293 20294 20295 20296 20297 20298 20299 20300 20301 20302 20303 20304 20305 20306 20307 20308 20309 20310 20311 20312 20313 20314 20315 20316 20317 20318 20319 20320 20321 20322 20323 20324 20325 20326 20327 20328 20329 20330 20331 20332 20333 20334 20335 20336 20337 20338 20339 20340 20341 20342 20343 20344 20345 20346 20347 20348 20349 20350 20351 20352 20353 20354 20355 20356 20357 20358 20359 20360 20361 20362 20363 20364 20365 20366 20367 20368 20369 20370 20371 20372 20373 20374 20375 20376 20377 20378 20379 20380 20381 20382 20383 20384 20385 20386 20387 20388 20389 20390 20391 20392 20393 20394 20395 20396 20397 20398 20399 20400 20401 20402 20403 20404 20405 20406 20407 20408 20409 20410 20411 20412 20413 20414 20415 20416 20417 20418 20419 20420 20421 20422 20423 20424 20425 20426 20427 20428 20429 20430 20431 20432 20433 20434 20435 20436 20437 20438 20439 20440 20441 20442 20443 20444 20445 20446 20447 20448 20449 20450 20451 20452 20453 20454 20455 20456 20457 20458 20459 20460 20461 20462 20463 20464 20465 20466 20467 20468 20469 20470 20471 20472 20473 20474 20475 20476 20477 20478 20479 20480 20481 20482 20483 20484 20485 20486 20487 20488 20489 20490 20491 20492 20493 20494 20495 20496 20497 20498 20499 20500 20501 20502 20503 20504 20505 20506 20507 20508 20509 20510 20511 20512 20513 20514 20515 20516 20517 20518 20519 20520 20521 20522 20523 20524 20525 20526 20527 20528 20529 20530 20531 20532 20533 20534 20535 20536 20537 20538 20539 20540 20541 20542 20543 20544 20545 20546 20547 20548 20549 20550 20551 20552 20553 20554 20555 20556 20557 20558 20559 20560 20561 20562 20563 20564 20565 20566 20567 20568 20569 20570 20571 20572 20573 20574 20575 20576 20577 20578 20579 20580 20581 20582 20583 20584 20585 20586 20587 20588 20589 20590 20591 20592 20593 20594 20595 20596 20597 20598 20599 20600 20601 20602 20603 20604 20605 20606 20607 20608 20609 20610 20611 20612 20613 20614 20615 20616 20617 20618 20619 20620 20621 20622 20623 20624 20625 20626 20627 20628 20629 20630 20631 20632 20633 20634 20635 20636 20637 20638 20639 20640 20641 20642 20643 20644 20645 20646 20647 20648 20649 20650 20651 20652 20653 20654 20655 20656 20657 20658 20659 20660 20661 20662 20663 20664 20665 20666 20667 20668 20669 20670 20671 20672 20673 20674 20675 20676 20677 20678 20679 20680 20681 20682 20683 20684 20685 20686 20687 20688 20689 20690 20691 20692 20693 20694 20695 20696 20697 20698 20699 20700 20701 20702 20703 20704 20705 20706 20707 20708 20709 20710 20711 20712 20713 20714 20715 20716 20717 20718 20719 20720 20721 20722 20723 20724 20725 20726 20727 20728 20729 20730 20731 20732 20733 20734 20735 20736 20737 20738 20739 20740 20741 20742 20743 20744 20745 20746 20747 20748 20749 20750 20751 20752 20753 20754 20755 20756 20757 20758 20759 20760 20761 20762 20763 20764 20765 20766 20767 20768 20769 20770 20771 20772 20773 20774 20775 20776 20777 20778 20779 20780 20781 20782 20783 20784 20785 20786 20787 20788 20789 20790 20791 20792 20793 20794 20795 20796 20797 20798 20799 20800 20801 20802 20803 20804 20805 20806 20807 20808 20809 20810 20811 20812 20813 20814 20815 20816 20817 20818 20819 20820 20821 20822 20823 20824 20825 20826 20827 20828 20829 20830 20831 20832 20833 20834 20835 20836 20837 20838 20839 20840 20841 20842 20843 20844 20845 20846 20847 20848 20849 20850 20851 20852 20853 20854 20855 20856 20857 20858 20859 20860 20861 20862 20863 20864 20865 20866 20867 20868 20869 20870 20871 20872 20873 20874 20875 20876 20877 20878 20879 20880 20881 20882 20883 20884 20885 20886 20887 20888 20889 20890 20891 20892 20893 20894 20895 20896 20897 20898 20899 20900 20901 20902 20903 20904 20905 20906 20907 20908 20909 20910 20911 20912 20913 20914 20915 20916 20917 20918 20919 20920 20921 20922 20923 20924 20925 20926 20927 20928 20929 20930 20931 20932 20933 20934 20935 20936 20937 20938 20939 20940 20941 20942 20943 20944 20945 20946 20947 20948 20949 20950 20951 20952 20953 20954 20955 20956 20957 20958 20959 20960 20961 20962 20963 20964 20965 20966 20967 20968 20969 20970 20971 20972 20973 20974 20975 20976 20977 20978 20979 20980 20981 20982 20983 20984 20985 20986 20987 20988 20989 20990 20991 20992 20993 20994 20995 20996 20997 20998 20999 21000 21001 21002 21003 21004 21005 21006 21007 21008 21009 21010 21011 21012 21013 21014 21015 21016 21017 21018 21019 21020 21021 21022 21023 21024 21025 21026 21027 21028 21029 21030 21031 21032 21033 21034 21035 21036 21037 21038 21039 21040 21041 21042 21043 21044 21045 21046 21047 21048 21049 21050 21051 21052 21053 21054 21055 21056 21057 21058 21059 21060 21061 21062 21063 21064 21065 21066 21067 21068 21069 21070 21071 21072 21073 21074 21075 21076 21077 21078 21079 21080 21081 21082 21083 21084 21085 21086 21087 21088 21089 21090 21091 21092 21093 21094 21095 21096 21097 21098 21099 21100 21101 21102 21103 21104 21105 21106 21107 21108 21109 21110 21111 21112 21113 21114 21115 21116 21117 21118 21119 21120 21121 21122 21123 21124 21125 21126 21127 21128 21129 21130 21131 21132 21133 21134 21135 21136 21137 21138 21139 21140 21141 21142 21143 21144 21145 21146 21147 21148 21149 21150 21151 21152 21153 21154 21155 21156 21157 21158 21159 21160 21161 21162 21163 21164 21165 21166 21167 21168 21169 21170 21171 21172 21173 21174 21175 21176 21177 21178 21179 21180 21181 21182 21183 21184 21185 21186 21187 21188 21189 21190 21191 21192 21193 21194 21195 21196 21197 21198 21199 21200 21201 21202 21203 21204 21205 21206 21207 21208 21209 21210 21211 21212 21213 21214 21215 21216 21217 21218 21219 21220 21221 21222 21223 21224 21225 21226 21227 21228 21229 21230 21231 21232 21233 21234 21235 21236 21237 21238 21239 21240 21241 21242 21243 21244 21245 21246 21247 21248 21249 21250 21251 21252 21253 21254 21255 21256 21257 21258 21259 21260 21261 21262 21263 21264 21265 21266 21267 21268 21269 21270 21271 21272 21273 21274 21275 21276 21277 21278 21279 21280 21281 21282 21283 21284 21285 21286 21287 21288 21289 21290 21291 21292 21293 21294 21295 21296 21297 21298 21299 21300 21301 21302 21303 21304 21305 21306 21307 21308 21309 21310 21311 21312 21313 21314 21315 21316 21317 21318 21319 21320 21321 21322 21323 21324 21325 21326 21327 21328 21329 21330 21331 21332 21333 21334 21335 21336 21337 21338 21339 21340 21341 21342 21343 21344 21345 21346 21347 21348 21349 21350 21351 21352 21353 21354 21355 21356 21357 21358 21359 21360 21361 21362 21363 21364 21365 21366 21367 21368 21369 21370 21371 21372 21373 21374 21375 21376 21377 21378 21379 21380 21381 21382 21383 21384 21385 21386 21387 21388 21389 21390 21391 21392 21393 21394 21395 21396 21397 21398 21399 21400 21401 21402 21403 21404 21405 21406 21407 21408 21409 21410 21411 21412 21413 21414 21415 21416 21417 21418 21419 21420 21421 21422 21423 21424 21425 21426 21427 21428 21429 21430 21431 21432 21433 21434 21435 21436 21437 21438 21439 21440 21441 21442 21443 21444 21445 21446 21447 21448 21449 21450 21451 21452 21453 21454 21455 21456 21457 21458 21459 21460 21461 21462 21463 21464 21465 21466 21467 21468 21469 21470 21471 21472 21473 21474 21475 21476 21477 21478 21479 21480 21481 21482 21483 21484 21485 21486 21487 21488 21489 21490 21491 21492 21493 21494 21495 21496 21497 21498 21499 21500 21501 21502 21503 21504 21505 21506 21507 21508 21509 21510 21511 21512 21513 21514 21515 21516 21517 21518 21519 21520 21521 21522 21523 21524 21525 21526 21527 21528 21529 21530 21531 21532 21533 21534 21535 21536 21537 21538 21539 21540 21541 21542 21543 21544 21545 21546 21547 21548 21549 21550 21551 21552 21553 21554 21555 21556 21557 21558 21559 21560 21561 21562 21563 21564 21565 21566 21567 21568 21569 21570 21571 21572 21573 21574 21575 21576 21577 21578 21579 21580 21581 21582 21583 21584 21585 21586 21587 21588 21589 21590 21591 21592 21593 21594 21595 21596 21597 21598 21599 21600 21601 21602 21603 21604 21605 21606 21607 21608 21609 21610 21611 21612 21613 21614 21615 21616 21617 21618 21619 21620 21621 21622 21623 21624 21625 21626 21627 21628 21629 21630 21631 21632 21633 21634 21635 21636 21637 21638 21639 21640 21641 21642 21643 21644 21645 21646 21647 21648 21649 21650 21651 21652 21653 21654 21655 21656 21657 21658 21659 21660 21661 21662 21663 21664 21665 21666 21667 21668 21669 21670 21671 21672 21673 21674 21675 21676 21677 21678 21679 21680 21681 21682 21683 21684 21685 21686 21687 21688 21689 21690 21691 21692 21693 21694 21695 21696 21697 21698 21699 21700 21701 21702 21703 21704 21705 21706 21707 21708 21709 21710 21711 21712 21713 21714 21715 21716 21717 21718 21719 21720 21721 21722 21723 21724 21725 21726 21727 21728 21729 21730 21731 21732 21733 21734 21735 21736 21737 21738 21739 21740 21741 21742 21743 21744 21745 21746 21747 21748 21749 21750 21751 21752 21753 21754 21755 21756 21757 21758 21759 21760 21761 21762 21763 21764 21765 21766 21767 21768 21769 21770 21771 21772 21773 21774 21775 21776 21777 21778 21779 21780 21781 21782 21783 21784 21785 21786 21787 21788 21789 21790 21791 21792 21793 21794 21795 21796 21797 21798 21799 21800 21801 21802 21803 21804 21805 21806 21807 21808 21809 21810 21811 21812 21813 21814 21815 21816 21817 21818 21819 21820 21821 21822 21823 21824 21825 21826 21827 21828 21829 21830 21831 21832 21833 21834 21835 21836 21837 21838 21839 21840 21841 21842 21843 21844 21845 21846 21847 21848 21849 21850 21851 21852 21853 21854 21855 21856 21857 21858 21859 21860 21861 21862 21863 21864 21865 21866 21867 21868 21869 21870 21871 21872 21873 21874 21875 21876 21877 21878 21879 21880 21881 21882 21883 21884 21885 21886 21887 21888 21889 21890 21891 21892 21893 21894 21895 21896 21897 21898 21899 21900 21901 21902 21903 21904 21905 21906 21907 21908 21909 21910 21911 21912 21913 21914 21915 21916 21917 21918 21919 21920 21921 21922 21923 21924 21925 21926 21927 21928 21929 21930 21931 21932 21933 21934 21935 21936 21937 21938 21939 21940 21941 21942 21943 21944 21945 21946 21947 21948 21949 21950 21951 21952 21953 21954 21955 21956 21957 21958 21959 21960 21961 21962 21963 21964 21965 21966 21967 21968 21969 21970 21971 21972 21973 21974 21975 21976 21977 21978 21979 21980 21981 21982 21983 21984 21985 21986 21987 21988 21989 21990 21991 21992 21993 21994 21995 21996 21997 21998 21999 22000 22001 22002 22003 22004 22005 22006 22007 22008 22009 22010 22011 22012 22013 22014 22015 22016 22017 22018 22019 22020 22021 22022 22023 22024 22025 22026 22027 22028 22029 22030 22031 22032 22033 22034 22035 22036 22037 22038 22039 22040 22041 22042 22043 22044 22045 22046 22047 22048 22049 22050 22051 22052 22053 22054 22055 22056 22057 22058 22059 22060 22061 22062 22063 22064 22065 22066 22067 22068 22069 22070 22071 22072 22073 22074 22075 22076 22077 22078 22079 22080 22081 22082 22083 22084 22085 22086 22087 22088 22089 22090 22091 22092 22093 22094 22095 22096 22097 22098 22099 22100 22101 22102 22103 22104 22105 22106 22107 22108 22109 22110 22111 22112 22113 22114 22115 22116 22117 22118 22119 22120 22121 22122 22123 22124 22125 22126 22127 22128 22129 22130 22131 22132 22133 22134 22135 22136 22137 22138 22139 22140 22141 22142 22143 22144 22145 22146 22147 22148 22149 22150 22151 22152 22153 22154 22155 22156 22157 22158 22159 22160 22161 22162 22163 22164 22165 22166 22167 22168 22169 22170 22171 22172 22173 22174 22175 22176 22177 22178 22179 22180 22181 22182 22183 22184 22185 22186 22187 22188 22189 22190 22191 22192 22193 22194 22195 22196 22197 22198 22199 22200 22201 22202 22203 22204 22205 22206 22207 22208 22209 22210 22211 22212 22213 22214 22215 22216 22217 22218 22219 22220 22221 22222 22223 22224 22225 22226 22227 22228 22229 22230 22231 22232 22233 22234 22235 22236 22237 22238 22239 22240 22241 22242 22243 22244 22245 22246 22247 22248 22249 22250 22251 22252 22253 22254 22255 22256 22257 22258 22259 22260 22261 22262 22263 22264 22265 22266 22267 22268 22269 22270 22271 22272 22273 22274 22275 22276 22277 22278 22279 22280 22281 22282 22283 22284 22285 22286 22287 22288 22289 22290 22291 22292 22293 22294 22295 22296 22297 22298 22299 22300 22301 22302 22303 22304 22305 22306 22307 22308 22309 22310 22311 22312 22313 22314 22315 22316 22317 22318 22319 22320 22321 22322 22323 22324 22325 22326 22327 22328 22329 22330 22331 22332 22333 22334 22335 22336 22337 22338 22339 22340 22341 22342 22343 22344 22345 22346 22347 22348 22349 22350 22351 22352 22353 22354 22355 22356 22357 22358 22359 22360 22361 22362 22363 22364 22365 22366 22367 22368 22369 22370 22371 22372 22373 22374 22375 22376 22377 22378 22379 22380 22381 22382 22383 22384 22385 22386 22387 22388 22389 22390 22391 22392 22393 22394 22395 22396 22397 22398 22399 22400 22401 22402 22403 22404 22405 22406 22407 22408 22409 22410 22411 22412 22413 22414 22415 22416 22417 22418 22419 22420 22421 22422 22423 22424 22425 22426 22427 22428 22429 22430 22431 22432 22433 22434 22435 22436 22437 22438 22439 22440 22441 22442 22443 22444 22445 22446 22447 22448 22449 22450 22451 22452 22453 22454 22455 22456 22457 22458 22459 22460 22461 22462 22463 22464 22465 22466 22467 22468 22469 22470 22471 22472 22473 22474 22475 22476 22477 22478 22479 22480 22481 22482 22483 22484 22485 22486 22487 22488 22489 22490 22491 22492 22493 22494 22495 22496 22497 22498 22499 22500 22501 22502 22503 22504 22505 22506 22507 22508 22509 22510 22511 22512 22513 22514 22515 22516 22517 22518 22519 22520 22521 22522 22523 22524 22525 22526 22527 22528 22529 22530 22531 22532 22533 22534 22535 22536 22537 22538 22539 22540 22541 22542 22543 22544 22545 22546 22547 22548 22549 22550 22551 22552 22553 22554 22555 22556 22557 22558 22559 22560 22561 22562 22563 22564 22565 22566 22567 22568 22569 22570 22571 22572 22573 22574 22575 22576 22577 22578 22579 22580 22581 22582 22583 22584 22585 22586 22587 22588 22589 22590 22591 22592 22593 22594 22595 22596 22597 22598 22599 22600 22601 22602 22603 22604 22605 22606 22607 22608 22609 22610 22611 22612 22613 22614 22615 22616 22617 22618 22619 22620 22621 22622 22623 22624 22625 22626 22627 22628 22629 22630 22631 22632 22633 22634 22635 22636 22637 22638 22639 22640 22641 22642 22643 22644 22645 22646 22647 22648 22649 22650 22651 22652 22653 22654 22655 22656 22657 22658 22659 22660 22661 22662 22663 22664 22665 22666 22667 22668 22669 22670 22671 22672 22673 22674 22675 22676 22677 22678 22679 22680 22681 22682 22683 22684 22685 22686 22687 22688 22689 22690 22691 22692 22693 22694 22695 22696 22697 22698 22699 22700 22701 22702 22703 22704 22705 22706 22707 22708 22709 22710 22711 22712 22713 22714 22715 22716 22717 22718 22719 22720 22721 22722 22723 22724 22725 22726 22727 22728 22729 22730 22731 22732 22733 22734 22735 22736 22737 22738 22739 22740 22741 22742 22743 22744 22745 22746 22747 22748 22749 22750 22751 22752 22753 22754 22755 22756 22757 22758 22759 22760 22761 22762 22763 22764 22765 22766 22767 22768 22769 22770 22771 22772 22773 22774 22775 22776 22777 22778 22779 22780 22781 22782 22783 22784 22785 22786 22787 22788 22789 22790 22791 22792 22793 22794 22795 22796 22797 22798 22799 22800 22801 22802 22803 22804 22805 22806 22807 22808 22809 22810 22811 22812 22813 22814 22815 22816 22817 22818 22819 22820 22821 22822 22823 22824 22825 22826 22827 22828 22829 22830 22831 22832 22833 22834 22835 22836 22837 22838 22839 22840 22841 22842 22843 22844 22845 22846 22847 22848 22849 22850 22851 22852 22853 22854 22855 22856 22857 22858 22859 22860 22861 22862 22863 22864 22865 22866 22867 22868 22869 22870 22871 22872 22873 22874 22875 22876 22877 22878 22879 22880 22881 22882 22883 22884 22885 22886 22887 22888 22889 22890 22891 22892 22893 22894 22895 22896 22897 22898 22899 22900 22901 22902 22903 22904 22905 22906 22907 22908 22909 22910 22911 22912 22913 22914 22915 22916 22917 22918 22919 22920 22921 22922 22923 22924 22925 22926 22927 22928 22929 22930 22931 22932 22933 22934 22935 22936 22937 22938 22939 22940 22941 22942 22943 22944 22945 22946 22947 22948 22949 22950 22951 22952 22953 22954 22955 22956 22957 22958 22959 22960 22961 22962 22963 22964 22965 22966 22967 22968 22969 22970 22971 22972 22973 22974 22975 22976 22977 22978 22979 22980 22981 22982 22983 22984 22985 22986 22987 22988 22989 22990 22991 22992 22993 22994 22995 22996 22997 22998 22999 23000 23001 23002 23003 23004 23005 23006 23007 23008 23009 23010 23011 23012 23013 23014 23015 23016 23017 23018 23019 23020 23021 23022 23023 23024 23025 23026 23027 23028 23029 23030 23031 23032 23033 23034 23035 23036 23037 23038 23039 23040 23041 23042 23043 23044 23045 23046 23047 23048 23049 23050 23051 23052 23053 23054 23055 23056 23057 23058 23059 23060 23061 23062 23063 23064 23065 23066 23067 23068 23069 23070 23071 23072 23073 23074 23075 23076 23077 23078 23079 23080 23081 23082 23083 23084 23085 23086 23087 23088 23089 23090 23091 23092 23093 23094 23095 23096 23097 23098 23099 23100 23101 23102 23103 23104 23105 23106 23107 23108 23109 23110 23111 23112 23113 23114 23115 23116 23117 23118 23119 23120 23121 23122 23123 23124 23125 23126 23127 23128 23129 23130 23131 23132 23133 23134 23135 23136 23137 23138 23139 23140 23141 23142 23143 23144 23145 23146 23147 23148 23149 23150 23151 23152 23153 23154 23155 23156 23157 23158 23159 23160 23161 23162 23163 23164 23165 23166 23167 23168 23169 23170 23171 23172 23173 23174 23175 23176 23177 23178 23179 23180 23181 23182 23183 23184 23185 23186 23187 23188 23189 23190 23191 23192 23193 23194 23195 23196 23197 23198 23199 23200 23201 23202 23203 23204 23205 23206 23207 23208 23209 23210 23211 23212 23213 23214 23215 23216 23217 23218 23219 23220 23221 23222 23223 23224 23225 23226 23227 23228 23229 23230 23231 23232 23233 23234 23235 23236 23237 23238 23239 23240 23241 23242 23243 23244 23245 23246 23247 23248 23249 23250 23251 23252 23253 23254 23255 23256 23257 23258 23259 23260 23261 23262 23263 23264 23265 23266 23267 23268 23269 23270 23271 23272 23273 23274 23275 23276 23277 23278 23279 23280 23281 23282 23283 23284 23285 23286 23287 23288 23289 23290 23291 23292 23293 23294 23295 23296 23297 23298 23299 23300 23301 23302 23303 23304 23305 23306 23307 23308 23309 23310 23311 23312 23313 23314 23315 23316 23317 23318 23319 23320 23321 23322 23323 23324 23325 23326 23327 23328 23329 23330 23331 23332 23333 23334 23335 23336 23337 23338 23339 23340 23341 23342 23343 23344 23345 23346 23347 23348 23349 23350 23351 23352 23353 23354 23355 23356 23357 23358 23359 23360 23361 23362 23363 23364 23365 23366 23367 23368 23369 23370 23371 23372 23373 23374 23375 23376 23377 23378 23379 23380 23381 23382 23383 23384 23385 23386 23387 23388 23389 23390 23391 23392 23393 23394 23395 23396 23397 23398 23399 23400 23401 23402 23403 23404 23405 23406 23407 23408 23409 23410 23411 23412 23413 23414 23415 23416 23417 23418 23419 23420 23421 23422 23423 23424 23425 23426 23427 23428 23429 23430 23431 23432 23433 23434 23435 23436 23437 23438 23439 23440 23441 23442 23443 23444 23445 23446 23447 23448 23449 23450 23451 23452 23453 23454 23455 23456 23457 23458 23459 23460 23461 23462 23463 23464 23465 23466 23467 23468 23469 23470 23471 23472 23473 23474 23475 23476 23477 23478 23479 23480 23481 23482 23483 23484 23485 23486 23487 23488 23489 23490 23491 23492 23493 23494 23495 23496 23497 23498 23499 23500 23501 23502 23503 23504 23505 23506 23507 23508 23509 23510 23511 23512 23513 23514 23515 23516 23517 23518 23519 23520 23521 23522 23523 23524 23525 23526 23527 23528 23529 23530 23531 23532 23533 23534 23535 23536 23537 23538 23539 23540 23541 23542 23543 23544 23545 23546 23547 23548 23549 23550 23551 23552 23553 23554 23555 23556 23557 23558 23559 23560 23561 23562 23563 23564 23565 23566 23567 23568 23569 23570 23571 23572 23573 23574 23575 23576 23577 23578 23579 23580 23581 23582 23583 23584 23585 23586 23587 23588 23589 23590 23591 23592 23593 23594 23595 23596 23597 23598 23599 23600 23601 23602 23603 23604 23605 23606 23607 23608 23609 23610 23611 23612 23613 23614 23615 23616 23617 23618 23619 23620 23621 23622 23623 23624 23625 23626 23627 23628 23629 23630 23631 23632 23633 23634 23635 23636 23637 23638 23639 23640 23641 23642 23643 23644 23645 23646 23647 23648 23649 23650 23651 23652 23653 23654 23655 23656 23657 23658 23659 23660 23661 23662 23663 23664 23665 23666 23667 23668 23669 23670 23671 23672 23673 23674 23675 23676 23677 23678 23679 23680 23681 23682 23683 23684 23685 23686 23687 23688 23689 23690 23691 23692 23693 23694 23695 23696 23697 23698 23699 23700 23701 23702 23703 23704 23705 23706 23707 23708 23709 23710 23711 23712 23713 23714 23715 23716 23717 23718 23719 23720 23721 23722 23723 23724 23725 23726 23727 23728 23729 23730 23731 23732 23733 23734 23735 23736 23737 23738 23739 23740 23741 23742 23743 23744 23745 23746 23747 23748 23749 23750 23751 23752 23753 23754 23755 23756 23757 23758 23759 23760 23761 23762 23763 23764 23765 23766 23767 23768 23769 23770 23771 23772 23773 23774 23775 23776 23777 23778 23779 23780 23781 23782 23783 23784 23785 23786 23787 23788 23789 23790 23791 23792 23793 23794 23795 23796 23797 23798 23799 23800 23801 23802 23803 23804 23805 23806 23807 23808 23809 23810 23811 23812 23813 23814 23815 23816 23817 23818 23819 23820 23821 23822 23823 23824 23825 23826 23827 23828 23829 23830 23831 23832 23833 23834 23835 23836 23837 23838 23839 23840 23841 23842 23843 23844 23845 23846 23847 23848 23849 23850 23851 23852 23853 23854 23855 23856 23857 23858 23859 23860 23861 23862 23863 23864 23865 23866 23867 23868 23869 23870 23871 23872 23873 23874 23875 23876 23877 23878 23879 23880 23881 23882 23883 23884 23885 23886 23887 23888 23889 23890 23891 23892 23893 23894 23895 23896 23897 23898 23899 23900 23901 23902 23903 23904 23905 23906 23907 23908 23909 23910 23911 23912 23913 23914 23915 23916 23917 23918 23919 23920 23921 23922 23923 23924 23925 23926 23927 23928 23929 23930 23931 23932 23933 23934 23935 23936 23937 23938 23939 23940 23941 23942 23943 23944 23945 23946 23947 23948 23949 23950 23951 23952 23953 23954 23955 23956 23957 23958 23959 23960 23961 23962 23963 23964 23965 23966 23967 23968 23969 23970 23971 23972 23973 23974 23975 23976 23977 23978 23979 23980 23981 23982 23983 23984 23985 23986 23987 23988 23989 23990 23991 23992 23993 23994 23995 23996 23997 23998 23999 24000 24001 24002 24003 24004 24005 24006 24007 24008 24009 24010 24011 24012 24013 24014 24015 24016 24017 24018 24019 24020 24021 24022 24023 24024 24025 24026 24027 24028 24029 24030 24031 24032 24033 24034 24035 24036 24037 24038 24039 24040 24041 24042 24043 24044 24045 24046 24047 24048 24049 24050 24051 24052 24053 24054 24055 24056 24057 24058 24059 24060 24061 24062 24063 24064 24065 24066 24067 24068 24069 24070 24071 24072 24073 24074 24075 24076 24077 24078 24079 24080 24081 24082 24083 24084 24085 24086 24087 24088 24089 24090 24091 24092 24093 24094 24095 24096 24097 24098 24099 24100 24101 24102 24103 24104 24105 24106 24107 24108 24109 24110 24111 24112 24113 24114 24115 24116 24117 24118 24119 24120 24121 24122 24123 24124 24125 24126 24127 24128 24129 24130 24131 24132 24133 24134 24135 24136 24137 24138 24139 24140 24141 24142 24143 24144 24145 24146 24147 24148 24149 24150 24151 24152 24153 24154 24155 24156 24157 24158 24159 24160 24161 24162 24163 24164 24165 24166 24167 24168 24169 24170 24171 24172 24173 24174 24175 24176 24177 24178 24179 24180 24181 24182 24183 24184 24185 24186 24187 24188 24189 24190 24191 24192 24193 24194 24195 24196 24197 24198 24199 24200 24201 24202 24203 24204 24205 24206 24207 24208 24209 24210 24211 24212 24213 24214 24215 24216 24217 24218 24219 24220 24221 24222 24223 24224 24225 24226 24227 24228 24229 24230 24231 24232 24233 24234 24235 24236 24237 24238 24239 24240 24241 24242 24243 24244 24245 24246 24247 24248 24249 24250 24251 24252 24253 24254 24255 24256 24257 24258 24259 24260 24261 24262 24263 24264 24265 24266 24267 24268 24269 24270 24271 24272 24273 24274 24275 24276 24277 24278 24279 24280 24281 24282 24283 24284 24285 24286 24287 24288 24289 24290 24291 24292 24293 24294 24295 24296 24297 24298 24299 24300 24301 24302 24303 24304 24305 24306 24307 24308 24309 24310 24311 24312 24313 24314 24315 24316 24317 24318 24319 24320 24321 24322 24323 24324 24325 24326 24327 24328 24329 24330 24331 24332 24333 24334 24335 24336 24337 24338 24339 24340 24341 24342 24343 24344 24345 24346 24347 24348 24349 24350 24351 24352 24353 24354 24355 24356 24357 24358 24359 24360 24361 24362 24363 24364 24365 24366 24367 24368 24369 24370 24371 24372 24373 24374 24375 24376 24377 24378 24379 24380 24381 24382 24383 24384 24385 24386 24387 24388 24389 24390 24391 24392 24393 24394 24395 24396 24397 24398 24399 24400 24401 24402 24403 24404 24405 24406 24407 24408 24409 24410 24411 24412 24413 24414 24415 24416 24417 24418 24419 24420 24421 24422 24423 24424 24425 24426 24427 24428 24429 24430 24431 24432 24433 24434 24435 24436 24437 24438 24439 24440 24441 24442 24443 24444 24445 24446 24447 24448 24449 24450 24451 24452 24453 24454 24455 24456 24457 24458 24459 24460 24461 24462 24463 24464 24465 24466 24467 24468 24469 24470 24471 24472 24473 24474 24475 24476 24477 24478 24479 24480 24481 24482 24483 24484 24485 24486 24487 24488 24489 24490 24491 24492 24493 24494 24495 24496 24497 24498 24499 24500 24501 24502 24503 24504 24505 24506 24507 24508 24509 24510 24511 24512 24513 24514 24515 24516 24517 24518 24519 24520 24521 24522 24523 24524 24525 24526 24527 24528 24529 24530 24531 24532 24533 24534 24535 24536 24537 24538 24539 24540 24541 24542 24543 24544 24545 24546 24547 24548 24549 24550 24551 24552 24553 24554 24555 24556 24557 24558 24559 24560 24561 24562 24563 24564 24565 24566 24567 24568 24569 24570 24571 24572 24573 24574 24575 24576 24577 24578 24579 24580 24581 24582 24583 24584 24585 24586 24587 24588 24589 24590 24591 24592 24593 24594 24595 24596 24597 24598 24599 24600 24601 24602 24603 24604 24605 24606 24607 24608 24609 24610 24611 24612 24613 24614 24615 24616 24617 24618 24619 24620 24621 24622 24623 24624 24625 24626 24627 24628 24629 24630 24631 24632 24633 24634 24635 24636 24637 24638 24639 24640 24641 24642 24643 24644 24645 24646 24647 24648 24649 24650 24651 24652 24653 24654 24655 24656 24657 24658 24659 24660 24661 24662 24663 24664 24665 24666 24667 24668 24669 24670 24671 24672 24673 24674 24675 24676 24677 24678 24679 24680 24681 24682 24683 24684 24685 24686 24687 24688 24689 24690 24691 24692 24693 24694 24695 24696 24697 24698 24699 24700 24701 24702 24703 24704 24705 24706 24707 24708 24709 24710 24711 24712 24713 24714 24715 24716 24717 24718 24719 24720 24721 24722 24723 24724 24725 24726 24727 24728 24729 24730 24731 24732 24733 24734 24735 24736 24737 24738 24739 24740 24741 24742 24743 24744 24745 24746 24747 24748 24749 24750 24751 24752 24753 24754 24755 24756 24757 24758 24759 24760 24761 24762 24763 24764 24765 24766 24767 24768 24769 24770 24771 24772 24773 24774 24775 24776 24777 24778 24779 24780 24781 24782 24783 24784 24785 24786 24787 24788 24789 24790 24791 24792 24793 24794 24795 24796 24797 24798 24799 24800 24801 24802 24803 24804 24805 24806 24807 24808 24809 24810 24811 24812 24813 24814 24815 24816 24817 24818 24819 24820 24821 24822 24823 24824 24825 24826 24827 24828 24829 24830 24831 24832 24833 24834 24835 24836 24837 24838 24839 24840 24841 24842 24843 24844 24845 24846 24847 24848 24849 24850 24851 24852 24853 24854 24855 24856 24857 24858 24859 24860 24861 24862 24863 24864 24865 24866 24867 24868 24869 24870 24871 24872 24873 24874 24875 24876 24877 24878 24879 24880 24881 24882 24883 24884 24885 24886 24887 24888 24889 24890 24891 24892 24893 24894 24895 24896 24897 24898 24899 24900 24901 24902 24903 24904 24905 24906 24907 24908 24909 24910 24911 24912 24913 24914 24915 24916 24917 24918 24919 24920 24921 24922 24923 24924 24925 24926 24927 24928 24929 24930 24931 24932 24933 24934 24935 24936 24937 24938 24939 24940 24941 24942 24943 24944 24945 24946 24947 24948 24949 24950 24951 24952 24953 24954 24955 24956 24957 24958 24959 24960 24961 24962 24963 24964 24965 24966 24967 24968 24969 24970 24971 24972 24973 24974 24975 24976 24977 24978 24979 24980 24981 24982 24983 24984 24985 24986 24987 24988 24989 24990 24991 24992 24993 24994 24995 24996 24997 24998 24999 25000 25001 25002 25003 25004 25005 25006 25007 25008 25009 25010 25011 25012 25013 25014 25015 25016 25017 25018 25019 25020 25021 25022 25023 25024 25025 25026 25027 25028 25029 25030 25031 25032 25033 25034 25035 25036 25037 25038 25039 25040 25041 25042 25043 25044 25045 25046 25047 25048 25049 25050 25051 25052 25053 25054 25055 25056 25057 25058 25059 25060 25061 25062 25063 25064 25065 25066 25067 25068 25069 25070 25071 25072 25073 25074 25075 25076 25077 25078 25079 25080 25081 25082 25083 25084 25085 25086 25087 25088 25089 25090 25091 25092 25093 25094 25095 25096 25097 25098 25099 25100 25101 25102 25103 25104 25105 25106 25107 25108 25109 25110 25111 25112 25113 25114 25115 25116 25117 25118 25119 25120 25121 25122 25123 25124 25125 25126 25127 25128 25129 25130 25131 25132 25133 25134 25135 25136 25137 25138 25139 25140 25141 25142 25143 25144 25145 25146 25147 25148 25149 25150 25151 25152 25153 25154 25155 25156 25157 25158 25159 25160 25161 25162 25163 25164 25165 25166 25167 25168 25169 25170 25171 25172 25173 25174 25175 25176 25177 25178 25179 25180 25181 25182 25183 25184 25185 25186 25187 25188 25189 25190 25191 25192 25193 25194 25195 25196 25197 25198 25199 25200 25201 25202 25203 25204 25205 25206 25207 25208 25209 25210 25211 25212 25213 25214 25215 25216 25217 25218 25219 25220 25221 25222 25223 25224 25225 25226 25227 25228 25229 25230 25231 25232 25233 25234 25235 25236 25237 25238 25239 25240 25241 25242 25243 25244 25245 25246 25247 25248 25249 25250 25251 25252 25253 25254 25255 25256 25257 25258 25259 25260 25261 25262 25263 25264 25265 25266 25267 25268 25269 25270 25271 25272 25273 25274 25275 25276 25277 25278 25279 25280 25281 25282 25283 25284 25285 25286 25287 25288 25289 25290 25291 25292 25293 25294 25295 25296 25297 25298 25299 25300 25301 25302 25303 25304 25305 25306 25307 25308 25309 25310 25311 25312 25313 25314 25315 25316 25317 25318 25319 25320 25321 25322 25323 25324 25325 25326 25327 25328 25329 25330 25331 25332 25333 25334 25335 25336 25337 25338 25339 25340 25341 25342 25343 25344 25345 25346 25347 25348 25349 25350 25351 25352 25353 25354 25355 25356 25357 25358 25359 25360 25361 25362 25363 25364 25365 25366 25367 25368 25369 25370 25371 25372 25373 25374 25375 25376 25377 25378 25379 25380 25381 25382 25383 25384 25385 25386 25387 25388 25389 25390 25391 25392 25393 25394 25395 25396 25397 25398 25399 25400 25401 25402 25403 25404 25405 25406 25407 25408 25409 25410 25411 25412 25413 25414 25415 25416 25417 25418 25419 25420 25421 25422 25423 25424 25425 25426 25427 25428 25429 25430 25431 25432 25433 25434 25435 25436 25437 25438 25439 25440 25441 25442 25443 25444 25445 25446 25447 25448 25449 25450 25451 25452 25453 25454 25455 25456 25457 25458 25459 25460 25461 25462 25463 25464 25465 25466 25467 25468 25469 25470 25471 25472 25473 25474 25475 25476 25477 25478 25479 25480 25481 25482 25483 25484 25485 25486 25487 25488 25489 25490 25491 25492 25493 25494 25495 25496 25497 25498 25499 25500 25501 25502 25503 25504 25505 25506 25507 25508 25509 25510 25511 25512 25513 25514 25515 25516 25517 25518 25519 25520 25521 25522 25523 25524 25525 25526 25527 25528 25529 25530 25531 25532 25533 25534 25535 25536 25537 25538 25539 25540 25541 25542 25543 25544 25545 25546 25547 25548 25549 25550 25551 25552 25553 25554 25555 25556 25557 25558 25559 25560 25561 25562 25563 25564 25565 25566 25567 25568 25569 25570 25571 25572 25573 25574 25575 25576 25577 25578 25579 25580 25581 25582 25583 25584 25585 25586 25587 25588 25589 25590 25591 25592 25593 25594 25595 25596 25597 25598 25599 25600 25601 25602 25603 25604 25605 25606 25607 25608 25609 25610 25611 25612 25613 25614 25615 25616 25617 25618 25619 25620 25621 25622 25623 25624 25625 25626 25627 25628 25629 25630 25631 25632 25633 25634 25635 25636 25637 25638 25639 25640 25641 25642 25643 25644 25645 25646 25647 25648 25649 25650 25651 25652 25653 25654 25655 25656 25657 25658 25659 25660 25661 25662 25663 25664 25665 25666 25667 25668 25669 25670 25671 25672 25673 25674 25675 25676 25677 25678 25679 25680 25681 25682 25683 25684 25685 25686 25687 25688 25689 25690 25691 25692 25693 25694 25695 25696 25697 25698 25699 25700 25701 25702 25703 25704 25705 25706 25707 25708 25709 25710 25711 25712 25713 25714 25715 25716 25717 25718 25719 25720 25721 25722 25723 25724 25725 25726 25727 25728 25729 25730 25731 25732 25733 25734 25735 25736 25737 25738 25739 25740 25741 25742 25743 25744 25745 25746 25747 25748 25749 25750 25751 25752 25753 25754 25755 25756 25757 25758 25759 25760 25761 25762 25763 25764 25765 25766 25767 25768 25769 25770 25771 25772 25773 25774 25775 25776 25777 25778 25779 25780 25781 25782 25783 25784 25785 25786 25787 25788 25789 25790 25791 25792 25793 25794 25795 25796 25797 25798 25799 25800 25801 25802 25803 25804 25805 25806 25807 25808 25809 25810 25811 25812 25813 25814 25815 25816 25817 25818 25819 25820 25821 25822 25823 25824 25825 25826 25827 25828 25829 25830 25831 25832 25833 25834 25835 25836 25837 25838 25839 25840 25841 25842 25843 25844 25845 25846 25847 25848 25849 25850 25851 25852 25853 25854 25855 25856 25857 25858 25859 25860 25861 25862 25863 25864 25865 25866 25867 25868 25869 25870 25871 25872 25873 25874 25875 25876 25877 25878 25879 25880 25881 25882 25883 25884 25885 25886 25887 25888 25889 25890 25891 25892 25893 25894 25895 25896 25897 25898 25899 25900 25901 25902 25903 25904 25905 25906 25907 25908 25909 25910 25911 25912 25913 25914 25915 25916 25917 25918 25919 25920 25921 25922 25923 25924 25925 25926 25927 25928 25929 25930 25931 25932 25933 25934 25935 25936 25937 25938 25939 25940 25941 25942 25943 25944 25945 25946 25947 25948 25949 25950 25951 25952 25953 25954 25955 25956 25957 25958 25959 25960 25961 25962 25963 25964 25965 25966 25967 25968 25969 25970 25971 25972 25973 25974 25975 25976 25977 25978 25979 25980 25981 25982 25983 25984 25985 25986 25987 25988 25989 25990 25991 25992 25993 25994 25995 25996 25997 25998 25999 26000 26001 26002 26003 26004 26005 26006 26007 26008 26009 26010 26011 26012 26013 26014 26015 26016 26017 26018 26019 26020 26021 26022 26023 26024 26025 26026 26027 26028 26029 26030 26031 26032 26033 26034 26035 26036 26037 26038 26039 26040 26041 26042 26043 26044 26045 26046 26047 26048 26049 26050 26051 26052 26053 26054 26055 26056 26057 26058 26059 26060 26061 26062 26063 26064 26065 26066 26067 26068 26069 26070 26071 26072 26073 26074 26075 26076 26077 26078 26079 26080 26081 26082 26083 26084 26085 26086 26087 26088 26089 26090 26091 26092 26093 26094 26095 26096 26097 26098 26099 26100 26101 26102 26103 26104 26105 26106 26107 26108 26109 26110 26111 26112 26113 26114 26115 26116 26117 26118 26119 26120 26121 26122 26123 26124 26125 26126 26127 26128 26129 26130 26131 26132 26133 26134 26135 26136 26137 26138 26139 26140 26141 26142 26143 26144 26145 26146 26147 26148 26149 26150 26151 26152 26153 26154 26155 26156 26157 26158 26159 26160 26161 26162 26163 26164 26165 26166 26167 26168 26169 26170 26171 26172 26173 26174 26175 26176 26177 26178 26179 26180 26181 26182 26183 26184 26185 26186 26187 26188 26189 26190 26191 26192 26193 26194 26195 26196 26197 26198 26199 26200 26201 26202 26203 26204 26205 26206 26207 26208 26209 26210 26211 26212 26213 26214 26215 26216 26217 26218 26219 26220 26221 26222 26223 26224 26225 26226 26227 26228 26229 26230 26231 26232 26233 26234 26235 26236 26237 26238 26239 26240 26241 26242 26243 26244 26245 26246 26247 26248 26249 26250 26251 26252 26253 26254 26255 26256 26257 26258 26259 26260 26261 26262 26263 26264 26265 26266 26267 26268 26269 26270 26271 26272 26273 26274 26275 26276 26277 26278 26279 26280 26281 26282 26283 26284 26285 26286 26287 26288 26289 26290 26291 26292 26293 26294 26295 26296 26297 26298 26299 26300 26301 26302 26303 26304 26305 26306 26307 26308 26309 26310 26311 26312 26313 26314 26315 26316 26317 26318 26319 26320 26321 26322 26323 26324 26325 26326 26327 26328 26329 26330 26331 26332 26333 26334 26335 26336 26337 26338 26339 26340 26341 26342 26343 26344 26345 26346 26347 26348 26349 26350 26351 26352 26353 26354 26355 26356 26357 26358 26359 26360 26361 26362 26363 26364 26365 26366 26367 26368 26369 26370 26371 26372 26373 26374 26375 26376 26377 26378 26379 26380 26381 26382 26383 26384 26385 26386 26387 26388 26389 26390 26391 26392 26393 26394 26395 26396 26397 26398 26399 26400 26401 26402 26403 26404 26405 26406 26407 26408 26409 26410 26411 26412 26413 26414 26415 26416 26417 26418 26419 26420 26421 26422 26423 26424 26425 26426 26427 26428 26429 26430 26431 26432 26433 26434 26435 26436 26437 26438 26439 26440 26441 26442 26443 26444 26445 26446 26447 26448 26449 26450 26451 26452 26453 26454 26455 26456 26457 26458 26459 26460 26461 26462 26463 26464 26465 26466 26467 26468 26469 26470 26471 26472 26473 26474 26475 26476 26477 26478 26479 26480 26481 26482 26483 26484 26485 26486 26487 26488 26489 26490 26491 26492 26493 26494 26495 26496 26497 26498 26499 26500 26501 26502 26503 26504 26505 26506 26507 26508 26509 26510 26511 26512 26513 26514 26515 26516 26517 26518 26519 26520 26521 26522 26523 26524 26525 26526 26527 26528 26529 26530 26531 26532 26533 26534 26535 26536 26537 26538 26539 26540 26541 26542 26543 26544 26545 26546 26547 26548 26549 26550 26551 26552 26553 26554 26555 26556 26557 26558 26559 26560 26561 26562 26563 26564 26565 26566 26567 26568 26569 26570 26571 26572 26573 26574 26575 26576 26577 26578 26579 26580 26581 26582 26583 26584 26585 26586 26587 26588 26589 26590 26591 26592 26593 26594 26595 26596 26597 26598 26599 26600 26601 26602 26603 26604 26605 26606 26607 26608 26609 26610 26611 26612 26613 26614 26615 26616 26617 26618 26619 26620 26621 26622 26623 26624 26625 26626 26627 26628 26629 26630 26631 26632 26633 26634 26635 26636 26637 26638 26639 26640 26641 26642 26643 26644 26645 26646 26647 26648 26649 26650 26651 26652 26653 26654 26655 26656 26657 26658 26659 26660 26661 26662 26663 26664 26665 26666 26667 26668 26669 26670 26671 26672 26673 26674 26675 26676 26677 26678 26679 26680 26681 26682 26683 26684 26685 26686 26687 26688 26689 26690 26691 26692 26693 26694 26695 26696 26697 26698 26699 26700 26701 26702 26703 26704 26705 26706 26707 26708 26709 26710 26711 26712 26713 26714 26715 26716 26717 26718 26719 26720 26721 26722 26723 26724 26725 26726 26727 26728 26729 26730 26731 26732 26733 26734 26735 26736 26737 26738 26739 26740 26741 26742 26743 26744 26745 26746 26747 26748 26749 26750 26751 26752 26753 26754 26755 26756 26757 26758 26759 26760 26761 26762 26763 26764 26765 26766 26767 26768 26769 26770 26771 26772 26773 26774 26775 26776 26777 26778 26779 26780 26781 26782 26783 26784 26785 26786 26787 26788 26789 26790 26791 26792 26793 26794 26795 26796 26797 26798 26799 26800 26801 26802 26803 26804 26805 26806 26807 26808 26809 26810 26811 26812 26813 26814 26815 26816 26817 26818 26819 26820 26821 26822 26823 26824 26825 26826 26827 26828 26829 26830 26831 26832 26833 26834 26835 26836 26837 26838 26839 26840 26841 26842 26843 26844 26845 26846 26847 26848 26849 26850 26851 26852 26853 26854 26855 26856 26857 26858 26859 26860 26861 26862 26863 26864 26865 26866 26867 26868 26869 26870 26871 26872 26873 26874 26875 26876 26877 26878 26879 26880 26881 26882 26883 26884 26885 26886 26887 26888 26889 26890 26891 26892 26893 26894 26895 26896 26897 26898 26899 26900 26901 26902 26903 26904 26905 26906 26907 26908 26909 26910 26911 26912 26913 26914 26915 26916 26917 26918 26919 26920 26921 26922 26923 26924 26925 26926 26927 26928 26929 26930 26931 26932 26933 26934 26935 26936 26937 26938 26939 26940 26941 26942 26943 26944 26945 26946 26947 26948 26949 26950 26951 26952 26953 26954 26955 26956 26957 26958 26959 26960 26961 26962 26963 26964 26965 26966 26967 26968 26969 26970 26971 26972 26973 26974 26975 26976 26977 26978 26979 26980 26981 26982 26983 26984 26985 26986 26987 26988 26989 26990 26991 26992 26993 26994 26995 26996 26997 26998 26999 27000 27001 27002 27003 27004 27005 27006 27007 27008 27009 27010 27011 27012 27013 27014 27015 27016 27017 27018 27019 27020 27021 27022 27023 27024 27025 27026 27027 27028 27029 27030 27031 27032 27033 27034 27035 27036 27037 27038 27039 27040 27041 27042 27043 27044 27045 27046 27047 27048 27049 27050 27051 27052 27053 27054 27055 27056 27057 27058 27059 27060 27061 27062 27063 27064 27065 27066 27067 27068 27069 27070 27071 27072 27073 27074 27075 27076 27077 27078 27079 27080 27081 27082 27083 27084 27085 27086 27087 27088 27089 27090 27091 27092 27093 27094 27095 27096 27097 27098 27099 27100 27101 27102 27103 27104 27105 27106 27107 27108 27109 27110 27111 27112 27113 27114 27115 27116 27117 27118 27119 27120 27121 27122 27123 27124 27125 27126 27127 27128 27129 27130 27131 27132 27133 27134 27135 27136 27137 27138 27139 27140 27141 27142 27143 27144 27145 27146 27147 27148 27149 27150 27151 27152 27153 27154 27155 27156 27157 27158 27159 27160 27161 27162 27163 27164 27165 27166 27167 27168 27169 27170 27171 27172 27173 27174 27175 27176 27177 27178 27179 27180 27181 27182 27183 27184 27185 27186 27187 27188 27189 27190 27191 27192 27193 27194 27195 27196 27197 27198 27199 27200 27201 27202 27203 27204 27205 27206 27207 27208 27209 27210 27211 27212 27213 27214 27215 27216 27217 27218 27219 27220 27221 27222 27223 27224 27225 27226 27227 27228 27229 27230 27231 27232 27233 27234 27235 27236 27237 27238 27239 27240 27241 27242 27243 27244 27245 27246 27247 27248 27249 27250 27251 27252 27253 27254 27255 27256 27257 27258 27259 27260 27261 27262 27263 27264 27265 27266 27267 27268 27269 27270 27271 27272 27273 27274 27275 27276 27277 27278 27279 27280 27281 27282 27283 27284 27285 27286 27287 27288 27289 27290 27291 27292 27293 27294 27295 27296 27297 27298 27299 27300 27301 27302 27303 27304 27305 27306 27307 27308 27309 27310 27311 27312 27313 27314 27315 27316 27317 27318 27319 27320 27321 27322 27323 27324 27325 27326 27327 27328 27329 27330 27331 27332 27333 27334 27335 27336 27337 27338 27339 27340 27341 27342 27343 27344 27345 27346 27347 27348 27349 27350 27351 27352 27353 27354 27355 27356 27357 27358 27359 27360 27361 27362 27363 27364 27365 27366 27367 27368 27369 27370 27371 27372 27373 27374 27375 27376 27377 27378 27379 27380 27381 27382 27383 27384 27385 27386 27387 27388 27389 27390 27391 27392 27393 27394 27395 27396 27397 27398 27399 27400 27401 27402 27403 27404 27405 27406 27407 27408 27409 27410 27411 27412 27413 27414 27415 27416 27417 27418 27419 27420 27421 27422 27423 27424 27425 27426 27427 27428 27429 27430 27431 27432 27433 27434 27435 27436 27437 27438 27439 27440 27441 27442 27443 27444 27445 27446 27447 27448 27449 27450 27451 27452 27453 27454 27455 27456 27457 27458 27459 27460 27461 27462 27463 27464 27465 27466 27467 27468 27469 27470 27471 27472 27473 27474 27475 27476 27477 27478 27479 27480 27481 27482 27483 27484 27485 27486 27487 27488 27489 27490 27491 27492 27493 27494 27495 27496 27497 27498 27499 27500 27501 27502 27503 27504 27505 27506 27507 27508 27509 27510 27511 27512 27513 27514 27515 27516 27517 27518 27519 27520 27521 27522 27523 27524 27525 27526 27527 27528 27529 27530 27531 27532 27533 27534 27535 27536 27537 27538 27539 27540 27541 27542 27543 27544 27545 27546 27547 27548 27549 27550 27551 27552 27553 27554 27555 27556 27557 27558 27559 27560 27561 27562 27563 27564 27565 27566 27567 27568 27569 27570 27571 27572 27573 27574 27575 27576 27577 27578 27579 27580 27581 27582 27583 27584 27585 27586 27587 27588 27589 27590 27591 27592 27593 27594 27595 27596 27597 27598 27599 27600 27601 27602 27603 27604 27605 27606 27607 27608 27609 27610 27611 27612 27613 27614 27615 27616 27617 27618 27619 27620 27621 27622 27623 27624 27625 27626 27627 27628 27629 27630 27631 27632 27633 27634 27635 27636 27637 27638 27639 27640 27641 27642 27643 27644 27645 27646 27647 27648 27649 27650 27651 27652 27653 27654 27655 27656 27657 27658 27659 27660 27661 27662 27663 27664 27665 27666 27667 27668 27669 27670 27671 27672 27673 27674 27675 27676 27677 27678 27679 27680 27681 27682 27683 27684 27685 27686 27687 27688 27689 27690 27691 27692 27693 27694 27695 27696 27697 27698 27699 27700 27701 27702 27703 27704 27705 27706 27707 27708 27709 27710 27711 27712 27713 27714 27715 27716 27717 27718 27719 27720 27721 27722 27723 27724 27725 27726 27727 27728 27729 27730 27731 27732 27733 27734 27735 27736 27737 27738 27739 27740 27741 27742 27743 27744 27745 27746 27747 27748 27749 27750 27751 27752 27753 27754 27755 27756 27757 27758 27759 27760 27761 27762 27763 27764 27765 27766 27767 27768 27769 27770 27771 27772 27773 27774 27775 27776 27777 27778 27779 27780 27781 27782 27783 27784 27785 27786 27787 27788 27789 27790 27791 27792 27793 27794 27795 27796 27797 27798 27799 27800 27801 27802 27803 27804 27805 27806 27807 27808 27809 27810 27811 27812 27813 27814 27815 27816 27817 27818 27819 27820 27821 27822 27823 27824 27825 27826 27827 27828 27829 27830 27831 27832 27833 27834 27835 27836 27837 27838 27839 27840 27841 27842 27843 27844 27845 27846 27847 27848 27849 27850 27851 27852 27853 27854 27855 27856 27857 27858 27859 27860 27861 27862 27863 27864 27865 27866 27867 27868 27869 27870 27871 27872 27873 27874 27875 27876 27877 27878 27879 27880 27881 27882 27883 27884 27885 27886 27887 27888 27889 27890 27891 27892 27893 27894 27895 27896 27897 27898 27899 27900 27901 27902 27903 27904 27905 27906 27907 27908 27909 27910 27911 27912 27913 27914 27915 27916 27917 27918 27919 27920 27921 27922 27923 27924 27925 27926 27927 27928 27929 27930 27931 27932 27933 27934 27935 27936 27937 27938 27939 27940 27941 27942 27943 27944 27945 27946 27947 27948 27949 27950 27951 27952 27953 27954 27955 27956 27957 27958 27959 27960 27961 27962 27963 27964 27965 27966 27967 27968 27969 27970 27971 27972 27973 27974 27975 27976 27977 27978 27979 27980 27981 27982 27983 27984 27985 27986 27987 27988 27989 27990 27991 27992 27993 27994 27995 27996 27997 27998 27999 28000 28001 28002 28003 28004 28005 28006 28007 28008 28009 28010 28011 28012 28013 28014 28015 28016 28017 28018 28019 28020 28021 28022 28023 28024 28025 28026 28027 28028 28029 28030 28031 28032 28033 28034 28035 28036 28037 28038 28039 28040 28041 28042 28043 28044 28045 28046 28047 28048 28049 28050 28051 28052 28053 28054 28055 28056 28057 28058 28059 28060 28061 28062 28063 28064 28065 28066 28067 28068 28069 28070 28071 28072 28073 28074 28075 28076 28077 28078 28079 28080 28081 28082 28083 28084 28085 28086 28087 28088 28089 28090 28091 28092 28093 28094 28095 28096 28097 28098 28099 28100 28101 28102 28103 28104 28105 28106 28107 28108 28109 28110 28111 28112 28113 28114 28115 28116 28117 28118 28119 28120 28121 28122 28123 28124 28125 28126 28127 28128 28129 28130 28131 28132 28133 28134 28135 28136 28137 28138 28139 28140 28141 28142 28143 28144 28145 28146 28147 28148 28149 28150 28151 28152 28153 28154 28155 28156 28157 28158 28159 28160 28161 28162 28163 28164 28165 28166 28167 28168 28169 28170 28171 28172 28173 28174 28175 28176 28177 28178 28179 28180 28181 28182 28183 28184 28185 28186 28187 28188 28189 28190 28191 28192 28193 28194 28195 28196 28197 28198 28199 28200 28201 28202 28203 28204 28205 28206 28207 28208 28209 28210 28211 28212 28213 28214 28215 28216 28217 28218 28219 28220 28221 28222 28223 28224 28225 28226 28227 28228 28229 28230 28231 28232 28233 28234 28235 28236 28237 28238 28239 28240 28241 28242 28243 28244 28245 28246 28247 28248 28249 28250 28251 28252 28253 28254 28255 28256 28257 28258 28259 28260 28261 28262 28263 28264 28265 28266 28267 28268 28269 28270 28271 28272 28273 28274 28275 28276 28277 28278 28279 28280 28281 28282 28283 28284 28285 28286 28287 28288 28289 28290 28291 28292 28293 28294 28295 28296 28297 28298 28299 28300 28301 28302 28303 28304 28305 28306 28307 28308 28309 28310 28311 28312 28313 28314 28315 28316 28317 28318 28319 28320 28321 28322 28323 28324 28325 28326 28327 28328 28329 28330 28331 28332 28333 28334 28335 28336 28337 28338 28339 28340 28341 28342 28343 28344 28345 28346 28347 28348 28349 28350 28351 28352 28353 28354 28355 28356 28357 28358 28359 28360 28361 28362 28363 28364 28365 28366 28367 28368 28369 28370 28371 28372 28373 28374 28375 28376 28377 28378 28379 28380 28381 28382 28383 28384 28385 28386 28387 28388 28389 28390 28391 28392 28393 28394 28395 28396 28397 28398 28399 28400 28401 28402 28403 28404 28405 28406 28407 28408 28409 28410 28411 28412 28413 28414 28415 28416 28417 28418 28419 28420 28421 28422 28423 28424 28425 28426 28427 28428 28429 28430 28431 28432 28433 28434 28435 28436 28437 28438 28439 28440 28441 28442 28443 28444 28445 28446 28447 28448 28449 28450 28451 28452 28453 28454 28455 28456 28457 28458 28459 28460 28461 28462 28463 28464 28465 28466 28467 28468 28469 28470 28471 28472 28473 28474 28475 28476 28477 28478 28479 28480 28481 28482 28483 28484 28485 28486 28487 28488 28489 28490 28491 28492 28493 28494 28495 28496 28497 28498 28499 28500 28501 28502 28503 28504 28505 28506 28507 28508 28509 28510 28511 28512 28513 28514 28515 28516 28517 28518 28519 28520 28521 28522 28523 28524 28525 28526 28527 28528 28529 28530 28531 28532 28533 28534 28535 28536 28537 28538 28539 28540 28541 28542 28543 28544 28545 28546 28547 28548 28549 28550 28551 28552 28553 28554 28555 28556 28557 28558 28559 28560 28561 28562 28563 28564 28565 28566 28567 28568 28569 28570 28571 28572 28573 28574 28575 28576 28577 28578 28579 28580 28581 28582 28583 28584 28585 28586 28587 28588 28589 28590 28591 28592 28593 28594 28595 28596 28597 28598 28599 28600 28601 28602 28603 28604 28605 28606 28607 28608 28609 28610 28611 28612 28613 28614 28615 28616 28617 28618 28619 28620 28621 28622 28623 28624 28625 28626 28627 28628 28629 28630 28631 28632 28633 28634 28635 28636 28637 28638 28639 28640 28641 28642 28643 28644 28645 28646 28647 28648 28649 28650 28651 28652 28653 28654 28655 28656 28657 28658 28659 28660 28661 28662 28663 28664 28665 28666 28667 28668 28669 28670 28671 28672 28673 28674 28675 28676 28677 28678 28679 28680 28681 28682 28683 28684 28685 28686 28687 28688 28689 28690 28691 28692 28693 28694 28695 28696 28697 28698 28699 28700 28701 28702 28703 28704 28705 28706 28707 28708 28709 28710 28711 28712 28713 28714 28715 28716 28717 28718 28719 28720 28721 28722 28723 28724 28725 28726 28727 28728 28729 28730 28731 28732 28733 28734 28735 28736 28737 28738 28739 28740 28741 28742 28743 28744 28745 28746 28747 28748 28749 28750 28751 28752 28753 28754 28755 28756 28757 28758 28759 28760 28761 28762 28763 28764 28765 28766 28767 28768 28769 28770 28771 28772 28773 28774 28775 28776 28777 28778 28779 28780 28781 28782 28783 28784 28785 28786 28787 28788 28789 28790 28791 28792 28793 28794 28795 28796 28797 28798 28799 28800 28801 28802 28803 28804 28805 28806 28807 28808 28809 28810 28811 28812 28813 28814 28815 28816 28817 28818 28819 28820 28821 28822 28823 28824 28825 28826 28827 28828 28829 28830 28831 28832 28833 28834 28835 28836 28837 28838 28839 28840 28841 28842 28843 28844 28845 28846 28847 28848 28849 28850 28851 28852 28853 28854 28855 28856 28857 28858 28859 28860 28861 28862 28863 28864 28865 28866 28867 28868 28869 28870 28871 28872 28873 28874 28875 28876 28877 28878 28879 28880 28881 28882 28883 28884 28885 28886 28887 28888 28889 28890 28891 28892 28893 28894 28895 28896 28897 28898 28899 28900 28901 28902 28903 28904 28905 28906 28907 28908 28909 28910 28911 28912 28913 28914 28915 28916 28917 28918 28919 28920 28921 28922 28923 28924 28925 28926 28927 28928 28929 28930 28931 28932 28933 28934 28935 28936 28937 28938 28939 28940 28941 28942 28943 28944 28945 28946 28947 28948 28949 28950 28951 28952 28953 28954 28955 28956 28957 28958 28959 28960 28961 28962 28963 28964 28965 28966 28967 28968 28969 28970 28971 28972 28973 28974 28975 28976 28977 28978 28979 28980 28981 28982 28983 28984 28985 28986 28987 28988 28989 28990 28991 28992 28993 28994 28995 28996 28997 28998 28999 29000 29001 29002 29003 29004 29005 29006 29007 29008 29009 29010 29011 29012 29013 29014 29015 29016 29017 29018 29019 29020 29021 29022 29023 29024 29025 29026 29027 29028 29029 29030 29031 29032 29033 29034 29035 29036 29037 29038 29039 29040 29041 29042 29043 29044 29045 29046 29047 29048 29049 29050 29051 29052 29053 29054 29055 29056 29057 29058 29059 29060 29061 29062 29063 29064 29065 29066 29067 29068 29069 29070 29071 29072 29073 29074 29075 29076 29077 29078 29079 29080 29081 29082 29083 29084 29085 29086 29087 29088 29089 29090 29091 29092 29093 29094 29095 29096 29097 29098 29099 29100 29101 29102 29103 29104 29105 29106 29107 29108 29109 29110 29111 29112 29113 29114 29115 29116 29117 29118 29119 29120 29121 29122 29123 29124 29125 29126 29127 29128 29129 29130 29131 29132 29133 29134 29135 29136 29137 29138 29139 29140 29141 29142 29143 29144 29145 29146 29147 29148 29149 29150 29151 29152 29153 29154 29155 29156 29157 29158 29159 29160 29161 29162 29163 29164 29165 29166 29167 29168 29169 29170 29171 29172 29173 29174 29175 29176 29177 29178 29179 29180 29181 29182 29183 29184 29185 29186 29187 29188 29189 29190 29191 29192 29193 29194 29195 29196 29197 29198 29199 29200 29201 29202 29203 29204 29205 29206 29207 29208 29209 29210 29211 29212 29213 29214 29215 29216 29217 29218 29219 29220 29221 29222 29223 29224 29225 29226 29227 29228 29229 29230 29231 29232 29233 29234 29235 29236 29237 29238 29239 29240 29241 29242 29243 29244 29245 29246 29247 29248 29249 29250 29251 29252 29253 29254 29255 29256 29257 29258 29259 29260 29261 29262 29263 29264 29265 29266 29267 29268 29269 29270 29271 29272 29273 29274 29275 29276 29277 29278 29279 29280 29281 29282 29283 29284 29285 29286 29287 29288 29289 29290 29291 29292 29293 29294 29295 29296 29297 29298 29299 29300 29301 29302 29303 29304 29305 29306 29307 29308 29309 29310 29311 29312 29313 29314 29315 29316 29317 29318 29319 29320 29321 29322 29323 29324 29325 29326 29327 29328 29329 29330 29331 29332 29333 29334 29335 29336 29337 29338 29339 29340 29341 29342 29343 29344 29345 29346 29347 29348 29349 29350 29351 29352 29353 29354 29355 29356 29357 29358 29359 29360 29361 29362 29363 29364 29365 29366 29367 29368 29369 29370 29371 29372 29373 29374 29375 29376 29377 29378 29379 29380 29381 29382 29383 29384 29385 29386 29387 29388 29389 29390 29391 29392 29393 29394 29395 29396 29397 29398 29399 29400 29401 29402 29403 29404 29405 29406 29407 29408 29409 29410 29411 29412 29413 29414 29415 29416 29417 29418 29419 29420 29421 29422 29423 29424 29425 29426 29427 29428 29429 29430 29431 29432 29433 29434 29435 29436 29437 29438 29439 29440 29441 29442 29443 29444 29445 29446 29447 29448 29449 29450 29451 29452 29453 29454 29455 29456 29457 29458 29459 29460 29461 29462 29463 29464 29465 29466 29467 29468 29469 29470 29471 29472 29473 29474 29475 29476 29477 29478 29479 29480 29481 29482 29483 29484 29485 29486 29487 29488 29489 29490 29491 29492 29493 29494 29495 29496 29497 29498 29499 29500 29501 29502 29503 29504 29505 29506 29507 29508 29509 29510 29511 29512 29513 29514 29515 29516 29517 29518 29519 29520 29521 29522 29523 29524 29525 29526 29527 29528 29529 29530 29531 29532 29533 29534 29535 29536 29537 29538 29539 29540 29541 29542 29543 29544 29545 29546 29547 29548 29549 29550 29551 29552 29553 29554 29555 29556 29557 29558 29559 29560 29561 29562 29563 29564 29565 29566 29567 29568 29569 29570 29571 29572 29573 29574 29575 29576 29577 29578 29579 29580 29581 29582 29583 29584 29585 29586 29587 29588 29589 29590 29591 29592 29593 29594 29595 29596 29597 29598 29599 29600 29601 29602 29603 29604 29605 29606 29607 29608 29609 29610 29611 29612 29613 29614 29615 29616 29617 29618 29619 29620 29621 29622 29623 29624 29625 29626 29627 29628 29629 29630 29631 29632 29633 29634 29635 29636 29637 29638 29639 29640 29641 29642 29643 29644 29645 29646 29647 29648 29649 29650 29651 29652 29653 29654 29655 29656 29657 29658 29659 29660 29661 29662 29663 29664 29665 29666 29667 29668 29669 29670 29671 29672 29673 29674 29675 29676 29677 29678 29679 29680 29681 29682 29683 29684 29685 29686 29687 29688 29689 29690 29691 29692 29693 29694 29695 29696 29697 29698 29699 29700 29701 29702 29703 29704 29705 29706 29707 29708 29709 29710 29711 29712 29713 29714 29715 29716 29717 29718 29719 29720 29721 29722 29723 29724 29725 29726 29727 29728 29729 29730 29731 29732 29733 29734 29735 29736 29737 29738 29739 29740 29741 29742 29743 29744 29745 29746 29747 29748 29749 29750 29751 29752 29753 29754 29755 29756 29757 29758 29759 29760 29761 29762 29763 29764 29765 29766 29767 29768 29769 29770 29771 29772 29773 29774 29775 29776 29777 29778 29779 29780 29781 29782 29783 29784 29785 29786 29787 29788 29789 29790 29791 29792 29793 29794 29795 29796 29797 29798 29799 29800 29801 29802 29803 29804 29805 29806 29807 29808 29809 29810 29811 29812 29813 29814 29815 29816 29817 29818 29819 29820 29821 29822 29823 29824 29825 29826 29827 29828 29829 29830 29831 29832 29833 29834 29835 29836 29837 29838 29839 29840 29841 29842 29843 29844 29845 29846 29847 29848 29849 29850 29851 29852 29853 29854 29855 29856 29857 29858 29859 29860 29861 29862 29863 29864 29865 29866 29867 29868 29869 29870 29871 29872 29873 29874 29875 29876 29877 29878 29879 29880 29881 29882 29883 29884 29885 29886 29887 29888 29889 29890 29891 29892 29893 29894 29895 29896 29897 29898 29899 29900 29901 29902 29903 29904 29905 29906 29907 29908 29909 29910 29911 29912 29913 29914 29915 29916 29917 29918 29919 29920 29921 29922 29923 29924 29925 29926 29927 29928 29929 29930 29931 29932 29933 29934 29935 29936 29937 29938 29939 29940 29941 29942 29943 29944 29945 29946 29947 29948 29949 29950 29951 29952 29953 29954 29955 29956 29957 29958 29959 29960 29961 29962 29963 29964 29965 29966 29967 29968 29969 29970 29971 29972 29973 29974 29975 29976 29977 29978 29979 29980 29981 29982 29983 29984 29985 29986 29987 29988 29989 29990 29991 29992 29993 29994 29995 29996 29997 29998 29999 30000 30001 30002 30003 30004 30005 30006 30007 30008 30009 30010 30011 30012 30013 30014 30015 30016 30017 30018 30019 30020 30021 30022 30023 30024 30025 30026 30027 30028 30029 30030 30031 30032 30033 30034 30035 30036 30037 30038 30039 30040 30041 30042 30043 30044 30045 30046 30047 30048 30049 30050 30051 30052 30053 30054 30055 30056 30057 30058 30059 30060 30061 30062 30063 30064 30065 30066 30067 30068 30069 30070 30071 30072 30073 30074 30075 30076 30077 30078 30079 30080 30081 30082 30083 30084 30085 30086 30087 30088 30089 30090 30091 30092 30093 30094 30095 30096 30097 30098 30099 30100 30101 30102 30103 30104 30105 30106 30107 30108 30109 30110 30111 30112 30113 30114 30115 30116 30117 30118 30119 30120 30121 30122 30123 30124 30125 30126 30127 30128 30129 30130 30131 30132 30133 30134 30135 30136 30137 30138 30139 30140 30141 30142 30143 30144 30145 30146 30147 30148 30149 30150 30151 30152 30153 30154 30155 30156 30157 30158 30159 30160 30161 30162 30163 30164 30165 30166 30167 30168 30169 30170 30171 30172 30173 30174 30175 30176 30177 30178 30179 30180 30181 30182 30183 30184 30185 30186 30187 30188 30189 30190 30191 30192 30193 30194 30195 30196 30197 30198 30199 30200 30201 30202 30203 30204 30205 30206 30207 30208 30209 30210 30211 30212 30213 30214 30215 30216 30217 30218 30219 30220 30221 30222 30223 30224 30225 30226 30227 30228 30229 30230 30231 30232 30233 30234 30235 30236 30237 30238 30239 30240 30241 30242 30243 30244 30245 30246 30247 30248 30249 30250 30251 30252 30253 30254 30255 30256 30257 30258 30259 30260 30261 30262 30263 30264 30265 30266 30267 30268 30269 30270 30271 30272 30273 30274 30275 30276 30277 30278 30279 30280 30281 30282 30283 30284 30285 30286 30287 30288 30289 30290 30291 30292 30293 30294 30295 30296 30297 30298 30299 30300 30301 30302 30303 30304 30305 30306 30307 30308 30309 30310 30311 30312 30313 30314 30315 30316 30317 30318 30319 30320 30321 30322 30323 30324 30325 30326 30327 30328 30329 30330 30331 30332 30333 30334 30335 30336 30337 30338 30339 30340 30341 30342 30343 30344 30345 30346 30347 30348 30349 30350 30351 30352 30353 30354 30355 30356 30357 30358 30359 30360 30361 30362 30363 30364 30365 30366 30367 30368 30369 30370 30371 30372 30373 30374 30375 30376 30377 30378 30379 30380 30381 30382 30383 30384 30385 30386 30387 30388 30389 30390 30391 30392 30393 30394 30395 30396 30397 30398 30399 30400 30401 30402 30403 30404 30405 30406 30407 30408 30409 30410 30411 30412 30413 30414 30415 30416 30417 30418 30419 30420 30421 30422 30423 30424 30425 30426 30427 30428 30429 30430 30431 30432 30433 30434 30435 30436 30437 30438 30439 30440 30441 30442 30443 30444 30445 30446 30447 30448 30449 30450 30451 30452 30453 30454 30455 30456 30457 30458 30459 30460 30461 30462 30463 30464 30465 30466 30467 30468 30469 30470 30471 30472 30473 30474 30475 30476 30477 30478 30479 30480 30481 30482 30483 30484 30485 30486 30487 30488 30489 30490 30491 30492 30493 30494 30495 30496 30497 30498 30499 30500 30501 30502 30503 30504 30505 30506 30507 30508 30509 30510 30511 30512 30513 30514 30515 30516 30517 30518 30519 30520 30521 30522 30523 30524 30525 30526 30527 30528 30529 30530 30531 30532 30533 30534 30535 30536 30537 30538 30539 30540 30541 30542 30543 30544 30545 30546 30547 30548 30549 30550 30551 30552 30553 30554 30555 30556 30557 30558 30559 30560 30561 30562 30563 30564 30565 30566 30567 30568 30569 30570 30571 30572 30573 30574 30575 30576 30577 30578 30579 30580 30581 30582 30583 30584 30585 30586 30587 30588 30589 30590 30591 30592 30593 30594 30595 30596 30597 30598 30599 30600 30601 30602 30603 30604 30605 30606 30607 30608 30609 30610 30611 30612 30613 30614 30615 30616 30617 30618 30619 30620 30621 30622 30623 30624 30625 30626 30627 30628 30629 30630 30631 30632 30633 30634 30635 30636 30637 30638 30639 30640 30641 30642 30643 30644 30645 30646 30647 30648 30649 30650 30651 30652 30653 30654 30655 30656 30657 30658 30659 30660 30661 30662 30663 30664 30665 30666 30667 30668 30669 30670 30671 30672 30673 30674 30675 30676 30677 30678 30679 30680 30681 30682 30683 30684 30685 30686 30687 30688 30689 30690 30691 30692 30693 30694 30695 30696 30697 30698 30699 30700 30701 30702 30703 30704 30705 30706 30707 30708 30709 30710 30711 30712 30713 30714 30715 30716 30717 30718 30719 30720 30721 30722 30723 30724 30725 30726 30727 30728 30729 30730 30731 30732 30733 30734 30735 30736 30737 30738 30739 30740 30741 30742 30743 30744 30745 30746 30747 30748 30749 30750 30751 30752 30753 30754 30755 30756 30757 30758 30759 30760 30761 30762 30763 30764 30765 30766 30767 30768 30769 30770 30771 30772 30773 30774 30775 30776 30777 30778 30779 30780 30781 30782 30783 30784 30785 30786 30787 30788 30789 30790 30791 30792 30793 30794 30795 30796 30797 30798 30799 30800 30801 30802 30803 30804 30805 30806 30807 30808 30809 30810 30811 30812 30813 30814 30815 30816 30817 30818 30819 30820 30821 30822 30823 30824 30825 30826 30827 30828 30829 30830 30831 30832 30833 30834 30835 30836 30837 30838 30839 30840 30841 30842 30843 30844 30845 30846 30847 30848 30849 30850 30851 30852 30853 30854 30855 30856 30857 30858 30859 30860 30861 30862 30863 30864 30865 30866 30867 30868 30869 30870 30871 30872 30873 30874 30875 30876 30877 30878 30879 30880 30881 30882 30883 30884 30885 30886 30887 30888 30889 30890 30891 30892 30893 30894 30895 30896 30897 30898 30899 30900 30901 30902 30903 30904 30905 30906 30907 30908 30909 30910 30911 30912 30913 30914 30915 30916 30917 30918 30919 30920 30921 30922 30923 30924 30925 30926 30927 30928 30929 30930 30931 30932 30933 30934 30935 30936 30937 30938 30939 30940 30941 30942 30943 30944 30945 30946 30947 30948 30949 30950 30951 30952 30953 30954 30955 30956 30957 30958 30959 30960 30961 30962 30963 30964 30965 30966 30967 30968 30969 30970 30971 30972 30973 30974 30975 30976 30977 30978 30979 30980 30981 30982 30983 30984 30985 30986 30987 30988 30989 30990 30991 30992 30993 30994 30995 30996 30997 30998 30999 31000 31001 31002 31003 31004 31005 31006 31007 31008 31009 31010 31011 31012 31013 31014 31015 31016 31017 31018 31019 31020 31021 31022 31023 31024 31025 31026 31027 31028 31029 31030 31031 31032 31033 31034 31035 31036 31037 31038 31039 31040 31041 31042 31043 31044 31045 31046 31047 
</DataArray>
<DataArray type="UInt32" Name="offsets" format="ascii">
3 6 9 12 14 17 19 22 24 26 29 32 34 37 39 42 45 48 51 54 57 60 63 66 69 72 75 78 81 84 87 89 92 95 97 100 103 106 109 112 115 118 121 124 127 130 133 136 139 142 145 148 151 154 157 160 163 165 167 170 173 176 179 182 185 188 191 194 197 200 203 206 209 212 214 217 220 223 225 228 231 233 236 238 241 243 246 249 252 255 258 261 264 267 270 273 276 279 282 285 288 291 294 297 300 303 306 309 312 315 318 321 324 327 330 333 336 339 342 345 348 351 354 357 360 363 366 369 372 375 378 381 384 387 390 393 396 399 402 405 408 411 414 417 420 423 425 428 431 434 437 440 443 446 449 452 455 458 461 464 467 469 472 475 478 481 484 486 489 492 495 498 501 504 507 510 513 516 519 522 525 528 531 534 537 540 543 546 549 552 555 558 561 564 566 569 572 575 578 581 583 586 589 591 594 597 600 603 606 609 612 615 618 621 624 627 630 633 636 639 642 645 648 651 654 657 659 661 664 666 669 671 674 677 680 683 686 688 691 694 697 700 703 706 709 712 715 718 721 724 727 730 733 736 739 742 745 748 751 754 757 760 763 766 769 772 775 778 781 784 787 789 792 795 798 801 804 807 809 812 815 818 821 824 827 830 833 836 839 842 845 848 851 854 857 860 863 866 868 871 874 877 880 882 885 888 891 894 897 899 902 905 907 909 912 915 918 921 924 927 930 933 936 939 941 944 947 950 953 956 959 962 965 968 971 974 977 980 983 986 989 992 995 998 1001 1004 1007 1010 1013 1016 1019 1022 1025 1028 1031 1034 1037 1040 1043 1046 1049 1052 1055 1058 1061 1063 1066 1069 1072 1075 1077 1080 1083 1086 1089 1092 1095 1097 1099 1102 1105 1108 1111 1114 1117 1120 1123 1126 1129 1131 1134 1137 1140 1143 1146 1148 1151 1154 1157 1160 1163 1166 1169 1172 1175 1178 1181 1184 1187 1190 1193 1196 1199 1202 1205 1207 1210 1213 1216 1219 1222 1225 1227 1230 1233 1236 1239 1242 1245 1248 1251 1254 1257 1260 1263 1266 1269 1271 1274 1276 1279 1282 1285 1288 1291 1294 1297 1300 1303 1305 1308 1311 1314 1317 1320 1323 1326 1329 1332 1335 1337 1340 1343 1346 1349 1352 1355 1358 1361 1363 1366 1369 1372 1374 1377 1380 1382 1385 1388 1391 1394 1397 1400 1403 1406 1409 1412 1415 1418 1421 1424 1427 1430 1433 1436 1439 1442 1445 1447 1450 1452 1455 1458 1461 1464 1467 1470 1473 1476 1479 1482 1484 1487 1490 1493 1496 1499 1502 1505 1508 1511 1514 1517 1520 1523 1526 1529 1532 1535 1538 1541 1543 1546 1549 1552 1555 1558 1561 1564 1567 1570 1573 1576 1578 1581 1583 1586 1589 1592 1594 1596 1598 1601 1604 1607 1610 1613 1615 1617 1620 1623 1626 1629 1631 1634 1637 1639 1642 1645 1648 1651 1654 1656 1659 1662 1664 1666 1669 1671 1674 1677 1680 1683 1686 1689 1692 1694 1697 1700 1703 1705 1708 1711 1714 1716 1719 1722 1725 1727 1730 1733 1735 1738 1741 1744 1747 1750 1753 1756 1759 1762 1765 1768 1771 1774 1777 1779 1782 1785 1788 1791 1794 1797 1800 1803 1806 1809 1812 1815 1818 1820 1823 1826 1829 1831 1834 1837 1840 1843 1846 1849 1852 1855 1858 1861 1864 1867 1869 1872 1875 1878 1881 1884 1887 1890 1892 1895 1898 1900 1903 1906 1909 1912 1914 1917 1920 1923 1926 1929 1931 1934 1936 1939 1942 1945 1948 1951 1954 1957 1960 1963 1966 1969 1972 1975 1978 1981 1984 1987 1990 1992 1995 1998 2001 2004 2007 2009 2012 2015 2017 2020 2023 2026 2029 2032 2035 2038 2040 2043 2045 2048 2050 2053 2055 2058 2061 2064 2067 2070 2073 2076 2079 2082 2084 2087 2090 2093 2095 2098 2101 2104 2106 2109 2112 2114 2117 2120 2122 2125 2127 2130 2133 2135 2138 2141 2144 2147 2149 2152 2154 2157 2159 2162 2165 2167 2169 2172 2175 2178 2181 2183 2186 2189 2192 2195 2197 2200 2203 2206 2209 2212 2215 2218 2221 2224 2227 2229 2232 2235 2238 2241 2244 2247 2250 2253 2256 2259 2262 2265 2268 2271 2273 2275 2278 2281 2284 2287 2290 2293 2296 2299 2302 2305 2308 2311 2314 2316 2319 2321 2323 2326 2329 2332 2335 2337 2340 2343 2346 2349 2351 2354 2357 2360 2363 2365 2368 2371 2373 2376 2379 2382 2385 2388 2391 2394 2397 2400 2403 2406 2409 2412 2415 2418 2421 2423 2426 2428 2431 2434 2437 2440 2443 2446 2449 2452 2455 2458 2461 2463 2466 2469 2472 2474 2477 2480 2483 2486 2489 2491 2494 2497 2500 2503 2506 2508 2511 2513 2515 2518 2521 2523 2526 2529 2532 2535 2538 2541 2544 2547 2550 2553 2556 2559 2562 2565 2567 2570 2572 2575 2577 2580 2583 2586 2589 2592 2595 2597 2600 2603 2606 2609 2612 2614 2617 2620 2623 2626 2629 2632 2635 2637 2640 2643 2646 2649 2652 2655 2658 2661 2664 2667 2670 2672 2674 2677 2680 2682 2684 2687 2690 2693 2696 2699 2702 2705 2708 2711 2714 2717 2720 2723 2726 2729 2732 2735 2738 2741 2744 2747 2750 2753 2756 2759 2762 2765 2768 2771 2774 2777 2780 2783 2785 2787 2790 2793 2796 2799 2802 2805 2808 2811 2814 2817 2819 2822 2825 2828 2831 2834 2837 2840 2843 2846 2849 2852 2855 2858 2861 2864 2867 2870 2873 2876 2879 2882 2885 2888 2891 2894 2897 2900 2903 2906 2909 2912 2915 2918 2921 2924 2927 2930 2933 2936 2939 2942 2945 2948 2951 2954 2957 2960 2963 2966 2969 2972 2975 2978 2981 2984 2987 2990 2993 2996 2999 3002 3005 3008 3011 3014 3017 3020 3023 3026 3029 3032 3035 3038 3041 3044 3047 3050 3052 3055 3058 3061 3064 3067 3070 3073 3076 3079 3082 3085 3088 3091 3094 3097 3100 3103 3106 3109 3112 3115 3118 3121 3124 3127 3129 3131 3134 3137 3140 3143 3146 3149 3152 3155 3158 3160 3163 3166 3168 3171 3174 3177 3180 3183 3186 3189 3192 3195 3198 3200 3203 3206 3209 3212 3214 3217 3220 3223 3226 3229 3232 3235 3237 3240 3243 3246 3249 3252 3255 3258 3261 3264 3266 3269 3272 3275 3278 3281 3284 3287 3290 3293 3296 3299 3302 3305 3308 3310 3313 3316 3319 3322 3325 3328 3331 3334 3337 3340 3343 3346 3349 3352 3355 3358 3361 3364 3367 3370 3373 3376 3379 3382 3385 3388 3391 3394 3397 3400 3403 3406 3409 3412 3414 3417 3420 3423 3426 3429 3432 3434 3437 3440 3443 3446 3449 3452 3455 3458 3461 3464 3467 3470 3473 3476 3479 3482 3484 3487 3490 3493 3496 3499 3502 3505 3508 3511 3514 3517 3520 3523 3526 3529 3532 3535 3538 3541 3544 3547 3549 3552 3555 3558 3561 3564 3567 3570 3573 3576 3579 3582 3585 3587 3590 3593 3596 3598 3601 3604 3607 3610 3613 3616 3619 3622 3625 3628 3631 3634 3637 3639 3642 3645 3648 3651 3654 3657 3660 3663 3665 3668 3671 3674 3677 3680 3683 3686 3689 3692 3695 3698 3701 3704 3707 3710 3713 3716 3719 3722 3725 3728 3731 3734 3737 3740 3743 3746 3749 3752 3755 3758 3761 3764 3767 3770 3773 3776 3779 3782 3785 3788 3791 3794 3797 3800 3803 3805 3808 3811 3814 3817 3820 3823 3826 3829 3832 3835 3838 3841 3844 3846 3849 3852 3855 3857 3860 3863 3866 3869 3872 3875 3877 3880 3883 3886 3888 3891 3894 3897 3900 3903 3906 3909 3912 3915 3917 3920 3923 3926 3928 3931 3934 3937 3940 3942 3945 3948 3951 3953 3956 3959 3962 3964 3967 3970 3973 3976 3979 3982 3985 3988 3991 3993 3996 3999 4002 4004 4007 4009 4012 4015 4018 4021 4024 4026 4029 4032 4034 4037 4040 4043 4046 4049 4052 4055 4058 4061 4064 4067 4070 4073 4076 4079 4082 4085 4088 4091 4094 4097 4100 4103 4106 4109 4112 4115 4118 4121 4124 4127 4130 4133 4135 4138 4141 4144 4146 4149 4151 4154 4157 4159 4162 4165 4168 4170 4172 4175 4178 4180 4182 4185 4188 4190 4193 4196 4199 4202 4205 4208 4211 4214 4216 4218 4221 4224 4227 4230 4233 4236 4239 4242 4245 4247 4250 4253 4256 4258 4261 4264 4266 4269 4271 4274 4276 4279 4282 4285 4287 4289 4292 4295 4298 4301 4304 4307 4309 4312 4315 4318 4320 4323 4325 4328 4331 4334 4337 4339 4342 4345 4347 4350 4352 4355 4357 4360 4363 4366 4368 4370 4373 4376 4378 4381 4384 4386 4389 4392 4394 4397 4400 4403 4405 4408 4410 4413 4415 4418 4421 4424 4427 4429 4432 4435 4437 4440 4443 4446 4449 4452 4455 4457 4460 4463 4466 4469 4472 4475 4478 4480 4483 4486 4489 4492 4495 4498 4501 4504 4506 4509 4512 4515 4518 4521 4524 4526 4529 4532 4535 4538 4540 4542 4545 4547 4550 4552 4555 4557 4560 4563 4566 4568 4570 4573 4575 4578 4581 4583 4586 4589 4592 4595 4597 4600 4603 4606 4609 4612 4615 4618 4621 4624 4626 4629 4632 4635 4637 4640 4643 4645 4648 4651 4654 4657 4660 4663 4666 4669 4671 4674 4677 4679 4682 4685 4688 4691 4693 4695 4697 4700 4702 4705 4707 4710 4713 4716 4719 4722 4724 4727 4730 4732 4735 4738 4741 4744 4747 4749 4752 4754 4757 4759 4762 4764 4766 4769 4771 4774 4776 4779 4782 4785 4787 4790 4792 4795 4797 4799 4802 4804 4807 4809 4812 4815 4817 4820 4822 4824 4826 4829 4832 4834 4837 4840 4842 4845 4848 4851 4853 4856 4859 4861 4864 4866 4869 4872 4875 4877 4880 4882 4885 4888 4891 4894 4896 4898 4901 4904 4907 4910 4913 4915 4917 4920 4923 4926 4928 4931 4934 4936 4939 4942 4944 4947 4950 4953 4955 4957 4959 4962 4965 4968 4971 4974 4977 4980 4983 4986 4989 4991 4993 4996 4999 5002 5004 5007 5010 5013 5016 5019 5022 5024 5027 5030 5033 5036 5039 5042 5045 5048 5050 5053 5056 5059 5062 5064 5067 5070 5073 5075 5078 5081 5084 5087 5089 5091 5094 5097 5100 5103 5105 5108 5111 5114 5117 5120 5122 5125 5128 5131 5134 5137 5140 5143 5146 5148 5151 5154 5157 5159 5162 5165 5167 5170 5173 5176 5179 5182 5185 5188 5191 5194 5197 5200 5203 5206 5209 5212 5215 5218 5221 5224 5227 5230 5232 5235 5238 5241 5244 5247 5250 5253 5256 5259 5262 5265 5268 5271 5273 5276 5279 5282 5285 5288 5291 5294 5297 5300 5303 5306 5309 5312 5315 5318 5321 5324 5327 5330 5332 5335 5338 5341 5344 5347 5350 5353 5356 5359 5362 5365 5368 5371 5373 5376 5379 5382 5385 5387 5390 5393 5396 5399 5401 5404 5407 5410 5413 5416 5419 5422 5425 5428 5431 5434 5437 5440 5443 5446 5449 5452 5455 5458 5460 5463 5466 5469 5472 5475 5478 5481 5483 5485 5488 5491 5493 5496 5499 5502 5505 5508 5511 5513 5516 5519 5522 5525 5528 5531 5534 5537 5540 5543 5546 5549 5552 5555 5558 5561 5564 5567 5570 5573 5576 5579 5582 5585 5588 5591 5594 5597 5600 5603 5606 5609 5612 5615 5618 5621 5624 5627 5630 5633 5636 5639 5642 5645 5648 5651 5654 5657 5660 5663 5666 5669 5672 5675 5678 5681 5684 5687 5690 5693 5696 5699 5702 5705 5708 5711 5714 5716 5719 5722 5725 5728 5730 5733 5736 5739 5741 5744 5747 5749 5752 5755 5758 5761 5764 5767 5770 5773 5776 5779 5781 5784 5787 5790 5793 5796 5799 5802 5805 5808 5811 5814 5817 5820 5823 5826 5829 5832 5835 5838 5841 5844 5847 5850 5853 5856 5858 5861 5864 5866 5869 5872 5875 5878 5881 5884 5887 5890 5893 5896 5899 5902 5905 5908 5911 5914 5917 5920 5923 5926 5928 5931 5934 5937 5940 5943 5946 5949 5952 5955 5958 5961 5964 5966 5969 5972 5975 5978 5981 5984 5987 5990 5993 5996 5999 6002 6005 6008 6011 6014 6017 6020 6023 6026 6029 6032 6035 6038 6041 6044 6047 6050 6053 6055 6058 6061 6064 6066 6069 6072 6075 6078 6080 6083 6086 6089 6092 6094 6097 6100 6103 6106 6109 6112 6115 6118 6121 6124 6127 6130 6133 6136 6139 6142 6145 6148 6151 6154 6157 6160 6163 6166 6169 6172 6175 6178 6181 6184 6187 6190 6193 6196 6199 6202 6205 6207 6210 6213 6215 6218 6221 6224 6227 6230 6232 6234 6237 6240 6243 6245 6248 6251 6253 6255 6258 6260 6263 6266 6268 6271 6274 6277 6279 6282 6284 6287 6290 6293 6296 6299 6302 6304 6306 6309 6312 6315 6317 6319 6322 6324 6327 6329 6332 6334 6337 6340 6343 6345 6348 6351 6354 6357 6360 6363 6366 6369 6372 6374 6377 6380 6383 6386 6389 6391 6394 6397 6400 6403 6406 6409 6411 6414 6417 6420 6423 6426 6429 6432 6435 6438 6441 6444 6447 6449 6452 6455 6458 6461 6464 6466 6469 6472 6475 6478 6481 6484 6486 6489 6492 6495 6498 6501 6504 6506 6509 6512 6515 6518 6521 6523 6526 6528 6531 6534 6537 6540 6542 6545 6548 6551 6554 6557 6560 6563 6566 6569 6571 6573 6575 6578 6581 6584 6587 6589 6592 6594 6597 6600 6603 6606 6608 6611 6613 6616 6619 6622 6624 6626 6629 6632 6635 6638 6640 6643 6645 6647 6649 6652 6655 6658 6661 6663 6665 6668 6670 6673 6676 6679 6682 6684 6687 6689 6692 6695 6698 6701 6704 6707 6710 6713 6716 6719 6721 6723 6726 6729 6732 6735 6738 6741 6744 6746 6749 6752 6755 6758 6761 6764 6767 6770 6773 6776 6779 6782 6784 6787 6790 6793 6796 6799 6802 6805 6808 6811 6814 6817 6820 6823 6826 6828 6831 6833 6836 6839 6842 6845 6848 6851 6854 6857 6860 6862 6865 6868 6871 6874 6877 6880 6883 6886 6888 6891 6894 6897 6900 6902 6905 6908 6911 6914 6916 6919 6922 6925 6928 6931 6934 6936 6939 6942 6945 6948 6951 6954 6957 6960 6962 6965 6968 6971 6974 6976 6979 6982 6985 6987 6990 6993 6996 6999 7002 7005 7008 7011 7014 7017 7020 7023 7026 7029 7032 7035 7038 7041 7044 7047 7050 7053 7055 7058 7061 7063 7066 7069 7072 7075 7077 7080 7083 7086 7089 7092 7095 7098 7101 7104 7107 7110 7113 7116 7119 7121 7124 7127 7130 7133 7136 7138 7141 7144 7147 7150 7153 7156 7158 7161 7164 7167 7170 7173 7176 7179 7182 7185 7188 7190 7193 7196 7199 7202 7205 7208 7211 7214 7217 7220 7223 7226 7229 7232 7235 7238 7241 7244 7247 7250 7253 7256 7259 7262 7265 7268 7271 7274 7277 7280 7283 7286 7289 7292 7294 7297 7300 7303 7306 7309 7312 7315 7318 7321 7324 7326 7329 7332 7335 7338 7341 7344 7347 7350 7353 7356 7358 7361 7364 7367 7370 7373 7376 7379 7381 7384 7386 7389 7392 7395 7398 7401 7403 7406 7409 7412 7415 7417 7420 7423 7426 7429 7432 7435 7438 7441 7444 7446 7449 7452 7454 7457 7460 7463 7466 7468 7470 7472 7475 7477 7480 7482 7485 7488 7491 7494 7497 7500 7503 7506 7509 7511 7514 7517 7520 7523 7525 7528 7531 7534 7537 7540 7543 7546 7549 7552 7555 7558 7560 7562 7565 7568 7571 7574 7577 7579 7582 7584 7586 7589 7591 7594 7597 7600 7603 7606 7609 7612 7614 7617 7620 7623 7626 7629 7631 7633 7636 7638 7641 7644 7647 7650 7653 7656 7658 7661 7664 7666 7669 7672 7674 7677 7680 7683 7686 7689 7692 7695 7698 7701 7703 7706 7708 7711 7714 7717 7720 7723 7725 7728 7731 7733 7736 7739 7742 7745 7747 7750 7753 7755 7758 7761 7764 7767 7770 7772 7775 7778 7781 7784 7787 7790 7793 7795 7798 7800 7803 7806 7809 7812 7814 7816 7819 7822 7824 7826 7829 7832 7835 7837 7839 7842 7845 7848 7850 7853 7856 7858 7860 7863 7866 7869 7872 7875 7878 7881 7884 7887 7890 7893 7896 7899 7901 7904 7907 7909 7912 7915 7917 7920 7922 7925 7928 7931 7934 7936 7939 7941 7944 7946 7949 7952 7955 7957 7960 7963 7966 7969 7972 7975 7978 7981 7984 7987 7990 7993 7996 7999 8002 8004 8007 8010 8013 8016 8019 8022 8025 8028 8030 8033 8036 8039 8042 8045 8047 8049 8052 8055 8058 8061 8063 8066 8068 8070 8073 8076 8079 8082 8085 8088 8090 8093 8096 8099 8101 8104 8107 8110 8113 8116 8119 8121 8124 8127 8130 8133 8136 8139 8142 8145 8148 8151 8154 8157 8159 8162 8165 8168 8171 8174 8177 8180 8183 8186 8189 8191 8194 8197 8200 8203 8206 8209 8212 8215 8218 8221 8223 8226 8229 8232 8235 8238 8241 8244 8247 8249 8252 8255 8258 8261 8264 8267 8270 8273 8276 8279 8282 8285 8288 8291 8294 8297 8299 8302 8304 8307 8310 8312 8315 8318 8321 8324 8327 8330 8333 8336 8339 8342 8345 8348 8351 8354 8357 8360 8362 8365 8368 8371 8374 8377 8379 8382 8385 8387 8390 8393 8396 8398 8400 8403 8406 8408 8411 8414 8417 8420 8423 8426 8428 8431 8434 8437 8440 8443 8446 8449 8452 8454 8457 8460 8463 8466 8469 8472 8474 8477 8480 8482 8485 8488 8491 8494 8496 8498 8501 8504 8506 8509 8511 8514 8517 8520 8523 8526 8528 8531 8534 8537 8540 8543 8546 8548 8551 8554 8557 8560 8563 8566 8569 8571 8574 8577 8580 8582 8585 8588 8591 8593 8596 8599 8602 8604 8607 8609 8612 8615 8618 8621 8624 8627 8630 8633 8636 8639 8642 8645 8648 8650 8653 8656 8658 8661 8663 8666 8668 8671 8674 8677 8680 8682 8685 8688 8690 8693 8696 8699 8701 8704 8707 8710 8713 8716 8719 8722 8725 8728 8731 8734 8737 8740 8743 8746 8749 8752 8755 8758 8761 8764 8767 8770 8773 8775 8778 8781 8784 8787 8790 8793 8795 8798 8801 8803 8806 8809 8812 8815 8817 8820 8822 8825 8828 8831 8834 8837 8840 8843 8846 8849 8851 8854 8856 8859 8861 8864 8867 8870 8873 8876 8879 8881 8884 8887 8889 8892 8895 8898 8900 8903 8906 8909 8912 8915 8918 8921 8924 8926 8929 8932 8934 8937 8940 8942 8945 8947 8950 8953 8956 8959 8961 8964 8966 8968 8971 8974 8976 8979 8982 8985 8988 8991 8993 8996 8999 9002 9004 9007 9010 9013 9016 9019 9022 9024 9027 9030 9033 9036 9038 9041 9044 9047 9049 9052 9055 9058 9061 9064 9066 9069 9072 9075 9078 9081 9083 9086 9089 9091 9094 9097 9100 9103 9106 9109 9112 9115 9118 9121 9124 9127 9130 9132 9135 9138 9141 9144 9147 9150 9153 9155 9158 9161 9164 9167 9169 9172 9175 9178 9181 9184 9187 9190 9193 9196 9199 9201 9204 9207 9210 9213 9215 9218 9221 9223 9226 9228 9231 9234 9236 9239 9242 9245 9248 9251 9254 9257 9260 9263 9266 9269 9272 9275 9278 9281 9284 9287 9290 9293 9295 9298 9301 9304 9307 9310 9313 9316 9319 9322 9325 9328 9331 9334 9337 9340 9343 9346 9349 9352 9355 9357 9360 9363 9366 9369 9372 9375 9378 9381 9383 9386 9389 9392 9395 9398 9400 9403 9406 9409 9412 9415 9417 9420 9423 9426 9428 9431 9434 9436 9439 9442 9445 9447 9450 9452 9455 9458 9461 9463 9465 9468 9470 9473 9476 9478 9481 9483 9486 9488 9490 9493 9496 9498 9501 9504 9507 9510 9512 9515 9518 9520 9523 9526 9528 9530 9533 9536 9539 9542 9544 9547 9549 9552 9555 9558 9560 9562 9565 9568 9571 9573 9575 9578 9580 9583 9586 9589 9592 9595 9598 9600 9602 9605 9608 9611 9613 9616 9619 9622 9625 9627 9630 9633 9636 9639 9641 9643 9646 9648 9650 9653 9655 9658 9661 9663 9665 9668 9670 9673 9676 9678 9681 9684 9686 9689 9691 9694 9697 9700 9702 9705 9708 9710 9713 9716 9719 9722 9725 9728 9731 9734 9737 9740 9743 9745 9748 9751 9754 9756 9759 9761 9764 9767 9770 9772 9774 9777 9780 9782 9784 9787 9790 9792 9795 9798 9801 9804 9806 9809 9812 9814 9817 9819 9822 9825 9828 9831 9834 9837 9839 9842 9845 9848 9851 9854 9857 9860 9863 9866 9869 9872 9874 9877 9880 9883 9886 9889 9891 9894 9897 9899 9902 9904 9907 9909 9912 9914 9917 9920 9922 9925 9928 9930 9933 9936 9939 9941 9944 9946 9949 9951 9954 9956 9959 9962 9965 9967 9970 9973 9976 9978 9981 9984 9987 9990 9993 9995 9997 9999 10002 10005 10008 10011 10014 10017 10020 10023 10026 10029 10032 10035 10038 10041 10044 10047 10050 10053 10056 10059 10062 10065 10068 10071 10074 10077 10080 10083 10086 10089 10092 10095 10098 10101 10104 10106 10109 10111 10114 10117 10120 10123 10125 10128 10131 10134 10137 10140 10143 10146 10149 10152 10154 10157 10159 10162 10165 10168 10171 10174 10177 10180 10182 10185 10187 10190 10193 10196 10199 10202 10205 10208 10211 10214 10217 10220 10223 10226 10229 10231 10234 10237 10240 10243 10246 10249 10252 10254 10257 10260 10263 10266 10268 10271 10274 10277 10280 10282 10285 10288 10291 10294 10297 10300 10302 10305 10308 10311 10314 10317 10320 10323 10326 10328 10331 10334 10337 10340 10343 10346 10349 10352 10355 10358 10361 10364 10367 10370 10373 10375 10378 10381 10384 10387 10390 10392 10395 10398 10401 10404 10406 10409 10412 10415 10418 10421 10424 10427 10430 10433 10436 10439 10442 10444 10447 10450 10453 10456 10459 10462 10465 10468 10471 10474 10477 10480 10483 10486 10489 10492 10495 10498 10501 10504 10507 10510 10513 10516 10519 10522 10525 10528 10531 10534 10537 10540 10543 10546 10549 10552 10555 10558 10561 10564 10567 10570 10573 10575 10578 10581 10584 10587 10590 10593 10596 10599 10602 10605 10608 10611 10613 10616 10618 10621 10624 10627 10629 10632 10635 10638 10641 10644 10647 10649 10652 10655 10658 10661 10664 10667 10669 10672 10675 10677 10679 10682 10685 10687 10690 10693 10695 10697 10699 10702 10705 10708 10711 10714 10717 10720 10723 10726 10729 10731 10734 10737 10740 10743 10745 10748 10751 10754 10757 10759 10762 10764 10767 10770 10773 10776 10778 10781 10784 10787 10790 10792 10795 10798 10801 10804 10806 10809 10812 10815 10817 10820 10823 10826 10829 10832 10835 10838 10841 10844 10847 10850 10853 10856 10859 10862 10865 10868 10871 10874 10877 10880 10883 10886 10889 10892 10895 10898 10901 10904 10907 10910 10913 10916 10919 10922 10925 10928 10931 10934 10937 10939 10942 10945 10948 10951 10954 10957 10960 10963 10965 10968 10971 10974 10977 10979 10982 10985 10988 10991 10994 10997 10999 11002 11005 11008 11010 11013 11016 11019 11022 11025 11028 11031 11034 11037 11040 11042 11045 11048 11051 11054 11057 11060 11063 11066 11069 11072 11074 11077 11080 11083 11085 11087 11090 11092 11094 11097 11100 11103 11106 11109 11111 11114 11117 11120 11123 11126 11129 11132 11135 11137 11140 11143 11146 11149 11152 11155 11158 11161 11164 11166 11169 11172 11175 11177 11180 11182 11185 11187 11190 11193 11196 11199 11202 11205 11208 11211 11214 11217 11220 11223 11226 11229 11231 11233 11236 11239 11242 11245 11248 11250 11253 11256 11259 11262 11265 11268 11271 11274 11277 11280 11283 11286 11289 11292 11295 11298 11301 11304 11306 11309 11312 11315 11317 11320 11323 11326 11329 11332 11335 11338 11340 11343 11346 11349 11352 11354 11357 11360 11363 11366 11368 11371 11374 11377 11379 11382 11384 11387 11390 11393 11395 11398 11401 11404 11407 11410 11413 11416 11419 11422 11425 11428 11431 11434 11437 11440 11443 11446 11449 11452 11455 11458 11461 11464 11467 11470 11472 11475 11478 11481 11484 11487 11490 11493 11495 11498 11501 11504 11507 11510 11512 11515 11518 11521 11523 11526 11528 11531 11534 11537 11540 11543 11546 11548 11551 11554 11557 11560 11563 11566 11568 11571 11574 11577 11580 11583 11586 11589 11591 11594 11597 11599 11602 11605 11608 11610 11613 11616 11619 11622 11625 11628 11631 11634 11637 11640 11643 11646 11649 11652 11655 11658 11660 11663 11666 11669 11672 11675 11678 11681 11684 11687 11689 11692 11695 11698 11700 11703 11706 11709 11712 11715 11718 11721 11724 11727 11730 11732 11735 11738 11741 11744 11747 11750 11752 11755 11758 11760 11763 11765 11768 11771 11774 11777 11780 11783 11786 11789 11791 11794 11797 11800 11802 11805 11808 11811 11813 11816 11819 11822 11825 11827 11830 11833 11835 11838 11840 11842 11844 11847 11850 11852 11854 11857 11860 11863 11865 11868 11871 11874 11876 11879 11882 11885 11888 11891 11894 11897 11900 11903 11905 11908 11911 11913 11915 11917 11919 11921 11924 11927 11929 11932 11935 11938 11941 11944 11947 11950 11953 11956 11959 11962 11965 11968 11971 11974 11977 11980 11983 11985 11988 11991 11994 11997 12000 12003 12006 12009 12011 12014 12017 12020 12023 12026 12028 12031 12033 12035 12038 12041 12044 12047 12049 12052 12055 12058 12060 12063 12066 12069 12071 12074 12076 12079 12082 12085 12087 12089 12091 12094 12097 12099 12102 12104 12106 12109 12111 12114 12117 12120 12122 12125 12127 12130 12133 12136 12139 12142 12145 12148 12151 12154 12157 12160 12163 12166 12169 12172 12175 12178 12181 12184 12187 12190 12193 12196 12199 12202 12204 12207 12210 12213 12216 12219 12222 12224 12227 12230 12233 12236 12239 12242 12244 12246 12249 12252 12255 12258 12260 12263 12266 12269 12271 12274 12277 12280 12283 12285 12288 12290 12293 12295 12298 12301 12303 12305 12308 12311 12313 12316 12319 12321 12323 12325 12328 12331 12333 12336 12339 12342 12345 12348 12351 12354 12357 12360 12363 12366 12369 12372 12375 12378 12381 12384 12387 12390 12393 12396 12399 12402 12405 12408 12411 12414 12417 12420 12423 12426 12429 12431 12433 12436 12439 12442 12445 12448 12450 12453 12456 12458 12461 12464 12466 12469 12472 12475 12478 12481 12484 12487 12490 12493 12496 12499 12502 12505 12508 12511 12513 12516 12519 12521 12523 12526 12529 12532 12535 12537 12539 12542 12544 12546 12549 12551 12554 12557 12560 12563 12565 12568 12570 12573 12576 12578 12580 12583 12585 12587 12590 12593 12595 12597 12599 12602 12604 12607 12610 12613 12616 12619 12622 12624 12627 12630 12633 12636 12639 12642 12645 12647 12649 12652 12655 12658 12660 12663 12666 12669 12672 12674 12676 12679 12682 12685 12687 12690 12693 12696 12699 12702 12705 12708 12711 12714 12717 12720 12723 12726 12729 12732 12735 12738 12741 12744 12747 12750 12753 12756 12759 12762 12765 12768 12771 12774 12777 12780 12783 12786 12789 12791 12794 12797 12800 12803 12806 12809 12812 12815 12818 12820 12823 12826 12829 12832 12835 12838 12841 12844 12846 12849 12852 12855 12858 12861 12864 12867 12870 12873 12876 12878 12880 12883 12885 12888 12891 12893 12896 12899 12902 12905 12908 12911 12914 12917 12919 12922 12925 12928 12931 12934 12937 12939 12942 12945 12948 12951 12954 12957 12960 12963 12966 12969 12972 12975 12978 12981 12984 12987 12990 12992 12995 12998 13000 13003 13006 13008 13011 13013 13016 13019 13022 13025 13027 13030 13033 13036 13039 13041 13044 13047 13050 13053 13056 13058 13061 13064 13067 13070 13073 13076 13079 13082 13085 13087 13090 13093 13096 13099 13102 13105 13108 13110 13113 13116 13119 13121 13124 13127 13130 13133 13136 13139 13142 13144 13147 13150 13153 13155 13158 13161 13164 13167 13170 13173 13176 13179 13182 13185 13187 13190 13193 13196 13198 13201 13204 13206 13209 13212 13215 13217 13220 13223 13226 13229 13232 13234 13237 13240 13243 13246 13248 13251 13254 13257 13260 13263 13266 13269 13272 13275 13278 13281 13284 13287 13290 13293 13296 13299 13301 13304 13307 13310 13313 13315 13318 13321 13324 13327 13330 13332 13335 13338 13341 13344 13347 13350 13352 13355 13358 13361 13364 13367 13370 13373 13376 13379 13382 13385 13388 13391 13393 13396 13399 13402 13404 13407 13409 13412 13414 13417 13420 13422 13425 13428 13431 13433 13436 13439 13442 13445 13448 13451 13454 13457 13459 13462 13465 13468 13471 13474 13476 13479 13482 13485 13488 13491 13494 13497 13500 13503 13505 13508 13511 13514 13516 13519 13522 13525 13528 13531 13534 13537 13540 13543 13546 13549 13552 13555 13558 13561 13563 13566 13569 13572 13575 13578 13581 13584 13587 13590 13593 13595 13598 13601 13604 13606 13609 13612 13615 13618 13621 13624 13627 13630 13633 13636 13639 13642 13645 13648 13651 13654 13657 13660 13663 13666 13669 13671 13674 13676 13679 13682 13685 13688 13691 13694 13697 13700 13703 13706 13709 13712 13715 13717 13720 13723 13726 13729 13732 13735 13738 13741 13744 13747 13750 13753 13755 13758 13760 13763 13766 13769 13772 13775 13778 13781 13783 13786 13789 13792 13795 13798 13800 13802 13804 13807 13810 13813 13815 13818 13821 13824 13827 13830 13833 13836 13839 13842 13845 13848 13851 13854 13857 13860 13863 13866 13869 13872 13875 13878 13881 13884 13887 13890 13893 13896 13899 13902 13905 13908 13911 13914 13916 13919 13921 13924 13927 13930 13933 13936 13939 13942 13945 13948 13951 13954 13957 13960 13963 13966 13969 13972 13975 13978 13981 13984 13986 13989 13992 13995 13998 14001 14004 14006 14009 14012 14015 14018 14021 14024 14027 14029 14031 14034 14037 14040 14043 14046 14049 14052 14055 14058 14061 14063 14066 14069 14072 14075 14078 14081 14084 14087 14090 14093 14095 14098 14101 14104 14107 14110 14113 14116 14119 14122 14125 14128 14131 14134 14137 14140 14143 14146 14149 14152 14155 14158 14161 14164 14167 14170 14173 14176 14179 14182 14185 14188 14190 14193 14196 14199 14201 14204 14207 14210 14213 14216 14218 14221 14224 14226 14229 14231 14233 14236 14239 14242 14245 14248 14250 14253 14256 14259 14261 14264 14267 14270 14273 14276 14279 14282 14285 14288 14291 14294 14297 14300 14303 14306 14308 14311 14314 14317 14320 14322 14325 14328 14331 14334 14337 14340 14342 14345 14348 14351 14354 14357 14360 14363 14366 14369 14372 14375 14378 14381 14384 14387 14390 14393 14396 14399 14402 14405 14408 14410 14413 14416 14419 14422 14425 14428 14431 14434 14437 14440 14443 14446 14449 14452 14455 14458 14461 14464 14467 14470 14473 14476 14479 14482 14485 14488 14491 14494 14497 14500 14503 14506 14509 14512 14515 14518 14521 14524 14527 14529 14532 14535 14538 14541 14544 14547 14550 14553 14556 14559 14562 14565 14568 14571 14574 14577 14579 14582 14585 14588 14591 14594 14597 14599 14601 14604 14607 14610 14613 14615 14618 14620 14623 14626 14628 14631 14634 14637 14640 14643 14646 14648 14651 14654 14657 14659 14662 14665 14668 14671 14674 14676 14679 14682 14685 14688 14690 14692 14695 14697 14700 14703 14706 14709 14712 14715 14718 14721 14724 14727 14730 14732 14735 14738 14741 14743 14746 14749 14752 14755 14758 14760 14763 14766 14768 14771 14774 14777 14780 14783 14786 14788 14791 14793 14796 14799 14802 14805 14808 14811 14814 14817 14820 14823 14826 14829 14832 14834 14837 14840 14843 14846 14849 14852 14855 14858 14861 14864 14867 14870 14873 14876 14879 14882 14885 14888 14891 14894 14896 14898 14901 14904 14907 14910 14913 14916 14919 14922 14925 14928 14931 14934 14936 14939 14942 14944 14947 14949 14952 14955 14958 14961 14964 14967 14970 14973 14976 14979 14981 14984 14986 14989 14991 14993 14996 14999 15002 15005 15007 15010 15013 15015 15018 15021 15024 15027 15030 15032 15035 15038 15041 15044 15047 15050 15053 15056 15059 15062 15064 15067 15070 15073 15076 15079 15082 15085 15088 15091 15094 15097 15100 15103 15106 15109 15112 15114 15117 15120 15123 15126 15128 15131 15134 15136 15139 15142 15145 15148 15151 15153 15156 15158 15161 15163 15166 15169 15172 15175 15178 15181 15184 15186 15189 15191 15193 15196 15199 15201 15204 15207 15210 15213 15215 15218 15221 15223 15226 15229 15232 15235 15238 15241 15243 15246 15249 15252 15255 15258 15260 15263 15266 15269 15272 15275 15277 15280 15283 15286 15289 15291 15293 15296 15298 15301 15304 15307 15310 15312 15315 15317 15320 15323 15326 15329 15332 15335 15337 15340 15343 15346 15349 15352 15355 15358 15361 15364 15366 15369 15371 15374 15377 15380 15383 15386 15389 15392 15395 15397 15400 15402 15405 15408 15411 15413 15416 15418 15421 15424 15427 15430 15433 15436 15439 15442 15445 15447 15450 15453 15455 15458 15461 15464 15467 15470 15473 15476 15479 15481 15483 15485 15488 15491 15494 15497 15500 15503 15506 15509 15512 15515 15518 15521 15524 15527 15530 15533 15536 15539 15542 15544 15547 15550 15553 15555 15557 15560 15563 15566 15569 15572 15575 15578 15580 15583 15586 15589 15592 15595 15598 15601 15604 15607 15610 15613 15615 15618 15621 15624 15627 15630 15633 15636 15639 15642 15645 15647 15650 15653 15656 15659 15662 15665 15667 15670 15673 15676 15679 15682 15685 15688 15691 15694 15697 15700 15703 15706 15709 15712 15714 15717 15720 15723 15726 15728 15731 15734 15737 15740 15743 15746 15749 15751 15754 15756 15759 15762 15764 15767 15770 15773 15775 15778 15780 15783 15785 15787 15790 15793 15796 15798 15800 15803 15806 15809 15812 15815 15818 15821 15824 15827 15830 15833 15836 15839 15842 15845 15848 15851 15854 15857 15860 15863 15866 15868 15871 15874 15877 15880 15883 15886 15889 15892 15895 15898 15900 15902 15905 15908 15911 15914 15917 15920 15923 15925 15928 15931 15934 15936 15939 15942 15945 15948 15951 15954 15956 15958 15961 15964 15967 15970 15972 15975 15978 15981 15984 15987 15989 15992 15995 15998 16001 16004 16006 16009 16012 16015 16018 16021 16024 16027 16030 16033 16036 16039 16041 16044 16047 16050 16052 16055 16058 16061 16064 16067 16070 16073 16076 16079 16082 16085 16088 16091 16094 16097 16100 16102 16105 16108 16110 16113 16116 16119 16121 16123 16126 16129 16132 16134 16136 16138 16141 16144 16147 16150 16152 16155 16158 16161 16164 16167 16169 16171 16174 16177 16179 16182 16184 16187 16189 16192 16195 16198 16200 16203 16206 16208 16211 16214 16217 16220 16223 16225 16228 16231 16234 16237 16240 16243 16246 16249 16252 16255 16258 16261 16264 16267 16270 16273 16276 16279 16282 16285 16288 16291 16294 16296 16299 16302 16305 16308 16311 16314 16317 16320 16323 16326 16329 16332 16335 16338 16341 16344 16347 16350 16353 16356 16359 16362 16365 16368 16371 16374 16377 16380 16383 16386 16389 16392 16395 16398 16401 16403 16406 16409 16412 16415 16418 16421 16424 16426 16429 16432 16435 16438 16440 16443 16446 16448 16451 16454 16457 16460 16463 16465 16468 16471 16474 16477 16480 16483 16486 16489 16492 16495 16497 16499 16502 16505 16508 16511 16514 16517 16520 16523 16526 16528 16531 16534 16537 16540 16543 16545 16548 16551 16554 16557 16560 16563 16566 16569 16572 16575 16578 16581 16584 16587 16590 16593 16596 16599 16602 16605 16607 16610 16612 16615 16617 16620 16623 16626 16629 16632 16635 16638 16641 16643 16646 16649 16652 16655 16658 16661 16664 16667 16670 16673 16676 16679 16682 16685 16688 16690 16693 16696 16699 16702 16705 16708 16711 16714 16717 16720 16723 16726 16729 16732 16735 16738 16741 16744 16747 16750 16753 16756 16758 16761 16764 16767 16770 16773 16775 16778 16780 16783 16785 16788 16791 16794 16796 16798 16801 16804 16807 16810 16813 16816 16818 16820 16822 16825 16827 16830 16832 16835 16838 16841 16844 16847 16850 16852 16855 16858 16861 16864 16867 16870 16873 16876 16878 16881 16884 16887 16889 16892 16894 16897 16900 16902 16905 16908 16911 16914 16917 16920 16923 16926 16929 16932 16935 16938 16941 16944 16947 16949 16952 16955 16958 16961 16964 16967 16970 16972 16975 16978 16981 16984 16987 16990 16993 16995 16998 17000 17003 17006 17008 17011 17014 17017 17020 17023 17026 17029 17032 17035 17037 17040 17043 17046 17049 17051 17054 17057 17059 17061 17064 17067 17070 17073 17076 17079 17082 17085 17087 17090 17093 17096 17099 17102 17105 17108 17111 17114 17117 17120 17123 17126 17129 17132 17135 17138 17141 17144 17147 17150 17153 17156 17159 17162 17165 17168 17171 17174 17177 17179 17182 17185 17188 17191 17194 17197 17200 17203 17206 17209 17212 17214 17217 17220 17222 17225 17228 17231 17234 17237 17240 17243 17246 17249 17252 17254 17256 17259 17262 17265 17268 17270 17272 17275 17278 17281 17284 17286 17289 17292 17295 17297 17300 17303 17306 17309 17312 17315 17318 17321 17324 17327 17330 17333 17336 17338 17341 17343 17346 17349 17352 17355 17358 17360 17363 17366 17368 17371 17374 17377 17380 17383 17386 17389 17392 17395 17397 17400 17403 17406 17409 17412 17415 17418 17421 17424 17427 17429 17432 17435 17438 17440 17443 17446 17449 17452 17455 17458 17461 17464 17467 17470 17473 17476 17479 17481 17483 17485 17488 17491 17493 17496 17499 17502 17505 17508 17511 17514 17517 17520 17523 17526 17529 17532 17535 17537 17540 17543 17546 17549 17552 17555 17558 17560 17563 17566 17569 17572 17575 17578 17581 17584 17587 17590 17593 17596 17599 17602 17605 17608 17610 17613 17616 17619 17622 17625 17628 17631 17633 17636 17639 17642 17644 17647 17650 17653 17656 17659 17662 17665 17668 17671 17674 17677 17680 17683 17686 17689 17692 17694 17697 17700 17703 17706 17708 17711 17713 17716 17719 17722 17725 17727 17730 17733 17736 17739 17742 17745 17748 17751 17754 17757 17760 17763 17766 17769 17772 17775 17778 17780 17782 17785 17788 17791 17794 17797 17800 17803 17806 17809 17812 17815 17818 17821 17824 17827 17830 17833 17836 17838 17841 17843 17846 17849 17852 17855 17858 17861 17864 17867 17869 17872 17875 17877 17880 17882 17885 17888 17891 17894 17897 17900 17903 17906 17909 17912 17915 17918 17921 17924 17927 17930 17933 17936 17939 17942 17945 17948 17951 17954 17957 17960 17963 17966 17969 17972 17975 17978 17981 17984 17987 17990 17993 17996 17999 18002 18005 18008 18011 18014 18017 18020 18023 18026 18029 18032 18034 18037 18040 18043 18046 18048 18050 18053 18056 18059 18062 18065 18068 18071 18074 18076 18079 18082 18085 18088 18091 18094 18097 18100 18102 18105 18108 18111 18114 18116 18119 18121 18123 18125 18128 18131 18134 18137 18140 18143 18146 18149 18152 18154 18157 18160 18163 18166 18169 18172 18175 18178 18181 18184 18187 18189 18192 18195 18198 18201 18204 18207 18210 18213 18216 18219 18222 18225 18227 18230 18233 18235 18238 18241 18244 18247 18250 18252 18255 18257 18260 18263 18266 18269 18272 18275 18278 18281 18284 18287 18290 18293 18296 18299 18302 18305 18308 18311 18314 18317 18320 18323 18326 18328 18331 18334 18337 18340 18343 18346 18349 18352 18355 18358 18361 18364 18367 18370 18373 18376 18379 18382 18385 18388 18390 18393 18396 18399 18402 18405 18408 18411 18414 18417 18420 18423 18426 18429 18432 18435 18438 18441 18443 18446 18449 18451 18454 18457 18460 18463 18466 18469 18472 18475 18478 18480 18482 18485 18488 18491 18494 18497 18500 18503 18506 18509 18511 18514 18516 18518 18521 18524 18526 18529 18531 18534 18537 18540 18543 18546 18549 18552 18555 18558 18561 18564 18567 18570 18573 18576 18579 18582 18585 18588 18591 18594 18597 18600 18603 18606 18609 18612 18615 18618 18621 18624 18627 18630 18633 18636 18639 18642 18645 18648 18651 18654 18657 18660 18663 18666 18669 18672 18675 18678 18681 18684 18687 18690 18693 18696 18699 18701 18704 18706 18709 18712 18715 18718 18721 18724 18727 18729 18732 18735 18737 18740 18743 18746 18749 18752 18755 18757 18760 18763 18766 18769 18772 18775 18778 18781 18784 18787 18790 18793 18796 18799 18801 18804 18807 18810 18812 18815 18818 18820 18823 18826 18829 18832 18834 18837 18840 18843 18846 18849 18852 18855 18858 18860 18862 18865 18868 18871 18874 18877 18879 18882 18885 18887 18890 18893 18895 18898 18901 18904 18907 18910 18912 18915 18917 18920 18922 18925 18928 18931 18933 18936 18939 18942 18945 18948 18950 18953 18956 18959 18961 18964 18967 18970 18973 18976 18979 18982 18985 18988 18991 18994 18997 18999 19001 19004 19007 19010 19012 19015 19018 19021 19024 19026 19029 19032 19035 19038 19041 19044 19046 19049 19052 19055 19058 19061 19064 19067 19070 19073 19076 19079 19082 19085 19087 19090 19093 19096 19098 19101 19104 19107 19110 19113 19116 19119 19122 19124 19126 19129 19132 19134 19137 19140 19142 19145 19148 19150 19153 19156 19158 19161 19163 19166 19169 19172 19175 19178 19181 19184 19187 19190 19192 19195 19198 19201 19204 19207 19210 19213 19216 19219 19221 19224 19227 19230 19233 19236 19239 19242 19245 19248 19251 19253 19256 19259 19262 19265 19268 19271 19274 19277 19279 19282 19285 19288 19291 19294 19297 19300 19302 19305 19307 19310 19312 19314 19316 19318 19321 19323 19326 19329 19332 19335 19337 19339 19342 19344 19347 19350 19352 19355 19358 19361 19364 19366 19369 19372 19375 19378 19381 19384 19387 19390 19393 19396 19399 19402 19405 19408 19411 19414 19417 19420 19422 19425 19428 19431 19434 19436 19438 19441 19444 19447 19449 19452 19454 19457 19460 19462 19465 19468 19470 19473 19476 19479 19482 19485 19488 19491 19493 19496 19499 19502 19505 19508 19511 19514 19516 19518 19520 19522 19525 19528 19531 19534 19537 19540 19543 19546 19549 19552 19555 19558 19561 19564 19567 19570 19573 19576 19579 19582 19585 19588 19591 19594 19597 19600 19603 19606 19609 19612 19615 19618 19621 19624 19627 19630 19633 19636 19639 19642 19645 19648 19651 19654 19657 19660 19663 19666 19669 19672 19675 19678 19681 19684 19687 19689 19692 19695 19698 19701 19704 19707 19710 19713 19716 19719 19722 19725 19727 19730 19733 19736 19739 19742 19745 19748 19751 19754 19757 19760 19763 19766 19769 19772 19775 19778 19781 19784 19787 19790 19793 19796 19799 19802 19805 19808 19811 19814 19817 19820 19823 19825 19828 19831 19834 19836 19839 19842 19845 19848 19851 19854 19857 19860 19863 19866 19868 19871 19874 19877 19880 19883 19886 19889 19892 19895 19898 19901 19904 19907 19910 19913 19916 19919 19921 19924 19927 19930 19933 19935 19938 19941 19944 19947 19950 19953 19956 19958 19961 19964 19967 19969 19972 19975 19978 19981 19984 19987 19990 19993 19996 19999 20002 20005 20008 20011 20014 20017 20020 20023 20026 20029 20032 20035 20038 20041 20044 20047 20050 20053 20056 20059 20062 20065 20068 20071 20074 20077 20080 20083 20086 20089 20092 20095 20098 20101 20104 20107 20110 20113 20115 20117 20119 20122 20125 20127 20129 20132 20135 20138 20141 20144 20147 20150 20153 20155 20158 20161 20163 20166 20168 20171 20174 20177 20179 20182 20184 20187 20190 20193 20196 20199 20201 20204 20207 20210 20213 20216 20219 20222 20225 20228 20231 20234 20237 20240 20243 20246 20249 20252 20255 20258 20261 20264 20267 20270 20273 20276 20279 20282 20285 20288 20291 20294 20297 20299 20302 20305 20307 20310 20312 20315 20318 20321 20324 20327 20330 20332 20335 20338 20340 20343 20346 20349 20352 20355 20358 20361 20363 20366 20368 20371 20373 20376 20379 20382 20385 20387 20390 20392 20395 20398 20401 20404 20407 20410 20413 20415 20417 20419 20422 20425 20428 20431 20434 20437 20440 20443 20446 20449 20452 20455 20458 20461 20464 20467 20470 20473 20476 20479 20482 20485 20488 20491 20494 20497 20500 20502 20505 20508 20510 20513 20516 20519 20522 20525 20528 20531 20534 20537 20540 20543 20546 20549 20552 20555 20558 20561 20564 20567 20570 20573 20576 20579 20582 20585 20588 20591 20594 20597 20600 20603 20606 20609 20612 20614 20617 20619 20622 20624 20627 20630 20633 20636 20638 20641 20644 20647 20650 20652 20654 20657 20660 20663 20666 20668 20671 20674 20676 20678 20681 20684 20686 20689 20692 20695 20698 20701 20704 20706 20709 20712 20715 20718 20721 20724 20727 20729 20731 20734 20737 20740 20742 20745 20748 20750 20753 20756 20759 20762 20765 20768 20771 20774 20777 20780 20783 20786 20788 20791 20794 20797 20799 20802 20805 20808 20811 20814 20817 20820 20822 20825 20827 20830 20833 20835 20837 20839 20842 20845 20848 20851 20854 20857 20860 20863 20866 20869 20872 20875 20878 20881 20883 20886 20889 20892 20895 20897 20900 20903 20906 20909 20912 20915 20918 20921 20923 20926 20929 20932 20934 20937 20940 20943 20946 20949 20952 20955 20958 20961 20964 20967 20970 20973 20976 20979 20982 20985 20988 20991 20994 20996 20999 21002 21005 21008 21010 21013 21015 21018 21021 21024 21027 21030 21033 21036 21039 21042 21045 21048 21051 21054 21057 21060 21063 21066 21069 21072 21075 21078 21081 21084 21087 21090 21093 21096 21099 21102 21105 21108 21111 21113 21116 21119 21122 21125 21128 21131 21133 21136 21139 21142 21145 21147 21150 21153 21156 21158 21161 21163 21166 21169 21172 21175 21178 21181 21184 21186 21189 21192 21195 21198 21201 21204 21207 21210 21212 21215 21218 21221 21223 21226 21229 21232 21234 21237 21240 21243 21246 21249 21252 21255 21258 21261 21264 21266 21269 21272 21274 21277 21280 21283 21286 21289 21292 21295 21298 21301 21304 21307 21310 21313 21316 21319 21322 21325 21328 21331 21334 21337 21340 21343 21346 21349 21351 21354 21357 21360 21363 21366 21368 21370 21373 21375 21377 21380 21382 21385 21387 21390 21393 21396 21399 21402 21404 21407 21409 21411 21413 21416 21419 21421 21424 21427 21430 21432 21435 21438 21441 21444 21447 21450 21452 21455 21458 21461 21464 21467 21470 21473 21476 21479 21482 21485 21488 21490 21493 21496 21499 21502 21505 21508 21511 21514 21517 21520 21523 21526 21529 21532 21535 21538 21541 21544 21547 21550 21552 21555 21557 21560 21563 21566 21568 21571 21574 21576 21579 21582 21585 21588 21591 21594 21597 21600 21603 21606 21609 21612 21615 21618 21621 21624 21627 21630 21633 21635 21637 21640 21643 21646 21649 21652 21655 21657 21660 21662 21665 21668 21670 21673 21676 21679 21681 21684 21686 21689 21692 21695 21698 21701 21704 21706 21709 21711 21714 21717 21720 21723 21726 21729 21732 21735 21738 21741 21744 21747 21750 21753 21756 21759 21762 21765 21768 21771 21774 21777 21780 21783 21786 21789 21792 21795 21798 21801 21804 21807 21810 21813 21816 21819 21822 21825 21828 21831 21834 21837 21840 21843 21846 21849 21852 21855 21858 21861 21864 21866 21869 21872 21875 21878 21881 21884 21887 21890 21893 21895 21898 21901 21903 21906 21909 21912 21915 21918 21920 21923 21926 21929 21932 21934 21937 21940 21943 21946 21949 21951 21954 21957 21960 21963 21966 21969 21971 21974 21976 21979 21982 21984 21987 21989 21992 21995 21998 22001 22004 22007 22009 22012 22015 22018 22021 22024 22027 22030 22033 22035 22038 22041 22044 22047 22050 22052 22055 22058 22061 22063 22066 22069 22071 22074 22077 22080 22083 22086 22089 22092 22095 22098 22101 22104 22106 22109 22112 22115 22118 22121 22124 22127 22130 22133 22136 22139 22142 22145 22148 22150 22153 22156 22159 22162 22165 22168 22171 22174 22177 22180 22183 22186 22188 22191 22194 22197 22200 22203 22206 22209 22212 22215 22217 22220 22223 22226 22229 22232 22234 22237 22240 22243 22245 22248 22251 22253 22256 22258 22261 22263 22266 22269 22272 22275 22278 22281 22284 22287 22290 22293 22296 22299 22302 22305 22308 22311 22314 22317 22320 22323 22326 22329 22332 22334 22337 22340 22343 22346 22349 22352 22355 22358 22361 22364 22367 22370 22373 22376 22378 22381 22384 22387 22390 22392 22395 22398 22400 22402 22405 22408 22411 22414 22416 22419 22421 22423 22426 22429 22431 22434 22436 22438 22440 22443 22445 22448 22451 22454 22457 22460 22462 22465 22468 22471 22474 22477 22479 22481 22484 22487 22490 22492 22495 22498 22500 22503 22506 22509 22512 22514 22517 22520 22523 22526 22529 22531 22534 22537 22540 22543 22546 22549 22552 22555 22558 22561 22564 22567 22570 22573 22576 22579 22582 22585 22588 22590 22593 22596 22599 22602 22605 22608 22611 22614 22617 22620 22623 22625 22628 22631 22634 22637 22640 22643 22646 22649 22652 22655 22657 22660 22663 22666 22669 22672 22675 22678 22680 22683 22686 22689 22692 22695 22698 22701 22704 22706 22709 22712 22715 22717 22719 22721 22724 22727 22729 22732 22734 22736 22739 22741 22743 22745 22748 22751 22754 22757 22760 22763 22766 22769 22772 22774 22777 22780 22783 22786 22789 22792 22794 22797 22800 22803 22805 22808 22811 22814 22816 22819 22822 22825 22828 22831 22834 22837 22840 22843 22846 22849 22852 22855 22858 22861 22864 22866 22869 22872 22875 22878 22881 22884 22887 22890 22893 22896 22899 22902 22905 22908 22911 22914 22917 22920 22923 22926 22929 22932 22935 22938 22941 22943 22946 22949 22951 22953 22956 22958 22960 22963 22966 22969 22972 22975 22978 22981 22984 22987 22990 22993 22996 22999 23002 23005 23008 23011 23014 23016 23019 23022 23025 23028 23031 23034 23037 23040 23043 23046 23049 23052 23055 23057 23060 23063 23066 23069 23072 23075 23078 23081 23084 23087 23090 23093 23096 23099 23102 23105 23108 23111 23114 23117 23120 23123 23126 23129 23131 23134 23137 23140 23143 23146 23149 23152 23155 23158 23161 23163 23166 23169 23172 23175 23178 23181 23184 23187 23190 23193 23196 23199 23202 23204 23207 23210 23213 23216 23219 23222 23225 23228 23231 23234 23237 23239 23242 23245 23248 23251 23254 23257 23260 23263 23266 23269 23272 23275 23278 23281 23284 23287 23290 23293 23296 23299 23302 23305 23308 23311 23313 23316 23318 23321 23324 23327 23330 23333 23336 23339 23342 23345 23348 23350 23352 23355 23358 23361 23364 23366 23369 23372 23375 23377 23380 23383 23386 23389 23392 23395 23398 23401 23404 23406 23409 23411 23413 23416 23419 23422 23425 23427 23430 23433 23436 23439 23442 23445 23448 23451 23454 23457 23460 23463 23465 23468 23471 23474 23477 23479 23482 23485 23487 23490 23493 23496 23499 23502 23505 23507 23510 23513 23516 23519 23522 23525 23528 23530 23533 23535 23538 23541 23544 23547 23550 23553 23556 23559 23562 23565 23568 23571 23574 23577 23580 23583 23586 23589 23592 23595 23598 23601 23604 23607 23610 23612 23615 23617 23620 23623 23626 23629 23632 23634 23637 23640 23642 23645 23648 23651 23653 23656 23658 23661 23663 23666 23669 23672 23675 23677 23680 23683 23685 23688 23691 23694 23696 23699 23702 23705 23708 23711 23714 23717 23720 23723 23726 23729 23732 23735 23738 23741 23744 23747 23750 23753 23756 23758 23761 23763 23766 23769 23771 23773 23776 23779 23781 23783 23785 23788 23790 23793 23796 23798 23800 23802 23805 23808 23811 23814 23816 23819 23821 23824 23827 23829 23831 23834 23837 23839 23842 23844 23847 23850 23853 23856 23859 23862 23864 23867 23870 23873 23876 23879 23881 23884 23887 23889 23891 23894 23897 23900 23903 23906 23909 23912 23914 23917 23919 23922 23925 23928 23930 23933 23936 23938 23941 23944 23946 23948 23950 23953 23956 23958 23961 23964 23967 23970 23973 23976 23979 23982 23985 23988 23991 23994 23997 24000 24003 24006 24009 24012 24015 24018 24021 24024 24027 24029 24032 24034 24037 24040 24043 24046 24049 24052 24055 24058 24061 24064 24067 24070 24073 24076 24078 24081 24084 24087 24089 24092 24094 24097 24100 24103 24106 24108 24111 24114 24117 24120 24122 24125 24127 24130 24133 24136 24138 24141 24144 24147 24149 24152 24155 24157 24160 24163 24166 24169 24171 24174 24177 24180 24183 24186 24189 24192 24195 24197 24200 24202 24205 24208 24211 24213 24216 24219 24221 24224 24227 24229 24232 24235 24237 24240 24242 24245 24248 24251 24254 24257 24260 24263 24266 24268 24270 24273 24275 24278 24281 24283 24286 24288 24291 24294 24297 24300 24302 24305 24308 24311 24314 24317 24320 24323 24326 24329 24332 24335 24338 24341 24344 24347 24350 24353 24356 24359 24362 24365 24368 24371 24374 24377 24380 24383 24386 24389 24392 24395 24398 24401 24404 24407 24410 24413 24416 24419 24422 24425 24428 24431 24434 24437 24440 24443 24446 24449 24452 24455 24458 24461 24464 24467 24470 24473 24475 24478 24480 24483 24486 24489 24492 24495 24498 24501 24504 24507 24510 24513 24516 24519 24522 24525 24528 24531 24534 24537 24540 24543 24546 24549 24552 24555 24558 24561 24563 24566 24569 24571 24574 24577 24580 24583 24586 24589 24592 24595 24598 24600 24603 24606 24609 24611 24614 24617 24619 24622 24625 24628 24631 24634 24637 24640 24642 24645 24648 24651 24654 24657 24660 24663 24666 24669 24672 24675 24678 24681 24684 24687 24690 24693 24695 24697 24700 24703 24705 24708 24711 24714 24717 24720 24723 24725 24728 24731 24734 24737 24740 24743 24746 24748 24751 24754 24757 24760 24763 24765 24768 24771 24773 24776 24779 24781 24784 24787 24789 24792 24795 24798 24801 24804 24807 24809 24812 24815 24818 24821 24823 24825 24828 24831 24834 24837 24839 24842 24845 24848 24851 24853 24856 24859 24862 24865 24868 24870 24873 24876 24878 24881 24884 24886 24889 24892 24895 24898 24901 24904 24907 24910 24913 24915 24918 24921 24924 24927 24930 24933 24936 24939 24942 24945 24947 24950 24953 24956 24959 24961 24964 24966 24969 24972 24975 24978 24981 24984 24987 24989 24992 24995 24998 25001 25004 25007 25010 25013 25016 25019 25022 25025 25028 25031 25034 25037 25040 25043 25046 25049 25052 25055 25058 25061 25064 25067 25070 25073 25076 25079 25082 25084 25087 25090 25093 25096 25099 25102 25105 25108 25110 25113 25116 25119 25122 25125 25128 25131 25134 25136 25139 25141 25144 25147 25150 25153 25156 25159 25162 25165 25168 25171 25174 25177 25180 25182 25185 25188 25191 25194 25197 25200 25203 25206 25209 25212 25215 25218 25221 25224 25227 25229 25232 25235 25238 25240 25243 25245 25248 25250 25253 25256 25259 25261 25264 25267 25270 25273 25276 25279 25282 25284 25287 25290 25293 25296 25299 25301 25303 25306 25308 25311 25314 25317 25320 25322 25324 25327 25330 25333 25336 25339 25341 25344 25347 25350 25353 25355 25357 25360 25363 25365 25368 25371 25374 25377 25380 25383 25386 25389 25392 25395 25398 25401 25404 25407 25410 25413 25416 25419 25422 25425 25428 25431 25434 25437 25440 25443 25446 25449 25452 25455 25458 25461 25464 25467 25470 25473 25476 25479 25482 25485 25488 25491 25494 25497 25500 25503 25506 25508 25511 25514 25517 25520 25523 25526 25529 25532 25534 25537 25540 25543 25546 25549 25552 25555 25558 25561 25564 25567 25570 25573 25576 25579 25582 25585 25588 25591 25594 25597 25600 25603 25606 25609 25612 25615 25618 25621 25624 25627 25630 25633 25635 25638 25641 25644 25647 25649 25652 25654 25657 25660 25663 25666 25669 25672 25674 25677 25680 25683 25686 25689 25692 25695 25698 25701 25704 25707 25709 25712 25715 25718 25721 25724 25727 25730 25733 25736 25739 25742 25744 25747 25750 25753 25755 25758 25761 25763 25766 25769 25772 25775 25778 25780 25782 25785 25788 25791 25794 25797 25800 25802 25805 25808 25811 25814 25817 25820 25823 25826 25829 25832 25834 25837 25840 25843 25846 25849 25851 25854 25857 25860 25863 25866 25868 25871 25873 25875 25878 25881 25883 25886 25889 25891 25893 25896 25898 25901 25903 25905 25908 25911 25913 25916 25919 25922 25925 25927 25930 25933 25935 25938 25940 25942 25945 25948 25951 25954 25957 25960 25962 25965 25967 25970 25973 25976 25978 25981 25984 25987 25990 25993 25996 25999 26002 26004 26006 26008 26011 26014 26017 26020 26023 26026 26029 26032 26035 26038 26041 26044 26047 26050 26053 26055 26057 26060 26063 26066 26069 26072 26075 26078 26080 26083 26086 26088 26091 26094 26097 26099 26101 26104 26106 26109 26112 26115 26118 26120 26123 26126 26129 26131 26133 26136 26139 26142 26144 26146 26149 26151 26154 26157 26160 26162 26164 26167 26170 26173 26176 26179 26182 26184 26187 26190 26193 26196 26199 26201 26203 26206 26209 26212 26215 26218 26220 26223 26225 26228 26231 26233 26236 26239 26241 26243 26245 26248 26251 26254 26257 26260 26263 26266 26269 26272 26275 26278 26281 26283 26286 26289 26292 26295 26298 26300 26303 26305 26308 26311 26314 26317 26320 26322 26325 26328 26331 26334 26337 26340 26343 26346 26349 26352 26355 26358 26361 26364 26367 26370 26373 26376 26379 26381 26384 26387 26390 26393 26396 26399 26402 26405 26408 26410 26413 26416 26419 26422 26424 26426 26429 26432 26435 26438 26441 26444 26446 26448 26451 26454 26456 26459 26462 26464 26467 26470 26472 26475 26477 26479 26482 26484 26486 26489 26492 26495 26497 26500 26503 26506 26509 26512 26515 26518 26520 26523 26526 26528 26531 26534 26537 26539 26542 26544 26547 26550 26553 26556 26558 26560 26563 26566 26568 26571 26574 26577 26580 26583 26586 26589 26592 26595 26598 26601 26603 26606 26608 26610 26612 26615 26618 26621 26624 26627 26630 26633 26636 26638 26641 26644 26646 26649 26652 26655 26658 26661 26664 26666 26669 26672 26675 26677 26680 26683 26686 26688 26691 26694 26697 26699 26702 26705 26707 26710 26713 26715 26718 26721 26724 26727 26730 26733 26735 26738 26740 26743 26746 26748 26751 26753 26755 26757 26760 26763 26766 26769 26771 26774 26777 26779 26781 26784 26787 26789 26792 26795 26798 26801 26804 26807 26810 26813 26816 26819 26822 26824 26827 26830 26833 26835 26837 26840 26842 26844 26847 26850 26853 26855 26858 26861 26864 26867 26870 26873 26876 26879 26881 26883 26886 26889 26892 26895 26898 26901 26904 26907 26909 26912 26915 26918 26920 26922 26925 26928 26931 26934 26936 26939 26942 26945 26948 26951 26954 26956 26959 26962 26965 26968 26971 26974 26977 26980 26983 26986 26989 26992 26994 26997 27000 27003 27006 27009 27012 27015 27018 27021 27024 27027 27030 27033 27036 27039 27042 27045 27048 27051 27054 27057 27060 27063 27065 27068 27071 27073 27076 27079 27082 27085 27088 27091 27094 27097 27100 27103 27106 27109 27112 27115 27118 27121 27124 27127 27130 27133 27136 27139 27142 27145 27148 27151 27154 27157 27160 27163 27166 27169 27172 27175 27178 27181 27184 27187 27190 27192 27195 27198 27201 27204 27207 27209 27212 27215 27218 27221 27224 27227 27230 27233 27235 27237 27240 27243 27246 27249 27252 27255 27258 27261 27264 27266 27269 27272 27275 27278 27280 27283 27286 27289 27292 27295 27297 27300 27303 27305 27308 27311 27313 27316 27319 27322 27325 27328 27331 27334 27336 27339 27342 27345 27348 27351 27354 27357 27360 27363 27366 27369 27372 27375 27377 27380 27383 27386 27388 27391 27393 27395 27398 27401 27404 27407 27410 27413 27416 27419 27422 27425 27428 27431 27434 27437 27440 27443 27446 27449 27452 27455 27458 27461 27464 27467 27470 27473 27476 27479 27482 27485 27488 27491 27494 27497 27500 27503 27506 27509 27512 27515 27518 27521 27524 27527 27530 27533 27536 27539 27542 27545 27548 27551 27553 27556 27559 27562 27565 27568 27571 27574 27577 27579 27582 27584 27587 27590 27593 27596 27599 27602 27605 27608 27611 27614 27617 27620 27623 27626 27629 27632 27635 27638 27641 27644 27647 27650 27653 27656 27659 27661 27664 27667 27670 27673 27676 27679 27681 27684 27687 27690 27693 27696 27699 27702 27705 27708 27711 27714 27717 27720 27723 27726 27729 27732 27734 27737 27740 27743 27746 27749 27752 27755 27758 27761 27764 27767 27770 27773 27776 27778 27781 27784 27786 27789 27792 27795 27797 27800 27803 27806 27809 27812 27815 27818 27821 27824 27827 27830 27833 27836 27839 27842 27845 27847 27850 27853 27856 27859 27862 27864 27867 27870 27873 27875 27878 27881 27884 27886 27889 27892 27895 27898 27901 27904 27907 27910 27913 27916 27919 27922 27925 27928 27931 27934 27937 27940 27943 27946 27949 27952 27955 27958 27960 27963 27966 27969 27972 27975 27978 27981 27984 27987 27990 27993 27996 27999 28002 28005 28008 28011 28014 28017 28019 28022 28025 28028 28031 28034 28037 28040 28043 28046 28049 28052 28055 28058 28061 28064 28067 28070 28072 28075 28078 28081 28084 28086 28088 28091 28093 28096 28098 28101 28103 28106 28109 28112 28115 28118 28121 28124 28126 28129 28131 28134 28136 28138 28140 28142 28145 28148 28151 28154 28156 28158 28160 28163 28166 28169 28172 28175 28178 28181 28183 28186 28189 28191 28194 28196 28199 28202 28204 28206 28209 28212 28215 28218 28221 28224 28226 28229 28232 28234 28237 28240 28243 28246 28248 28251 28253 28255 28258 28261 28264 28267 28269 28272 28274 28277 28280 28283 28285 28288 28291 28293 28296 28299 28302 28305 28307 28310 28313 28316 28319 28322 28325 28328 28331 28334 28337 28340 28343 28346 28349 28352 28354 28357 28360 28363 28366 28369 28371 28374 28377 28380 28383 28385 28388 28390 28393 28396 28399 28402 28404 28407 28410 28412 28415 28418 28421 28424 28427 28429 28432 28434 28437 28440 28442 28445 28448 28451 28454 28457 28460 28463 28466 28469 28472 28474 28477 28480 28483 28486 28489 28492 28495 28498 28500 28503 28506 28509 28512 28515 28518 28521 28524 28527 28530 28532 28535 28538 28541 28544 28547 28550 28553 28556 28559 28562 28565 28568 28571 28573 28576 28578 28581 28584 28587 28590 28593 28596 28599 28602 28605 28608 28610 28612 28615 28618 28621 28624 28626 28628 28631 28634 28637 28639 28642 28645 28648 28650 28653 28656 28659 28662 28665 28668 28671 28674 28677 28679 28682 28685 28688 28691 28693 28696 28698 28701 28704 28707 28710 28713 28716 28719 28722 28724 28727 28730 28733 28736 28739 28742 28745 28747 28750 28753 28756 28759 28762 28764 28767 28770 28772 28775 28777 28780 28783 28786 28789 28792 28795 28797 28800 28803 28806 28809 28812 28815 28818 28821 28824 28827 28829 28832 28835 28837 28839 28842 28845 28848 28851 28854 28857 28860 28863 28865 28868 28870 28873 28876 28879 28882 28885 28888 28891 28894 28897 28900 28903 28906 28909 28911 28914 28916 28919 28922 28925 28928 28931 28934 28937 28940 28943 28946 28949 28952 28955 28958 28961 28964 28967 28970 28973 28976 28978 28981 28983 28986 28989 28992 28995 28998 29001 29004 29007 29010 29013 29016 29018 29021 29024 29027 29029 29032 29034 29037 29040 29043 29045 29048 29051 29054 29056 29058 29061 29063 29066 29068 29071 29074 29077 29080 29082 29085 29088 29091 29093 29096 29099 29101 29104 29106 29109 29112 29115 29118 29121 29123 29126 29129 29132 29135 29138 29140 29143 29145 29148 29151 29153 29156 29159 29162 29164 29167 29170 29172 29175 29178 29181 29183 29186 29188 29191 29194 29197 29200 29203 29205 29208 29211 29214 29217 29219 29221 29224 29226 29228 29230 29233 29236 29239 29242 29245 29247 29250 29252 29255 29258 29261 29264 29266 29269 29272 29275 29278 29281 29284 29287 29290 29293 29296 29299 29302 29305 29308 29311 29314 29317 29320 29323 29326 29329 29332 29335 29338 29341 29344 29347 29350 29353 29355 29358 29361 29363 29366 29368 29371 29374 29377 29379 29382 29385 29388 29391 29394 29397 29400 29403 29406 29409 29412 29415 29418 29421 29424 29427 29430 29433 29435 29438 29441 29444 29447 29450 29453 29456 29459 29462 29465 29467 29470 29473 29476 29479 29482 29484 29487 29490 29493 29496 29499 29502 29505 29508 29511 29514 29517 29520 29523 29526 29529 29532 29535 29537 29540 29543 29545 29548 29551 29554 29557 29560 29563 29566 29569 29572 29575 29578 29581 29583 29586 29589 29592 29595 29598 29601 29604 29607 29610 29613 29615 29618 29621 29624 29627 29630 29633 29636 29639 29642 29645 29648 29651 29653 29656 29659 29662 29665 29668 29671 29674 29676 29679 29682 29685 29688 29691 29694 29697 29700 29703 29706 29709 29712 29715 29718 29721 29724 29727 29730 29733 29736 29738 29741 29744 29747 29750 29753 29755 29758 29761 29764 29767 29770 29773 29776 29779 29782 29785 29788 29791 29794 29797 29800 29803 29806 29809 29812 29814 29817 29820 29823 29826 29829 29832 29835 29838 29841 29843 29846 29849 29852 29854 29857 29860 29863 29866 29869 29871 29874 29876 29879 29882 29884 29886 29889 29892 29895 29898 29901 29904 29907 29910 29913 29916 29919 29922 29924 29927 29929 29932 29935 29938 29941 29944 29947 29950 29952 29954 29957 29960 29963 29965 29968 29970 29972 29975 29978 29981 29984 29987 29990 29993 29996 29998 30001 30004 30006 30009 30012 30015 30018 30021 30024 30027 30030 30033 30035 30038 30041 30044 30047 30049 30052 30055 30058 30061 30064 30067 30070 30073 30076 30079 30082 30084 30087 30090 30092 30095 30098 30101 30104 30106 30109 30112 30115 30118 30121 30124 30126 30128 30131 30134 30137 30140 30143 30146 30149 30152 30155 30158 30161 30164 30167 30170 30173 30176 30179 30182 30185 30188 30191 30194 30197 30200 30203 30206 30209 30212 30215 30218 30221 30224 30226 30229 30231 30234 30237 30240 30243 30246 30248 30251 30254 30256 30259 30261 30264 30267 30270 30273 30276 30279 30282 30285 30287 30290 30293 30296 30298 30301 30304 30307 30310 30312 30315 30317 30320 30323 30326 30329 30332 30334 30337 30340 30343 30345 30348 30351 30354 30357 30360 30363 30366 30368 30371 30374 30377 30380 30382 30385 30387 30390 30393 30396 30398 30401 30403 30405 30408 30411 30413 30416 30419 30422 30425 30428 30431 30434 30436 30439 30442 30445 30448 30450 30452 30454 30457 30460 30463 30466 30469 30472 30474 30477 30480 30483 30486 30489 30492 30495 30498 30501 30504 30506 30509 30512 30515 30518 30521 30524 30527 30530 30533 30535 30538 30541 30543 30546 30549 30551 30554 30556 30559 30562 30565 30567 30570 30573 30576 30578 30581 30584 30587 30590 30593 30595 30598 30601 30604 30607 30610 30613 30616 30619 30622 30625 30627 30629 30631 30634 30637 30640 30643 30646 30649 30651 30653 30656 30659 30661 30664 30667 30670 30672 30675 30678 30681 30684 30687 30690 30692 30695 30698 30701 30704 30707 30710 30713 30716 30719 30722 30725 30727 30730 30732 30735 30738 30740 30743 30745 30748 30751 30754 30757 30760 30763 30766 30769 30772 30775 30778 30780 30783 30786 30789 30791 30794 30796 30799 30802 30805 30808 30811 30814 30817 30820 30822 30825 30828 30831 30834 30837 30840 30843 30845 30848 30850 30853 30856 30859 30862 30865 30868 30871 30874 30877 30880 30883 30885 30888 30890 30893 30896 30899 30901 30904 30907 30910 30913 30915 30918 30921 30923 30925 30928 30931 30934 30937 30940 30943 30945 30948 30951 30954 30956 30959 30961 30964 30966 30969 30971 30974 30976 30979 30982 30985 30988 30991 30994 30996 30998 31001 31003 31006 31009 31012 31014 31017 31020 31023 31026 31028 31031 31034 31037 31039 31042 31045 31048 
</DataArray>
<DataArray type="UInt32" Name="types" format="ascii">
5 5 5 5 3 5 3 5 3 3 5 5 3 5 3 5 5 5 5 5 5 5 5 5 5 5 5 5 5 5 5 3 5 5 3 5 5 5 5 5 5 5 5 5 5 5 5 5 5 5 5 5 5 5 5 5 5 3 3 5 5 5 5 5 5 5 5 5 5 5 5 5 5 5 3 5 5 5 3 5 5 3 5 3 5 3 5 5 5 5 5 5 5 5 5 5 5 5 5 5 5 5 5 5 5 5 5 5 5 5 5 5 5 5 5 5 5 5 5 5 5 5 5 5 5 5 5 5 5 5 5 5 5 5 5 5 5 5 5 5 5 5 5 5 5 5 3 5 5 5 5 5 5 5 5 5 5 5 5 5 5 3 5 5 5 5 5 3 5 5 5 5 5 5 5 5 5 5 5 5 5 5 5 5 5 5 5 5 5 5 5 5 5 5 3 5 5 5 5 5 3 5 5 3 5 5 5 5 5 5 5 5 5 5 5 5 5 5 5 5 5 5 5 5 5 5 3 3 5 3 5 3 5 5 5 5 5 3 5 5 5 5 5 5 5 5 5 5 5 5 5 5 5 5 5 5 5 5 5 5 5 5 5 5 5 5 5 5 5 5 5 3 5 5 5 5 5 5 3 5 5 5 5 5 5 5 5 5 5 5 5 5 5 5 5 5 5 5 3 5 5 5 5 3 5 5 5 5 5 3 5 5 3 3 5 5 5 5 5 5 5 5 5 5 3 5 5 5 5 5 5 5 5 5 5 5 5 5 5 5 5 5 5 5 5 5 5 5 5 5 5 5 5 5 5 5 5 5 5 5 5 5 5 5 5 3 5 5 5 5 3 5 5 5 5 5 5 3 3 5 5 5 5 5 5 5 5 5 5 3 5 5 5 5 5 3 5 5 5 5 5 5 5 5 5 5 5 5 5 5 5 5 5 5 5 3 5 5 5 5 5 5 3 5 5 5 5 5 5 5 5 5 5 5 5 5 5 3 5 3 5 5 5 5 5 5 5 5 5 3 5 5 5 5 5 5 5 5 5 5 3 5 5 5 5 5 5 5 5 3 5 5 5 3 5 5 3 5 5 5 5 5 5 5 5 5 5 5 5 5 5 5 5 5 5 5 5 5 3 5 3 5 5 5 5 5 5 5 5 5 5 3 5 5 5 5 5 5 5 5 5 5 5 5 5 5 5 5 5 5 5 3 5 5 5 5 5 5 5 5 5 5 5 3 5 3 5 5 5 3 3 3 5 5 5 5 5 3 3 5 5 5 5 3 5 5 3 5 5 5 5 5 3 5 5 3 3 5 3 5 5 5 5 5 5 5 3 5 5 5 3 5 5 5 3 5 5 5 3 5 5 3 5 5 5 5 5 5 5 5 5 5 5 5 5 5 3 5 5 5 5 5 5 5 5 5 5 5 5 5 3 5 5 5 3 5 5 5 5 5 5 5 5 5 5 5 5 3 5 5 5 5 5 5 5 3 5 5 3 5 5 5 5 3 5 5 5 5 5 3 5 3 5 5 5 5 5 5 5 5 5 5 5 5 5 5 5 5 5 5 3 5 5 5 5 5 3 5 5 3 5 5 5 5 5 5 5 3 5 3 5 3 5 3 5 5 5 5 5 5 5 5 5 3 5 5 5 3 5 5 5 3 5 5 3 5 5 3 5 3 5 5 3 5 5 5 5 3 5 3 5 3 5 5 3 3 5 5 5 5 3 5 5 5 5 3 5 5 5 5 5 5 5 5 5 5 3 5 5 5 5 5 5 5 5 5 5 5 5 5 5 3 3 5 5 5 5 5 5 5 5 5 5 5 5 5 3 5 3 3 5 5 5 5 3 5 5 5 5 3 5 5 5 5 3 5 5 3 5 5 5 5 5 5 5 5 5 5 5 5 5 5 5 5 3 5 3 5 5 5 5 5 5 5 5 5 5 5 3 5 5 5 3 5 5 5 5 5 3 5 5 5 5 5 3 5 3 3 5 5 3 5 5 5 5 5 5 5 5 5 5 5 5 5 5 3 5 3 5 3 5 5 5 5 5 5 3 5 5 5 5 5 3 5 5 5 5 5 5 5 3 5 5 5 5 5 5 5 5 5 5 5 3 3 5 5 3 3 5 5 5 5 5 5 5 5 5 5 5 5 5 5 5 5 5 5 5 5 5 5 5 5 5 5 5 5 5 5 5 5 5 3 3 5 5 5 5 5 5 5 5 5 5 3 5 5 5 5 5 5 5 5 5 5 5 5 5 5 5 5 5 5 5 5 5 5 5 5 5 5 5 5 5 5 5 5 5 5 5 5 5 5 5 5 5 5 5 5 5 5 5 5 5 5 5 5 5 5 5 5 5 5 5 5 5 5 5 5 5 5 5 5 5 5 5 5 5 5 5 5 5 3 5 5 5 5 5 5 5 5 5 5 5 5 5 5 5 5 5 5 5 5 5 5 5 5 5 3 3 5 5 5 5 5 5 5 5 5 3 5 5 3 5 5 5 5 5 5 5 5 5 5 3 5 5 5 5 3 5 5 5 5 5 5 5 3 5 5 5 5 5 5 5 5 5 3 5 5 5 5 5 5 5 5 5 5 5 5 5 5 3 5 5 5 5 5 5 5 5 5 5 5 5 5 5 5 5 5 5 5 5 5 5 5 5 5 5 5 5 5 5 5 5 5 5 3 5 5 5 5 5 5 3 5 5 5 5 5 5 5 5 5 5 5 5 5 5 5 5 3 5 5 5 5 5 5 5 5 5 5 5 5 5 5 5 5 5 5 5 5 5 3 5 5 5 5 5 5 5 5 5 5 5 5 3 5 5 5 3 5 5 5 5 5 5 5 5 5 5 5 5 5 3 5 5 5 5 5 5 5 5 3 5 5 5 5 5 5 5 5 5 5 5 5 5 5 5 5 5 5 5 5 5 5 5 5 5 5 5 5 5 5 5 5 5 5 5 5 5 5 5 5 5 5 5 5 5 5 3 5 5 5 5 5 5 5 5 5 5 5 5 5 3 5 5 5 3 5 5 5 5 5 5 3 5 5 5 3 5 5 5 5 5 5 5 5 5 3 5 5 5 3 5 5 5 5 3 5 5 5 3 5 5 5 3 5 5 5 5 5 5 5 5 5 3 5 5 5 3 5 3 5 5 5 5 5 3 5 5 3 5 5 5 5 5 5 5 5 5 5 5 5 5 5 5 5 5 5 5 5 5 5 5 5 5 5 5 5 5 5 5 5 5 3 5 5 5 3 5 3 5 5 3 5 5 5 3 3 5 5 3 3 5 5 3 5 5 5 5 5 5 5 5 3 3 5 5 5 5 5 5 5 5 5 3 5 5 5 3 5 5 3 5 3 5 3 5 5 5 3 3 5 5 5 5 5 5 3 5 5 5 3 5 3 5 5 5 5 3 5 5 3 5 3 5 3 5 5 5 3 3 5 5 3 5 5 3 5 5 3 5 5 5 3 5 3 5 3 5 5 5 5 3 5 5 3 5 5 5 5 5 5 3 5 5 5 5 5 5 5 3 5 5 5 5 5 5 5 5 3 5 5 5 5 5 5 3 5 5 5 5 3 3 5 3 5 3 5 3 5 5 5 3 3 5 3 5 5 3 5 5 5 5 3 5 5 5 5 5 5 5 5 5 3 5 5 5 3 5 5 3 5 5 5 5 5 5 5 5 3 5 5 3 5 5 5 5 3 3 3 5 3 5 3 5 5 5 5 5 3 5 5 3 5 5 5 5 5 3 5 3 5 3 5 3 3 5 3 5 3 5 5 5 3 5 3 5 3 3 5 3 5 3 5 5 3 5 3 3 3 5 5 3 5 5 3 5 5 5 3 5 5 3 5 3 5 5 5 3 5 3 5 5 5 5 3 3 5 5 5 5 5 3 3 5 5 5 3 5 5 3 5 5 3 5 5 5 3 3 3 5 5 5 5 5 5 5 5 5 5 3 3 5 5 5 3 5 5 5 5 5 5 3 5 5 5 5 5 5 5 5 3 5 5 5 5 3 5 5 5 3 5 5 5 5 3 3 5 5 5 5 3 5 5 5 5 5 3 5 5 5 5 5 5 5 5 3 5 5 5 3 5 5 3 5 5 5 5 5 5 5 5 5 5 5 5 5 5 5 5 5 5 5 5 5 3 5 5 5 5 5 5 5 5 5 5 5 5 5 3 5 5 5 5 5 5 5 5 5 5 5 5 5 5 5 5 5 5 5 3 5 5 5 5 5 5 5 5 5 5 5 5 5 3 5 5 5 5 3 5 5 5 5 3 5 5 5 5 5 5 5 5 5 5 5 5 5 5 5 5 5 5 5 3 5 5 5 5 5 5 5 3 3 5 5 3 5 5 5 5 5 5 3 5 5 5 5 5 5 5 5 5 5 5 5 5 5 5 5 5 5 5 5 5 5 5 5 5 5 5 5 5 5 5 5 5 5 5 5 5 5 5 5 5 5 5 5 5 5 5 5 5 5 5 5 5 5 5 5 5 5 5 5 5 5 5 5 5 5 5 3 5 5 5 5 3 5 5 5 3 5 5 3 5 5 5 5 5 5 5 5 5 5 3 5 5 5 5 5 5 5 5 5 5 5 5 5 5 5 5 5 5 5 5 5 5 5 5 5 3 5 5 3 5 5 5 5 5 5 5 5 5 5 5 5 5 5 5 5 5 5 5 5 3 5 5 5 5 5 5 5 5 5 5 5 5 3 5 5 5 5 5 5 5 5 5 5 5 5 5 5 5 5 5 5 5 5 5 5 5 5 5 5 5 5 5 3 5 5 5 3 5 5 5 5 3 5 5 5 5 3 5 5 5 5 5 5 5 5 5 5 5 5 5 5 5 5 5 5 5 5 5 5 5 5 5 5 5 5 5 5 5 5 5 5 5 5 5 3 5 5 3 5 5 5 5 5 3 3 5 5 5 3 5 5 3 3 5 3 5 5 3 5 5 5 3 5 3 5 5 5 5 5 5 3 3 5 5 5 3 3 5 3 5 3 5 3 5 5 5 3 5 5 5 5 5 5 5 5 5 3 5 5 5 5 5 3 5 5 5 5 5 5 3 5 5 5 5 5 5 5 5 5 5 5 5 3 5 5 5 5 5 3 5 5 5 5 5 5 3 5 5 5 5 5 5 3 5 5 5 5 5 3 5 3 5 5 5 5 3 5 5 5 5 5 5 5 5 5 3 3 3 5 5 5 5 3 5 3 5 5 5 5 3 5 3 5 5 5 3 3 5 5 5 5 3 5 3 3 3 5 5 5 5 3 3 5 3 5 5 5 5 3 5 3 5 5 5 5 5 5 5 5 5 5 3 3 5 5 5 5 5 5 5 3 5 5 5 5 5 5 5 5 5 5 5 5 3 5 5 5 5 5 5 5 5 5 5 5 5 5 5 3 5 3 5 5 5 5 5 5 5 5 5 3 5 5 5 5 5 5 5 5 3 5 5 5 5 3 5 5 5 5 3 5 5 5 5 5 5 3 5 5 5 5 5 5 5 5 3 5 5 5 5 3 5 5 5 3 5 5 5 5 5 5 5 5 5 5 5 5 5 5 5 5 5 5 5 5 5 5 3 5 5 3 5 5 5 5 3 5 5 5 5 5 5 5 5 5 5 5 5 5 5 3 5 5 5 5 5 3 5 5 5 5 5 5 3 5 5 5 5 5 5 5 5 5 5 3 5 5 5 5 5 5 5 5 5 5 5 5 5 5 5 5 5 5 5 5 5 5 5 5 5 5 5 5 5 5 5 5 5 5 3 5 5 5 5 5 5 5 5 5 5 3 5 5 5 5 5 5 5 5 5 5 3 5 5 5 5 5 5 5 3 5 3 5 5 5 5 5 3 5 5 5 5 3 5 5 5 5 5 5 5 5 5 3 5 5 3 5 5 5 5 3 3 3 5 3 5 3 5 5 5 5 5 5 5 5 5 3 5 5 5 5 3 5 5 5 5 5 5 5 5 5 5 5 3 3 5 5 5 5 5 3 5 3 3 5 3 5 5 5 5 5 5 5 3 5 5 5 5 5 3 3 5 3 5 5 5 5 5 5 3 5 5 3 5 5 3 5 5 5 5 5 5 5 5 5 3 5 3 5 5 5 5 5 3 5 5 3 5 5 5 5 3 5 5 3 5 5 5 5 5 3 5 5 5 5 5 5 5 3 5 3 5 5 5 5 3 3 5 5 3 3 5 5 5 3 3 5 5 5 3 5 5 3 3 5 5 5 5 5 5 5 5 5 5 5 5 5 3 5 5 3 5 5 3 5 3 5 5 5 5 3 5 3 5 3 5 5 5 3 5 5 5 5 5 5 5 5 5 5 5 5 5 5 5 3 5 5 5 5 5 5 5 5 3 5 5 5 5 5 3 3 5 5 5 5 3 5 3 3 5 5 5 5 5 5 3 5 5 5 3 5 5 5 5 5 5 3 5 5 5 5 5 5 5 5 5 5 5 5 3 5 5 5 5 5 5 5 5 5 5 3 5 5 5 5 5 5 5 5 5 5 3 5 5 5 5 5 5 5 5 3 5 5 5 5 5 5 5 5 5 5 5 5 5 5 5 5 3 5 3 5 5 3 5 5 5 5 5 5 5 5 5 5 5 5 5 5 5 5 3 5 5 5 5 5 3 5 5 3 5 5 5 3 3 5 5 3 5 5 5 5 5 5 3 5 5 5 5 5 5 5 5 3 5 5 5 5 5 5 3 5 5 3 5 5 5 5 3 3 5 5 3 5 3 5 5 5 5 5 3 5 5 5 5 5 5 3 5 5 5 5 5 5 5 3 5 5 5 3 5 5 5 3 5 5 5 3 5 3 5 5 5 5 5 5 5 5 5 5 5 5 5 3 5 5 3 5 3 5 3 5 5 5 5 3 5 5 3 5 5 5 3 5 5 5 5 5 5 5 5 5 5 5 5 5 5 5 5 5 5 5 5 5 5 5 5 3 5 5 5 5 5 5 3 5 5 3 5 5 5 5 3 5 3 5 5 5 5 5 5 5 5 5 3 5 3 5 3 5 5 5 5 5 5 3 5 5 3 5 5 5 3 5 5 5 5 5 5 5 5 3 5 5 3 5 5 3 5 3 5 5 5 5 3 5 3 3 5 5 3 5 5 5 5 5 3 5 5 5 3 5 5 5 5 5 5 3 5 5 5 5 3 5 5 5 3 5 5 5 5 5 3 5 5 5 5 5 3 5 5 3 5 5 5 5 5 5 5 5 5 5 5 5 5 3 5 5 5 5 5 5 5 3 5 5 5 5 3 5 5 5 5 5 5 5 5 5 5 3 5 5 5 5 3 5 5 3 5 3 5 5 3 5 5 5 5 5 5 5 5 5 5 5 5 5 5 5 5 5 5 5 3 5 5 5 5 5 5 5 5 5 5 5 5 5 5 5 5 5 5 5 5 3 5 5 5 5 5 5 5 5 3 5 5 5 5 5 3 5 5 5 5 5 3 5 5 5 3 5 5 3 5 5 5 3 5 3 5 5 5 3 3 5 3 5 5 3 5 3 5 3 3 5 5 3 5 5 5 5 3 5 5 3 5 5 3 3 5 5 5 5 3 5 3 5 5 5 3 3 5 5 5 3 3 5 3 5 5 5 5 5 5 3 3 5 5 5 3 5 5 5 5 3 5 5 5 5 3 3 5 3 3 5 3 5 5 3 3 5 3 5 5 3 5 5 3 5 3 5 5 5 3 5 5 3 5 5 5 5 5 5 5 5 5 5 5 3 5 5 5 3 5 3 5 5 5 3 3 5 5 3 3 5 5 3 5 5 5 5 3 5 5 3 5 3 5 5 5 5 5 5 3 5 5 5 5 5 5 5 5 5 5 5 3 5 5 5 5 5 3 5 5 3 5 3 5 3 5 3 5 5 3 5 5 3 5 5 5 3 5 3 5 3 5 3 5 5 5 3 5 5 5 3 5 5 5 5 5 3 3 3 5 5 5 5 5 5 5 5 5 5 5 5 5 5 5 5 5 5 5 5 5 5 5 5 5 5 5 5 5 5 5 5 5 5 5 3 5 3 5 5 5 5 3 5 5 5 5 5 5 5 5 5 3 5 3 5 5 5 5 5 5 5 3 5 3 5 5 5 5 5 5 5 5 5 5 5 5 5 5 3 5 5 5 5 5 5 5 3 5 5 5 5 3 5 5 5 5 3 5 5 5 5 5 5 3 5 5 5 5 5 5 5 5 3 5 5 5 5 5 5 5 5 5 5 5 5 5 5 5 3 5 5 5 5 5 3 5 5 5 5 3 5 5 5 5 5 5 5 5 5 5 5 5 3 5 5 5 5 5 5 5 5 5 5 5 5 5 5 5 5 5 5 5 5 5 5 5 5 5 5 5 5 5 5 5 5 5 5 5 5 5 5 5 5 5 5 5 3 5 5 5 5 5 5 5 5 5 5 5 5 3 5 3 5 5 5 3 5 5 5 5 5 5 3 5 5 5 5 5 5 3 5 5 3 3 5 5 3 5 5 3 3 3 5 5 5 5 5 5 5 5 5 5 3 5 5 5 5 3 5 5 5 5 3 5 3 5 5 5 5 3 5 5 5 5 3 5 5 5 5 3 5 5 5 3 5 5 5 5 5 5 5 5 5 5 5 5 5 5 5 5 5 5 5 5 5 5 5 5 5 5 5 5 5 5 5 5 5 5 5 5 5 5 5 5 3 5 5 5 5 5 5 5 5 3 5 5 5 5 3 5 5 5 5 5 5 3 5 5 5 3 5 5 5 5 5 5 5 5 5 5 3 5 5 5 5 5 5 5 5 5 5 3 5 5 5 3 3 5 3 3 5 5 5 5 5 3 5 5 5 5 5 5 5 5 3 5 5 5 5 5 5 5 5 5 3 5 5 5 3 5 3 5 3 5 5 5 5 5 5 5 5 5 5 5 5 5 5 3 3 5 5 5 5 5 3 5 5 5 5 5 5 5 5 5 5 5 5 5 5 5 5 5 5 3 5 5 5 3 5 5 5 5 5 5 5 3 5 5 5 5 3 5 5 5 5 3 5 5 5 3 5 3 5 5 5 3 5 5 5 5 5 5 5 5 5 5 5 5 5 5 5 5 5 5 5 5 5 5 5 5 5 3 5 5 5 5 5 5 5 3 5 5 5 5 5 3 5 5 5 3 5 3 5 5 5 5 5 5 3 5 5 5 5 5 5 3 5 5 5 5 5 5 5 3 5 5 3 5 5 5 3 5 5 5 5 5 5 5 5 5 5 5 5 5 5 5 5 3 5 5 5 5 5 5 5 5 5 3 5 5 5 3 5 5 5 5 5 5 5 5 5 5 3 5 5 5 5 5 5 3 5 5 3 5 3 5 5 5 5 5 5 5 5 3 5 5 5 3 5 5 5 3 5 5 5 5 3 5 5 3 5 3 3 3 5 5 3 3 5 5 5 3 5 5 5 3 5 5 5 5 5 5 5 5 5 3 5 5 3 3 3 3 3 5 5 3 5 5 5 5 5 5 5 5 5 5 5 5 5 5 5 5 5 5 3 5 5 5 5 5 5 5 5 3 5 5 5 5 5 3 5 3 3 5 5 5 5 3 5 5 5 3 5 5 5 3 5 3 5 5 5 3 3 3 5 5 3 5 3 3 5 3 5 5 5 3 5 3 5 5 5 5 5 5 5 5 5 5 5 5 5 5 5 5 5 5 5 5 5 5 5 5 5 3 5 5 5 5 5 5 3 5 5 5 5 5 5 3 3 5 5 5 5 3 5 5 5 3 5 5 5 5 3 5 3 5 3 5 5 3 3 5 5 3 5 5 3 3 3 5 5 3 5 5 5 5 5 5 5 5 5 5 5 5 5 5 5 5 5 5 5 5 5 5 5 5 5 5 5 5 5 5 5 5 3 3 5 5 5 5 5 3 5 5 3 5 5 3 5 5 5 5 5 5 5 5 5 5 5 5 5 5 5 3 5 5 3 3 5 5 5 5 3 3 5 3 3 5 3 5 5 5 5 3 5 3 5 5 3 3 5 3 3 5 5 3 3 3 5 3 5 5 5 5 5 5 3 5 5 5 5 5 5 5 3 3 5 5 5 3 5 5 5 5 3 3 5 5 5 3 5 5 5 5 5 5 5 5 5 5 5 5 5 5 5 5 5 5 5 5 5 5 5 5 5 5 5 5 5 5 5 5 5 5 3 5 5 5 5 5 5 5 5 5 3 5 5 5 5 5 5 5 5 3 5 5 5 5 5 5 5 5 5 5 3 3 5 3 5 5 3 5 5 5 5 5 5 5 5 3 5 5 5 5 5 5 3 5 5 5 5 5 5 5 5 5 5 5 5 5 5 5 5 5 3 5 5 3 5 5 3 5 3 5 5 5 5 3 5 5 5 5 3 5 5 5 5 5 3 5 5 5 5 5 5 5 5 5 3 5 5 5 5 5 5 5 3 5 5 5 3 5 5 5 5 5 5 5 3 5 5 5 3 5 5 5 5 5 5 5 5 5 5 3 5 5 5 3 5 5 3 5 5 5 3 5 5 5 5 5 3 5 5 5 5 3 5 5 5 5 5 5 5 5 5 5 5 5 5 5 5 5 5 3 5 5 5 5 3 5 5 5 5 5 3 5 5 5 5 5 5 3 5 5 5 5 5 5 5 5 5 5 5 5 5 3 5 5 5 3 5 3 5 3 5 5 3 5 5 5 3 5 5 5 5 5 5 5 5 3 5 5 5 5 5 3 5 5 5 5 5 5 5 5 5 3 5 5 5 3 5 5 5 5 5 5 5 5 5 5 5 5 5 5 5 3 5 5 5 5 5 5 5 5 5 5 3 5 5 5 3 5 5 5 5 5 5 5 5 5 5 5 5 5 5 5 5 5 5 5 5 5 3 5 3 5 5 5 5 5 5 5 5 5 5 5 5 5 3 5 5 5 5 5 5 5 5 5 5 5 5 3 5 3 5 5 5 5 5 5 5 3 5 5 5 5 5 3 3 3 5 5 5 3 5 5 5 5 5 5 5 5 5 5 5 5 5 5 5 5 5 5 5 5 5 5 5 5 5 5 5 5 5 5 5 5 5 3 5 3 5 5 5 5 5 5 5 5 5 5 5 5 5 5 5 5 5 5 5 5 5 3 5 5 5 5 5 5 3 5 5 5 5 5 5 5 3 3 5 5 5 5 5 5 5 5 5 5 3 5 5 5 5 5 5 5 5 5 5 3 5 5 5 5 5 5 5 5 5 5 5 5 5 5 5 5 5 5 5 5 5 5 5 5 5 5 5 5 5 5 5 3 5 5 5 3 5 5 5 5 5 3 5 5 3 5 3 3 5 5 5 5 5 3 5 5 5 3 5 5 5 5 5 5 5 5 5 5 5 5 5 5 5 3 5 5 5 5 3 5 5 5 5 5 5 3 5 5 5 5 5 5 5 5 5 5 5 5 5 5 5 5 5 5 5 5 5 5 3 5 5 5 5 5 5 5 5 5 5 5 5 5 5 5 5 5 5 5 5 5 5 5 5 5 5 5 5 5 5 5 5 5 5 5 5 5 5 5 3 5 5 5 5 5 5 5 5 5 5 5 5 5 5 5 5 3 5 5 5 5 5 5 3 3 5 5 5 5 3 5 3 5 5 3 5 5 5 5 5 5 3 5 5 5 3 5 5 5 5 5 3 5 5 5 5 3 3 5 3 5 5 5 5 5 5 5 5 5 5 5 3 5 5 5 3 5 5 5 5 5 3 5 5 3 5 5 5 5 5 5 3 5 3 5 5 5 5 5 5 5 5 5 5 5 5 5 3 5 5 5 5 5 5 5 5 5 5 5 5 5 5 5 5 5 5 5 5 3 3 5 5 5 5 5 5 5 5 5 5 5 5 3 5 5 3 5 3 5 5 5 5 5 5 5 5 5 5 3 5 3 5 3 3 5 5 5 5 3 5 5 3 5 5 5 5 5 3 5 5 5 5 5 5 5 5 5 5 3 5 5 5 5 5 5 5 5 5 5 5 5 5 5 5 5 3 5 5 5 5 3 5 5 3 5 5 5 5 5 3 5 3 5 3 5 5 5 5 5 5 5 3 5 3 3 5 5 3 5 5 5 5 3 5 5 3 5 5 5 5 5 5 3 5 5 5 5 5 3 5 5 5 5 5 3 5 5 5 5 3 3 5 3 5 5 5 5 3 5 3 5 5 5 5 5 5 3 5 5 5 5 5 5 5 5 5 3 5 3 5 5 5 5 5 5 5 5 3 5 3 5 5 5 3 5 3 5 5 5 5 5 5 5 5 5 3 5 5 3 5 5 5 5 5 5 5 5 3 3 3 5 5 5 5 5 5 5 5 5 5 5 5 5 5 5 5 5 5 5 3 5 5 5 3 3 5 5 5 5 5 5 5 3 5 5 5 5 5 5 5 5 5 5 5 3 5 5 5 5 5 5 5 5 5 5 3 5 5 5 5 5 5 3 5 5 5 5 5 5 5 5 5 5 5 5 5 5 5 3 5 5 5 5 3 5 5 5 5 5 5 5 3 5 3 5 5 3 5 5 5 3 5 3 5 3 3 5 5 5 3 3 5 5 5 5 5 5 5 5 5 5 5 5 5 5 5 5 5 5 5 5 5 5 3 5 5 5 5 5 5 5 5 5 5 3 3 5 5 5 5 5 5 5 3 5 5 5 3 5 5 5 5 5 5 3 3 5 5 5 5 3 5 5 5 5 5 3 5 5 5 5 5 3 5 5 5 5 5 5 5 5 5 5 5 3 5 5 5 3 5 5 5 5 5 5 5 5 5 5 5 5 5 5 5 5 3 5 5 3 5 5 5 3 3 5 5 5 3 3 3 5 5 5 5 3 5 5 5 5 5 3 3 5 5 3 5 3 5 3 5 5 5 3 5 5 3 5 5 5 5 5 3 5 5 5 5 5 5 5 5 5 5 5 5 5 5 5 5 5 5 5 5 5 5 5 3 5 5 5 5 5 5 5 5 5 5 5 5 5 5 5 5 5 5 5 5 5 5 5 5 5 5 5 5 5 5 5 5 5 5 5 3 5 5 5 5 5 5 5 3 5 5 5 5 3 5 5 3 5 5 5 5 5 3 5 5 5 5 5 5 5 5 5 5 3 3 5 5 5 5 5 5 5 5 5 3 5 5 5 5 5 3 5 5 5 5 5 5 5 5 5 5 5 5 5 5 5 5 5 5 5 5 3 5 3 5 3 5 5 5 5 5 5 5 5 3 5 5 5 5 5 5 5 5 5 5 5 5 5 5 5 3 5 5 5 5 5 5 5 5 5 5 5 5 5 5 5 5 5 5 5 5 5 5 3 5 5 5 5 5 3 5 3 5 3 5 5 5 3 3 5 5 5 5 5 5 3 3 3 5 3 5 3 5 5 5 5 5 5 3 5 5 5 5 5 5 5 5 3 5 5 5 3 5 3 5 5 3 5 5 5 5 5 5 5 5 5 5 5 5 5 5 5 3 5 5 5 5 5 5 5 3 5 5 5 5 5 5 5 3 5 3 5 5 3 5 5 5 5 5 5 5 5 5 3 5 5 5 5 3 5 5 3 3 5 5 5 5 5 5 5 5 3 5 5 5 5 5 5 5 5 5 5 5 5 5 5 5 5 5 5 5 5 5 5 5 5 5 5 5 5 5 5 3 5 5 5 5 5 5 5 5 5 5 5 3 5 5 3 5 5 5 5 5 5 5 5 5 5 3 3 5 5 5 5 3 3 5 5 5 5 3 5 5 5 3 5 5 5 5 5 5 5 5 5 5 5 5 5 3 5 3 5 5 5 5 5 3 5 5 3 5 5 5 5 5 5 5 5 5 3 5 5 5 5 5 5 5 5 5 5 3 5 5 5 3 5 5 5 5 5 5 5 5 5 5 5 5 5 3 3 3 5 5 3 5 5 5 5 5 5 5 5 5 5 5 5 5 5 3 5 5 5 5 5 5 5 3 5 5 5 5 5 5 5 5 5 5 5 5 5 5 5 5 3 5 5 5 5 5 5 5 3 5 5 5 3 5 5 5 5 5 5 5 5 5 5 5 5 5 5 5 5 3 5 5 5 5 3 5 3 5 5 5 5 3 5 5 5 5 5 5 5 5 5 5 5 5 5 5 5 5 5 3 3 5 5 5 5 5 5 5 5 5 5 5 5 5 5 5 5 5 5 3 5 3 5 5 5 5 5 5 5 5 3 5 5 3 5 3 5 5 5 5 5 5 5 5 5 5 5 5 5 5 5 5 5 5 5 5 5 5 5 5 5 5 5 5 5 5 5 5 5 5 5 5 5 5 5 5 5 5 5 5 5 5 5 5 5 5 3 5 5 5 5 3 3 5 5 5 5 5 5 5 5 3 5 5 5 5 5 5 5 5 3 5 5 5 5 3 5 3 3 3 5 5 5 5 5 5 5 5 5 3 5 5 5 5 5 5 5 5 5 5 5 3 5 5 5 5 5 5 5 5 5 5 5 5 3 5 5 3 5 5 5 5 5 3 5 3 5 5 5 5 5 5 5 5 5 5 5 5 5 5 5 5 5 5 5 5 5 5 5 3 5 5 5 5 5 5 5 5 5 5 5 5 5 5 5 5 5 5 5 5 3 5 5 5 5 5 5 5 5 5 5 5 5 5 5 5 5 5 3 5 5 3 5 5 5 5 5 5 5 5 5 3 3 5 5 5 5 5 5 5 5 5 3 5 3 3 5 5 3 5 3 5 5 5 5 5 5 5 5 5 5 5 5 5 5 5 5 5 5 5 5 5 5 5 5 5 5 5 5 5 5 5 5 5 5 5 5 5 5 5 5 5 5 5 5 5 5 5 5 5 5 5 5 5 5 5 5 3 5 3 5 5 5 5 5 5 5 3 5 5 3 5 5 5 5 5 5 3 5 5 5 5 5 5 5 5 5 5 5 5 5 5 3 5 5 5 3 5 5 3 5 5 5 5 3 5 5 5 5 5 5 5 5 3 3 5 5 5 5 5 3 5 5 3 5 5 3 5 5 5 5 5 3 5 3 5 3 5 5 5 3 5 5 5 5 5 3 5 5 5 3 5 5 5 5 5 5 5 5 5 5 5 5 3 3 5 5 5 3 5 5 5 5 3 5 5 5 5 5 5 3 5 5 5 5 5 5 5 5 5 5 5 5 5 3 5 5 5 3 5 5 5 5 5 5 5 5 3 3 5 5 3 5 5 3 5 5 3 5 5 3 5 3 5 5 5 5 5 5 5 5 5 3 5 5 5 5 5 5 5 5 5 3 5 5 5 5 5 5 5 5 5 5 3 5 5 5 5 5 5 5 5 3 5 5 5 5 5 5 5 3 5 3 5 3 3 3 3 5 3 5 5 5 5 3 3 5 3 5 5 3 5 5 5 5 3 5 5 5 5 5 5 5 5 5 5 5 5 5 5 5 5 5 5 3 5 5 5 5 3 3 5 5 5 3 5 3 5 5 3 5 5 3 5 5 5 5 5 5 5 3 5 5 5 5 5 5 5 3 3 3 3 5 5 5 5 5 5 5 5 5 5 5 5 5 5 5 5 5 5 5 5 5 5 5 5 5 5 5 5 5 5 5 5 5 5 5 5 5 5 5 5 5 5 5 5 5 5 5 5 5 5 5 5 5 5 5 3 5 5 5 5 5 5 5 5 5 5 5 5 3 5 5 5 5 5 5 5 5 5 5 5 5 5 5 5 5 5 5 5 5 5 5 5 5 5 5 5 5 5 5 5 5 3 5 5 5 3 5 5 5 5 5 5 5 5 5 5 3 5 5 5 5 5 5 5 5 5 5 5 5 5 5 5 5 5 3 5 5 5 5 3 5 5 5 5 5 5 5 3 5 5 5 3 5 5 5 5 5 5 5 5 5 5 5 5 5 5 5 5 5 5 5 5 5 5 5 5 5 5 5 5 5 5 5 5 5 5 5 5 5 5 5 5 5 5 5 5 5 5 5 5 3 3 3 5 5 3 3 5 5 5 5 5 5 5 5 3 5 5 3 5 3 5 5 5 3 5 3 5 5 5 5 5 3 5 5 5 5 5 5 5 5 5 5 5 5 5 5 5 5 5 5 5 5 5 5 5 5 5 5 5 5 5 5 5 5 3 5 5 3 5 3 5 5 5 5 5 5 3 5 5 3 5 5 5 5 5 5 5 3 5 3 5 3 5 5 5 5 3 5 3 5 5 5 5 5 5 5 3 3 3 5 5 5 5 5 5 5 5 5 5 5 5 5 5 5 5 5 5 5 5 5 5 5 5 5 5 5 3 5 5 3 5 5 5 5 5 5 5 5 5 5 5 5 5 5 5 5 5 5 5 5 5 5 5 5 5 5 5 5 5 5 5 5 5 5 3 5 3 5 3 5 5 5 5 3 5 5 5 5 3 3 5 5 5 5 3 5 5 3 3 5 5 3 5 5 5 5 5 5 3 5 5 5 5 5 5 5 3 3 5 5 5 3 5 5 3 5 5 5 5 5 5 5 5 5 5 5 5 3 5 5 5 3 5 5 5 5 5 5 5 3 5 3 5 5 3 3 3 5 5 5 5 5 5 5 5 5 5 5 5 5 5 3 5 5 5 5 3 5 5 5 5 5 5 5 5 3 5 5 5 3 5 5 5 5 5 5 5 5 5 5 5 5 5 5 5 5 5 5 5 5 3 5 5 5 5 3 5 3 5 5 5 5 5 5 5 5 5 5 5 5 5 5 5 5 5 5 5 5 5 5 5 5 5 5 5 5 5 5 5 5 3 5 5 5 5 5 5 3 5 5 5 5 3 5 5 5 3 5 3 5 5 5 5 5 5 5 3 5 5 5 5 5 5 5 5 3 5 5 5 3 5 5 5 3 5 5 5 5 5 5 5 5 5 5 3 5 5 3 5 5 5 5 5 5 5 5 5 5 5 5 5 5 5 5 5 5 5 5 5 5 5 5 5 3 5 5 5 5 5 3 3 5 3 3 5 3 5 3 5 5 5 5 5 3 5 3 3 3 5 5 3 5 5 5 3 5 5 5 5 5 5 3 5 5 5 5 5 5 5 5 5 5 5 5 3 5 5 5 5 5 5 5 5 5 5 5 5 5 5 5 5 5 5 5 5 3 5 3 5 5 5 3 5 5 3 5 5 5 5 5 5 5 5 5 5 5 5 5 5 5 5 5 5 5 3 3 5 5 5 5 5 5 3 5 3 5 5 3 5 5 5 3 5 3 5 5 5 5 5 5 3 5 3 5 5 5 5 5 5 5 5 5 5 5 5 5 5 5 5 5 5 5 5 5 5 5 5 5 5 5 5 5 5 5 5 5 5 5 5 5 5 5 5 5 5 5 5 5 5 5 5 5 5 5 3 5 5 5 5 5 5 5 5 5 3 5 5 3 5 5 5 5 5 3 5 5 5 5 3 5 5 5 5 5 3 5 5 5 5 5 5 3 5 3 5 5 3 5 3 5 5 5 5 5 5 3 5 5 5 5 5 5 5 5 3 5 5 5 5 5 3 5 5 5 3 5 5 3 5 5 5 5 5 5 5 5 5 5 5 3 5 5 5 5 5 5 5 5 5 5 5 5 5 5 3 5 5 5 5 5 5 5 5 5 5 5 5 3 5 5 5 5 5 5 5 5 5 3 5 5 5 5 5 3 5 5 5 3 5 5 3 5 3 5 3 5 5 5 5 5 5 5 5 5 5 5 5 5 5 5 5 5 5 5 5 5 5 5 3 5 5 5 5 5 5 5 5 5 5 5 5 5 5 3 5 5 5 5 3 5 5 3 3 5 5 5 5 3 5 3 3 5 5 3 5 3 3 3 5 3 5 5 5 5 5 3 5 5 5 5 5 3 3 5 5 5 3 5 5 3 5 5 5 5 3 5 5 5 5 5 3 5 5 5 5 5 5 5 5 5 5 5 5 5 5 5 5 5 5 5 3 5 5 5 5 5 5 5 5 5 5 5 3 5 5 5 5 5 5 5 5 5 5 3 5 5 5 5 5 5 5 3 5 5 5 5 5 5 5 5 3 5 5 5 3 3 3 5 5 3 5 3 3 5 3 3 3 5 5 5 5 5 5 5 5 5 3 5 5 5 5 5 5 3 5 5 5 3 5 5 5 3 5 5 5 5 5 5 5 5 5 5 5 5 5 5 5 5 3 5 5 5 5 5 5 5 5 5 5 5 5 5 5 5 5 5 5 5 5 5 5 5 5 5 3 5 5 3 3 5 3 3 5 5 5 5 5 5 5 5 5 5 5 5 5 5 5 5 5 5 3 5 5 5 5 5 5 5 5 5 5 5 5 5 3 5 5 5 5 5 5 5 5 5 5 5 5 5 5 5 5 5 5 5 5 5 5 5 5 3 5 5 5 5 5 5 5 5 5 5 3 5 5 5 5 5 5 5 5 5 5 5 5 5 3 5 5 5 5 5 5 5 5 5 5 5 3 5 5 5 5 5 5 5 5 5 5 5 5 5 5 5 5 5 5 5 5 5 5 5 5 3 5 3 5 5 5 5 5 5 5 5 5 5 3 3 5 5 5 5 3 5 5 5 3 5 5 5 5 5 5 5 5 5 3 5 3 3 5 5 5 5 3 5 5 5 5 5 5 5 5 5 5 5 5 3 5 5 5 5 3 5 5 3 5 5 5 5 5 5 3 5 5 5 5 5 5 5 3 5 3 5 5 5 5 5 5 5 5 5 5 5 5 5 5 5 5 5 5 5 5 5 5 5 5 5 3 5 3 5 5 5 5 5 3 5 5 3 5 5 5 3 5 3 5 3 5 5 5 5 3 5 5 3 5 5 5 3 5 5 5 5 5 5 5 5 5 5 5 5 5 5 5 5 5 5 5 5 3 5 3 5 5 3 3 5 5 3 3 3 5 3 5 5 3 3 3 5 5 5 5 3 5 3 5 5 3 3 5 5 3 5 3 5 5 5 5 5 5 3 5 5 5 5 5 3 5 5 3 3 5 5 5 5 5 5 5 3 5 3 5 5 5 3 5 5 3 5 5 3 3 3 5 5 3 5 5 5 5 5 5 5 5 5 5 5 5 5 5 5 5 5 5 5 5 5 5 5 3 5 3 5 5 5 5 5 5 5 5 5 5 5 5 5 5 3 5 5 5 3 5 3 5 5 5 5 3 5 5 5 5 3 5 3 5 5 5 3 5 5 5 3 5 5 3 5 5 5 5 3 5 5 5 5 5 5 5 5 3 5 3 5 5 5 3 5 5 3 5 5 3 5 5 3 5 3 5 5 5 5 5 5 5 5 3 3 5 3 5 5 3 5 3 5 5 5 5 3 5 5 5 5 5 5 5 5 5 5 5 5 5 5 5 5 5 5 5 5 5 5 5 5 5 5 5 5 5 5 5 5 5 5 5 5 5 5 5 5 5 5 5 5 5 5 5 5 5 5 5 5 5 5 5 5 5 3 5 3 5 5 5 5 5 5 5 5 5 5 5 5 5 5 5 5 5 5 5 5 5 5 5 5 5 5 5 3 5 5 3 5 5 5 5 5 5 5 5 5 3 5 5 5 3 5 5 3 5 5 5 5 5 5 5 3 5 5 5 5 5 5 5 5 5 5 5 5 5 5 5 5 5 3 3 5 5 3 5 5 5 5 5 5 3 5 5 5 5 5 5 5 3 5 5 5 5 5 3 5 5 3 5 5 3 5 5 3 5 5 5 5 5 5 3 5 5 5 5 3 3 5 5 5 5 3 5 5 5 5 3 5 5 5 5 5 3 5 5 3 5 5 3 5 5 5 5 5 5 5 5 5 3 5 5 5 5 5 5 5 5 5 5 3 5 5 5 5 3 5 3 5 5 5 5 5 5 5 3 5 5 5 5 5 5 5 5 5 5 5 5 5 5 5 5 5 5 5 5 5 5 5 5 5 5 5 5 5 5 5 3 5 5 5 5 5 5 5 5 3 5 5 5 5 5 5 5 5 3 5 3 5 5 5 5 5 5 5 5 5 5 5 5 5 3 5 5 5 5 5 5 5 5 5 5 5 5 5 5 5 3 5 5 5 3 5 3 5 3 5 5 5 3 5 5 5 5 5 5 5 3 5 5 5 5 5 3 3 5 3 5 5 5 5 3 3 5 5 5 5 5 3 5 5 5 5 3 3 5 5 3 5 5 5 5 5 5 5 5 5 5 5 5 5 5 5 5 5 5 5 5 5 5 5 5 5 5 5 5 5 5 5 5 5 5 5 5 5 5 5 5 5 5 5 5 5 5 5 3 5 5 5 5 5 5 5 5 3 5 5 5 5 5 5 5 5 5 5 5 5 5 5 5 5 5 5 5 5 5 5 5 5 5 5 5 5 5 5 5 5 5 3 5 5 5 5 3 5 3 5 5 5 5 5 5 3 5 5 5 5 5 5 5 5 5 5 5 3 5 5 5 5 5 5 5 5 5 5 5 3 5 5 5 3 5 5 3 5 5 5 5 5 3 3 5 5 5 5 5 5 3 5 5 5 5 5 5 5 5 5 5 3 5 5 5 5 5 3 5 5 5 5 5 3 5 3 3 5 5 3 5 5 3 3 5 3 5 3 3 5 5 3 5 5 5 5 3 5 5 3 5 3 3 5 5 5 5 5 5 3 5 3 5 5 5 3 5 5 5 5 5 5 5 5 3 3 3 5 5 5 5 5 5 5 5 5 5 5 5 5 5 5 3 3 5 5 5 5 5 5 5 3 5 5 3 5 5 5 3 3 5 3 5 5 5 5 3 5 5 5 3 3 5 5 5 3 3 5 3 5 5 5 3 3 5 5 5 5 5 5 3 5 5 5 5 5 3 3 5 5 5 5 5 3 5 3 5 5 3 5 5 3 3 3 5 5 5 5 5 5 5 5 5 5 5 5 3 5 5 5 5 5 3 5 3 5 5 5 5 5 3 5 5 5 5 5 5 5 5 5 5 5 5 5 5 5 5 5 5 5 3 5 5 5 5 5 5 5 5 5 3 5 5 5 5 3 3 5 5 5 5 5 5 3 3 5 5 3 5 5 3 5 5 3 5 3 3 5 3 3 5 5 5 3 5 5 5 5 5 5 5 3 5 5 3 5 5 5 3 5 3 5 5 5 5 3 3 5 5 3 5 5 5 5 5 5 5 5 5 5 5 3 5 3 3 3 5 5 5 5 5 5 5 5 3 5 5 3 5 5 5 5 5 5 3 5 5 5 3 5 5 5 3 5 5 5 3 5 5 3 5 5 3 5 5 5 5 5 5 3 5 3 5 5 3 5 3 3 3 5 5 5 5 3 5 5 3 3 5 5 3 5 5 5 5 5 5 5 5 5 5 5 3 5 5 5 3 3 5 3 3 5 5 5 3 5 5 5 5 5 5 5 5 3 3 5 5 5 5 5 5 5 5 3 5 5 5 3 3 5 5 5 5 3 5 5 5 5 5 5 3 5 5 5 5 5 5 5 5 5 5 5 5 3 5 5 5 5 5 5 5 5 5 5 5 5 5 5 5 5 5 5 5 5 5 5 5 3 5 5 3 5 5 5 5 5 5 5 5 5 5 5 5 5 5 5 5 5 5 5 5 5 5 5 5 5 5 5 5 5 5 5 5 5 5 5 5 5 5 5 3 5 5 5 5 5 3 5 5 5 5 5 5 5 5 3 3 5 5 5 5 5 5 5 5 5 3 5 5 5 5 3 5 5 5 5 5 3 5 5 3 5 5 3 5 5 5 5 5 5 5 3 5 5 5 5 5 5 5 5 5 5 5 5 5 3 5 5 5 3 5 3 3 5 5 5 5 5 5 5 5 5 5 5 5 5 5 5 5 5 5 5 5 5 5 5 5 5 5 5 5 5 5 5 5 5 5 5 5 5 5 5 5 5 5 5 5 5 5 5 5 5 5 5 5 3 5 5 5 5 5 5 5 5 3 5 3 5 5 5 5 5 5 5 5 5 5 5 5 5 5 5 5 5 5 5 5 5 5 5 5 5 3 5 5 5 5 5 5 3 5 5 5 5 5 5 5 5 5 5 5 5 5 5 5 5 5 3 5 5 5 5 5 5 5 5 5 5 5 5 5 5 3 5 5 3 5 5 5 3 5 5 5 5 5 5 5 5 5 5 5 5 5 5 5 5 3 5 5 5 5 5 3 5 5 5 3 5 5 5 3 5 5 5 5 5 5 5 5 5 5 5 5 5 5 5 5 5 5 5 5 5 5 5 5 3 5 5 5 5 5 5 5 5 5 5 5 5 5 5 5 5 5 5 5 3 5 5 5 5 5 5 5 5 5 5 5 5 5 5 5 5 5 3 5 5 5 5 3 3 5 3 5 3 5 3 5 5 5 5 5 5 5 3 5 3 5 3 3 3 3 5 5 5 5 3 3 3 5 5 5 5 5 5 5 3 5 5 3 5 3 5 5 3 3 5 5 5 5 5 5 3 5 5 3 5 5 5 5 3 5 3 3 5 5 5 5 3 5 3 5 5 5 3 5 5 3 5 5 5 5 3 5 5 5 5 5 5 5 5 5 5 5 5 5 5 5 3 5 5 5 5 5 3 5 5 5 5 3 5 3 5 5 5 5 3 5 5 3 5 5 5 5 5 3 5 3 5 5 3 5 5 5 5 5 5 5 5 5 5 3 5 5 5 5 5 5 5 5 3 5 5 5 5 5 5 5 5 5 5 3 5 5 5 5 5 5 5 5 5 5 5 5 5 3 5 3 5 5 5 5 5 5 5 5 5 5 3 3 5 5 5 5 3 3 5 5 5 3 5 5 5 3 5 5 5 5 5 5 5 5 5 3 5 5 5 5 3 5 3 5 5 5 5 5 5 5 5 3 5 5 5 5 5 5 5 3 5 5 5 5 5 3 5 5 3 5 3 5 5 5 5 5 5 3 5 5 5 5 5 5 5 5 5 5 3 5 5 3 3 5 5 5 5 5 5 5 5 3 5 3 5 5 5 5 5 5 5 5 5 5 5 5 5 3 5 3 5 5 5 5 5 5 5 5 5 5 5 5 5 5 5 5 5 5 5 5 3 5 3 5 5 5 5 5 5 5 5 5 5 5 3 5 5 5 3 5 3 5 5 5 3 5 5 5 3 3 5 3 5 3 5 5 5 5 3 5 5 5 3 5 5 3 5 3 5 5 5 5 5 3 5 5 5 5 5 3 5 3 5 5 3 5 5 5 3 5 5 3 5 5 5 3 5 3 5 5 5 5 5 3 5 5 5 5 3 3 5 3 3 3 5 5 5 5 5 3 5 3 5 5 5 5 3 5 5 5 5 5 5 5 5 5 5 5 5 5 5 5 5 5 5 5 5 5 5 5 5 5 5 5 5 5 3 5 5 3 5 3 5 5 5 3 5 5 5 5 5 5 5 5 5 5 5 5 5 5 5 5 5 5 3 5 5 5 5 5 5 5 5 5 5 3 5 5 5 5 5 3 5 5 5 5 5 5 5 5 5 5 5 5 5 5 5 5 5 3 5 5 3 5 5 5 5 5 5 5 5 5 5 5 5 3 5 5 5 5 5 5 5 5 5 5 3 5 5 5 5 5 5 5 5 5 5 5 5 3 5 5 5 5 5 5 5 3 5 5 5 5 5 5 5 5 5 5 5 5 5 5 5 5 5 5 5 5 3 5 5 5 5 5 3 5 5 5 5 5 5 5 5 5 5 5 5 5 5 5 5 5 5 5 3 5 5 5 5 5 5 5 5 5 3 5 5 5 3 5 5 5 5 5 3 5 3 5 5 3 3 5 5 5 5 5 5 5 5 5 5 5 5 3 5 3 5 5 5 5 5 5 5 3 3 5 5 5 3 5 3 3 5 5 5 5 5 5 5 5 3 5 5 3 5 5 5 5 5 5 5 5 5 3 5 5 5 5 3 5 5 5 5 5 5 5 5 5 5 5 3 5 5 3 5 5 5 5 3 5 5 5 5 5 5 3 3 5 5 5 5 5 5 5 5 5 5 5 5 5 5 5 5 5 5 5 5 5 5 5 5 5 5 5 5 5 5 5 5 3 5 3 5 5 5 5 5 3 5 5 3 5 3 5 5 5 5 5 5 5 5 3 5 5 5 3 5 5 5 5 3 5 3 5 5 5 5 5 3 5 5 5 3 5 5 5 5 5 5 5 3 5 5 5 5 3 5 3 5 5 5 3 5 3 3 5 5 3 5 5 5 5 5 5 5 3 5 5 5 5 3 3 3 5 5 5 5 5 5 3 5 5 5 5 5 5 5 5 5 5 3 5 5 5 5 5 5 5 5 5 3 5 5 3 5 5 3 5 3 5 5 5 3 5 5 5 3 5 5 5 5 5 3 5 5 5 5 5 5 5 5 5 5 3 3 3 5 5 5 5 5 5 3 3 5 5 3 5 5 5 3 5 5 5 5 5 5 3 5 5 5 5 5 5 5 5 5 5 5 3 5 3 5 5 3 5 3 5 5 5 5 5 5 5 5 5 5 5 3 5 5 5 3 5 3 5 5 5 5 5 5 5 5 3 5 5 5 5 5 5 5 3 5 3 5 5 5 5 5 5 5 5 5 5 5 3 5 3 5 5 5 3 5 5 5 5 3 5 5 3 3 5 5 5 5 5 5 3 5 5 5 3 5 3 5 3 5 3 5 3 5 5 5 5 5 5 3 3 5 3 5 5 5 3 5 5 5 5 3 5 5 5 3 5 5 5 
</DataArray>
</Cells>
<PointData Scalars="" Vectors="displacement," Tensors="">
<DataArray type="Float64" Name="displacement" NumberOfComponents="3" format="ascii">
-8.7150100485575832e-07 -0.034997182224206662 0 -8.5280234121098281e-07 -0.034977601837725768 0 3.4795619283039834e-07 -0.035000556721266868 0 -8.7150100485575832e-07 -0.034997182224206662 0 1.3848290723529678e-06 -0.033324709403013693 0 4.0794851559941583e-05 -0.034675760525228125 0 -8.7150100485575832e-07 -0.034997182224206662 0 4.0794851559941583e-05 -0.034675760525228125 0 -8.5280234121098281e-07 -0.034977601837725768 0 2.005042995577976e-06 -0.033317064901006534 0 0.00066207764803091599 -0.031355719574700347 0 -0.00014334166599716999 -0.031579357986420316 0 2.4508738645545213e-07 -0.033319456719628306 0 0.00022656591722792517 -0.033489284694090425 0 4.0794851559941583e-05 -0.034675760525228125 0 -8.5280234121098281e-07 -0.034977601837725768 0 0.00010187928205930441 -0.034931656159621585 0 -7.6690303469215481e-05 -0.034704343349574583 0 0.0012781879985599074 -0.030249221833385683 0 0.00066207764803091599 -0.031355719574700347 0 0.00075354150989209007 -0.030450953503533221 0 0.0002222261284707278 -0.030789603354031969 0 0.0012781879985599074 -0.030249221833385683 0 0.0012095841837763534 -0.025471848939508764 0 0.00022656591722792517 -0.033489284694090425 0 0.0012781879985599074 -0.030249221833385683 0 0.0021925239791550726 -0.021410978081951602 0 0.0023549221552801869 -0.021504692840927854 0 0.0025746694705836418 -0.021431622837872668 0 0.0021925239791550726 -0.021410978081951602 0 0.0023549221552801869 -0.021504692840927854 0 0.0020118125901846442 -0.02164503833928666 0 0.0012781879985599074 -0.030249221833385683 0 0.00099003478264960451 -0.027855240729419452 0 -8.5280234121098281e-07 -0.034977601837725768 0 1.9551568789999176e-05 -0.034937901189435537 0 1.4659509761774287e-05 -0.034953424133167842 0 0.0012095841837763534 -0.025471848939508764 0 0.0012605040024157048 -0.026144206093342753 0 0.0027448877532572223 -0.021597750927874311 0 0.0025746694705836418 -0.021431622837872668 0 0.0029411835621164311 -0.021677164865726455 0 0.0027448877532572223 -0.021597750927874311 0 0.0028799927586881987 -0.021699550255532513 0 0.0029411835621164311 -0.021677164865726455 0 0.0028799927586881987 -0.021699550255532513 0 0.002784014212197245 -0.021687544275367086 0 0.0029311826194778389 -0.021778479783549177 0 0.0027448877532572223 -0.021597750927874311 0 0.0028799927586881987 -0.021699550255532513 0 0.002784014212197245 -0.021687544275367086 0 0.0027448877532572223 -0.021597750927874311 0 0.002784014212197245 -0.021687544275367086 0 0.002583512184891982 -0.021593674105034346 0 0.0023549221552801869 -0.021504692840927854 0 0.002583512184891982 -0.021593674105034346 0 0.0023946891598667624 -0.021639451766798292 0 0.0023549221552801869 -0.021504692840927854 0 0.002583512184891982 -0.021593674105034346 0 0.0025746694705836418 -0.021431622837872668 0 0.0027448877532572223 -0.021597750927874311 0 0.002583512184891982 -0.021593674105034346 0 0.0025746694705836418 -0.021431622837872668 0 0.00075354150989209007 -0.030450953503533221 0 -0.00010015867772118465 -0.030350925573802874 0 0.0002222261284707278 -0.030789603354031969 0 -0.00010015867772118465 -0.030350925573802874 0 -0.00011576808625695765 -0.030519170329447298 0 -2.1605411735098131e-05 -0.030766129557306784 0 -0.00010015867772118465 -0.030350925573802874 0 0.0002222261284707278 -0.030789603354031969 0 -2.1605411735098131e-05 -0.030766129557306784 0 0.0002222261284707278 -0.030789603354031969 0 -2.1605411735098131e-05 -0.030766129557306784 0 -6.6561492780888118e-05 -0.031065806533435488 0 -0.00011576808625695765 -0.030519170329447298 0 -2.1605411735098131e-05 -0.030766129557306784 0 -0.00024521684512821836 -0.030887637095285633 0 -0.00011576808625695765 -0.030519170329447298 0 -0.00025772179071607463 -0.030372166936778459 0 -0.00023197489194456923 -0.030392546785847747 0 -0.00060709986540479302 -0.030802677107204569 0 -0.00024521684512821836 -0.030887637095285633 0 -0.00079334375846669468 -0.030900519851301263 0 -0.00011576808625695765 -0.030519170329447298 0 -0.00060709986540479302 -0.030802677107204569 0 -0.00024521684512821836 -0.030887637095285633 0 7.0452102678585451e-05 -0.030432428843662471 0 -0.0009956856554004525 -0.030836484740063261 0 -0.00010015867772118465 -0.030350925573802874 0 -0.00023197489194456923 -0.030392546785847747 0 -0.0002738815442127987 -0.030213644649322247 0 -0.00010015867772118465 -0.030350925573802874 0 -0.00011576808625695765 -0.030519170329447298 0 -0.00023197489194456923 -0.030392546785847747 0 -0.00065156458118418702 -0.031523667888469213 0 0.00030723806332969971 -0.028833966248576037 0 -0.00024521684512821836 -0.030887637095285633 0 -0.00014378157903321531 -0.030804750086342064 0 0.00013244229132139922 -0.030770623683941855 0 -0.00024521684512821836 -0.030887637095285633 0 -0.00020011681435221738 -0.031049079280726491 0 -0.00014378157903321531 -0.030804750086342064 0 -0.00020011681435221738 -0.031049079280726491 0 -0.00014378157903321531 -0.030804750086342064 0 -0.0001248004633438047 -0.030822428604939969 0 0.00066207764803091599 -0.031355719574700347 0 0.0002222261284707278 -0.030789603354031969 0 -6.6561492780888118e-05 -0.031065806533435488 0 0.00066207764803091599 -0.031355719574700347 0 -6.6561492780888118e-05 -0.031065806533435488 0 -0.00014334166599716999 -0.031579357986420316 0 -0.00024521684512821836 -0.030887637095285633 0 -0.00020011681435221738 -0.031049079280726491 0 -6.6561492780888118e-05 -0.031065806533435488 0 -2.1605411735098131e-05 -0.030766129557306784 0 -0.00024521684512821836 -0.030887637095285633 0 -6.6561492780888118e-05 -0.031065806533435488 0 -0.00020011681435221738 -0.031049079280726491 0 -6.6561492780888118e-05 -0.031065806533435488 0 -0.00014334166599716999 -0.031579357986420316 0 2.005042995577976e-06 -0.033317064901006534 0 -0.00014334166599716999 -0.031579357986420316 0 -1.0903898562954267e-06 -0.031530507451073379 0 -1.0903898562954267e-06 -0.031530507451073379 0 -0.0001248004633438047 -0.030822428604939969 0 1.3966442657160227e-07 -0.029740092536693963 0 -0.00020011681435221738 -0.031049079280726491 0 -0.00014334166599716999 -0.031579357986420316 0 -0.0001248004633438047 -0.030822428604939969 0 -0.00014334166599716999 -0.031579357986420316 0 -1.0903898562954267e-06 -0.031530507451073379 0 -0.0001248004633438047 -0.030822428604939969 0 -0.0001248004633438047 -0.030822428604939969 0 2.2712135653416223e-05 -0.030101749751136456 0 1.3966442657160227e-07 -0.029740092536693963 0 -0.00014378157903321531 -0.030804750086342064 0 -0.0001248004633438047 -0.030822428604939969 0 2.2712135653416223e-05 -0.030101749751136456 0 2.2712135653416223e-05 -0.030101749751136456 0 -3.3502654037593343e-05 -0.029612758599869681 0 -3.5123390172195763e-05 -0.029513682703092185 0 2.2712135653416223e-05 -0.030101749751136456 0 1.3966442657160227e-07 -0.029740092536693963 0 -3.5123390172195763e-05 -0.029513682703092185 0 1.3966442657160227e-07 -0.029740092536693963 0 -6.6978222395151077e-05 -0.028840550157494829 0 -2.7788372253134213e-07 -0.027950644257658471 0 1.3966442657160227e-07 -0.029740092536693963 0 -6.6978222395151077e-05 -0.028840550157494829 0 -3.5123390172195763e-05 -0.029513682703092185 0 -6.6978222395151077e-05 -0.028840550157494829 0 -6.2345302776421502e-05 -0.029074860818884472 0 -4.1675265960939209e-05 -0.028629866655764391 0 -6.6978222395151077e-05 -0.028840550157494829 0 -6.2345302776421502e-05 -0.029074860818884472 0 -6.3450555949383491e-05 -0.029262306372696317 0 -6.6978222395151077e-05 -0.028840550157494829 0 -3.5123390172195763e-05 -0.029513682703092185 0 -6.3450555949383491e-05 -0.029262306372696317 0 -3.3502654037593343e-05 -0.029612758599869681 0 -3.5123390172195763e-05 -0.029513682703092185 0 -6.3450555949383491e-05 -0.029262306372696317 0 0.00030723806332969971 -0.028833966248576037 0 9.8317039698600473e-05 -0.027071261814852487 0 0.0014932306424944961 -0.026866836318449664 0 0.0026996156739988518 -0.023748400278650734 0 -6.2345302776421502e-05 -0.029074860818884472 0 -4.1790583618178644e-05 -0.029425586707754758 0 -4.1675265960939209e-05 -0.028629866655764391 0 -3.3502654037593343e-05 -0.029612758599869681 0 -6.3450555949383491e-05 -0.029262306372696317 0 -4.1790583618178644e-05 -0.029425586707754758 0 0.0049350027272178961 -0.022141687944628428 0 0.0060047689503506555 -0.021897186829306386 0 0.0041768937811858366 -0.022610842558747093 0 0.00055227764410721971 -0.025739591628424589 0 0.00031543267407670671 -0.025821801958533612 0 0.00027709928195137061 -0.025782649888124485 0 0.00055227764410721971 -0.025739591628424589 0 0.00057390184012092002 -0.025793765068492718 0 0.00031543267407670671 -0.025821801958533612 0 -6.2345302776421502e-05 -0.029074860818884472 0 -6.3450555949383491e-05 -0.029262306372696317 0 -4.1790583618178644e-05 -0.029425586707754758 0 0.0049350027272178961 -0.022141687944628428 0 0.0051260381513847644 -0.021821478022399685 0 0.0054234699858669274 -0.02185657657830337 0 0.0053175547904428843 -0.021646437233413262 0 0.0051260381513847644 -0.021821478022399685 0 0.0054234699858669274 -0.02185657657830337 0 0.0053175547904428843 -0.021646437233413262 0 0.0051260381513847644 -0.021821478022399685 0 0.005060471712473107 -0.02159516908663818 0 0.0049350027272178961 -0.022141687944628428 0 0.0051260381513847644 -0.021821478022399685 0 0.0048562984850303833 -0.021772379815499406 0 0.0051260381513847644 -0.021821478022399685 0 0.0048562984850303833 -0.021772379815499406 0 0.005060471712473107 -0.02159516908663818 0 0.0048562984850303833 -0.021772379815499406 0 0.0048030280040543419 -0.021506322357193523 0 0.005060471712473107 -0.02159516908663818 0 0.0049350027272178961 -0.022141687944628428 0 0.0054234699858669274 -0.02185657657830337 0 0.0060047689503506555 -0.021897186829306386 0 0.0053175547904428843 -0.021646437233413262 0 0.0054234699858669274 -0.02185657657830337 0 0.0056469831022333706 -0.021607998414041027 0 0.0054234699858669274 -0.02185657657830337 0 0.0060047689503506555 -0.021897186829306386 0 0.0056469831022333706 -0.021607998414041027 0 -0.0009956856554004525 -0.030836484740063261 0 0.0014932306424944961 -0.026866836318449664 0 -0.00024521684512821836 -0.030887637095285633 0 -0.00079334375846669468 -0.030900519851301263 0 -0.00096911650034605117 -0.031024510662920442 0 -0.0010112623715720938 -0.030907641180900818 0 -0.00079334375846669468 -0.030900519851301263 0 -0.00096911650034605117 -0.031024510662920442 0 -0.00060709986540479302 -0.030802677107204569 0 -0.0010112623715720938 -0.030907641180900818 0 -0.00079334375846669468 -0.030900519851301263 0 0.0014932306424944961 -0.026866836318449664 0 0.00030723806332969971 -0.028833966248576037 0 -0.00014378157903321531 -0.030804750086342064 0 2.2712135653416223e-05 -0.030101749751136456 0 0.00013244229132139922 -0.030770623683941855 0 2.2712135653416223e-05 -0.030101749751136456 0 -3.3502654037593343e-05 -0.029612758599869681 0 -4.1790583618178644e-05 -0.029425586707754758 0 0.00025746727773619227 -0.030199389989338382 0 0.00030723806332969971 -0.028833966248576037 0 5.9561977750318536e-05 -0.026837347602561172 0 2.864302265498619e-06 -0.027545588832869273 0 2.4388910438851668e-07 -0.026160725756087227 0 0.0026996156739988518 -0.023748400278650734 0 0.00095064926127240977 -0.02465412099978883 0 2.864302265498619e-06 -0.027545588832869273 0 -2.7788372253134213e-07 -0.027950644257658471 0 2.4388910438851668e-07 -0.026160725756087227 0 -2.4410374092099435e-05 -0.026261116474642555 0 9.8317039698600473e-05 -0.027071261814852487 0 7.8461056923368112e-05 -0.025753885884013061 0 0.00027709928195137061 -0.025782649888124485 0 5.565914394679817e-05 -0.025678480796809216 0 5.9561977750318536e-05 -0.026837347602561172 0 2.864302265498619e-06 -0.027545588832869273 0 -4.1675265960939209e-05 -0.028629866655764391 0 7.8461056923368112e-05 -0.025753885884013061 0 0.00031543267407670671 -0.025821801958533612 0 0.00027709928195137061 -0.025782649888124485 0 2.864302265498619e-06 -0.027545588832869273 0 -2.3728512466311896e-05 -0.028238822698326355 0 -4.1675265960939209e-05 -0.028629866655764391 0 2.864302265498619e-06 -0.027545588832869273 0 -2.3728512466311896e-05 -0.028238822698326355 0 -2.7788372253134213e-07 -0.027950644257658471 0 -6.6978222395151077e-05 -0.028840550157494829 0 -2.3728512466311896e-05 -0.028238822698326355 0 -2.7788372253134213e-07 -0.027950644257658471 0 -6.6978222395151077e-05 -0.028840550157494829 0 -2.3728512466311896e-05 -0.028238822698326355 0 -4.1675265960939209e-05 -0.028629866655764391 0 0.0049350027272178961 -0.022141687944628428 0 0.0044317159570057291 -0.022154941698219559 0 0.0041768937811858366 -0.022610842558747093 0 0.0049350027272178961 -0.022141687944628428 0 0.0046277325028538522 -0.02192747056074041 0 0.0044317159570057291 -0.022154941698219559 0 0.0049350027272178961 -0.022141687944628428 0 0.0048562984850303833 -0.021772379815499406 0 0.0046277325028538522 -0.02192747056074041 0 0.0048562984850303833 -0.021772379815499406 0 0.0046277325028538522 -0.02192747056074041 0 0.0045840952437774495 -0.021641087435277824 0 0.0048562984850303833 -0.021772379815499406 0 0.0045840952437774495 -0.021641087435277824 0 0.0048030280040543419 -0.021506322357193523 0 0.0045840952437774495 -0.021641087435277824 0 0.004292638445266542 -0.021830179162979201 0 0.0042990308894921133 -0.021319064576538944 0 0.0046277325028538522 -0.02192747056074041 0 0.0045840952437774495 -0.021641087435277824 0 0.004292638445266542 -0.021830179162979201 0 0.0046277325028538522 -0.02192747056074041 0 0.004292638445266542 -0.021830179162979201 0 0.0044317159570057291 -0.022154941698219559 0 0.004292638445266542 -0.021830179162979201 0 0.0044317159570057291 -0.022154941698219559 0 0.0040614852901396051 -0.022197426685143747 0 0.004292638445266542 -0.021830179162979201 0 0.0040614852901396051 -0.022197426685143747 0 0.003899576843882078 -0.02187382584102095 0 0.004292638445266542 -0.021830179162979201 0 0.003899576843882078 -0.02187382584102095 0 0.0039931310219789755 -0.02152827716956578 0 0.003899576843882078 -0.02187382584102095 0 0.0035133994735211294 -0.021549135451259416 0 0.0039931310219789755 -0.02152827716956578 0 0.003899576843882078 -0.02187382584102095 0 0.0036370747964239942 -0.022169429251711149 0 0.0035133994735211294 -0.021549135451259416 0 0.0040614852901396051 -0.022197426685143747 0 0.003899576843882078 -0.02187382584102095 0 0.0036370747964239942 -0.022169429251711149 0 0.0038298297383121938 -0.02238164720627309 0 0.0041768937811858366 -0.022610842558747093 0 0.0033030682881340701 -0.022574532640159399 0 0.0040614852901396051 -0.022197426685143747 0 0.0038298297383121938 -0.02238164720627309 0 0.0036370747964239942 -0.022169429251711149 0 0.0044317159570057291 -0.022154941698219559 0 0.0040614852901396051 -0.022197426685143747 0 0.0041768937811858366 -0.022610842558747093 0 0.0040614852901396051 -0.022197426685143747 0 0.0038298297383121938 -0.02238164720627309 0 0.0041768937811858366 -0.022610842558747093 0 0.0041768937811858366 -0.022610842558747093 0 0.0033030682881340701 -0.022574532640159399 0 0.0021928629115804169 -0.023556962418847697 0 0.0033030682881340701 -0.022574532640159399 0 0.0031812778367312578 -0.022123499631461496 0 0.0027594858921883747 -0.022574759161832318 0 0.0038298297383121938 -0.02238164720627309 0 0.0033030682881340701 -0.022574532640159399 0 0.0036370747964239942 -0.022169429251711149 0 0.0033030682881340701 -0.022574532640159399 0 0.0036370747964239942 -0.022169429251711149 0 0.0031812778367312578 -0.022123499631461496 0 0.0036370747964239942 -0.022169429251711149 0 0.0031812778367312578 -0.022123499631461496 0 0.0035133994735211294 -0.021549135451259416 0 0.0031812778367312578 -0.022123499631461496 0 0.0026731731724223507 -0.021773286982320911 0 0.0035133994735211294 -0.021549135451259416 0 0.0031812778367312578 -0.022123499631461496 0 0.0026731731724223507 -0.021773286982320911 0 0.0027594858921883747 -0.022574759161832318 0 0.0033030682881340701 -0.022574532640159399 0 0.0027594858921883747 -0.022574759161832318 0 0.0021928629115804169 -0.023556962418847697 0 0.0026731731724223507 -0.021773286982320911 0 0.0027594858921883747 -0.022574759161832318 0 0.0021667048200317432 -0.022661450067269488 0 0.0033480542265326434 -0.020662837797627086 0 0.0029528096373400521 -0.019736037552212149 0 0.0021479987214354287 -0.020312987350952633 0 0.0026731731724223507 -0.021773286982320911 0 0.0033480542265326434 -0.020662837797627086 0 0.0021479987214354287 -0.020312987350952633 0 0.0035133994735211294 -0.021549135451259416 0 0.0033480542265326434 -0.020662837797627086 0 0.003955584712179965 -0.021066128194473708 0 0.0026731731724223507 -0.021773286982320911 0 0.0035133994735211294 -0.021549135451259416 0 0.0033480542265326434 -0.020662837797627086 0 0.0033480542265326434 -0.020662837797627086 0 0.0039806433201297576 -0.020500299555021886 0 0.003955584712179965 -0.021066128194473708 0 0.0033480542265326434 -0.020662837797627086 0 0.0039806433201297576 -0.020500299555021886 0 0.0036002457300953138 -0.020019023008259376 0 0.0039806433201297576 -0.020500299555021886 0 0.003955584712179965 -0.021066128194473708 0 0.0043934885024583944 -0.020872422096858412 0 0.0035133994735211294 -0.021549135451259416 0 0.0039931310219789755 -0.02152827716956578 0 0.003955584712179965 -0.021066128194473708 0 0.004292638445266542 -0.021830179162979201 0 0.0039931310219789755 -0.02152827716956578 0 0.0042990308894921133 -0.021319064576538944 0 0.0039931310219789755 -0.02152827716956578 0 0.003955584712179965 -0.021066128194473708 0 0.0042990308894921133 -0.021319064576538944 0 0.003955584712179965 -0.021066128194473708 0 0.0042990308894921133 -0.021319064576538944 0 0.0043934885024583944 -0.020872422096858412 0 0.0042990308894921133 -0.021319064576538944 0 0.0045238181996455221 -0.021152129092751368 0 0.0043934885024583944 -0.020872422096858412 0 0.0042990308894921133 -0.021319064576538944 0 0.0045768604414052278 -0.021370954720972484 0 0.0045238181996455221 -0.021152129092751368 0 0.0045840952437774495 -0.021641087435277824 0 0.0042990308894921133 -0.021319064576538944 0 0.0045768604414052278 -0.021370954720972484 0 0.0045840952437774495 -0.021641087435277824 0 0.0048030280040543419 -0.021506322357193523 0 0.0045768604414052278 -0.021370954720972484 0 0.0048030280040543419 -0.021506322357193523 0 0.0045768604414052278 -0.021370954720972484 0 0.0047103055745213963 -0.021214974920889713 0 0.0045768604414052278 -0.021370954720972484 0 0.0047103055745213963 -0.021214974920889713 0 0.0045238181996455221 -0.021152129092751368 0 0.0047103055745213963 -0.021214974920889713 0 0.0045238181996455221 -0.021152129092751368 0 0.0046388446413792106 -0.020982474146095532 0 0.0045238181996455221 -0.021152129092751368 0 0.0046388446413792106 -0.020982474146095532 0 0.0043934885024583944 -0.020872422096858412 0 0.0047103055745213963 -0.021214974920889713 0 0.0046388446413792106 -0.020982474146095532 0 0.0048445374387494087 -0.020963472456264402 0 0.0046388446413792106 -0.020982474146095532 0 0.0047568971725224368 -0.020690080577578738 0 0.0043934885024583944 -0.020872422096858412 0 0.0046388446413792106 -0.020982474146095532 0 0.0047568971725224368 -0.020690080577578738 0 0.0048445374387494087 -0.020963472456264402 0 0.0039806433201297576 -0.020500299555021886 0 0.0043934885024583944 -0.020872422096858412 0 0.0045229574665121459 -0.020356379856481793 0 0.0047568971725224368 -0.020690080577578738 0 0.0043934885024583944 -0.020872422096858412 0 0.0045229574665121459 -0.020356379856481793 0 0.0047568971725224368 -0.020690080577578738 0 0.0045229574665121459 -0.020356379856481793 0 0.0047982968368301231 -0.020395917954032838 0 0.0045092111253654081 -0.019936982700786473 0 0.003741573879941017 -0.019513153099221251 0 0.0050673719709765849 -0.019777448054779073 0 0.0017104268043700833 -0.023831200429940101 0 0.0028528580508685414 -0.01813310175670137 0 0.003741573879941017 -0.019513153099221251 0 0.0050673719709765849 -0.019777448054779073 0 0.0032097383682899408 -0.018813547660045813 0 0.0045229574665121459 -0.020356379856481793 0 0.0047512531246612687 -0.02018396506168061 0 0.0045092111253654081 -0.019936982700786473 0 0.0045229574665121459 -0.020356379856481793 0 0.0047512531246612687 -0.02018396506168061 0 0.0047982968368301231 -0.020395917954032838 0 0.0045229574665121459 -0.020356379856481793 0 0.0045092111253654081 -0.019936982700786473 0 0.0040800197105943774 -0.020041891524738013 0 0.0047512531246612687 -0.02018396506168061 0 0.0045092111253654081 -0.019936982700786473 0 0.004828930846778357 -0.02003441905743009 0 0.0045092111253654081 -0.019936982700786473 0 0.003741573879941017 -0.019513153099221251 0 0.0040800197105943774 -0.020041891524738013 0 0.003741573879941017 -0.019513153099221251 0 0.0040800197105943774 -0.020041891524738013 0 0.0036002457300953138 -0.020019023008259376 0 0.0039806433201297576 -0.020500299555021886 0 0.0045229574665121459 -0.020356379856481793 0 0.0040800197105943774 -0.020041891524738013 0 0.0039806433201297576 -0.020500299555021886 0 0.0040800197105943774 -0.020041891524738013 0 0.0036002457300953138 -0.020019023008259376 0 0.0029528096373400521 -0.019736037552212149 0 0.0032097383682899408 -0.018813547660045813 0 0.0019525349532751267 -0.019373267199372379 0 0.003741573879941017 -0.019513153099221251 0 0.0036002457300953138 -0.020019023008259376 0 0.0029528096373400521 -0.019736037552212149 0 0.0033480542265326434 -0.020662837797627086 0 0.0036002457300953138 -0.020019023008259376 0 0.0029528096373400521 -0.019736037552212149 0 0.003741573879941017 -0.019513153099221251 0 0.0029528096373400521 -0.019736037552212149 0 0.0032097383682899408 -0.018813547660045813 0 -0.00025772179071607463 -0.030372166936778459 0 -0.00050634906880870061 -0.030408827599497458 0 -0.00043592603709406632 -0.030094185866156038 0 -0.00030054076963825934 -0.030305166108587325 0 -0.0002782563460996858 -0.030388746050479181 0 -0.00025772179071607463 -0.030372166936778459 0 -0.00023197489194456923 -0.030392546785847747 0 -0.00043592603709406632 -0.030094185866156038 0 -0.00023197489194456923 -0.030392546785847747 0 -0.00033635518359451642 -0.030242427508212703 0 -0.0002738815442127987 -0.030213644649322247 0 -0.00050634906880870061 -0.030408827599497458 0 -0.00043592603709406632 -0.030094185866156038 0 -0.00071639689398442685 -0.029863702942080343 0 0.0060047689503506555 -0.021897186829306386 0 0.0056469831022333706 -0.021607998414041027 0 0.0053452079280312623 -0.020993210589418335 0 0.0060047689503506555 -0.021897186829306386 0 0.0052732980298648017 -0.020615739189007058 0 0.0050673719709765849 -0.019777448054779073 0 0.0014932306424944961 -0.026866836318449664 0 0.0017104268043700833 -0.023831200429940101 0 0.0060047689503506555 -0.021897186829306386 0 0.0053452079280312623 -0.020993210589418335 0 0.0052732980298648017 -0.020615739189007058 0 0.0056469831022333706 -0.021607998414041027 0 0.0053988011227599888 -0.021445701373612968 0 0.0053431263149796467 -0.021246742567562291 0 0.0053175547904428843 -0.021646437233413262 0 0.0056469831022333706 -0.021607998414041027 0 0.0053988011227599888 -0.021445701373612968 0 0.0056469831022333706 -0.021607998414041027 0 0.0053431263149796467 -0.021246742567562291 0 0.0053452079280312623 -0.020993210589418335 0 0.0048030280040543419 -0.021506322357193523 0 0.0047103055745213963 -0.021214974920889713 0 0.0049910132645389783 -0.021319892164733512 0 0.0048030280040543419 -0.021506322357193523 0 0.005060471712473107 -0.02159516908663818 0 0.0049910132645389783 -0.021319892164733512 0 0.005060471712473107 -0.02159516908663818 0 0.0049910132645389783 -0.021319892164733512 0 0.005201271290505698 -0.021388891324902758 0 0.0053175547904428843 -0.021646437233413262 0 0.005060471712473107 -0.02159516908663818 0 0.005201271290505698 -0.021388891324902758 0 0.0053175547904428843 -0.021646437233413262 0 0.005201271290505698 -0.021388891324902758 0 0.0053988011227599888 -0.021445701373612968 0 0.005201271290505698 -0.021388891324902758 0 0.0053988011227599888 -0.021445701373612968 0 0.0053431263149796467 -0.021246742567562291 0 0.0053431263149796467 -0.021246742567562291 0 0.0053452079280312623 -0.020993210589418335 0 0.0050955783285156495 -0.021079838666480305 0 0.005201271290505698 -0.021388891324902758 0 0.0053431263149796467 -0.021246742567562291 0 0.0050955783285156495 -0.021079838666480305 0 0.0049910132645389783 -0.021319892164733512 0 0.0050955783285156495 -0.021079838666480305 0 0.0049102780162430899 -0.021144574981532997 0 0.0049910132645389783 -0.021319892164733512 0 0.005201271290505698 -0.021388891324902758 0 0.0050955783285156495 -0.021079838666480305 0 0.0050955783285156495 -0.021079838666480305 0 0.0049102780162430899 -0.021144574981532997 0 0.0048445374387494087 -0.020963472456264402 0 0.0047103055745213963 -0.021214974920889713 0 0.0049102780162430899 -0.021144574981532997 0 0.0048445374387494087 -0.020963472456264402 0 0.0047103055745213963 -0.021214974920889713 0 0.0049910132645389783 -0.021319892164733512 0 0.0049102780162430899 -0.021144574981532997 0 0.0047568971725224368 -0.020690080577578738 0 0.0048445374387494087 -0.020963472456264402 0 0.0050521057990861465 -0.020789783858470644 0 0.0047568971725224368 -0.020690080577578738 0 0.0050521057990861465 -0.020789783858470644 0 0.0049709547030316603 -0.020547024541741333 0 0.0050955783285156495 -0.021079838666480305 0 0.0048445374387494087 -0.020963472456264402 0 0.0050521057990861465 -0.020789783858470644 0 0.0053452079280312623 -0.020993210589418335 0 0.0050521057990861465 -0.020789783858470644 0 0.0052732980298648017 -0.020615739189007058 0 0.0053452079280312623 -0.020993210589418335 0 0.0050955783285156495 -0.021079838666480305 0 0.0050521057990861465 -0.020789783858470644 0 0.0050521057990861465 -0.020789783858470644 0 0.0052732980298648017 -0.020615739189007058 0 0.0049709547030316603 -0.020547024541741333 0 0.0052732980298648017 -0.020615739189007058 0 0.0049709547030316603 -0.020547024541741333 0 0.0049885800558786605 -0.020239047334721583 0 0.0049709547030316603 -0.020547024541741333 0 0.0047982968368301231 -0.020395917954032838 0 0.0049885800558786605 -0.020239047334721583 0 0.0047568971725224368 -0.020690080577578738 0 0.0049709547030316603 -0.020547024541741333 0 0.0047982968368301231 -0.020395917954032838 0 -0.0002782563460996858 -0.030388746050479181 0 0.0017104268043700833 -0.023831200429940101 0 0.0052732980298648017 -0.020615739189007058 0 0.0049885800558786605 -0.020239047334721583 0 0.0050673719709765849 -0.019777448054779073 0 0.0047512531246612687 -0.02018396506168061 0 0.0049885800558786605 -0.020239047334721583 0 0.004828930846778357 -0.02003441905743009 0 0.0047512531246612687 -0.02018396506168061 0 0.0047982968368301231 -0.020395917954032838 0 0.0049885800558786605 -0.020239047334721583 0 0.0045092111253654081 -0.019936982700786473 0 0.0050673719709765849 -0.019777448054779073 0 0.004828930846778357 -0.02003441905743009 0 0.0049885800558786605 -0.020239047334721583 0 0.0050673719709765849 -0.019777448054779073 0 0.004828930846778357 -0.02003441905743009 0 0.0028706812183186313 -0.02168422387673825 0 0.0030726228684913206 -0.022032590670621559 0 0.0029575281222642409 -0.021786190365611444 0 0.0029537775352728112 -0.021739751103427289 0 0.0029510425202920088 -0.021732182686691547 0 -0.00033635518359451642 -0.030242427508212703 0 -0.00044219450166606251 -0.030065428125047467 0 -0.0002738815442127987 -0.030213644649322247 0 0.0017104268043700833 -0.023831200429940101 0 0.0012605040024157048 -0.026144206093342753 0 0.0029575281222642409 -0.021786190365611444 0 0.0029537775352728112 -0.021739751103427289 0 0.0029411835621164311 -0.021677164865726455 0 0.0029537775352728112 -0.021739751103427289 0 0.0029413643803034265 -0.021744174743456791 0 0.0029606896430319609 -0.021847302000064031 0 0.0029537775352728112 -0.021739751103427289 0 0.0029411835621164311 -0.021677164865726455 0 0.0029413643803034265 -0.021744174743456791 0 0.0028799927586881987 -0.021699550255532513 0 0.0029411835621164311 -0.021677164865726455 0 0.0029413643803034265 -0.021744174743456791 0 0.0028799927586881987 -0.021699550255532513 0 0.0029413643803034265 -0.021744174743456791 0 0.0029311826194778389 -0.021778479783549177 0 0.0029413643803034265 -0.021744174743456791 0 0.0029311826194778389 -0.021778479783549177 0 0.0029606896430319609 -0.021847302000064031 0 0.0029311826194778389 -0.021778479783549177 0 0.002988301642091263 -0.021867177385561244 0 0.0029606896430319609 -0.021847302000064031 0 0.0029311826194778389 -0.021778479783549177 0 0.002988301642091263 -0.021867177385561244 0 0.0029153288070495509 -0.02181964288648271 0 0.002988301642091263 -0.021867177385561244 0 0.0030690628078588549 -0.021940650572546357 0 0.0029153288070495509 -0.02181964288648271 0 0.002988301642091263 -0.021867177385561244 0 0.0029606896430319609 -0.021847302000064031 0 0.002969212235631697 -0.021904096766996558 0 0.002906937256265171 -0.02193850562727569 0 0.002969212235631697 -0.021904096766996558 0 0.0026142678787029181 -0.021930146988560766 0 0.0029537775352728112 -0.021739751103427289 0 0.0029606896430319609 -0.021847302000064031 0 0.002906937256265171 -0.02193850562727569 0 0.0029606896430319609 -0.021847302000064031 0 0.002906937256265171 -0.02193850562727569 0 0.002969212235631697 -0.021904096766996558 0 0.002969212235631697 -0.021904096766996558 0 0.0028564492329498869 -0.021791800008862071 0 0.0026142678787029181 -0.021930146988560766 0 0.002969212235631697 -0.021904096766996558 0 0.0028564492329498869 -0.021791800008862071 0 0.0030635241954128194 -0.021893570327897904 0 0.0030690628078588549 -0.021940650572546357 0 0.0030635241954128194 -0.021893570327897904 0 0.0032085840326225483 -0.022107201134654007 0 0.002988301642091263 -0.021867177385561244 0 0.002969212235631697 -0.021904096766996558 0 0.0030690628078588549 -0.021940650572546357 0 0.002969212235631697 -0.021904096766996558 0 0.0030690628078588549 -0.021940650572546357 0 0.0030635241954128194 -0.021893570327897904 0 0.0019769251810862832 -0.018617004681929263 0 0.0022713776916031886 -0.018285245835979545 0 0.001857409367233927 -0.018264982275769646 0 0.0019769251810862832 -0.018617004681929263 0 0.001857409367233927 -0.018264982275769646 0 0.0016903804611767843 -0.018199069404143876 0 0.0026326616890878819 -0.019092884827540811 0 0.0019769251810862832 -0.018617004681929263 0 0.0022713776916031886 -0.018285245835979545 0 0.0029575281222642409 -0.021786190365611444 0 0.0029510425202920088 -0.021732182686691547 0 0.0028766408161069465 -0.021665954255835812 0 0.0017104268043700833 -0.023831200429940101 0 0.0024540012896382985 -0.020152687707399766 0 0.0030726228684913206 -0.022032590670621559 0 0.0024540012896382985 -0.020152687707399766 0 0.0026142678787029181 -0.021930146988560766 0 0.0021986923870380534 -0.021564858913166975 0 0.0025998112100591784 -0.021672254465530061 0 0.0024540012896382985 -0.020152687707399766 0 0.0022172487556772328 -0.021416090966780623 0 0.0028564492329498869 -0.021791800008862071 0 0.0026142678787029181 -0.021930146988560766 0 0.0025998112100591784 -0.021672254465530061 0 0.0024540012896382985 -0.020152687707399766 0 0.0018161064980789716 -0.019369318013102418 0 0.0021817680381802772 -0.021167431717162594 0 0.0018949400849131285 -0.02092302243547926 0 0.0020404587507982502 -0.020912246031255115 0 0.0022713776916031886 -0.018285245835979545 0 0.0019010144369767991 -0.018127455326786911 0 0.0018724882738247015 -0.017953647940451005 0 0.0022713776916031886 -0.018285245835979545 0 0.0019010144369767991 -0.018127455326786911 0 0.001857409367233927 -0.018264982275769646 0 0.0019010144369767991 -0.018127455326786911 0 0.0018133889629283961 -0.018144096407889148 0 0.001857409367233927 -0.018264982275769646 0 0.0019010144369767991 -0.018127455326786911 0 0.0018133889629283961 -0.018144096407889148 0 0.0017002331395906784 -0.017999012262756624 0 0.0022172487556772328 -0.021416090966780623 0 0.0018830631139492918 -0.020574617749787319 0 0.0018949400849131285 -0.02092302243547926 0 0.0020404587507982502 -0.020912246031255115 0 0.0019035060659964018 -0.020556800054785839 0 0.0019010144369767991 -0.018127455326786911 0 0.0018724882738247015 -0.017953647940451005 0 0.0017002331395906784 -0.017999012262756624 0 0.0021986923870380534 -0.021564858913166975 0 0.0025156078631523408 -0.021392301484508516 0 0.0023058196277095282 -0.020891667760456954 0 0.0021986923870380534 -0.021564858913166975 0 0.0025998112100591784 -0.021672254465530061 0 0.0025156078631523408 -0.021392301484508516 0 0.0025998112100591784 -0.021672254465530061 0 0.0025156078631523408 -0.021392301484508516 0 0.0027392848911405037 -0.021557775822343375 0 0.0025156078631523408 -0.021392301484508516 0 0.0027392848911405037 -0.021557775822343375 0 0.0026659385356281014 -0.021232466981220496 0 0.0025106437439786555 -0.020753972723359312 0 0.0023058196277095282 -0.020891667760456954 0 0.0020434720339596152 -0.020162427345596205 0 0.0025156078631523408 -0.021392301484508516 0 0.0023058196277095282 -0.020891667760456954 0 0.0026659385356281014 -0.021232466981220496 0 0.0025106437439786555 -0.020753972723359312 0 0.0023058196277095282 -0.020891667760456954 0 0.0026659385356281014 -0.021232466981220496 0 0.0018949400849131285 -0.02092302243547926 0 0.0019035060659964018 -0.020556800054785839 0 0.0014695673469578899 -0.020381946866820776 0 0.0021986923870380534 -0.021564858913166975 0 0.0023058196277095282 -0.020891667760456954 0 0.0019035060659964018 -0.020556800054785839 0 0.0023058196277095282 -0.020891667760456954 0 0.0019035060659964018 -0.020556800054785839 0 0.0020434720339596152 -0.020162427345596205 0 0.0019035060659964018 -0.020556800054785839 0 0.0017359347458057468 -0.020040987226453803 0 0.0020434720339596152 -0.020162427345596205 0 0.0030635241954128194 -0.021893570327897904 0 0.0029487710277881283 -0.021643540820375045 0 0.0032073416948988649 -0.021917020946579168 0 0.0030635241954128194 -0.021893570327897904 0 0.0032073416948988649 -0.021917020946579168 0 0.0032085840326225483 -0.022107201134654007 0 0.0028564492329498869 -0.021791800008862071 0 0.0030635241954128194 -0.021893570327897904 0 0.0029487710277881283 -0.021643540820375045 0 0.0028564492329498869 -0.021791800008862071 0 0.0025998112100591784 -0.021672254465530061 0 0.0027392848911405037 -0.021557775822343375 0 0.0028564492329498869 -0.021791800008862071 0 0.0027392848911405037 -0.021557775822343375 0 0.0029487710277881283 -0.021643540820375045 0 0.0027392848911405037 -0.021557775822343375 0 0.0029487710277881283 -0.021643540820375045 0 0.0026659385356281014 -0.021232466981220496 0 0.0029487710277881283 -0.021643540820375045 0 0.0026659385356281014 -0.021232466981220496 0 0.0028725063822879295 -0.021149272111021529 0 0.0025106437439786555 -0.020753972723359312 0 0.0026659385356281014 -0.021232466981220496 0 0.0028725063822879295 -0.021149272111021529 0 0.0028725063822879295 -0.021149272111021529 0 0.0032073416948988649 -0.021917020946579168 0 0.0031764972145836199 -0.020830612119285455 0 0.0029487710277881283 -0.021643540820375045 0 0.0028725063822879295 -0.021149272111021529 0 0.0032073416948988649 -0.021917020946579168 0 0.0032073416948988649 -0.021917020946579168 0 0.0037143530260866312 -0.022716030719415657 0 0.0037281260933984283 -0.02088392937951487 0 -2.7992577431920022e-06 -0.034984518081848374 0 3.4795619283039834e-07 -0.035000556721266868 0 -4.8955482535517528e-07 -0.034999088206899093 0 0.0032085840326225483 -0.022107201134654007 0 0.0037143530260866312 -0.022716030719415657 0 0.0029366411055783688 -0.022074425236586322 0 0.0032073416948988649 -0.021917020946579168 0 0.0032085840326225483 -0.022107201134654007 0 0.0037143530260866312 -0.022716030719415657 0 0.0025143484197410124 -0.022246852236699581 0 0.0037143530260866312 -0.022716030719415657 0 0.0029366411055783688 -0.022074425236586322 0 0.0025143484197410124 -0.022246852236699581 0 0.0037143530260866312 -0.022716030719415657 0 0.0018422758135914882 -0.023002413903573167 0 0.0037143530260866312 -0.022716030719415657 0 0.0018422758135914882 -0.023002413903573167 0 0.0022192074678517347 -0.025451491041932756 0 0.0018422758135914882 -0.023002413903573167 0 -0.00012355138835822086 -0.024574482377017245 0 0.0012342531526434791 -0.022201633125764737 0 -2.7992577431920022e-06 -0.034984518081848374 0 8.123783592710707e-06 -0.034969083756091215 0 3.4795619283039834e-07 -0.035000556721266868 0 0.0018422758135914882 -0.023002413903573167 0 -0.00012355138835822086 -0.024574482377017245 0 0.0022192074678517347 -0.025451491041932756 0 -5.4432456275572531e-05 -0.029825982850173217 0 0.00059401568502212294 -0.028749101422683575 0 0.0018422758135914882 -0.023002413903573167 0 0.0012342531526434791 -0.022201633125764737 0 0.0019811587156409382 -0.022021348786285824 0 0.0025143484197410124 -0.022246852236699581 0 0.0018422758135914882 -0.023002413903573167 0 0.0019811587156409382 -0.022021348786285824 0 0.0012342531526434791 -0.022201633125764737 0 0.0019811587156409382 -0.022021348786285824 0 0.0020118125901846442 -0.02164503833928666 0 -8.5280234121098281e-07 -0.034977601837725768 0 3.4795619283039834e-07 -0.035000556721266868 0 1.4659509761774287e-05 -0.034953424133167842 0 0.0019811587156409382 -0.022021348786285824 0 0.0020118125901846442 -0.02164503833928666 0 0.0024443609421164565 -0.021818650582363198 0 8.123783592710707e-06 -0.034969083756091215 0 3.4795619283039834e-07 -0.035000556721266868 0 1.4659509761774287e-05 -0.034953424133167842 0 0.00059401568502212294 -0.028749101422683575 0 0.00099003478264960451 -0.027855240729419452 0 0.0023549221552801869 -0.021504692840927854 0 0.0020118125901846442 -0.02164503833928666 0 0.0023946891598667624 -0.021639451766798292 0 0.0020118125901846442 -0.02164503833928666 0 0.0023946891598667624 -0.021639451766798292 0 0.0024443609421164565 -0.021818650582363198 0 0.0023946891598667624 -0.021639451766798292 0 0.0026595240651904224 -0.021723787846128006 0 0.0024443609421164565 -0.021818650582363198 0 0.0026595240651904224 -0.021723787846128006 0 0.0028518447578767241 -0.021872545092847698 0 0.0024443609421164565 -0.021818650582363198 0 0.002784014212197245 -0.021687544275367086 0 0.002583512184891982 -0.021593674105034346 0 0.0026595240651904224 -0.021723787846128006 0 0.002583512184891982 -0.021593674105034346 0 0.0023946891598667624 -0.021639451766798292 0 0.0026595240651904224 -0.021723787846128006 0 0.002784014212197245 -0.021687544275367086 0 0.0026595240651904224 -0.021723787846128006 0 0.0029153288070495509 -0.02181964288648271 0 0.002784014212197245 -0.021687544275367086 0 0.0029311826194778389 -0.021778479783549177 0 0.0029153288070495509 -0.02181964288648271 0 0.0026595240651904224 -0.021723787846128006 0 0.0029153288070495509 -0.02181964288648271 0 0.0028518447578767241 -0.021872545092847698 0 0.0030690628078588549 -0.021940650572546357 0 0.0032085840326225483 -0.022107201134654007 0 0.0028518447578767241 -0.021872545092847698 0 0.0032085840326225483 -0.022107201134654007 0 0.0028518447578767241 -0.021872545092847698 0 0.0029366411055783688 -0.022074425236586322 0 0.0030690628078588549 -0.021940650572546357 0 0.0029153288070495509 -0.02181964288648271 0 0.0028518447578767241 -0.021872545092847698 0 0.0025143484197410124 -0.022246852236699581 0 0.0029366411055783688 -0.022074425236586322 0 0.0024443609421164565 -0.021818650582363198 0 0.0025143484197410124 -0.022246852236699581 0 0.0019811587156409382 -0.022021348786285824 0 0.0024443609421164565 -0.021818650582363198 0 0.0028518447578767241 -0.021872545092847698 0 0.0029366411055783688 -0.022074425236586322 0 0.0024443609421164565 -0.021818650582363198 0 -0.00037283676988080172 -0.016685439675996162 0 -0.00070260734298374942 -0.016528519022932599 0 -0.0005416800361386459 -0.017169707428237327 0 -0.00037283676988080172 -0.016685439675996162 0 -0.00070260734298374942 -0.016528519022932599 0 -0.00038536404278462726 -0.016280519275342173 0 -0.00037283676988080172 -0.016685439675996162 0 -0.00038536404278462726 -0.016280519275342173 0 -0.00024506296045174921 -0.016118254406430766 0 -0.001023447123855864 -0.018972457052260215 0 -0.00071102747086152743 -0.019992869642505139 0 -0.00084430005170793771 -0.020166226102888513 0 -0.00084600745135798893 -0.017713048401558067 0 -0.00032656879498594199 -0.018559664620583179 0 -0.00070260734298374942 -0.016528519022932599 0 -0.0002696320087376855 -0.01620153017854585 0 -0.00038536404278462726 -0.016280519275342173 0 -0.001023447123855864 -0.018972457052260215 0 -0.00071102747086152743 -0.019992869642505139 0 -0.00047704577036227408 -0.019433073933537638 0 -0.0002696320087376855 -0.01620153017854585 0 -0.00038536404278462726 -0.016280519275342173 0 -0.00015134862934771803 -0.016203853740987435 0 -0.00071102747086152743 -0.019992869642505139 0 -0.00076486383618244356 -0.020157607784737706 0 -0.00050472937300697826 -0.020276367998573741 0 -0.00068192054088423251 -0.019208104544440125 0 -0.00032656879498594199 -0.018559664620583179 0 -0.00038536404278462726 -0.016280519275342173 0 -0.00024506296045174921 -0.016118254406430766 0 -0.00015134862934771803 -0.016203853740987435 0 0.00015000057587248231 -0.016451642773925065 0 -0.00015134862934771803 -0.016203853740987435 0 -0.00022264184126393583 -0.016203143461954752 0 -0.00024506296045174921 -0.016118254406430766 0 -0.00015134862934771803 -0.016203853740987435 0 -0.00022264184126393583 -0.016203143461954752 0 3.2696067048484081e-05 -0.018988191455767037 0 6.7160375888205006e-07 -0.017759605002210698 0 -6.8378088022802319e-07 -0.018847590716642552 0 0.00015000057587248231 -0.016451642773925065 0 5.7843862158362112e-07 -0.017753993835840046 0 -0.00022264184126393583 -0.016203143461954752 0 8.3012590008783079e-05 -0.017640445398543394 0 -1.9871236112395377e-07 -0.017758289872966123 0 3.2696067048484081e-05 -0.018988191455767037 0 -6.8378088022802319e-07 -0.018847590716642552 0 -4.6588669754338309e-05 -0.01911196350037269 0 -6.8378088022802319e-07 -0.018847590716642552 0 -4.6588669754338309e-05 -0.01911196350037269 0 6.9607993683841624e-07 -0.019934765638468716 0 -0.00032656879498594199 -0.018559664620583179 0 8.3012590008783079e-05 -0.017640445398543394 0 -0.00032656879498594199 -0.018559664620583179 0 -0.0001461485059584562 -0.019962954236823205 0 -0.0002696320087376855 -0.01620153017854585 0 0.00015000057587248231 -0.016451642773925065 0 -0.00015134862934771803 -0.016203853740987435 0 -0.00076486383618244356 -0.020157607784737706 0 -0.00030719809317880767 -0.020603966530401561 0 -0.00050472937300697826 -0.020276367998573741 0 -2.8566830414321492e-05 -0.019148322096737384 0 3.2696067048484081e-05 -0.018988191455767037 0 -4.6588669754338309e-05 -0.01911196350037269 0 -0.00050472937300697826 -0.020276367998573741 0 -0.00031995154223331631 -0.020431089446491954 0 -0.00037733061566228531 -0.020034694146054469 0 -0.00031995154223331631 -0.020431089446491954 0 -0.00013675576460151035 -0.0202723539048681 0 -0.00037733061566228531 -0.020034694146054469 0 -0.00031995154223331631 -0.020431089446491954 0 -0.00023734005189763146 -0.020572835574340444 0 -0.00016293605400566856 -0.020724970923520394 0 -0.00031995154223331631 -0.020431089446491954 0 -0.00016293605400566856 -0.020724970923520394 0 -0.00013675576460151035 -0.0202723539048681 0 -0.00030719809317880767 -0.020603966530401561 0 -0.00050472937300697826 -0.020276367998573741 0 -0.00031995154223331631 -0.020431089446491954 0 -0.00030719809317880767 -0.020603966530401561 0 -0.00031995154223331631 -0.020431089446491954 0 -0.00023734005189763146 -0.020572835574340444 0 1.9456263273444401e-07 -0.019938589064701563 0 -0.00023734005189763146 -0.020572835574340444 0 -9.9953547083714261e-07 -0.021053844904899057 0 -0.0001461485059584562 -0.019962954236823205 0 -1.5679070447950599e-07 -0.019936579455673755 0 -0.00030719809317880767 -0.020603966530401561 0 1.9456263273444401e-07 -0.019938589064701563 0 -0.00023734005189763146 -0.020572835574340444 0 -9.9953547083714261e-07 -0.021053844904899057 0 -5.8816637993336974e-05 -0.02119289271120257 0 1.5516619240380469e-06 -0.022168542884646737 0 -0.00023734005189763146 -0.020572835574340444 0 -9.9953547083714261e-07 -0.021053844904899057 0 -0.00016293605400566856 -0.020724970923520394 0 -9.9953547083714261e-07 -0.021053844904899057 0 -0.00016293605400566856 -0.020724970923520394 0 -5.8816637993336974e-05 -0.02119289271120257 0 -0.00016293605400566856 -0.020724970923520394 0 -5.8816637993336974e-05 -0.02119289271120257 0 4.5485466792022437e-05 -0.020659168575030921 0 -0.00016293605400566856 -0.020724970923520394 0 4.5485466792022437e-05 -0.020659168575030921 0 -0.00013675576460151035 -0.0202723539048681 0 4.5485466792022437e-05 -0.020659168575030921 0 0.00011856113679275172 -0.020286704813327512 0 0.00032379215493596081 -0.020431151408454938 0 4.5485466792022437e-05 -0.020659168575030921 0 -0.00013675576460151035 -0.0202723539048681 0 0.00011856113679275172 -0.020286704813327512 0 0.00011856113679275172 -0.020286704813327512 0 4.5536204451326555e-05 -0.019994774899748644 0 0.00034428956873025469 -0.020036316772313014 0 -0.00013675576460151035 -0.0202723539048681 0 0.00011856113679275172 -0.020286704813327512 0 4.5536204451326555e-05 -0.019994774899748644 0 4.5536204451326555e-05 -0.019994774899748644 0 0.00017286175076743616 -0.019642154157525859 0 0.00034428956873025469 -0.020036316772313014 0 4.5536204451326555e-05 -0.019994774899748644 0 0.00017286175076743616 -0.019642154157525859 0 -0.00016885972963972125 -0.019763431925605625 0 -0.00013675576460151035 -0.0202723539048681 0 4.5536204451326555e-05 -0.019994774899748644 0 -0.00016885972963972125 -0.019763431925605625 0 -0.00013675576460151035 -0.0202723539048681 0 -0.00016885972963972125 -0.019763431925605625 0 -0.00037733061566228531 -0.020034694146054469 0 -0.00071102747086152743 -0.019992869642505139 0 -0.00050472937300697826 -0.020276367998573741 0 -0.00037733061566228531 -0.020034694146054469 0 -0.00071102747086152743 -0.019992869642505139 0 -0.00037733061566228531 -0.020034694146054469 0 -0.00047704577036227408 -0.019433073933537638 0 -0.00016885972963972125 -0.019763431925605625 0 -0.00037733061566228531 -0.020034694146054469 0 -0.00047704577036227408 -0.019433073933537638 0 -0.001023447123855864 -0.018972457052260215 0 -0.00047704577036227408 -0.019433073933537638 0 -0.00048235804626833661 -0.018861041419945025 0 -0.00016885972963972125 -0.019763431925605625 0 -0.00047704577036227408 -0.019433073933537638 0 -0.00012953898317140977 -0.019194924204443603 0 -0.00047704577036227408 -0.019433073933537638 0 -0.00048235804626833661 -0.018861041419945025 0 -0.00012953898317140977 -0.019194924204443603 0 -0.00048235804626833661 -0.018861041419945025 0 -0.00012953898317140977 -0.019194924204443603 0 -0.00013025887940620873 -0.018680378997029248 0 0.00017286175076743616 -0.019642154157525859 0 -0.00012953898317140977 -0.019194924204443603 0 0.00031215627738104219 -0.01892093221837535 0 0.00017286175076743616 -0.019642154157525859 0 -0.00016885972963972125 -0.019763431925605625 0 -0.00012953898317140977 -0.019194924204443603 0 0.00017286175076743616 -0.019642154157525859 0 0.00059482794196559421 -0.01959544559763653 0 0.00031215627738104219 -0.01892093221837535 0 0.00059482794196559421 -0.01959544559763653 0 0.00089300748042927007 -0.019111255826132094 0 0.00031215627738104219 -0.01892093221837535 0 0.00059482794196559421 -0.01959544559763653 0 0.00089300748042927007 -0.019111255826132094 0 0.0011294628800894327 -0.019847820597924015 0 0.00089300748042927007 -0.019111255826132094 0 0.0011294628800894327 -0.019847820597924015 0 0.0013538237663757156 -0.01936042862614272 0 0.0011294628800894327 -0.019847820597924015 0 0.000795140227812587 -0.020282295946472417 0 0.0015722706321724272 -0.020412531904825879 0 0.00059482794196559421 -0.01959544559763653 0 0.0011294628800894327 -0.019847820597924015 0 0.000795140227812587 -0.020282295946472417 0 0.00059482794196559421 -0.01959544559763653 0 0.00034428956873025469 -0.020036316772313014 0 0.000795140227812587 -0.020282295946472417 0 0.00017286175076743616 -0.019642154157525859 0 0.00059482794196559421 -0.01959544559763653 0 0.00034428956873025469 -0.020036316772313014 0 0.00036564794735820109 -0.020862313374882518 0 0.0011122942248712206 -0.020941043087103171 0 0.000795140227812587 -0.020282295946472417 0 0.00011856113679275172 -0.020286704813327512 0 0.00034428956873025469 -0.020036316772313014 0 0.00032379215493596081 -0.020431151408454938 0 0.00034428956873025469 -0.020036316772313014 0 0.00032379215493596081 -0.020431151408454938 0 0.000795140227812587 -0.020282295946472417 0 0.00032379215493596081 -0.020431151408454938 0 0.00036564794735820109 -0.020862313374882518 0 0.000795140227812587 -0.020282295946472417 0 4.5485466792022437e-05 -0.020659168575030921 0 0.00032379215493596081 -0.020431151408454938 0 0.00036564794735820109 -0.020862313374882518 0 0.00036564794735820109 -0.020862313374882518 0 1.5516619240380469e-06 -0.022168542884646737 0 0.0011122942248712206 -0.020941043087103171 0 5.0226664387753668e-07 -0.022172423080012507 0 -1.0473120996373301e-06 -0.023270459858979367 0 -0.00019188244446973867 -0.023340383153801058 0 -5.8816637993336974e-05 -0.02119289271120257 0 4.5485466792022437e-05 -0.020659168575030921 0 0.00036564794735820109 -0.020862313374882518 0 -5.8816637993336974e-05 -0.02119289271120257 0 0.00036564794735820109 -0.020862313374882518 0 1.5516619240380469e-06 -0.022168542884646737 0 -3.6204510471565584e-08 -0.022171059953218327 0 0.00040193811469952978 -0.022090143127174004 0 -1.0473120996373301e-06 -0.023270459858979367 0 4.7712879641220907e-05 -0.02345421040332971 0 1.5786637992179967e-06 -0.024368356449735371 0 -1.0473120996373301e-06 -0.023270459858979367 0 -0.00019188244446973867 -0.023340383153801058 0 4.7712879641220907e-05 -0.02345421040332971 0 0.0011122942248712206 -0.020941043087103171 0 0.000795140227812587 -0.020282295946472417 0 0.0015722706321724272 -0.020412531904825879 0 0.00042557531475325816 -0.022000628857510026 0 4.7712879641220907e-05 -0.02345421040332971 0 0.00086141822431537538 -0.023298734818226221 0 0.00040193811469952978 -0.022090143127174004 0 0.001090090036039692 -0.021201243630709073 0 -0.00019188244446973867 -0.023340383153801058 0 0.00042557531475325816 -0.022000628857510026 0 4.7712879641220907e-05 -0.02345421040332971 0 0.00042557531475325816 -0.022000628857510026 0 0.00086141822431537538 -0.023298734818226221 0 0.0016543342143926455 -0.022268651339428146 0 9.9733217642799199e-07 -0.024865926131101664 0 -9.3081111370576704e-07 -0.024373255643539954 0 5.565914394679817e-05 -0.025678480796809216 0 4.7712879641220907e-05 -0.02345421040332971 0 0.00086141822431537538 -0.023298734818226221 0 1.5786637992179967e-06 -0.024368356449735371 0 5.9561977750318536e-05 -0.026837347602561172 0 9.6746838193859445e-08 -0.02486935364539063 0 2.4388910438851668e-07 -0.026160725756087227 0 7.8461056923368112e-05 -0.025753885884013061 0 9.9733217642799199e-07 -0.024865926131101664 0 5.565914394679817e-05 -0.025678480796809216 0 -2.4410374092099435e-05 -0.026261116474642555 0 3.1731226899307697e-05 -0.025164737452008031 0 2.266167422005907e-07 -0.024370416162535907 0 0.00095064926127240977 -0.02465412099978883 0 0.00086141822431537538 -0.023298734818226221 0 1.5786637992179967e-06 -0.024368356449735371 0 0.0021928629115804169 -0.023556962418847697 0 0.00086141822431537538 -0.023298734818226221 0 0.0021928629115804169 -0.023556962418847697 0 0.0016846082225737051 -0.022984748422572945 0 0.0021928629115804169 -0.023556962418847697 0 0.0021667048200317432 -0.022661450067269488 0 0.0016846082225737051 -0.022984748422572945 0 0.0027594858921883747 -0.022574759161832318 0 0.0021928629115804169 -0.023556962418847697 0 0.0021667048200317432 -0.022661450067269488 0 0.0021667048200317432 -0.022661450067269488 0 0.0016846082225737051 -0.022984748422572945 0 0.0016543342143926455 -0.022268651339428146 0 0.00086141822431537538 -0.023298734818226221 0 0.0016846082225737051 -0.022984748422572945 0 0.0016543342143926455 -0.022268651339428146 0 0.0026731731724223507 -0.021773286982320911 0 0.0021667048200317432 -0.022661450067269488 0 0.0016543342143926455 -0.022268651339428146 0 0.0015722706321724272 -0.020412531904825879 0 0.0021479987214354287 -0.020312987350952633 0 0.0016078291846117856 -0.019910245202836591 0 0.00042557531475325816 -0.022000628857510026 0 0.0016543342143926455 -0.022268651339428146 0 0.0021479987214354287 -0.020312987350952633 0 0.0026731731724223507 -0.021773286982320911 0 0.0016543342143926455 -0.022268651339428146 0 0.0021479987214354287 -0.020312987350952633 0 0.001090090036039692 -0.021201243630709073 0 0.0020720382711850731 -0.020355357349538635 0 0.0011294628800894327 -0.019847820597924015 0 0.0015722706321724272 -0.020412531904825879 0 0.0016078291846117856 -0.019910245202836591 0 0.0016078291846117856 -0.019910245202836591 0 0.0013538237663757156 -0.01936042862614272 0 0.0019525349532751267 -0.019373267199372379 0 0.0011294628800894327 -0.019847820597924015 0 0.0016078291846117856 -0.019910245202836591 0 0.0013538237663757156 -0.01936042862614272 0 0.0029528096373400521 -0.019736037552212149 0 0.0021479987214354287 -0.020312987350952633 0 0.0019525349532751267 -0.019373267199372379 0 0.0021479987214354287 -0.020312987350952633 0 0.0016078291846117856 -0.019910245202836591 0 0.0019525349532751267 -0.019373267199372379 0 0.0028528580508685414 -0.01813310175670137 0 0.001702901756970378 -0.018389914462668723 0 0.0032097383682899408 -0.018813547660045813 0 0.0019525349532751267 -0.019373267199372379 0 0.0018714958580446372 -0.018704270302774609 0 0.0032097383682899408 -0.018813547660045813 0 0.0018714958580446372 -0.018704270302774609 0 0.0016903804611767843 -0.018199069404143876 0 0.0018714958580446372 -0.018704270302774609 0 0.001596683576806653 -0.01841580146909905 0 0.0016903804611767843 -0.018199069404143876 0 0.0019525349532751267 -0.019373267199372379 0 0.0018714958580446372 -0.018704270302774609 0 0.0013405949775175724 -0.018720805282161843 0 0.0013538237663757156 -0.01936042862614272 0 0.0019525349532751267 -0.019373267199372379 0 0.0013405949775175724 -0.018720805282161843 0 0.00089300748042927007 -0.019111255826132094 0 0.0013538237663757156 -0.01936042862614272 0 0.0013405949775175724 -0.018720805282161843 0 0.0013405949775175724 -0.018720805282161843 0 0.001596683576806653 -0.01841580146909905 0 0.0014935504810576006 -0.018081908565467462 0 0.0018714958580446372 -0.018704270302774609 0 0.0013405949775175724 -0.018720805282161843 0 0.001596683576806653 -0.01841580146909905 0 0.0013405949775175724 -0.018720805282161843 0 0.0014935504810576006 -0.018081908565467462 0 0.00072756293701120014 -0.018318175088980818 0 0.001596683576806653 -0.01841580146909905 0 0.0014935504810576006 -0.018081908565467462 0 0.0016903804611767843 -0.018199069404143876 0 0.0014935504810576006 -0.018081908565467462 0 0.001576690498261364 -0.018032010673906564 0 0.0016903804611767843 -0.018199069404143876 0 0.0014935504810576006 -0.018081908565467462 0 0.0014598581636721889 -0.017873936683232387 0 0.0014592086544452975 -0.017725699264083152 0 0.0014935504810576006 -0.018081908565467462 0 0.001576690498261364 -0.018032010673906564 0 0.0014598581636721889 -0.017873936683232387 0 0.001576690498261364 -0.018032010673906564 0 0.0016995399205947444 -0.018115841365895852 0 0.0015389588814342914 -0.017945471375094176 0 0.001576690498261364 -0.018032010673906564 0 0.0016903804611767843 -0.018199069404143876 0 0.0016995399205947444 -0.018115841365895852 0 0.001857409367233927 -0.018264982275769646 0 0.0016903804611767843 -0.018199069404143876 0 0.0016995399205947444 -0.018115841365895852 0 0.0018133889629283961 -0.018144096407889148 0 0.001857409367233927 -0.018264982275769646 0 0.0016995399205947444 -0.018115841365895852 0 0.0018133889629283961 -0.018144096407889148 0 0.0016995399205947444 -0.018115841365895852 0 0.0017002331395906784 -0.017999012262756624 0 0.0015389588814342914 -0.017945471375094176 0 0.0013499351217947657 -0.017888482184320445 0 0.00141824930628606 -0.017897207235479402 0 0.0018161064980789716 -0.019369318013102418 0 0.0014920555409425513 -0.019165896902575523 0 0.0016995399205947444 -0.018115841365895852 0 0.0017002331395906784 -0.017999012262756624 0 0.0015389588814342914 -0.017945471375094176 0 0.0017002331395906784 -0.017999012262756624 0 0.0015389588814342914 -0.017945471375094176 0 0.0013499351217947657 -0.017888482184320445 0 0.0018724882738247015 -0.017953647940451005 0 0.0017002331395906784 -0.017999012262756624 0 0.0013499351217947657 -0.017888482184320445 0 0.0019035060659964018 -0.020556800054785839 0 0.0014695673469578899 -0.020381946866820776 0 0.0017359347458057468 -0.020040987226453803 0 0.0014695673469578899 -0.020381946866820776 0 0.0017359347458057468 -0.020040987226453803 0 0.001530893592106174 -0.019503088628464088 0 0.0013978056816280353 -0.018048697925183075 0 0.0014602899343405932 -0.017819690380404853 0 0.0014836713027813727 -0.018163885347009932 0 0.0014920555409425513 -0.019165896902575523 0 0.0013339362888120326 -0.018860816286874409 0 0.0013499351217947657 -0.017888482184320445 0 0.0013978056816280353 -0.018048697925183075 0 0.0012882455797180445 -0.018744594358694432 0 0.0013978056816280353 -0.018048697925183075 0 0.0014836713027813727 -0.018163885347009932 0 0.0012882455797180445 -0.018744594358694432 0 0.0013499351217947657 -0.017888482184320445 0 0.0013978056816280353 -0.018048697925183075 0 0.00141824930628606 -0.017897207235479402 0 0.0013978056816280353 -0.018048697925183075 0 0.00141824930628606 -0.017897207235479402 0 0.0014602899343405932 -0.017819690380404853 0 0.00141824930628606 -0.017897207235479402 0 0.0014598581636721889 -0.017873936683232387 0 0.0014602899343405932 -0.017819690380404853 0 0.001576690498261364 -0.018032010673906564 0 0.0015389588814342914 -0.017945471375094176 0 0.0014598581636721889 -0.017873936683232387 0 0.0015389588814342914 -0.017945471375094176 0 0.00141824930628606 -0.017897207235479402 0 0.0014598581636721889 -0.017873936683232387 0 0.0014598581636721889 -0.017873936683232387 0 0.0014592086544452975 -0.017725699264083152 0 0.0014602899343405932 -0.017819690380404853 0 0.0014602899343405932 -0.017819690380404853 0 0.0015376522816023684 -0.017845095932299861 0 0.0015679604815322021 -0.017506115984783539 0 0.0014592086544452975 -0.017725699264083152 0 0.0014602899343405932 -0.017819690380404853 0 0.0015679604815322021 -0.017506115984783539 0 0.0014602899343405932 -0.017819690380404853 0 0.0015376522816023684 -0.017845095932299861 0 0.0014836713027813727 -0.018163885347009932 0 0.0015376522816023684 -0.017845095932299861 0 0.0014836713027813727 -0.018163885347009932 0 0.0015361698417225014 -0.018057898591955855 0 0.0015376522816023684 -0.017845095932299861 0 0.001629101202822764 -0.017632260890385571 0 0.0015361698417225014 -0.018057898591955855 0 0.0015376522816023684 -0.017845095932299861 0 0.0015679604815322021 -0.017506115984783539 0 0.001629101202822764 -0.017632260890385571 0 0.0011560691468965329 -0.017906215789027284 0 0.00083774159523571123 -0.017639432752633435 0 0.0015679604815322021 -0.017506115984783539 0 0.0014894945407391271 -0.017498029706816642 0 0.0016975098561118906 -0.017037661304283424 0 0.0015057032205253607 -0.018044956008703289 0 0.0011560691468965329 -0.017906215789027284 0 0.0014935504810576006 -0.018081908565467462 0 0.0014592086544452975 -0.017725699264083152 0 0.0014894945407391271 -0.017498029706816642 0 0.0014592086544452975 -0.017725699264083152 0 0.0015679604815322021 -0.017506115984783539 0 0.0014894945407391271 -0.017498029706816642 0 0.00089300748042927007 -0.019111255826132094 0 0.0013405949775175724 -0.018720805282161843 0 0.00072756293701120014 -0.018318175088980818 0 0.00089300748042927007 -0.019111255826132094 0 0.00072756293701120014 -0.018318175088980818 0 0.00031215627738104219 -0.01892093221837535 0 0.00072756293701120014 -0.018318175088980818 0 0.00031215627738104219 -0.01892093221837535 0 3.6804471734170243e-05 -0.018286434832533238 0 -0.00012953898317140977 -0.019194924204443603 0 0.00031215627738104219 -0.01892093221837535 0 -0.00013025887940620873 -0.018680378997029248 0 0.00031215627738104219 -0.01892093221837535 0 -0.00013025887940620873 -0.018680378997029248 0 3.6804471734170243e-05 -0.018286434832533238 0 -0.00048235804626833661 -0.018861041419945025 0 -0.00013025887940620873 -0.018680378997029248 0 -0.00074665317233305452 -0.018021326769732726 0 -0.00013025887940620873 -0.018680378997029248 0 3.6804471734170243e-05 -0.018286434832533238 0 -0.00074665317233305452 -0.018021326769732726 0 0.00083774159523571123 -0.017639432752633435 0 0.00069502353753263214 -0.017465203085470473 0 0.0016975098561118906 -0.017037661304283424 0 0.0018363131324090477 -0.016669926817664375 0 0.0018134507697391336 -0.016639694731437914 0 0.0015679604815322021 -0.017506115984783539 0 0.0016975098561118906 -0.017037661304283424 0 0.0017434936861587362 -0.017090238861132461 0 0.0015679604815322021 -0.017506115984783539 0 0.001629101202822764 -0.017632260890385571 0 0.0017434936861587362 -0.017090238861132461 0 0.001629101202822764 -0.017632260890385571 0 0.0017434936861587362 -0.017090238861132461 0 0.0018210836790633139 -0.017346471428633915 0 0.0017434936861587362 -0.017090238861132461 0 0.0019332245229789478 -0.016497182909113992 0 0.0018210836790633139 -0.017346471428633915 0 0.0017434936861587362 -0.017090238861132461 0 0.0018363131324090477 -0.016669926817664375 0 0.0019332245229789478 -0.016497182909113992 0 0.0016975098561118906 -0.017037661304283424 0 0.0017434936861587362 -0.017090238861132461 0 0.0018363131324090477 -0.016669926817664375 0 0.0018363131324090477 -0.016669926817664375 0 0.001702600367771511 -0.016278671930748039 0 0.0017102421913661168 -0.016415576291703864 0 0.0018363131324090477 -0.016669926817664375 0 0.0019332245229789478 -0.016497182909113992 0 0.001702600367771511 -0.016278671930748039 0 0.0019332245229789478 -0.016497182909113992 0 0.0013436983259380048 -0.015675077088253633 0 0.001476637139978946 -0.01495823985253408 0 0.0019084837767942933 -0.01641781051687928 0 0.0017419817011337458 -0.016116039360251782 0 0.0013436983259380048 -0.015675077088253633 0 0.001702600367771511 -0.016278671930748039 0 0.0013058034392772469 -0.01589373999469413 0 0.0019332245229789478 -0.016497182909113992 0 0.0013436983259380048 -0.015675077088253633 0 0.001702600367771511 -0.016278671930748039 0 0.001702600367771511 -0.016278671930748039 0 0.0015392132597924937 -0.016199014485767362 0 0.0013058034392772469 -0.01589373999469413 0 0.0015392132597924937 -0.016199014485767362 0 0.0015284960662250286 -0.016321457233007802 0 0.001349560387183745 -0.016079630741139477 0 0.0015284960662250286 -0.016321457233007802 0 0.0014913466265466969 -0.016315311270487843 0 0.0018134507697391336 -0.016639694731437914 0 -0.00057988685448246465 -0.017516962674709185 0 -0.00069650881526926701 -0.017745214068217482 0 -0.00074665317233305452 -0.018021326769732726 0 0.0015392132597924937 -0.016199014485767362 0 0.001349560387183745 -0.016079630741139477 0 0.0013058034392772469 -0.01589373999469413 0 0.0015284960662250286 -0.016321457233007802 0 0.0014412038688215 -0.016311371395030867 0 0.001349560387183745 -0.016079630741139477 0 0.00011781940147406462 -0.01553006676606835 0 -0.00029938845162138562 -0.01560827631923045 0 0.001702600367771511 -0.016278671930748039 0 0.0015392132597924937 -0.016199014485767362 0 0.0017102421913661168 -0.016415576291703864 0 0.0015392132597924937 -0.016199014485767362 0 0.0015284960662250286 -0.016321457233007802 0 0.0017102421913661168 -0.016415576291703864 0 0.0015284960662250286 -0.016321457233007802 0 0.0017102421913661168 -0.016415576291703864 0 0.0018134507697391336 -0.016639694731437914 0 -0.00029938845162138562 -0.01560827631923045 0 0.00069502353753263214 -0.017465203085470473 0 0.0018363131324090477 -0.016669926817664375 0 0.0017102421913661168 -0.016415576291703864 0 0.0018134507697391336 -0.016639694731437914 0 -0.001023447123855864 -0.018972457052260215 0 -0.00069650881526926701 -0.017745214068217482 0 -0.00074665317233305452 -0.018021326769732726 0 -0.00084600745135798893 -0.017713048401558067 0 -0.00071416123671800115 -0.017828588628577263 0 -0.001023447123855864 -0.018972457052260215 0 -0.00048235804626833661 -0.018861041419945025 0 -0.00074665317233305452 -0.018021326769732726 0 -0.00070260734298374942 -0.016528519022932599 0 -0.00069650881526926701 -0.017745214068217482 0 -0.0005416800361386459 -0.017169707428237327 0 -0.00037283676988080172 -0.016685439675996162 0 -0.00057988685448246465 -0.017516962674709185 0 -0.0005416800361386459 -0.017169707428237327 0 -0.00057988685448246465 -0.017516962674709185 0 -0.00069650881526926701 -0.017745214068217482 0 -0.0005416800361386459 -0.017169707428237327 0 0.0018596167254870566 -0.016669633067758365 0 0.0019918462564943178 -0.017056800562123782 0 0.0016698050351558859 -0.016952526181135224 0 0.0021999735265851032 -0.016644922464524179 0 0.0019918462564943178 -0.017056800562123782 0 0.002316736624201985 -0.017023461251707932 0 0.0018596167254870566 -0.016669633067758365 0 0.0021999735265851032 -0.016644922464524179 0 0.0019918462564943178 -0.017056800562123782 0 0.0019918462564943178 -0.017056800562123782 0 0.0021141557534391947 -0.017539772567700136 0 0.002316736624201985 -0.017023461251707932 0 0.0019918462564943178 -0.017056800562123782 0 0.0019424887710980483 -0.01733415713699954 0 0.0021141557534391947 -0.017539772567700136 0 0.0019918462564943178 -0.017056800562123782 0 0.0019424887710980483 -0.01733415713699954 0 0.0016698050351558859 -0.016952526181135224 0 0.0019424887710980483 -0.01733415713699954 0 0.002109241450858541 -0.017288451888635373 0 0.0020152358307402112 -0.0174082431816549 0 0.0019332245229789478 -0.016497182909113992 0 0.002109241450858541 -0.017288451888635373 0 0.0020152358307402112 -0.0174082431816549 0 0.0019332245229789478 -0.016497182909113992 0 0.0020152358307402112 -0.0174082431816549 0 0.0018210836790633139 -0.017346471428633915 0 0.0019424887710980483 -0.01733415713699954 0 0.0020152358307402112 -0.0174082431816549 0 0.0021141557534391947 -0.017539772567700136 0 0.0020152358307402112 -0.0174082431816549 0 0.0021141557534391947 -0.017539772567700136 0 0.0018210836790633139 -0.017346471428633915 0 0.0021141557534391947 -0.017539772567700136 0 0.0018210836790633139 -0.017346471428633915 0 0.0016984554611139083 -0.017777824104846317 0 0.0021141557534391947 -0.017539772567700136 0 0.0016984554611139083 -0.017777824104846317 0 0.0017471293003319573 -0.018116702882586808 0 0.001629101202822764 -0.017632260890385571 0 0.0016984554611139083 -0.017777824104846317 0 0.0015811820109509144 -0.017903480755991841 0 0.001629101202822764 -0.017632260890385571 0 0.0018210836790633139 -0.017346471428633915 0 0.0016984554611139083 -0.017777824104846317 0 0.0016984554611139083 -0.017777824104846317 0 0.0017471293003319573 -0.018116702882586808 0 0.0015603704560588126 -0.018147152387999011 0 0.0017471293003319573 -0.018116702882586808 0 0.0014939551924182727 -0.018309818973406441 0 0.0015603704560588126 -0.018147152387999011 0 0.0022533306949895828 -0.017643272263278456 0 0.0024158949830154377 -0.017556386153746363 0 0.0021141557534391947 -0.017539772567700136 0 0.0028128942245837334 -0.017184090017696996 0 0.002316736624201985 -0.017023461251707932 0 0.0021218605402655538 -0.017581063692757578 0 0.0022533306949895828 -0.017643272263278456 0 0.0021999735265851032 -0.016644922464524179 0 0.002316736624201985 -0.017023461251707932 0 0.0026021128164693463 -0.01674882067674623 0 0.0021999735265851032 -0.016644922464524179 0 0.0026021128164693463 -0.01674882067674623 0 0.0025370066210251975 -0.016429461294976203 0 0.0028128942245837334 -0.017184090017696996 0 0.002316736624201985 -0.017023461251707932 0 0.0026021128164693463 -0.01674882067674623 0 0.0028128942245837334 -0.017184090017696996 0 0.0029332273388998622 -0.016754117957424642 0 0.0033035871874947313 -0.016890634600160204 0 0.0028128942245837334 -0.017184090017696996 0 0.0026021128164693463 -0.01674882067674623 0 0.0029332273388998622 -0.016754117957424642 0 0.0026021128164693463 -0.01674882067674623 0 0.0029332273388998622 -0.016754117957424642 0 0.002810563674547985 -0.01650750162387906 0 0.0029332273388998622 -0.016754117957424642 0 0.0030936828825593771 -0.016564418590373414 0 0.002810563674547985 -0.01650750162387906 0 0.0033035871874947313 -0.016890634600160204 0 0.0033501261909420015 -0.016481171125377645 0 0.0030936828825593771 -0.016564418590373414 0 0.0029332273388998622 -0.016754117957424642 0 0.0033035871874947313 -0.016890634600160204 0 0.0030936828825593771 -0.016564418590373414 0 0.0014939551924182727 -0.018309818973406441 0 0.0014926996424169921 -0.01827454348419175 0 0.0014834266456303887 -0.018294862691856137 0 0.0024158949830154377 -0.017556386153746363 0 0.0026437166457444049 -0.017829992267682556 0 0.0033035871874947313 -0.016890634600160204 0 0.0037527185774520705 -0.016656911040029466 0 0.0033501261909420015 -0.016481171125377645 0 0.0014926996424169921 -0.01827454348419175 0 0.0014834266456303887 -0.018294862691856137 0 0.0015057729578631836 -0.01827101027014439 0 0.0014939551924182727 -0.018309818973406441 0 0.0014834266456303887 -0.018294862691856137 0 0.0014684210313987032 -0.018272753523086913 0 0.0014834266456303887 -0.018294862691856137 0 0.0014294525075372036 -0.018403659834466745 0 0.0015318340922838261 -0.018336628206186773 0 0.0014834266456303887 -0.018294862691856137 0 0.0014684210313987032 -0.018272753523086913 0 0.0014294525075372036 -0.018403659834466745 0 0.0014684210313987032 -0.018272753523086913 0 0.0015603704560588126 -0.018147152387999011 0 0.0015006202001629221 -0.018162838414859623 0 0.0014939551924182727 -0.018309818973406441 0 0.0014684210313987032 -0.018272753523086913 0 0.0015603704560588126 -0.018147152387999011 0 0.0016984554611139083 -0.017777824104846317 0 0.0015603704560588126 -0.018147152387999011 0 0.0015006202001629221 -0.018162838414859623 0 0.0016984554611139083 -0.017777824104846317 0 0.0015006202001629221 -0.018162838414859623 0 0.0015811820109509144 -0.017903480755991841 0 0.0015006202001629221 -0.018162838414859623 0 0.0015811820109509144 -0.017903480755991841 0 0.0015361698417225014 -0.018057898591955855 0 0.001629101202822764 -0.017632260890385571 0 0.0015811820109509144 -0.017903480755991841 0 0.0015361698417225014 -0.018057898591955855 0 0.0015006202001629221 -0.018162838414859623 0 0.0015361698417225014 -0.018057898591955855 0 0.0014447828391620683 -0.018460639410881406 0 0.0014836713027813727 -0.018163885347009932 0 0.0014447828391620683 -0.018460639410881406 0 0.0012882455797180445 -0.018744594358694432 0 0.0014836713027813727 -0.018163885347009932 0 0.0015361698417225014 -0.018057898591955855 0 0.0014447828391620683 -0.018460639410881406 0 0.0014447828391620683 -0.018460639410881406 0 0.0014294525075372036 -0.018403659834466745 0 0.0014443478768985452 -0.018793077645945504 0 0.0015006202001629221 -0.018162838414859623 0 0.0014447828391620683 -0.018460639410881406 0 0.0014294525075372036 -0.018403659834466745 0 0.0014684210313987032 -0.018272753523086913 0 0.0015006202001629221 -0.018162838414859623 0 0.0014294525075372036 -0.018403659834466745 0 0.0014294525075372036 -0.018403659834466745 0 0.0014443478768985452 -0.018793077645945504 0 0.0015318340922838261 -0.018336628206186773 0 0.0014443478768985452 -0.018793077645945504 0 0.0015363207617502233 -0.019125626577199382 0 0.0014934354040845716 -0.019022536589359321 0 0.0014673612991854916 -0.018774717954228994 0 0.0014784521423547629 -0.018679684838959387 0 0.0014447828391620683 -0.018460639410881406 0 0.0014443478768985452 -0.018793077645945504 0 0.0012882455797180445 -0.018744594358694432 0 0.0012882455797180445 -0.018744594358694432 0 0.001530893592106174 -0.019503088628464088 0 0.0014828684555535608 -0.019139829312067754 0 0.0014443478768985452 -0.018793077645945504 0 0.0012882455797180445 -0.018744594358694432 0 0.0014828684555535608 -0.019139829312067754 0 0.0014695673469578899 -0.020381946866820776 0 0.0012882455797180445 -0.018744594358694432 0 0.001530893592106174 -0.019503088628464088 0 0.0017359347458057468 -0.020040987226453803 0 0.001530893592106174 -0.019503088628464088 0 0.0017115588820905234 -0.019526674039097282 0 0.001530893592106174 -0.019503088628464088 0 0.0017115588820905234 -0.019526674039097282 0 0.0014828684555535608 -0.019139829312067754 0 0.0017115588820905234 -0.019526674039097282 0 0.0014828684555535608 -0.019139829312067754 0 0.0015363207617502233 -0.019125626577199382 0 0.0014443478768985452 -0.018793077645945504 0 0.0014828684555535608 -0.019139829312067754 0 0.0015363207617502233 -0.019125626577199382 0 0.0015363207617502233 -0.019125626577199382 0 0.001596588952981638 -0.018929924693857774 0 0.0019717327131679326 -0.019081848214202862 0 0.0015363207617502233 -0.019125626577199382 0 0.0015217227709889414 -0.018992791128941977 0 0.001596588952981638 -0.018929924693857774 0 0.0015363207617502233 -0.019125626577199382 0 0.0014934354040845716 -0.019022536589359321 0 0.0015217227709889414 -0.018992791128941977 0 0.0020820508704585666 -0.018563002456435045 0 0.0020002265926848278 -0.01923187110450135 0 0.0014934354040845716 -0.019022536589359321 0 0.0015217227709889414 -0.018992791128941977 0 0.001463678158115788 -0.018909631333811305 0 0.0014784521423547629 -0.018679684838959387 0 0.0020820508704585666 -0.018563002456435045 0 0.0014834266456303887 -0.018294862691856137 0 0.0015318340922838261 -0.018336628206186773 0 0.0015057729578631836 -0.01827101027014439 0 0.0015217227709889414 -0.018992791128941977 0 0.001463678158115788 -0.018909631333811305 0 0.001596588952981638 -0.018929924693857774 0 0.0022655954880211387 -0.019398614796435915 0 0.002416023603971848 -0.019462191948075351 0 0.002365206587846226 -0.019372899222491934 0 0.0026437166457444049 -0.017829992267682556 0 0.0024410226326531202 -0.018548299147625107 0 0.0026437166457444049 -0.017829992267682556 0 0.0020820508704585666 -0.018563002456435045 0 0.0020820508704585666 -0.018563002456435045 0 0.0024410226326531202 -0.018548299147625107 0 0.0023882959632890886 -0.018274916057872865 0 0.0023435138929341266 -0.018259051936091134 0 0.0023462641625645276 -0.018296759525341193 0 0.0022655954880211387 -0.019398614796435915 0 0.002365206587846226 -0.019372899222491934 0 0.0022638968955407783 -0.019362325398264362 0 0.002416023603971848 -0.019462191948075351 0 0.002365206587846226 -0.019372899222491934 0 0.002550455232714318 -0.019379278713274894 0 0.0024210903389232474 -0.019290917302797736 0 0.002365206587846226 -0.019372899222491934 0 0.002550455232714318 -0.019379278713274894 0 0.0026051205577249008 -0.01916182128211881 0 0.0026223085708719104 -0.019156088413048777 0 0.0026102461920401191 -0.019169090347317112 0 0.0024410226326531202 -0.018548299147625107 0 0.0031840253456117814 -0.017957031220549698 0 0.0024807294769317034 -0.019302322028235702 0 0.0024410226326531202 -0.018548299147625107 0 0.0026332623588166829 -0.019131077052162656 0 0.0026223085708719104 -0.019156088413048777 0 0.0026381024292276628 -0.019169191811469147 0 0.0024210903389232474 -0.019290917302797736 0 0.002365206587846226 -0.019372899222491934 0 0.0022638968955407783 -0.019362325398264362 0 0.0026051205577249008 -0.01916182128211881 0 0.0026332623588166829 -0.019131077052162656 0 0.0026223085708719104 -0.019156088413048777 0 0.0028898673730951108 -0.018941320189000719 0 0.0026967004271312564 -0.019040143570991101 0 0.0028940698216846235 -0.019046164608433541 0 0.0031840253456117814 -0.017957031220549698 0 0.0025348326541596794 -0.019192218092386078 0 0.0026381024292276628 -0.019169191811469147 0 0.002602563405064838 -0.019179968120600528 0 0.0026102461920401191 -0.019169090347317112 0 0.0026223085708719104 -0.019156088413048777 0 0.0026381024292276628 -0.019169191811469147 0 0.0026102461920401191 -0.019169090347317112 0 0.0031840253456117814 -0.017957031220549698 0 0.0034020338939049037 -0.014706934683203714 0 0.002602563405064838 -0.019179968120600528 0 0.002607307949548335 -0.01918436360597078 0 0.0026306123110073245 -0.019153091636064584 0 0.0026051205577249008 -0.01916182128211881 0 0.0026102461920401191 -0.019169090347317112 0 0.002607307949548335 -0.01918436360597078 0 0.002602563405064838 -0.019179968120600528 0 0.0026102461920401191 -0.019169090347317112 0 0.002607307949548335 -0.01918436360597078 0 0.0026967004271312564 -0.019040143570991101 0 0.0026537620678033346 -0.019118025778874965 0 0.0026306123110073245 -0.019153091636064584 0 0.0026967004271312564 -0.019040143570991101 0 0.0026537620678033346 -0.019118025778874965 0 0.0028940698216846235 -0.019046164608433541 0 0.0025348326541596794 -0.019192218092386078 0 0.0026856791424285536 -0.0191224162300992 0 0.0023458831286704276 -0.018861683817540879 0 0.002643384700182961 -0.019234885075624274 0 0.0021636826882384143 -0.019405338540559567 0 0.002643384700182961 -0.019234885075624274 0 0.0030145015006107375 -0.018716866676808799 0 0.0030539402517663315 -0.019492898789273135 0 0.0034020338939049037 -0.014706934683203714 0 0.0027769283306519153 -0.0098266464113557286 0 0.0025393903365255282 -0.018929840475315304 0 0.0034020338939049037 -0.014706934683203714 0 0.0023458831286704276 -0.018861683817540879 0 0.002643384700182961 -0.019234885075624274 0 0.0030145015006107375 -0.018716866676808799 0 0.0034020338939049037 -0.014706934683203714 0 0.0026671991222696431 -0.01021524702822507 0 0.002396234064737407 -0.0057052033756383527 0 0.0021770767170466655 -0.0054545377808976657 0 0.0021041899292387283 -0.0056190223356615311 0 0.002396234064737407 -0.0057052033756383527 0 0.0021770767170466655 -0.0054545377808976657 0 0.0023452265213657528 -0.0052887641125455949 0 0.0021770767170466655 -0.0054545377808976657 0 0.0019957346010381783 -0.005444683004434501 0 0.0020289185182896358 -0.0052508813614369409 0 0.0021770767170466655 -0.0054545377808976657 0 0.0023452265213657528 -0.0052887641125455949 0 0.0020289185182896358 -0.0052508813614369409 0 0.0021770767170466655 -0.0054545377808976657 0 0.0021041899292387283 -0.0056190223356615311 0 0.0019957346010381783 -0.005444683004434501 0 0.00325664536315974 -0.015721252822442095 0 0.0033878671081196523 -0.016065389008476417 0 0.0030091619439495372 -0.015920385256477862 0 0.0033878671081196523 -0.016065389008476417 0 0.0029123409823557265 -0.016236231214850617 0 0.0030091619439495372 -0.015920385256477862 0 0.0033145140013398824 -0.016709929303125148 0 0.0029493225901695095 -0.016827632407111513 0 0.0038484965758481993 -0.015926008554142241 0 0.0038321113844066875 -0.015670786506907803 0 0.0033878671081196523 -0.016065389008476417 0 0.0030110457692960491 -0.017566559189883313 0 0.0030560545549204402 -0.017546224573321882 0 0.0030293896370177532 -0.017532311310750878 0 0.0038321113844066875 -0.015670786506907803 0 0.00325664536315974 -0.015721252822442095 0 0.0033878671081196523 -0.016065389008476417 0 0.0031840253456117814 -0.017957031220549698 0 0.0033145140013398824 -0.016709929303125148 0 0.0030158886664727936 -0.017511657937003058 0 0.0030293896370177532 -0.017532311310750878 0 0.0030591474682612339 -0.017518613928469293 0 0.0030048261798311699 -0.017518447828492059 0 0.0030110457692960491 -0.017566559189883313 0 0.0030293896370177532 -0.017532311310750878 0 0.0030560545549204402 -0.017546224573321882 0 0.0030293896370177532 -0.017532311310750878 0 0.0030591474682612339 -0.017518613928469293 0 0.0026437166457444049 -0.017829992267682556 0 0.0033060572732648073 -0.016990251369404939 0 0.0030158886664727936 -0.017511657937003058 0 0.0030048261798311699 -0.017518447828492059 0 0.0030293896370177532 -0.017532311310750878 0 0.0030560545549204402 -0.017546224573321882 0 0.0030591474682612339 -0.017518613928469293 0 0.0030975217568142287 -0.017524163832561071 0 0.0033501261909420015 -0.016481171125377645 0 0.0029131946301612583 -0.016274446748237706 0 0.0030936828825593771 -0.016564418590373414 0 0.0033060572732648073 -0.016990251369404939 0 0.0029493225901695095 -0.016827632407111513 0 0.0027412376438146974 -0.016306556832107518 0 0.0029131946301612583 -0.016274446748237706 0 0.002810563674547985 -0.01650750162387906 0 0.0027412376438146974 -0.016306556832107518 0 0.0029123409823557265 -0.016236231214850617 0 0.0027350793867275207 -0.016037296595355837 0 0.0028859526023858042 -0.016614676981968092 0 0.0029493225901695095 -0.016827632407111513 0 0.0029131946301612583 -0.016274446748237706 0 0.0030936828825593771 -0.016564418590373414 0 0.002810563674547985 -0.01650750162387906 0 0.0026021128164693463 -0.01674882067674623 0 0.002810563674547985 -0.01650750162387906 0 0.0025370066210251975 -0.016429461294976203 0 0.0027412376438146974 -0.016306556832107518 0 0.002810563674547985 -0.01650750162387906 0 0.0025370066210251975 -0.016429461294976203 0 0.0025370066210251975 -0.016429461294976203 0 0.0024969702050568719 -0.016119528559531211 0 0.0022580052944036998 -0.016290203118343522 0 0.0027412376438146974 -0.016306556832107518 0 0.0025370066210251975 -0.016429461294976203 0 0.0024969702050568719 -0.016119528559531211 0 0.0027412376438146974 -0.016306556832107518 0 0.0024969702050568719 -0.016119528559531211 0 0.0027350793867275207 -0.016037296595355837 0 0.0024969702050568719 -0.016119528559531211 0 0.0026556558603287174 -0.015794472681288165 0 0.0020803125566236235 -0.015878359609016443 0 0.0024969702050568719 -0.016119528559531211 0 0.0026556558603287174 -0.015794472681288165 0 0.0027350793867275207 -0.016037296595355837 0 0.00325664536315974 -0.015721252822442095 0 0.0026556558603287174 -0.015794472681288165 0 0.0030091619439495372 -0.015920385256477862 0 0.0026556558603287174 -0.015794472681288165 0 0.0027350793867275207 -0.016037296595355837 0 0.0030091619439495372 -0.015920385256477862 0 0.002887269212656216 -0.016105686463078084 0 0.0027350793867275207 -0.016037296595355837 0 0.0030091619439495372 -0.015920385256477862 0 0.0029123409823557265 -0.016236231214850617 0 0.002887269212656216 -0.016105686463078084 0 0.0027350793867275207 -0.016037296595355837 0 0.0029123409823557265 -0.016236231214850617 0 0.002887269212656216 -0.016105686463078084 0 0.0030091619439495372 -0.015920385256477862 0 0.0021041899292387283 -0.0056190223356615311 0 0.0019500043356820691 -0.0054963295896692512 0 0.0019957346010381783 -0.005444683004434501 0 0.0026671991222696431 -0.01021524702822507 0 0.0023116592562699009 -0.01069579463472658 0 0.0019957346010381783 -0.005444683004434501 0 0.0019439123633368887 -0.0053617981275693258 0 0.0020289185182896358 -0.0052508813614369409 0 0.0019957346010381783 -0.005444683004434501 0 0.0019439123633368887 -0.0053617981275693258 0 0.0019332337717415647 -0.0054120607802645741 0 0.0019439123633368887 -0.0053617981275693258 0 0.0019314774326230633 -0.0053697955228990341 0 0.0019168500733763611 -0.0052957675819120947 0 0.0019439123633368887 -0.0053617981275693258 0 0.0019332337717415647 -0.0054120607802645741 0 0.0019314774326230633 -0.0053697955228990341 0 0.0019500043356820691 -0.0054963295896692512 0 0.0019957346010381783 -0.005444683004434501 0 0.0019332337717415647 -0.0054120607802645741 0 0.0019500043356820691 -0.0054963295896692512 0 0.0019332337717415647 -0.0054120607802645741 0 0.0019586926268224253 -0.0053734477014686617 0 0.0019332337717415647 -0.0054120607802645741 0 0.001971719817354398 -0.0053884975973114788 0 0.0019586926268224253 -0.0053734477014686617 0 0.0019314774326230633 -0.0053697955228990341 0 0.001971719817354398 -0.0053884975973114788 0 0.0019586969731313791 -0.0053963599117723589 0 0.0019332337717415647 -0.0054120607802645741 0 0.0019314774326230633 -0.0053697955228990341 0 0.001971719817354398 -0.0053884975973114788 0 0.001971719817354398 -0.0053884975973114788 0 0.0020765313283213232 -0.0053673596639972621 0 0.0021509013391627831 -0.0054675794698667212 0 0.001971719817354398 -0.0053884975973114788 0 0.0019586969731313791 -0.0053963599117723589 0 0.0021509013391627831 -0.0054675794698667212 0 0.0019586926268224253 -0.0053734477014686617 0 0.0021195058041451652 -0.0052758498430390596 0 0.0020765313283213232 -0.0053673596639972621 0 0.001971719817354398 -0.0053884975973114788 0 0.0019586926268224253 -0.0053734477014686617 0 0.0020765313283213232 -0.0053673596639972621 0 0.0020324353204464757 -0.010632235846743316 0 0.0018045039054113438 -0.010472175969180745 0 0.0018015534409843242 -0.016116937930819222 0 0.0020803125566236235 -0.015878359609016443 0 0.001543680749445019 -0.015909507463280733 0 0.0018015534409843242 -0.016116937930819222 0 0.0020803125566236235 -0.015878359609016443 0 0.0019612046937808715 -0.016332042508829664 0 0.0020803125566236235 -0.015878359609016443 0 0.0022580052944036998 -0.016290203118343522 0 0.0019612046937808715 -0.016332042508829664 0 0.0023116592562699009 -0.01069579463472658 0 0.0020324353204464757 -0.010632235846743316 0 0.0024969702050568719 -0.016119528559531211 0 0.0020803125566236235 -0.015878359609016443 0 0.0022580052944036998 -0.016290203118343522 0 0.0021999735265851032 -0.016644922464524179 0 0.0025370066210251975 -0.016429461294976203 0 0.0022580052944036998 -0.016290203118343522 0 0.0021999735265851032 -0.016644922464524179 0 0.0022580052944036998 -0.016290203118343522 0 0.0019612046937808715 -0.016332042508829664 0 0.0018596167254870566 -0.016669633067758365 0 0.0019612046937808715 -0.016332042508829664 0 0.001622065331644538 -0.016341140068638963 0 0.0018596167254870566 -0.016669633067758365 0 0.0021999735265851032 -0.016644922464524179 0 0.0019612046937808715 -0.016332042508829664 0 0.0018015534409843242 -0.016116937930819222 0 0.0019612046937808715 -0.016332042508829664 0 0.001622065331644538 -0.016341140068638963 0 0.0026918659184967646 -0.029714252645761306 0 0.0052756432603711014 -0.028819311519905508 0 0.0032116946142801881 -0.027839667803706829 0 0.0052756432603711014 -0.028819311519905508 0 0.004497750801017609 -0.03003942382770388 0 0.0053757978805725739 -0.030483291268327523 0 0.0026918659184967646 -0.029714252645761306 0 0.0052756432603711014 -0.028819311519905508 0 0.004497750801017609 -0.03003942382770388 0 0.0053757978805725739 -0.030483291268327523 0 0.0050324549957904289 -0.031160974134417024 0 0.0043033083442902652 -0.031013295071280835 0 0.004497750801017609 -0.03003942382770388 0 0.0053757978805725739 -0.030483291268327523 0 0.0043033083442902652 -0.031013295071280835 0 0.00216051913621151 -0.033047737938275319 0 0.002057703040342914 -0.034290940514991486 0 0.00095922318177492588 -0.034655276855412288 0 0.0023468489064751991 -0.031227874261234675 0 0.0030967283313609113 -0.032560115778729373 0 0.0026918659184967646 -0.029714252645761306 0 0.004497750801017609 -0.03003942382770388 0 0.0043033083442902652 -0.031013295071280835 0 0.00216051913621151 -0.033047737938275319 0 0.00094487592703698545 -0.033902634501181111 0 0.00095922318177492588 -0.034655276855412288 0 0.00094487592703698545 -0.033902634501181111 0 -0.00016813542051039639 -0.034764395022817647 0 0.00095922318177492588 -0.034655276855412288 0 -0.00016813542051039639 -0.034764395022817647 0 -4.8955482535517528e-07 -0.034999088206899093 0 7.328663400215269e-08 -0.034998787854962445 0 0.00094487592703698545 -0.033902634501181111 0 -0.00016813542051039639 -0.034764395022817647 0 0.0006059981331639837 -0.031893992560145808 0 -0.00016813542051039639 -0.034764395022817647 0 0.0006059981331639837 -0.031893992560145808 0 -0.0011627043413810787 -0.029360813002525816 0 -0.00016813542051039639 -0.034764395022817647 0 -4.8955482535517528e-07 -0.034999088206899093 0 -1.4894719603248635e-05 -0.035005990419586956 0 -0.00028376091645715044 -0.034511485436091185 0 -0.00049233698841314334 -0.032195911212309074 0 0.00216051913621151 -0.033047737938275319 0 0.00094487592703698545 -0.033902634501181111 0 0.0006059981331639837 -0.031893992560145808 0 0.00216051913621151 -0.033047737938275319 0 0.0006059981331639837 -0.031893992560145808 0 0.00055202785822362809 -0.028305007489609915 0 0.0023468489064751991 -0.031227874261234675 0 0.00053254035010659028 -0.028425521718525016 0 0.0026918659184967646 -0.029714252645761306 0 0.00055202785822362809 -0.028305007489609915 0 0.0032116946142801881 -0.027839667803706829 0 0.00055202785822362809 -0.028305007489609915 0 0.0022192074678517347 -0.025451491041932756 0 0.0032116946142801881 -0.027839667803706829 0 -2.7992577431920022e-06 -0.034984518081848374 0 -4.8955482535517528e-07 -0.034999088206899093 0 -1.4894719603248635e-05 -0.035005990419586956 0 0.0006059981331639837 -0.031893992560145808 0 0.00055202785822362809 -0.028305007489609915 0 -0.0011627043413810787 -0.029360813002525816 0 -5.4432456275572531e-05 -0.029825982850173217 0 -0.00049233698841314334 -0.032195911212309074 0 -0.00012355138835822086 -0.024574482377017245 0 0.00055202785822362809 -0.028305007489609915 0 -0.0011627043413810787 -0.029360813002525816 0 -0.00012355138835822086 -0.024574482377017245 0 0.00055202785822362809 -0.028305007489609915 0 0.0022192074678517347 -0.025451491041932756 0 0.0022192074678517347 -0.025451491041932756 0 0.0032116946142801881 -0.027839667803706829 0 0.0049346075155207551 -0.026318237615724851 0 0.0037143530260866312 -0.022716030719415657 0 0.0022192074678517347 -0.025451491041932756 0 0.0049346075155207551 -0.026318237615724851 0 0.0034077715414314435 -0.019894456863982543 0 0.0037281260933984283 -0.02088392937951487 0 0.0031764972145836199 -0.020830612119285455 0 0.0043379042539371873 -0.024372638395959514 0 0.0042493881843329801 -0.023560879507482341 0 0.0052756432603711014 -0.028819311519905508 0 0.0032116946142801881 -0.027839667803706829 0 0.0049346075155207551 -0.026318237615724851 0 0.0038037417869853417 -0.022737911109460399 0 0.0042493881843329801 -0.023560879507482341 0 0.0032073416948988649 -0.021917020946579168 0 0.0037281260933984283 -0.02088392937951487 0 0.0031764972145836199 -0.020830612119285455 0 0.0025106437439786555 -0.020753972723359312 0 0.0028725063822879295 -0.021149272111021529 0 0.0027955971614107011 -0.020269777439563302 0 0.0028725063822879295 -0.021149272111021529 0 0.0031764972145836199 -0.020830612119285455 0 0.0027955971614107011 -0.020269777439563302 0 0.0027955971614107011 -0.020269777439563302 0 0.0024534037733293557 -0.019913663924602157 0 0.00258897667796205 -0.019572627023834686 0 0.0027955971614107011 -0.020269777439563302 0 0.00258897667796205 -0.019572627023834686 0 0.0029195061764616679 -0.019683191941041681 0 0.0034077715414314435 -0.019894456863982543 0 0.0031764972145836199 -0.020830612119285455 0 0.0027955971614107011 -0.020269777439563302 0 0.0034077715414314435 -0.019894456863982543 0 0.0027955971614107011 -0.020269777439563302 0 0.0029195061764616679 -0.019683191941041681 0 0.0017115588820905234 -0.019526674039097282 0 0.0020434720339596152 -0.020162427345596205 0 0.0020404509723905137 -0.019629755185797741 0 0.0017359347458057468 -0.020040987226453803 0 0.0017115588820905234 -0.019526674039097282 0 0.0020434720339596152 -0.020162427345596205 0 0.0025106437439786555 -0.020753972723359312 0 0.0027955971614107011 -0.020269777439563302 0 0.002335876521031548 -0.020174585715481318 0 0.0020434720339596152 -0.020162427345596205 0 0.002335876521031548 -0.020174585715481318 0 0.0020404509723905137 -0.019629755185797741 0 0.0025106437439786555 -0.020753972723359312 0 0.0020434720339596152 -0.020162427345596205 0 0.002335876521031548 -0.020174585715481318 0 0.0024534037733293557 -0.019913663924602157 0 0.0020404509723905137 -0.019629755185797741 0 0.00258897667796205 -0.019572627023834686 0 0.0027955971614107011 -0.020269777439563302 0 0.002335876521031548 -0.020174585715481318 0 0.0024534037733293557 -0.019913663924602157 0 0.002335876521031548 -0.020174585715481318 0 0.0024534037733293557 -0.019913663924602157 0 0.0020404509723905137 -0.019629755185797741 0 0.0017115588820905234 -0.019526674039097282 0 0.0015363207617502233 -0.019125626577199382 0 0.0020404509723905137 -0.019629755185797741 0 0.0015363207617502233 -0.019125626577199382 0 0.0020404509723905137 -0.019629755185797741 0 0.0019717327131679326 -0.019081848214202862 0 0.0020404509723905137 -0.019629755185797741 0 0.0019717327131679326 -0.019081848214202862 0 0.00258897667796205 -0.019572627023834686 0 0.0022629660251467848 -0.019317599050287633 0 0.0025554890271564054 -0.019518915686304962 0 0.0025582618789837725 -0.019516907622223582 0 0.00258897667796205 -0.019572627023834686 0 0.0026248920685407284 -0.019489520845479683 0 0.00258897667796205 -0.019572627023834686 0 0.0026248920685407284 -0.019489520845479683 0 0.0027684045693683922 -0.019491792795133741 0 0.0026248920685407284 -0.019489520845479683 0 0.002550455232714318 -0.019379278713274894 0 0.0026846348178876469 -0.019380473932850455 0 0.0026248920685407284 -0.019489520845479683 0 0.0027684045693683922 -0.019491792795133741 0 0.0026846348178876469 -0.019380473932850455 0 0.002416023603971848 -0.019462191948075351 0 0.0025582618789837725 -0.019516907622223582 0 0.002550455232714318 -0.019379278713274894 0 0.0020002265926848278 -0.01923187110450135 0 0.0022629660251467848 -0.019317599050287633 0 0.0025582618789837725 -0.019516907622223582 0 0.0026248920685407284 -0.019489520845479683 0 0.002550455232714318 -0.019379278713274894 0 0.0034077715414314435 -0.019894456863982543 0 0.0029195061764616679 -0.019683191941041681 0 0.0030728385668992364 -0.019451126865495053 0 0.0043379042539371873 -0.024372638395959514 0 0.0042338048260509584 -0.024777966575091799 0 0.00258897667796205 -0.019572627023834686 0 0.0029195061764616679 -0.019683191941041681 0 0.0027684045693683922 -0.019491792795133741 0 0.0027684045693683922 -0.019491792795133741 0 0.0030728385668992364 -0.019451126865495053 0 0.0028104237568137651 -0.019368457298311194 0 0.0029195061764616679 -0.019683191941041681 0 0.0027684045693683922 -0.019491792795133741 0 0.0030728385668992364 -0.019451126865495053 0 0.0027684045693683922 -0.019491792795133741 0 0.0028104237568137651 -0.019368457298311194 0 0.0026846348178876469 -0.019380473932850455 0 0.0030728385668992364 -0.019451126865495053 0 0.0028982264205366075 -0.019294866241492403 0 0.0028104237568137651 -0.019368457298311194 0 0.0053757978805725739 -0.030483291268327523 0 0.005377216061345059 -0.031412119357727163 0 0.0054293758007713851 -0.031493055819039197 0 0.0053757978805725739 -0.030483291268327523 0 0.0050324549957904289 -0.031160974134417024 0 0.005377216061345059 -0.031412119357727163 0 0.0042338048260509584 -0.024777966575091799 0 0.0037726826014697081 -0.026329403951257147 0 0.0050324549957904289 -0.031160974134417024 0 0.005377216061345059 -0.031412119357727163 0 0.005167894748055079 -0.031692280090692707 0 0.0044129611783355026 -0.027175613136836443 0 0.0037726826014697081 -0.026329403951257147 0 0.0028982264205366075 -0.019294866241492403 0 0.0028104237568137651 -0.019368457298311194 0 0.0026930987834949812 -0.01927023087257777 0 0.0037726826014697081 -0.026329403951257147 0 0.0012618468283872451 -0.032101727002483628 0 0.0028982264205366075 -0.019294866241492403 0 0.0027520012094988879 -0.019200290329960467 0 0.0026930987834949812 -0.01927023087257777 0 0.0037726826014697081 -0.026329403951257147 0 0.0020779327417450523 -0.022425369303855996 0 0.0023523665044998636 -0.026754146571395108 0 0.0021418607423879048 -0.026571046732549623 0 0.0021920449041242704 -0.026378894402035405 0 0.0054077009087846704 -0.03147520367907964 0 0.005167894748055079 -0.031692280090692707 0 0.0054657863305228567 -0.032147737269514635 0 0.005377216061345059 -0.031412119357727163 0 0.0054077009087846704 -0.03147520367907964 0 0.005167894748055079 -0.031692280090692707 0 0.0024210903389232474 -0.019290917302797736 0 0.002550455232714318 -0.019379278713274894 0 0.002606364331953524 -0.019209296124845881 0 0.002550455232714318 -0.019379278713274894 0 0.0026930987834949812 -0.01927023087257777 0 0.002606364331953524 -0.019209296124845881 0 0.002550455232714318 -0.019379278713274894 0 0.0026846348178876469 -0.019380473932850455 0 0.0026930987834949812 -0.01927023087257777 0 0.0028104237568137651 -0.019368457298311194 0 0.0026846348178876469 -0.019380473932850455 0 0.0026930987834949812 -0.01927023087257777 0 0.0027520012094988879 -0.019200290329960467 0 0.0026930987834949812 -0.01927023087257777 0 0.0026519586878496998 -0.019191465392438708 0 0.0026930987834949812 -0.01927023087257777 0 0.0026519586878496998 -0.019191465392438708 0 0.002606364331953524 -0.019209296124845881 0 0.0024807294769317034 -0.019302322028235702 0 0.0026188894972995918 -0.019186622824922308 0 0.0026051205577249008 -0.01916182128211881 0 0.002606364331953524 -0.019209296124845881 0 0.002607307949548335 -0.01918436360597078 0 0.0026519586878496998 -0.019191465392438708 0 0.002606364331953524 -0.019209296124845881 0 0.0026306123110073245 -0.019153091636064584 0 0.002606364331953524 -0.019209296124845881 0 0.002607307949548335 -0.01918436360597078 0 0.0026306123110073245 -0.019153091636064584 0 0.0025393903365255282 -0.018929840475315304 0 0.0015815169513163933 -0.023764958571407754 0 0.0023458831286704276 -0.018861683817540879 0 0.0017100064320211546 -0.019000566062532389 0 0.0021636826882384143 -0.019405338540559567 0 0.0026537620678033346 -0.019118025778874965 0 0.0026306123110073245 -0.019153091636064584 0 0.0026320803786661802 -0.01917330786054712 0 -0.00079470458273791188 -0.031939865528503524 0 -0.0012154381713905358 -0.032089291975396027 0 -0.0010982556101388431 -0.032251636815296157 0 0.0015815169513163933 -0.023764958571407754 0 0.0012618468283872451 -0.032101727002483628 0 0.0026519586878496998 -0.019191465392438708 0 0.0026306123110073245 -0.019153091636064584 0 0.0026320803786661802 -0.01917330786054712 0 0.0027520012094988879 -0.019200290329960467 0 0.0026519586878496998 -0.019191465392438708 0 0.0026320803786661802 -0.01917330786054712 0 0.0020779327417450523 -0.022425369303855996 0 0.0015815169513163933 -0.023764958571407754 0 -0.00079470458273791188 -0.031939865528503524 0 -0.00076699968131984677 -0.032468827263299922 0 -0.0010982556101388431 -0.032251636815296157 0 -0.00076699968131984677 -0.032468827263299922 0 -0.0010982556101388431 -0.032251636815296157 0 -0.0010173605426817423 -0.032750610803141962 0 0.0015815169513163933 -0.023764958571407754 0 0.00068541668515613755 -0.026000773063933343 0 -0.00079470458273791188 -0.031939865528503524 0 -0.00076699968131984677 -0.032468827263299922 0 -0.00036933473445641823 -0.0324607294313181 0 0.0041012600079450004 -0.033503299541746571 0 0.0017664520619514916 -0.033299959519648349 0 -0.00016641047566377221 -0.034946338032459258 0 -0.00012730466482479064 -0.034903179138522963 0 -2.7412146339756872e-05 -0.034933671747732882 0 0.0027032695743168197 -0.035478208616284528 0 0.0019044175270721319 -0.035592687723041139 0 0.0019226441860401586 -0.035171093907577972 0 0.0017664520619514916 -0.033299959519648349 0 0.00080219736159756487 -0.035521111197970141 0 0.0022517101256600384 -0.034911548258573136 0 0.0027032695743168197 -0.035478208616284528 0 0.0019226441860401586 -0.035171093907577972 0 0.0054077009087846704 -0.03147520367907964 0 0.0054657863305228567 -0.032147737269514635 0 0.0054951881042690481 -0.032144010995847606 0 0.0021418607423879048 -0.026571046732549623 0 0.0019380770542859653 -0.026377275447750821 0 0.0021920449041242704 -0.026378894402035405 0 -0.00079470458273791188 -0.031939865528503524 0 -0.0012154381713905358 -0.032089291975396027 0 -0.0012407118983604874 -0.032000183079793104 0 0.00043332947023035784 -0.032755405885510951 0 0.0012618468283872451 -0.032101727002483628 0 -0.0001876570885763379 -0.034929040468669077 0 -0.00016641047566377221 -0.034946338032459258 0 -0.00012730466482479064 -0.034903179138522963 0 0.0017664520619514916 -0.033299959519648349 0 0.0012618468283872451 -0.032101727002483628 0 0.00049765826133643274 -0.032927485359976041 0 0.00059289463628053917 -0.033040911584638025 0 0.0005401000685220542 -0.033045732163470488 0 0.00043332947023035784 -0.032755405885510951 0 0.0017664520619514916 -0.033299959519648349 0 -0.0001876570885763379 -0.034929040468669077 0 -0.00012730466482479064 -0.034903179138522963 0 -0.00027514202796309378 -0.034791365002681977 0 -0.0012180251164805728 -0.032094312011945722 0 -0.0010982556101388431 -0.032251636815296157 0 -0.0010173605426817423 -0.032750610803141962 0 0.00043332947023035784 -0.032755405885510951 0 -0.00076088921806520169 -0.033888348570608733 0 0.00043332947023035784 -0.032755405885510951 0 -0.00065809966051457022 -0.031981560235763602 0 -0.00012730466482479064 -0.034903179138522963 0 -2.7412146339756872e-05 -0.034933671747732882 0 -2.4789388028444489e-05 -0.034862792795146667 0 -0.00012730466482479064 -0.034903179138522963 0 -2.4789388028444489e-05 -0.034862792795146667 0 -0.00011646248632552449 -0.034815683268075034 0 -2.7412146339756872e-05 -0.034933671747732882 0 3.5201233002110557e-05 -0.034943260177715513 0 -2.4789388028444489e-05 -0.034862792795146667 0 0.0019044175270721319 -0.035592687723041139 0 0.0014387619035104652 -0.035026191346855161 0 0.00086782720833746029 -0.035564820293999738 0 0.00080219736159756487 -0.035521111197970141 0 0.00050902737935432216 -0.035197447797819144 0 0.0019044175270721319 -0.035592687723041139 0 0.0019226441860401586 -0.035171093907577972 0 0.0014387619035104652 -0.035026191346855161 0 0.0022517101256600384 -0.034911548258573136 0 0.0019226441860401586 -0.035171093907577972 0 0.0019307802825410049 -0.034847301064870488 0 0.0019226441860401586 -0.035171093907577972 0 0.0019307802825410049 -0.034847301064870488 0 0.0014387619035104652 -0.035026191346855161 0 0.0014387619035104652 -0.035026191346855161 0 0.002057703040342914 -0.034290940514991486 0 0.00095922318177492588 -0.034655276855412288 0 0.0041012600079450004 -0.033503299541746571 0 0.0030967283313609113 -0.032560115778729373 0 0.0019307802825410049 -0.034847301064870488 0 0.0014387619035104652 -0.035026191346855161 0 0.002057703040342914 -0.034290940514991486 0 0.0050324549957904289 -0.031160974134417024 0 0.005167894748055079 -0.031692280090692707 0 0.0043033083442902652 -0.031013295071280835 0 0.0022517101256600384 -0.034911548258573136 0 0.0019307802825410049 -0.034847301064870488 0 0.002057703040342914 -0.034290940514991486 0 -0.00016813542051039639 -0.034764395022817647 0 0.00095922318177492588 -0.034655276855412288 0 7.328663400215269e-08 -0.034998787854962445 0 0.0014387619035104652 -0.035026191346855161 0 0.00095922318177492588 -0.034655276855412288 0 0.00057600136463921826 -0.035104628306587685 0 0.00095922318177492588 -0.034655276855412288 0 0.00057600136463921826 -0.035104628306587685 0 7.328663400215269e-08 -0.034998787854962445 0 0.00057600136463921826 -0.035104628306587685 0 7.328663400215269e-08 -0.034998787854962445 0 4.7751128350024552e-07 -0.035001859235294128 0 0.0014387619035104652 -0.035026191346855161 0 0.00057600136463921826 -0.035104628306587685 0 0.00086782720833746029 -0.035564820293999738 0 0.00057600136463921826 -0.035104628306587685 0 0.00086782720833746029 -0.035564820293999738 0 4.7751128350024552e-07 -0.035001859235294128 0 3.5201233002110557e-05 -0.034943260177715513 0 4.858349917981302e-08 -0.034999891353860543 0 2.5917565013534565e-05 -0.034951827632433603 0 0.00050902737935432216 -0.035197447797819144 0 1.5636212770737285e-07 -0.035000121728102782 0 4.858349917981302e-08 -0.034999891353860543 0 2.5917565013534565e-05 -0.034951827632433603 0 1.0163703536100345e-08 -0.034999936854653475 0 2.5917565013534565e-05 -0.034951827632433603 0 1.0163703536100345e-08 -0.034999936854653475 0 3.2209315832702591e-05 -0.034925902991589125 0 3.5201233002110557e-05 -0.034943260177715513 0 2.5917565013534565e-05 -0.034951827632433603 0 3.0141316206456233e-05 -0.03486489824312005 0 2.5917565013534565e-05 -0.034951827632433603 0 3.2209315832702591e-05 -0.034925902991589125 0 3.0141316206456233e-05 -0.03486489824312005 0 3.2209315832702591e-05 -0.034925902991589125 0 3.0141316206456233e-05 -0.03486489824312005 0 5.5126873305490932e-05 -0.034776031486813623 0 1.0163703536100345e-08 -0.034999936854653475 0 3.2209315832702591e-05 -0.034925902991589125 0 9.4570908386351041e-08 -0.034999766822399289 0 -2.4789388028444489e-05 -0.034862792795146667 0 3.0141316206456233e-05 -0.03486489824312005 0 -4.1747646573979814e-05 -0.034757870679046045 0 3.5201233002110557e-05 -0.034943260177715513 0 -2.4789388028444489e-05 -0.034862792795146667 0 3.0141316206456233e-05 -0.03486489824312005 0 3.0141316206456233e-05 -0.03486489824312005 0 -4.1747646573979814e-05 -0.034757870679046045 0 7.9182062709226983e-06 -0.034708082868161176 0 -4.1747646573979814e-05 -0.034757870679046045 0 7.9182062709226983e-06 -0.034708082868161176 0 -0.00011253327467891633 -0.034527726044330798 0 7.9182062709226983e-06 -0.034708082868161176 0 -2.5122036889441382e-06 -0.034532986205721032 0 -0.00011253327467891633 -0.034527726044330798 0 7.9182062709226983e-06 -0.034708082868161176 0 -2.5122036889441382e-06 -0.034532986205721032 0 5.5126873305490932e-05 -0.034776031486813623 0 3.0141316206456233e-05 -0.03486489824312005 0 7.9182062709226983e-06 -0.034708082868161176 0 5.5126873305490932e-05 -0.034776031486813623 0 1.1926968177004856e-05 -0.03463732165049916 0 9.6565957262135971e-06 -0.034866559766508869 0 8.6834491899111391e-06 -0.034780103485945353 0 4.1852773362294319e-06 -0.034579708589977408 0 2.916534672644544e-05 -0.034817964972277377 0 -1.0654787183283195e-09 -0.034999933541729297 0 2.916534672644544e-05 -0.034817964972277377 0 3.2209315832702591e-05 -0.034925902991589125 0 9.4570908386351041e-08 -0.034999766822399289 0 5.5126873305490932e-05 -0.034776031486813623 0 -8.057567002743334e-09 -0.034999984177315299 0 9.6565957262135971e-06 -0.034866559766508869 0 2.2841781916032817e-08 -0.034999841432371989 0 9.6565957262135971e-06 -0.034866559766508869 0 6.8386210764828027e-06 -0.034894943716320528 0 8.6834491899111391e-06 -0.034780103485945353 0 9.6565957262135971e-06 -0.034866559766508869 0 2.2841781916032817e-08 -0.034999841432371989 0 6.8386210764828027e-06 -0.034894943716320528 0 2.2841781916032817e-08 -0.034999841432371989 0 4.2106116790043751e-09 -0.034999863123857576 0 6.8386210764828027e-06 -0.034894943716320528 0 4.2106116790043751e-09 -0.034999863123857576 0 6.8386210764828027e-06 -0.034894943716320528 0 -2.5605493959396907e-06 -0.034858676118682097 0 4.2106116790043751e-09 -0.034999863123857576 0 -2.5605493959396907e-06 -0.034858676118682097 0 -1.1636024577349706e-08 -0.034999776018706845 0 -2.5605493959396907e-06 -0.034858676118682097 0 8.6834491899111391e-06 -0.034780103485945353 0 6.3136505178545412e-06 -0.034650716619886134 0 -2.5605493959396907e-06 -0.034858676118682097 0 6.3136505178545412e-06 -0.034650716619886134 0 -2.2282583405959564e-05 -0.034820831709223177 0 6.8386210764828027e-06 -0.034894943716320528 0 -2.5605493959396907e-06 -0.034858676118682097 0 8.6834491899111391e-06 -0.034780103485945353 0 1.1926968177004856e-05 -0.03463732165049916 0 2.194080681490195e-05 -0.034414269651638761 0 6.3136505178545412e-06 -0.034650716619886134 0 1.1926968177004856e-05 -0.03463732165049916 0 8.6834491899111391e-06 -0.034780103485945353 0 6.3136505178545412e-06 -0.034650716619886134 0 2.194080681490195e-05 -0.034414269651638761 0 6.3136505178545412e-06 -0.034650716619886134 0 4.934609046526905e-05 -0.034771161987774864 0 8.9002570951739757e-05 -0.034370562155885319 0 1.5570399660867794e-05 -0.034481127396767862 0 6.3136505178545412e-06 -0.034650716619886134 0 4.934609046526905e-05 -0.034771161987774864 0 -2.2282583405959564e-05 -0.034820831709223177 0 1.5570399660867794e-05 -0.034481127396767862 0 -6.1086676634477768e-05 -0.034971113452833352 0 1.5570399660867794e-05 -0.034481127396767862 0 -1.8909532972484924e-05 -0.033972891098005838 0 2.194080681490195e-05 -0.034414269651638761 0 0.00028608327224915987 -0.033967406182866422 0 -2.7770355021619789e-05 -0.033903490014837438 0 -8.3177116980325159e-05 -0.034085620159734868 0 -4.6751943601612862e-05 -0.034150364481204766 0 -2.6515350622162739e-05 -0.034092394235938281 0 -0.00015232321327112331 -0.035023640326819386 0 -6.9061247034016962e-05 -0.035036270326805168 0 -0.0001384840712525993 -0.034962865787009766 0 -8.3177116980325159e-05 -0.034085620159734868 0 -4.6751943601612862e-05 -0.034150364481204766 0 -0.0001297795929422845 -0.03424576224395659 0 1.5570399660867794e-05 -0.034481127396767862 0 -0.00014801289866626276 -0.034623119890525959 0 -4.3938969546848932e-05 -0.034996287094260704 0 -6.9061247034016962e-05 -0.035036270326805168 0 -0.0001384840712525993 -0.034962865787009766 0 -4.3938969546848932e-05 -0.034996287094260704 0 -1.541514411032478e-08 -0.035000109657888953 0 -2.253112222855237e-08 -0.034999950172493868 0 -2.5605493959396907e-06 -0.034858676118682097 0 -1.1636024577349706e-08 -0.034999776018706845 0 -2.2282583405959564e-05 -0.034820831709223177 0 -4.3938969546848932e-05 -0.034996287094260704 0 -1.541514411032478e-08 -0.035000109657888953 0 -6.9061247034016962e-05 -0.035036270326805168 0 -4.7345391838792329e-08 -0.03499994772231961 0 -6.1086676634477768e-05 -0.034971113452833352 0 -0.00020956177524298014 -0.033867187072380039 0 -0.00019492480178137894 -0.033890383691874124 0 -0.00021575239556270433 -0.033996858407002145 0 -0.00020956177524298014 -0.033867187072380039 0 -0.00017012635948347209 -0.033770941142436471 0 -0.00020635414378223447 -0.033766278032684539 0 -0.00020956177524298014 -0.033867187072380039 0 -0.00017012635948347209 -0.033770941142436471 0 -0.00014372516775146003 -0.033886469058031887 0 -0.00017012635948347209 -0.033770941142436471 0 -0.00014372516775146003 -0.033886469058031887 0 -0.00010939495316263639 -0.033840003931187163 0 -0.00013720259069920947 -0.033907459836734453 0 -0.00011194614205238898 -0.033958282741661114 0 -0.00020956177524298014 -0.033867187072380039 0 -0.00014372516775146003 -0.033886469058031887 0 -0.00019492480178137894 -0.033890383691874124 0 -0.00014372516775146003 -0.033886469058031887 0 -4.6404420519814444e-05 -0.034036834158833851 0 -7.2736271538949193e-05 -0.033951749514200734 0 -0.00011194614205238898 -0.033958282741661114 0 -1.8909532972484924e-05 -0.033972891098005838 0 -4.6751943601612862e-05 -0.034150364481204766 0 -2.6515350622162739e-05 -0.034092394235938281 0 -2.1266175755371183e-05 -0.034096263799279256 0 -4.6404420519814444e-05 -0.034036834158833851 0 -2.6515350622162739e-05 -0.034092394235938281 0 -2.1266175755371183e-05 -0.034096263799279256 0 -0.00019492480178137894 -0.033890383691874124 0 -2.7770355021619789e-05 -0.033903490014837438 0 -0.00012387557612642122 -0.034107482715831694 0 2.194080681490195e-05 -0.034414269651638761 0 -2.7770355021619789e-05 -0.033903490014837438 0 -0.00012387557612642122 -0.034107482715831694 0 -0.00019492480178137894 -0.033890383691874124 0 -0.00012387557612642122 -0.034107482715831694 0 -0.00021575239556270433 -0.033996858407002145 0 -0.00012387557612642122 -0.034107482715831694 0 -0.00013461811608140133 -0.034302953524264733 0 -0.00021575239556270433 -0.033996858407002145 0 2.194080681490195e-05 -0.034414269651638761 0 -0.00012387557612642122 -0.034107482715831694 0 -0.00013461811608140133 -0.034302953524264733 0 1.1926968177004856e-05 -0.03463732165049916 0 2.194080681490195e-05 -0.034414269651638761 0 -0.00013461811608140133 -0.034302953524264733 0 -0.00013461811608140133 -0.034302953524264733 0 -0.00030187313616464372 -0.033935680640597835 0 -0.00021575239556270433 -0.033996858407002145 0 -0.00013461811608140133 -0.034302953524264733 0 -0.00030187313616464372 -0.033935680640597835 0 -0.00024881803090335815 -0.034226371559193024 0 -0.00020956177524298014 -0.033867187072380039 0 -0.00030187313616464372 -0.033935680640597835 0 -0.00021575239556270433 -0.033996858407002145 0 -0.00020956177524298014 -0.033867187072380039 0 -0.00030187313616464372 -0.033935680640597835 0 -0.00020635414378223447 -0.033766278032684539 0 -0.00030187313616464372 -0.033935680640597835 0 -0.00020635414378223447 -0.033766278032684539 0 -0.00018279507208478389 -0.033719782816974679 0 -0.00030187313616464372 -0.033935680640597835 0 -0.00041008073995313284 -0.033958949423367552 0 -0.00018279507208478389 -0.033719782816974679 0 -0.00030187313616464372 -0.033935680640597835 0 -0.00041008073995313284 -0.033958949423367552 0 -0.00024881803090335815 -0.034226371559193024 0 -0.00041008073995313284 -0.033958949423367552 0 -0.00024881803090335815 -0.034226371559193024 0 -0.00036971681765200998 -0.034539092011135739 0 -0.00044166374060066165 -0.033975287975701478 0 -0.00054852935449846679 -0.033916256509022975 0 -0.00041008073995313284 -0.033958949423367552 0 -0.00077549796867423045 -0.033356073321008026 0 -0.00031820290467917989 -0.033318290189873583 0 4.1852773362294319e-06 -0.034579708589977408 0 -0.00013055661888388895 -0.034342594334196626 0 -2.5122036889441382e-06 -0.034532986205721032 0 -0.00013461811608140133 -0.034302953524264733 0 -0.00011253327467891633 -0.034527726044330798 0 -0.00013461811608140133 -0.034302953524264733 0 -0.00024881803090335815 -0.034226371559193024 0 -0.00011253327467891633 -0.034527726044330798 0 -0.00024881803090335815 -0.034226371559193024 0 -0.00036971681765200998 -0.034539092011135739 0 -0.00011253327467891633 -0.034527726044330798 0 -4.1747646573979814e-05 -0.034757870679046045 0 -0.00011253327467891633 -0.034527726044330798 0 -0.00015616568093493921 -0.03470759758971572 0 -0.00036971681765200998 -0.034539092011135739 0 -0.00011253327467891633 -0.034527726044330798 0 -0.00015616568093493921 -0.03470759758971572 0 -0.00036971681765200998 -0.034539092011135739 0 -0.00015616568093493921 -0.03470759758971572 0 -0.00027514202796309378 -0.034791365002681977 0 -0.00012730466482479064 -0.034903179138522963 0 -0.00011646248632552449 -0.034815683268075034 0 -0.00027514202796309378 -0.034791365002681977 0 -0.00015616568093493921 -0.03470759758971572 0 -0.00011646248632552449 -0.034815683268075034 0 -0.00027514202796309378 -0.034791365002681977 0 -4.1747646573979814e-05 -0.034757870679046045 0 -0.00015616568093493921 -0.03470759758971572 0 -0.00011646248632552449 -0.034815683268075034 0 -2.4789388028444489e-05 -0.034862792795146667 0 -4.1747646573979814e-05 -0.034757870679046045 0 -0.00011646248632552449 -0.034815683268075034 0 -0.00077549796867423045 -0.033356073321008026 0 -0.00031820290467917989 -0.033318290189873583 0 -0.00056482065692984446 -0.032920400700060387 0 -0.00054852935449846679 -0.033916256509022975 0 -0.00076088921806520169 -0.033888348570608733 0 -0.00077549796867423045 -0.033356073321008026 0 -0.0010173605426817423 -0.032750610803141962 0 -0.00056482065692984446 -0.032920400700060387 0 -0.00076699968131984677 -0.032468827263299922 0 -0.0010173605426817423 -0.032750610803141962 0 -0.00056482065692984446 -0.032920400700060387 0 -0.00076699968131984677 -0.032468827263299922 0 -0.00036933473445641823 -0.0324607294313181 0 -0.00056482065692984446 -0.032920400700060387 0 0.00068541668515613755 -0.026000773063933343 0 0.001658885002494688 -0.02722796397197378 0 -0.00036933473445641823 -0.0324607294313181 0 -0.00056482065692984446 -0.032920400700060387 0 -4.2542358104243931e-05 -0.032967387091444138 0 0.002643384700182961 -0.019234885075624274 0 0.0021636826882384143 -0.019405338540559567 0 0.0026159643876793853 -0.019846193853450794 0 -0.00031820290467917989 -0.033318290189873583 0 -0.00056482065692984446 -0.032920400700060387 0 -4.2542358104243931e-05 -0.032967387091444138 0 -0.00031820290467917989 -0.033318290189873583 0 -4.2542358104243931e-05 -0.032967387091444138 0 -8.760607999348921e-05 -0.033307092813684942 0 0.0026159643876793853 -0.019846193853450794 0 0.0030539402517663315 -0.019492898789273135 0 0.0030756633156693411 -0.020324817156444838 0 0.001658885002494688 -0.02722796397197378 0 0.00087018173872216963 -0.021907642176935388 0 -4.2542358104243931e-05 -0.032967387091444138 0 7.3496934751676943e-05 -0.033319297273880256 0 -8.760607999348921e-05 -0.033307092813684942 0 0.002643384700182961 -0.019234885075624274 0 0.0026159643876793853 -0.019846193853450794 0 0.0030539402517663315 -0.019492898789273135 0 0.0023452265213657528 -0.0052887641125455949 0 0.0020289185182896358 -0.0052508813614369409 0 0.0021804846448583953 -0.0050658595432232405 0 0.0020289185182896358 -0.0052508813614369409 0 0.0021804846448583953 -0.0050658595432232405 0 0.0020985619498411667 -0.0047717141841093526 0 0.0021804846448583953 -0.0050658595432232405 0 0.0020926385099392813 -0.0050022838700973724 0 0.0020985619498411667 -0.0047717141841093526 0 0.0027769283306519153 -0.0098266464113557286 0 0.00087018173872216963 -0.021907642176935388 0 0.0023452265213657528 -0.0052887641125455949 0 0.0021804846448583953 -0.0050658595432232405 0 0.0020926385099392813 -0.0050022838700973724 0 0.00087018173872216963 -0.021907642176935388 0 -0.00055141194079515263 -0.034955771860010768 0 0.00087018173872216963 -0.021907642176935388 0 0.00063503692104098996 -0.017606755653249644 0 0.0020926385099392813 -0.0050022838700973724 0 0.0020985619498411667 -0.0047717141841093526 0 0.0019525852910041517 -0.0053955151987830447 0 0.0020985619498411667 -0.0047717141841093526 0 0.0019525852910041517 -0.0053955151987830447 0 0.0033014249339145527 -0.0048855862859100586 0 0.00063503692104098996 -0.017606755653249644 0 0.001805780543976652 -0.019483438403740887 0 -1.3566825570172641e-05 -0.031098147472269622 0 0.00054059694170579381 -0.032073660073970903 0 -3.7118615304560239e-05 -0.032444492138283793 0 -0.001013411897685827 -0.02995714404247329 0 -1.3566825570172641e-05 -0.031098147472269622 0 -0.00082777227058844374 -0.031810164741620059 0 -1.3566825570172641e-05 -0.031098147472269622 0 -0.00082777227058844374 -0.031810164741620059 0 -3.7118615304560239e-05 -0.032444492138283793 0 -0.00012241821591910966 -0.033624582695705799 0 -0.00014118093087007365 -0.0335788727182596 0 -0.00018279507208478389 -0.033719782816974679 0 -0.00041008073995313284 -0.033958949423367552 0 -0.00014118093087007365 -0.0335788727182596 0 -0.00018279507208478389 -0.033719782816974679 0 -0.00031820290467917989 -0.033318290189873583 0 -0.00014118093087007365 -0.0335788727182596 0 -8.760607999348921e-05 -0.033307092813684942 0 -0.00041008073995313284 -0.033958949423367552 0 -0.00031820290467917989 -0.033318290189873583 0 -0.00014118093087007365 -0.0335788727182596 0 7.3496934751676943e-05 -0.033319297273880256 0 -0.00014118093087007365 -0.0335788727182596 0 -8.760607999348921e-05 -0.033307092813684942 0 7.3496934751676943e-05 -0.033319297273880256 0 -0.00012241821591910966 -0.033624582695705799 0 -0.00014118093087007365 -0.0335788727182596 0 0.0057874699294285879 -0.0019069082995150858 0 0.0055871215451123672 -0.0024431275552846631 0 0.0062472443750874801 -0.0020032897482356602 0 0.0057874699294285879 -0.0019069082995150858 0 0.0051786050434328148 -0.0023186113579674568 0 0.0055871215451123672 -0.0024431275552846631 0 0.0057874699294285879 -0.0019069082995150858 0 0.0062656892992388911 -0.0014080794278340675 0 0.0062472443750874801 -0.0020032897482356602 0 0.0055267459231094721 -0.0013611303994631374 0 0.0062656892992388911 -0.0014080794278340675 0 0.006740076837498896 -0.00059726406719886921 0 0.0057874699294285879 -0.0019069082995150858 0 0.0055267459231094721 -0.0013611303994631374 0 0.0062656892992388911 -0.0014080794278340675 0 0.0037780699609780734 -0.0033785083210998664 0 0.0044230680359282851 -0.0030525510956100708 0 0.0019314774326230633 -0.0053697955228990341 0 0.0019586969731313791 -0.0053963599117723589 0 0.0019168500733763611 -0.0052957675819120947 0 0.0037780699609780734 -0.0033785083210998664 0 0.0028589598037700222 -0.004051383794732911 0 0.0051786050434328148 -0.0023186113579674568 0 0.0042530184348085276 -0.0037115443332556559 0 0.0049071751443924136 -0.0046467831258694449 0 0.0051925814847515028 -0.0023204495202992993 0 0.0045598885426135901 -0.0042067284002029366 0 0.0055267459231094721 -0.0013611303994631374 0 0.0051786050434328148 -0.0023186113579674568 0 0.0037123464697077601 -0.0029453321044360953 0 0.0057874699294285879 -0.0019069082995150858 0 0.0055267459231094721 -0.0013611303994631374 0 0.0051786050434328148 -0.0023186113579674568 0 0.0051786050434328148 -0.0023186113579674568 0 0.0037123464697077601 -0.0029453321044360953 0 0.0042530184348085276 -0.0037115443332556559 0 0.0019586969731313791 -0.0053963599117723589 0 0.0019011456072073095 -0.0051630173633621206 0 0.0019168500733763611 -0.0052957675819120947 0 0.0020289185182896358 -0.0052508813614369409 0 0.0019011456072073095 -0.0051630173633621206 0 0.0019168500733763611 -0.0052957675819120947 0 0.0019439123633368887 -0.0053617981275693258 0 0.0020289185182896358 -0.0052508813614369409 0 0.0019168500733763611 -0.0052957675819120947 0 0.0021702566651768504 -0.0046739542661766581 0 0.0028589598037700222 -0.004051383794732911 0 0.0020289185182896358 -0.0052508813614369409 0 0.0020985619498411667 -0.0047717141841093526 0 0.0019011456072073095 -0.0051630173633621206 0 0.0020985619498411667 -0.0047717141841093526 0 0.0037123464697077601 -0.0029453321044360953 0 0.0033014249339145527 -0.0048855862859100586 0 0.0019525852910041517 -0.0053955151987830447 0 0.0033014249339145527 -0.0048855862859100586 0 0.0027436939196647577 -0.0065230637848951714 0 0.0033014249339145527 -0.0048855862859100586 0 0.0043950494964946811 -0.0062628358923978288 0 0.0027436939196647577 -0.0065230637848951714 0 0.0033014249339145527 -0.0048855862859100586 0 0.0043950494964946811 -0.0062628358923978288 0 0.0049071751443924136 -0.0046467831258694449 0 0.0047654674747910656 -0.0029715336488604052 0 0.0045598885426135901 -0.0042067284002029366 0 0.0042530184348085276 -0.0037115443332556559 0 0.0033014249339145527 -0.0048855862859100586 0 0.0049071751443924136 -0.0046467831258694449 0 0.0037123464697077601 -0.0029453321044360953 0 0.0042530184348085276 -0.0037115443332556559 0 0.0033014249339145527 -0.0048855862859100586 0 0.0051786050434328148 -0.0023186113579674568 0 0.0045781388168477056 -0.0027838918892651074 0 0.0055871215451123672 -0.0024431275552846631 0 0.0045781388168477056 -0.0027838918892651074 0 0.0056649336892429991 -0.0032564029096394023 0 0.0055871215451123672 -0.0024431275552846631 0 0.0045781388168477056 -0.0027838918892651074 0 0.0056649336892429991 -0.0032564029096394023 0 0.0051412487471939701 -0.0046937993884020061 0 0.0037855340977043369 -0.0043877102607951949 0 0.0045781388168477056 -0.0027838918892651074 0 0.0051412487471939701 -0.0046937993884020061 0 0.0056649336892429991 -0.0032564029096394023 0 0.0064846898563545924 -0.0046200595028511333 0 0.0075161650384271113 -0.0037844614954475886 0 0.0057644175421874798 -0.0032318608045552757 0 0.0069124849821351666 -0.0033393805980677892 0 0.0056649336892429991 -0.0032564029096394023 0 0.0064846898563545924 -0.0046200595028511333 0 0.0051412487471939701 -0.0046937993884020061 0 0.0056649336892429991 -0.0032564029096394023 0 0.006171525893156924 -0.0025788700649050679 0 0.0065365980079015494 -0.0029306228983014731 0 0.0056649336892429991 -0.0032564029096394023 0 0.006171525893156924 -0.0025788700649050679 0 0.0055871215451123672 -0.0024431275552846631 0 0.006171525893156924 -0.0025788700649050679 0 0.0055871215451123672 -0.0024431275552846631 0 0.0062472443750874801 -0.0020032897482356602 0 0.0063145596502027571 -0.0059679157224607603 0 0.0046727378950063353 -0.0062119724879076766 0 0.0060168206146762647 -0.0073111407667304723 0 0.0063145596502027571 -0.0059679157224607603 0 0.0060168206146762647 -0.0073111407667304723 0 0.0070420694796036387 -0.0071759178289793491 0 0.0063145596502027571 -0.0059679157224607603 0 0.0064846898563545924 -0.0046200595028511333 0 0.0051412487471939701 -0.0046937993884020061 0 0.0037855340977043369 -0.0043877102607951949 0 0.0051412487471939701 -0.0046937993884020061 0 0.0046727378950063353 -0.0062119724879076766 0 0.0063145596502027571 -0.0059679157224607603 0 0.0051412487471939701 -0.0046937993884020061 0 0.0046727378950063353 -0.0062119724879076766 0 0.0046727378950063353 -0.0062119724879076766 0 0.0031416088848928393 -0.0061366384172163429 0 0.0047819106309494631 -0.0077927619897218657 0 0.0046727378950063353 -0.0062119724879076766 0 0.0047819106309494631 -0.0077927619897218657 0 0.0060168206146762647 -0.0073111407667304723 0 0.0020395373987721912 -0.019695495594024431 0 0.0026660305148825431 -0.020365176353405699 0 0.0020395373987721912 -0.019695495594024431 0 -0.00075917024957637149 -0.038053748247037472 0 0.0037855340977043369 -0.0043877102607951949 0 0.0046727378950063353 -0.0062119724879076766 0 0.0031416088848928393 -0.0061366384172163429 0 0.0043950494964946811 -0.0062628358923978288 0 0.0039083152180820722 -0.007858089867579035 0 0.0027436939196647577 -0.0065230637848951714 0 0.0047654674747910656 -0.0029715336488604052 0 0.0020395373987721912 -0.019695495594024431 0 0.0020395373987721912 -0.019695495594024431 0 0.001805780543976652 -0.019483438403740887 0 0.00078552334829472682 -0.032605314995271868 0 0.00054059694170579381 -0.032073660073970903 0 0.00027218618981763795 -0.032873655156701161 0 0.00078552334829472682 -0.032605314995271868 0 0.00038470192875713239 -0.033077739717121045 0 0.00027218618981763795 -0.032873655156701161 0 0.00038470192875713239 -0.033077739717121045 0 0.00027218618981763795 -0.032873655156701161 0 6.9951918162725545e-05 -0.033296433894344328 0 0.00038470192875713239 -0.033077739717121045 0 0.00021230099448375588 -0.033336034047943622 0 6.9951918162725545e-05 -0.033296433894344328 0 0.00038470192875713239 -0.033077739717121045 0 0.00021230099448375588 -0.033336034047943622 0 0.00044687391616855967 -0.033182019754362593 0 0.00021230099448375588 -0.033336034047943622 0 0.00011424360658009324 -0.033538816941980229 0 0.00031154766991205347 -0.033384979446911607 0 0.00021230099448375588 -0.033336034047943622 0 0.00044687391616855967 -0.033182019754362593 0 0.00031154766991205347 -0.033384979446911607 0 0.00044687391616855967 -0.033182019754362593 0 0.00047700573194134474 -0.033285527719452014 0 0.00031154766991205347 -0.033384979446911607 0 0.00044687391616855967 -0.033182019754362593 0 0.00047700573194134474 -0.033285527719452014 0 0.00059008648924568517 -0.033127250819584599 0 0.00044687391616855967 -0.033182019754362593 0 0.00056870896895762704 -0.033040800729994699 0 0.00059008648924568517 -0.033127250819584599 0 0.00044687391616855967 -0.033182019754362593 0 0.00056870896895762704 -0.033040800729994699 0 0.00050439962337198987 -0.033023699913162619 0 0.00051617662859246424 -0.032563714256571813 0 0.00050439962337198987 -0.033023699913162619 0 0.00066877139535337468 -0.032863308691622461 0 0.00056870896895762704 -0.033040800729994699 0 0.00050439962337198987 -0.033023699913162619 0 0.00066877139535337468 -0.032863308691622461 0 0.00051617662859246424 -0.032563714256571813 0 0.00038470192875713239 -0.033077739717121045 0 0.00050439962337198987 -0.033023699913162619 0 0.00038470192875713239 -0.033077739717121045 0 0.00044687391616855967 -0.033182019754362593 0 0.00050439962337198987 -0.033023699913162619 0 0.00051617662859246424 -0.032563714256571813 0 0.00057391579117039096 -0.032872678732803792 0 0.00066877139535337468 -0.032863308691622461 0 0.00057391579117039096 -0.032872678732803792 0 0.00066877139535337468 -0.032863308691622461 0 -9.4025691207642834e-05 -0.03111444434515951 0 0.00066877139535337468 -0.032863308691622461 0 0.00062304492936723313 -0.033022699194788792 0 0.00066978825505759532 -0.033040044995742458 0 0.00056870896895762704 -0.033040800729994699 0 0.00066877139535337468 -0.032863308691622461 0 0.00062304492936723313 -0.033022699194788792 0 0.00062304492936723313 -0.033022699194788792 0 0.00066978825505759532 -0.033040044995742458 0 0.00059008648924568517 -0.033127250819584599 0 0.00066877139535337468 -0.032863308691622461 0 0.00066978825505759532 -0.033040044995742458 0 0.0007204763786787708 -0.033092700872039506 0 0.00056870896895762704 -0.033040800729994699 0 0.00062304492936723313 -0.033022699194788792 0 0.00059008648924568517 -0.033127250819584599 0 0.00066877139535337468 -0.032863308691622461 0 0.0007204763786787708 -0.033092700872039506 0 0.0008630006798482782 -0.033212827194923751 0 0.00066978825505759532 -0.033040044995742458 0 0.00066420248619994762 -0.033139474687021046 0 0.00059008648924568517 -0.033127250819584599 0 0.00047700573194134474 -0.033285527719452014 0 0.00059008648924568517 -0.033127250819584599 0 0.00062719201605055167 -0.033225254117949118 0 0.00047700573194134474 -0.033285527719452014 0 0.00062719201605055167 -0.033225254117949118 0 0.00057518088402316143 -0.033322936858772814 0 0.00066420248619994762 -0.033139474687021046 0 0.00059008648924568517 -0.033127250819584599 0 0.00062719201605055167 -0.033225254117949118 0 0.00062719201605055167 -0.033225254117949118 0 0.00073284519516774382 -0.033192353311838771 0 0.00070830657069797078 -0.033282960838934741 0 0.00066420248619994762 -0.033139474687021046 0 0.00062719201605055167 -0.033225254117949118 0 0.00073284519516774382 -0.033192353311838771 0 0.00073284519516774382 -0.033192353311838771 0 0.00078921357134110299 -0.033241540102318778 0 0.00070830657069797078 -0.033282960838934741 0 0.00066420248619994762 -0.033139474687021046 0 0.00073284519516774382 -0.033192353311838771 0 0.0007204763786787708 -0.033092700872039506 0 0.00066978825505759532 -0.033040044995742458 0 0.00066420248619994762 -0.033139474687021046 0 0.0007204763786787708 -0.033092700872039506 0 0.0047819106309494631 -0.0077927619897218657 0 0.006644331632854745 -0.0099943062538427642 0 0.0062747121796422958 -0.0087312253618194915 0 0.0026660305148825431 -0.020365176353405699 0 0.0032558252900741413 -0.019935265558731402 0 0.00068154205574941446 -0.032459693743527564 0 5.6826504332454353e-05 -0.03312816275084151 0 0.00057391579117039096 -0.032872678732803792 0 -0.00023351699507641907 -0.031181015625346704 0 -9.4025691207642834e-05 -0.03111444434515951 0 0.00073284519516774382 -0.033192353311838771 0 0.0008630006798482782 -0.033212827194923751 0 0.00078921357134110299 -0.033241540102318778 0 0.00073284519516774382 -0.033192353311838771 0 0.0007204763786787708 -0.033092700872039506 0 0.0008630006798482782 -0.033212827194923751 0 0.0062747121796422958 -0.0087312253618194915 0 0.0060168206146762647 -0.0073111407667304723 0 0.0070266199591161793 -0.0081411053529904329 0 0.0047819106309494631 -0.0077927619897218657 0 0.0062747121796422958 -0.0087312253618194915 0 0.0060168206146762647 -0.0073111407667304723 0 0.0060168206146762647 -0.0073111407667304723 0 0.0070266199591161793 -0.0081411053529904329 0 0.0070420694796036387 -0.0071759178289793491 0 -0.00018279507208478389 -0.033719782816974679 0 -0.00027769999495564225 -0.033292762164829799 0 -0.00020171732635979571 -0.03357975490383236 0 -0.00020635414378223447 -0.033766278032684539 0 -0.00018279507208478389 -0.033719782816974679 0 -0.00020171732635979571 -0.03357975490383236 0 -0.00012241821591910966 -0.033624582695705799 0 -0.00018279507208478389 -0.033719782816974679 0 -0.00027769999495564225 -0.033292762164829799 0 -0.00082777227058844374 -0.031810164741620059 0 -3.7118615304560239e-05 -0.032444492138283793 0 -0.00027769999495564225 -0.033292762164829799 0 -0.00055141194079515263 -0.034955771860010768 0 -0.00031775044562136354 -0.032275400854543689 0 0.00054059694170579381 -0.032073660073970903 0 -3.7118615304560239e-05 -0.032444492138283793 0 0.00027218618981763795 -0.032873655156701161 0 0.00027218618981763795 -0.032873655156701161 0 -0.00027769999495564225 -0.033292762164829799 0 6.9951918162725545e-05 -0.033296433894344328 0 -3.7118615304560239e-05 -0.032444492138283793 0 0.00027218618981763795 -0.032873655156701161 0 -0.00027769999495564225 -0.033292762164829799 0 -0.00027769999495564225 -0.033292762164829799 0 -0.00014646438597811886 -0.033523990478835253 0 6.9951918162725545e-05 -0.033296433894344328 0 0.00021230099448375588 -0.033336034047943622 0 -6.331934308949351e-06 -0.033527038906428164 0 0.00011424360658009324 -0.033538816941980229 0 0.00021230099448375588 -0.033336034047943622 0 6.9951918162725545e-05 -0.033296433894344328 0 -6.331934308949351e-06 -0.033527038906428164 0 -0.00014646438597811886 -0.033523990478835253 0 6.9951918162725545e-05 -0.033296433894344328 0 -6.331934308949351e-06 -0.033527038906428164 0 -0.00014646438597811886 -0.033523990478835253 0 -6.331934308949351e-06 -0.033527038906428164 0 -7.1776831413051143e-05 -0.033665715176735313 0 -0.00014646438597811886 -0.033523990478835253 0 -0.0001397179535629164 -0.033693638670290516 0 -7.1776831413051143e-05 -0.033665715176735313 0 -0.00014646438597811886 -0.033523990478835253 0 -0.00020171732635979571 -0.03357975490383236 0 -0.0001397179535629164 -0.033693638670290516 0 -0.00027769999495564225 -0.033292762164829799 0 -0.00014646438597811886 -0.033523990478835253 0 -0.00020171732635979571 -0.03357975490383236 0 -0.00017012635948347209 -0.033770941142436471 0 -0.00020171732635979571 -0.03357975490383236 0 -0.0001397179535629164 -0.033693638670290516 0 -0.00017012635948347209 -0.033770941142436471 0 -0.00020635414378223447 -0.033766278032684539 0 -0.00020171732635979571 -0.03357975490383236 0 -0.00017012635948347209 -0.033770941142436471 0 -0.0001397179535629164 -0.033693638670290516 0 -0.00010939495316263639 -0.033840003931187163 0 -0.0001397179535629164 -0.033693638670290516 0 -7.9554132343963321e-05 -0.033781096584892548 0 -0.00010939495316263639 -0.033840003931187163 0 -7.9554132343963321e-05 -0.033781096584892548 0 -3.4683130631471358e-05 -0.033822661462688725 0 -5.2603865412665511e-05 -0.033879579219301105 0 -7.9554132343963321e-05 -0.033781096584892548 0 -3.4683130631471358e-05 -0.033822661462688725 0 -2.5894278655565673e-05 -0.033764614260656772 0 -3.4683130631471358e-05 -0.033822661462688725 0 -2.5894278655565673e-05 -0.033764614260656772 0 1.1294854086771402e-05 -0.0338135702692847 0 -2.5894278655565673e-05 -0.033764614260656772 0 -1.2713078990285975e-05 -0.033696415870260378 0 3.7726740070379529e-05 -0.033760986797493939 0 -7.9554132343963321e-05 -0.033781096584892548 0 -2.5894278655565673e-05 -0.033764614260656772 0 -7.1776831413051143e-05 -0.033665715176735313 0 -0.0001397179535629164 -0.033693638670290516 0 -7.9554132343963321e-05 -0.033781096584892548 0 -7.1776831413051143e-05 -0.033665715176735313 0 -2.5894278655565673e-05 -0.033764614260656772 0 -7.1776831413051143e-05 -0.033665715176735313 0 -1.2713078990285975e-05 -0.033696415870260378 0 -6.331934308949351e-06 -0.033527038906428164 0 -7.1776831413051143e-05 -0.033665715176735313 0 2.0171709574057989e-05 -0.033617324309235516 0 -7.1776831413051143e-05 -0.033665715176735313 0 2.0171709574057989e-05 -0.033617324309235516 0 -1.2713078990285975e-05 -0.033696415870260378 0 0.00011424360658009324 -0.033538816941980229 0 2.0171709574057989e-05 -0.033617324309235516 0 3.867997801220509e-05 -0.033686137305530495 0 -6.331934308949351e-06 -0.033527038906428164 0 0.00011424360658009324 -0.033538816941980229 0 2.0171709574057989e-05 -0.033617324309235516 0 0.00011424360658009324 -0.033538816941980229 0 3.867997801220509e-05 -0.033686137305530495 0 0.00017932946305374841 -0.033596810216724823 0 3.867997801220509e-05 -0.033686137305530495 0 -1.2713078990285975e-05 -0.033696415870260378 0 3.7726740070379529e-05 -0.033760986797493939 0 2.0171709574057989e-05 -0.033617324309235516 0 3.867997801220509e-05 -0.033686137305530495 0 -1.2713078990285975e-05 -0.033696415870260378 0 3.867997801220509e-05 -0.033686137305530495 0 3.1965609972927572e-05 -0.033693254742813858 0 3.7726740070379529e-05 -0.033760986797493939 0 3.1965609972927572e-05 -0.033693254742813858 0 4.7528051985252369e-05 -0.033675057458885917 0 -3.3940377816934148e-06 -0.033641714160407371 0 3.867997801220509e-05 -0.033686137305530495 0 3.1965609972927572e-05 -0.033693254742813858 0 4.7528051985252369e-05 -0.033675057458885917 0 3.1965609972927572e-05 -0.033693254742813858 0 5.8019451675385063e-05 -0.033553597037429952 0 -2.545585067127306e-05 -0.033568682606834752 0 3.1965609972927572e-05 -0.033693254742813858 0 -3.3940377816934148e-06 -0.033641714160407371 0 -2.545585067127306e-05 -0.033568682606834752 0 3.1965609972927572e-05 -0.033693254742813858 0 0.00011296055149400845 -0.033729404820435141 0 5.8019451675385063e-05 -0.033553597037429952 0 3.1965609972927572e-05 -0.033693254742813858 0 0.00011296055149400845 -0.033729404820435141 0 3.7726740070379529e-05 -0.033760986797493939 0 0.00011296055149400845 -0.033729404820435141 0 6.9459803964263232e-05 -0.033822234573446346 0 3.7726740070379529e-05 -0.033760986797493939 0 6.9459803964263232e-05 -0.033822234573446346 0 0.00013422954967080362 -0.033790254568811039 0 5.3270260136640544e-05 -0.033901794722491954 0 0.00011296055149400845 -0.033729404820435141 0 6.9459803964263232e-05 -0.033822234573446346 0 0.00013422954967080362 -0.033790254568811039 0 -3.4683130631471358e-05 -0.033822661462688725 0 1.1294854086771402e-05 -0.0338135702692847 0 -1.5566776888761936e-06 -0.033888178395409925 0 6.9459803964263232e-05 -0.033822234573446346 0 1.1294854086771402e-05 -0.0338135702692847 0 -1.5566776888761936e-06 -0.033888178395409925 0 6.9459803964263232e-05 -0.033822234573446346 0 1.1294854086771402e-05 -0.0338135702692847 0 3.7726740070379529e-05 -0.033760986797493939 0 -2.5894278655565673e-05 -0.033764614260656772 0 1.1294854086771402e-05 -0.0338135702692847 0 3.7726740070379529e-05 -0.033760986797493939 0 0.000770153623952039 -0.03348373340060333 0 0.00084216398607811157 -0.033509143114085919 0 0.00087439675072356659 -0.033436948938733634 0 0.000770153623952039 -0.03348373340060333 0 0.00082457572554741081 -0.033406376131222666 0 0.00087439675072356659 -0.033436948938733634 0 0.000770153623952039 -0.03348373340060333 0 0.00072725094517478743 -0.033421447380001565 0 0.00067486338771361885 -0.033501215113037636 0 0.000770153623952039 -0.03348373340060333 0 0.00072725094517478743 -0.033421447380001565 0 0.00082457572554741081 -0.033406376131222666 0 0.00072725094517478743 -0.033421447380001565 0 0.00082457572554741081 -0.033406376131222666 0 0.00081482939986599989 -0.033351898814623741 0 0.00082457572554741081 -0.033406376131222666 0 0.00085730979487992458 -0.033354338382065522 0 0.00081482939986599989 -0.033351898814623741 0 0.00082457572554741081 -0.033406376131222666 0 0.00085730979487992458 -0.033354338382065522 0 0.00090362689195652615 -0.033362129612139475 0 0.00082457572554741081 -0.033406376131222666 0 0.00090362689195652615 -0.033362129612139475 0 0.00087439675072356659 -0.033436948938733634 0 0.00085730979487992458 -0.033354338382065522 0 0.00081482939986599989 -0.033351898814623741 0 0.00088518538241518776 -0.03329779582346936 0 0.00081482939986599989 -0.033351898814623741 0 0.00088518538241518776 -0.03329779582346936 0 0.00081561087395586225 -0.033308468912899666 0 0.0008630006798482782 -0.033212827194923751 0 0.00088518538241518776 -0.03329779582346936 0 0.00083363852260644558 -0.033268433251831299 0 0.00088518538241518776 -0.03329779582346936 0 0.00083363852260644558 -0.033268433251831299 0 0.00081561087395586225 -0.033308468912899666 0 0.0008630006798482782 -0.033212827194923751 0 0.00083363852260644558 -0.033268433251831299 0 0.00078921357134110299 -0.033241540102318778 0 0.00078921357134110299 -0.033241540102318778 0 0.00078382466304322657 -0.033287324049172617 0 0.00070830657069797078 -0.033282960838934741 0 0.00083363852260644558 -0.033268433251831299 0 0.00078921357134110299 -0.033241540102318778 0 0.00078382466304322657 -0.033287324049172617 0 0.00078382466304322657 -0.033287324049172617 0 0.00075340810873235266 -0.033336268645897678 0 0.00081561087395586225 -0.033308468912899666 0 0.00083363852260644558 -0.033268433251831299 0 0.00078382466304322657 -0.033287324049172617 0 0.00081561087395586225 -0.033308468912899666 0 0.00078382466304322657 -0.033287324049172617 0 0.00075340810873235266 -0.033336268645897678 0 0.00070830657069797078 -0.033282960838934741 0 0.00072725094517478743 -0.033421447380001565 0 0.00081482939986599989 -0.033351898814623741 0 0.00075340810873235266 -0.033336268645897678 0 0.00081482939986599989 -0.033351898814623741 0 0.00075340810873235266 -0.033336268645897678 0 0.00081561087395586225 -0.033308468912899666 0 0.00075340810873235266 -0.033336268645897678 0 0.00065235147637576676 -0.033380951247122932 0 0.00070830657069797078 -0.033282960838934741 0 0.00072725094517478743 -0.033421447380001565 0 0.00075340810873235266 -0.033336268645897678 0 0.00065235147637576676 -0.033380951247122932 0 0.00065235147637576676 -0.033380951247122932 0 0.00070830657069797078 -0.033282960838934741 0 0.00057518088402316143 -0.033322936858772814 0 0.00062719201605055167 -0.033225254117949118 0 0.00070830657069797078 -0.033282960838934741 0 0.00057518088402316143 -0.033322936858772814 0 0.00065235147637576676 -0.033380951247122932 0 0.00055754190973263378 -0.033419175027432996 0 0.0005885154728190187 -0.033483986449890313 0 0.00065235147637576676 -0.033380951247122932 0 0.00057518088402316143 -0.033322936858772814 0 0.00055754190973263378 -0.033419175027432996 0 0.00072725094517478743 -0.033421447380001565 0 0.0005885154728190187 -0.033483986449890313 0 0.00067486338771361885 -0.033501215113037636 0 0.00072725094517478743 -0.033421447380001565 0 0.00065235147637576676 -0.033380951247122932 0 0.0005885154728190187 -0.033483986449890313 0 0.000770153623952039 -0.03348373340060333 0 0.00067486338771361885 -0.033501215113037636 0 0.00069031266529310674 -0.033549194982668604 0 0.00067486338771361885 -0.033501215113037636 0 0.00061064822372347311 -0.033574945307622638 0 0.00069031266529310674 -0.033549194982668604 0 0.0005885154728190187 -0.033483986449890313 0 0.00044537451708632651 -0.033623477152066261 0 0.00061064822372347311 -0.033574945307622638 0 0.0005885154728190187 -0.033483986449890313 0 0.00067486338771361885 -0.033501215113037636 0 0.00061064822372347311 -0.033574945307622638 0 0.00044537451708632651 -0.033623477152066261 0 0.000444789433884845 -0.033469225851997367 0 0.00017932946305374841 -0.033596810216724823 0 0.0005885154728190187 -0.033483986449890313 0 0.00044537451708632651 -0.033623477152066261 0 0.000444789433884845 -0.033469225851997367 0 0.00025270476256306556 -0.033704121574348871 0 0.00014397170911509976 -0.033561535868780482 0 0.00055754190973263378 -0.033419175027432996 0 0.0005885154728190187 -0.033483986449890313 0 0.000444789433884845 -0.033469225851997367 0 0.00057518088402316143 -0.033322936858772814 0 0.00055754190973263378 -0.033419175027432996 0 0.000444789433884845 -0.033469225851997367 0 0.00047700573194134474 -0.033285527719452014 0 0.00057518088402316143 -0.033322936858772814 0 0.000444789433884845 -0.033469225851997367 0 0.00047700573194134474 -0.033285527719452014 0 0.000444789433884845 -0.033469225851997367 0 0.00031154766991205347 -0.033384979446911607 0 0.000444789433884845 -0.033469225851997367 0 0.00031154766991205347 -0.033384979446911607 0 0.00017932946305374841 -0.033596810216724823 0 0.00011424360658009324 -0.033538816941980229 0 0.00031154766991205347 -0.033384979446911607 0 0.00017932946305374841 -0.033596810216724823 0 3.867997801220509e-05 -0.033686137305530495 0 0.00017932946305374841 -0.033596810216724823 0 4.7528051985252369e-05 -0.033675057458885917 0 -9.5286079114594621e-06 -0.033670034439945859 0 0.00017932946305374841 -0.033596810216724823 0 4.7528051985252369e-05 -0.033675057458885917 0 -9.5286079114594621e-06 -0.033670034439945859 0 4.7528051985252369e-05 -0.033675057458885917 0 -4.1145184080382813e-05 -0.033637577680681402 0 4.7528051985252369e-05 -0.033675057458885917 0 -5.3475743640257532e-05 -0.033608396109283997 0 -4.1145184080382813e-05 -0.033637577680681402 0 4.7528051985252369e-05 -0.033675057458885917 0 -3.3940377816934148e-06 -0.033641714160407371 0 -5.3475743640257532e-05 -0.033608396109283997 0 -3.3940377816934148e-06 -0.033641714160407371 0 -8.0746512061415055e-05 -0.033549639061574335 0 -5.3475743640257532e-05 -0.033608396109283997 0 -3.3940377816934148e-06 -0.033641714160407371 0 -8.0746512061415055e-05 -0.033549639061574335 0 -2.545585067127306e-05 -0.033568682606834752 0 -8.0746512061415055e-05 -0.033549639061574335 0 -5.3475743640257532e-05 -0.033608396109283997 0 -0.00014188949248905664 -0.033521913519249366 0 -5.3475743640257532e-05 -0.033608396109283997 0 -0.00010635437215833268 -0.033587956612037506 0 -0.00014188949248905664 -0.033521913519249366 0 -5.3475743640257532e-05 -0.033608396109283997 0 -0.00010635437215833268 -0.033587956612037506 0 -4.1145184080382813e-05 -0.033637577680681402 0 -0.00010635437215833268 -0.033587956612037506 0 -0.00014188949248905664 -0.033521913519249366 0 -0.00014537761062947732 -0.033551512618199185 0 -0.00014537761062947732 -0.033551512618199185 0 -0.00016229806317001505 -0.03357603061730767 0 -0.00017481255679959205 -0.033527336018470598 0 -0.00014188949248905664 -0.033521913519249366 0 -0.00014537761062947732 -0.033551512618199185 0 -0.00017481255679959205 -0.033527336018470598 0 -0.00010635437215833268 -0.033587956612037506 0 -0.00010667366283450354 -0.033619252632459649 0 -0.00016229806317001505 -0.03357603061730767 0 -0.00010635437215833268 -0.033587956612037506 0 -0.00014537761062947732 -0.033551512618199185 0 -0.00016229806317001505 -0.03357603061730767 0 -9.5286079114594621e-06 -0.033670034439945859 0 -0.00010667366283450354 -0.033619252632459649 0 -0.000178606578520238 -0.033620725793008246 0 -0.00010667366283450354 -0.033619252632459649 0 -0.00015526288119982782 -0.033609280325672793 0 -0.00016229806317001505 -0.03357603061730767 0 -0.00010635437215833268 -0.033587956612037506 0 -0.00010667366283450354 -0.033619252632459649 0 -4.1145184080382813e-05 -0.033637577680681402 0 -9.5286079114594621e-06 -0.033670034439945859 0 -0.00010667366283450354 -0.033619252632459649 0 -4.1145184080382813e-05 -0.033637577680681402 0 0.00025270476256306556 -0.033704121574348871 0 0.00039641288520894592 -0.032800375536835361 0 0.00039641288520894592 -0.032800375536835361 0 0.00067350518652011459 -0.032500668830376556 0 0.00068902875050155354 -0.033597919864726315 0 0.00059889595199969707 -0.033664025953559912 0 0.00077851951396376215 -0.03364190840364345 0 0.00044537451708632651 -0.033623477152066261 0 0.00061064822372347311 -0.033574945307622638 0 0.00059889595199969707 -0.033664025953559912 0 0.00061064822372347311 -0.033574945307622638 0 0.00068902875050155354 -0.033597919864726315 0 0.00059889595199969707 -0.033664025953559912 0 0.00061064822372347311 -0.033574945307622638 0 0.00069031266529310674 -0.033549194982668604 0 0.00068902875050155354 -0.033597919864726315 0 -0.00010667366283450354 -0.033619252632459649 0 -0.000178606578520238 -0.033620725793008246 0 -0.00015526288119982782 -0.033609280325672793 0 -0.000178606578520238 -0.033620725793008246 0 -0.00015526288119982782 -0.033609280325672793 0 -0.00016229806317001505 -0.03357603061730767 0 0.00041319099269359412 -0.031304108167659196 0 0.00037661467924969907 -0.031253424607702862 0 0.00036045150686157942 -0.031269224955004039 0 -0.000178606578520238 -0.033620725793008246 0 -0.00016229806317001505 -0.03357603061730767 0 -0.00025680137335439506 -0.033538685015044957 0 -0.00016229806317001505 -0.03357603061730767 0 -0.00017481255679959205 -0.033527336018470598 0 -0.00025680137335439506 -0.033538685015044957 0 0.00039641288520894592 -0.032800375536835361 0 1.1607481761753501e-05 -0.032361471786521254 0 0.00036045150686157942 -0.031269224955004039 0 0.00035291318232561468 -0.031243898750623497 0 0.00034559899693258886 -0.031229656574523777 0 0.00037661467924969907 -0.031253424607702862 0 0.00036045150686157942 -0.031269224955004039 0 0.00035291318232561468 -0.031243898750623497 0 1.1607481761753501e-05 -0.032361471786521254 0 -0.00027889590208575693 -0.032575996178970695 0 0.00037661467924969907 -0.031253424607702862 0 0.00035291318232561468 -0.031243898750623497 0 0.00034858292848573047 -0.031243472575023409 0 0.00077851951396376215 -0.03364190840364345 0 0.00076923170801110341 -0.033561193945077714 0 0.00086560475423652617 -0.03356664894633133 0 0.00068902875050155354 -0.033597919864726315 0 0.00077851951396376215 -0.03364190840364345 0 0.00076923170801110341 -0.033561193945077714 0 0.00069031266529310674 -0.033549194982668604 0 0.00068902875050155354 -0.033597919864726315 0 0.00076923170801110341 -0.033561193945077714 0 0.000770153623952039 -0.03348373340060333 0 0.00069031266529310674 -0.033549194982668604 0 0.00076923170801110341 -0.033561193945077714 0 0.00076923170801110341 -0.033561193945077714 0 0.00084216398607811157 -0.033509143114085919 0 0.00086560475423652617 -0.03356664894633133 0 0.000770153623952039 -0.03348373340060333 0 0.00076923170801110341 -0.033561193945077714 0 0.00084216398607811157 -0.033509143114085919 0 -0.00050923744301736244 -0.032794136430273534 0 -0.00048515770967451761 -0.03292193154999306 0 -0.00053974102077874119 -0.032828033531632078 0 -0.00050923744301736244 -0.032794136430273534 0 -0.00051632060706639782 -0.032891272378300959 0 -0.00044192432717878044 -0.033063171496092794 0 -0.00017481255679959205 -0.033527336018470598 0 -0.00025680137335439506 -0.033538685015044957 0 -0.000196295468910846 -0.033451096172097516 0 -0.00027889590208575693 -0.032575996178970695 0 -0.00034680504587408475 -0.033331565874070677 0 -0.00025680137335439506 -0.033538685015044957 0 -0.00031323975997589427 -0.033474812804566351 0 -0.000196295468910846 -0.033451096172097516 0 -0.00044192432717878044 -0.033063171496092794 0 -0.00048515770967451761 -0.03292193154999306 0 -0.00042456600100767303 -0.032985799715710522 0 -0.00050923744301736244 -0.032794136430273534 0 -0.00044192432717878044 -0.033063171496092794 0 -0.00048515770967451761 -0.03292193154999306 0 -0.00044192432717878044 -0.033063171496092794 0 -0.00017734576290965939 -0.033340465681063997 0 -0.00042456600100767303 -0.032985799715710522 0 -0.00034680504587408475 -0.033331565874070677 0 -0.00014464764363636426 -0.033294546574345378 0 -0.00014188949248905664 -0.033521913519249366 0 -0.000196295468910846 -0.033451096172097516 0 -0.00017734576290965939 -0.033340465681063997 0 -0.00014188949248905664 -0.033521913519249366 0 -0.00017481255679959205 -0.033527336018470598 0 -0.000196295468910846 -0.033451096172097516 0 -8.0746512061415055e-05 -0.033549639061574335 0 -0.00014188949248905664 -0.033521913519249366 0 -0.00017734576290965939 -0.033340465681063997 0 -8.0746512061415055e-05 -0.033549639061574335 0 -0.00017734576290965939 -0.033340465681063997 0 -2.545585067127306e-05 -0.033568682606834752 0 -0.00017734576290965939 -0.033340465681063997 0 -0.00042456600100767303 -0.032985799715710522 0 -0.00010361398616091536 -0.033145863890937814 0 -0.00033711900343610674 -0.032850518423517938 0 -0.00042456600100767303 -0.032985799715710522 0 -0.00010361398616091536 -0.033145863890937814 0 -0.00033711900343610674 -0.032850518423517938 0 -0.00010361398616091536 -0.033145863890937814 0 -1.1582932609436067e-05 -0.03260799379073076 0 -0.00038558149158523841 -0.032880733673901145 0 -0.0010450993721507153 -0.032838865526148973 0 -0.00033711900343610674 -0.032850518423517938 0 -0.00042456600100767303 -0.032985799715710522 0 -0.00050992695600420349 -0.032837424975990535 0 -0.00048515770967451761 -0.03292193154999306 0 -0.00042456600100767303 -0.032985799715710522 0 -0.00053974102077874119 -0.032828033531632078 0 -0.00042456600100767303 -0.032985799715710522 0 -0.00050992695600420349 -0.032837424975990535 0 -0.00053974102077874119 -0.032828033531632078 0 -0.00050992695600420349 -0.032837424975990535 0 -0.00053974102077874119 -0.032828033531632078 0 -0.00055942722200566584 -0.032919719128544848 0 -0.00053974102077874119 -0.032828033531632078 0 -0.00050645470988640859 -0.032784403802741759 0 -0.00055942722200566584 -0.032919719128544848 0 -0.00050923744301736244 -0.032794136430273534 0 -0.00053974102077874119 -0.032828033531632078 0 -0.00050676829275381923 -0.032683693299350614 0 -0.00053974102077874119 -0.032828033531632078 0 -0.00050676829275381923 -0.032683693299350614 0 -0.00050645470988640859 -0.032784403802741759 0 0.00026462153811753034 -0.033674732189534901 0 0.00013422954967080362 -0.033790254568811039 0 6.1670232449614011e-05 -0.033901687515680332 0 0.00026462153811753034 -0.033674732189534901 0 0.0001114238044390591 -0.033994076121924822 0 6.1670232449614011e-05 -0.033901687515680332 0 0.00028245530481937908 -0.033674364669039308 0 0.00037015960741737221 -0.033585364652362594 0 0.00011296055149400845 -0.033729404820435141 0 0.00026462153811753034 -0.033674732189534901 0 5.8019451675385063e-05 -0.033553597037429952 0 0.00011296055149400845 -0.033729404820435141 0 0.00026462153811753034 -0.033674732189534901 0 0.00013422954967080362 -0.033790254568811039 0 -0.00017734576290965939 -0.033340465681063997 0 5.8019451675385063e-05 -0.033553597037429952 0 -2.545585067127306e-05 -0.033568682606834752 0 5.8019451675385063e-05 -0.033553597037429952 0 0.00014463353795356919 -0.033320822916907328 0 -0.00010361398616091536 -0.033145863890937814 0 -0.00017734576290965939 -0.033340465681063997 0 5.8019451675385063e-05 -0.033553597037429952 0 -0.00010361398616091536 -0.033145863890937814 0 0.00026462153811753034 -0.033674732189534901 0 5.8019451675385063e-05 -0.033553597037429952 0 0.00014463353795356919 -0.033320822916907328 0 0.00014463353795356919 -0.033320822916907328 0 0.00015461125790823722 -0.033003598266051384 0 0.00037333457405770975 -0.033118311722225416 0 0.00014463353795356919 -0.033320822916907328 0 -0.00010361398616091536 -0.033145863890937814 0 0.00015461125790823722 -0.033003598266051384 0 -0.00010361398616091536 -0.033145863890937814 0 0.00015461125790823722 -0.033003598266051384 0 -1.1582932609436067e-05 -0.03260799379073076 0 0.00015461125790823722 -0.033003598266051384 0 0.00037333457405770975 -0.033118311722225416 0 0.00027677860735829033 -0.032727441098147049 0 0.00015461125790823722 -0.033003598266051384 0 0.00027677860735829033 -0.032727441098147049 0 -1.1582932609436067e-05 -0.03260799379073076 0 0.00037333457405770975 -0.033118311722225416 0 0.00058954167786508423 -0.032890397962706742 0 0.00027677860735829033 -0.032727441098147049 0 0.00026462153811753034 -0.033674732189534901 0 0.00014463353795356919 -0.033320822916907328 0 0.00037333457405770975 -0.033118311722225416 0 0.00026462153811753034 -0.033674732189534901 0 0.00037333457405770975 -0.033118311722225416 0 0.00065784217342276774 -0.033191358049728358 0 0.00037015960741737221 -0.033585364652362594 0 0.00037013822873188543 -0.033459762209202638 0 0.00065784217342276774 -0.033191358049728358 0 0.00058954167786508423 -0.032890397962706742 0 0.00073064660848859962 -0.032890953933907452 0 0.00037333457405770975 -0.033118311722225416 0 0.00065784217342276774 -0.033191358049728358 0 0.00058954167786508423 -0.032890397962706742 0 2.5855992783080468e-05 -0.034012692356864084 0 1.4208748328041625e-05 -0.03402665641212832 0 2.9348710757722633e-05 -0.03398663263260053 0 3.3615010325618449e-05 -0.034001187225071901 0 1.4208748328041625e-05 -0.03402665641212832 0 1.7279985559670111e-05 -0.034044975081498056 0 3.3615010325618449e-05 -0.034001187225071901 0 1.4208748328041625e-05 -0.03402665641212832 0 2.9348710757722633e-05 -0.03398663263260053 0 1.4208748328041625e-05 -0.03402665641212832 0 7.0445832515589238e-06 -0.034064074537380105 0 1.7279985559670111e-05 -0.034044975081498056 0 0.0001114238044390591 -0.033994076121924822 0 1.4208748328041625e-05 -0.03402665641212832 0 6.1670232449614011e-05 -0.033901687515680332 0 0.0001114238044390591 -0.033994076121924822 0 2.5855992783080468e-05 -0.034012692356864084 0 1.4208748328041625e-05 -0.03402665641212832 0 1.4208748328041625e-05 -0.03402665641212832 0 6.1670232449614011e-05 -0.033901687515680332 0 1.4403827073961289e-05 -0.034028897968962524 0 6.1670232449614011e-05 -0.033901687515680332 0 1.4403827073961289e-05 -0.034028897968962524 0 3.5075411695430417e-05 -0.033964820325003572 0 1.4208748328041625e-05 -0.03402665641212832 0 7.0445832515589238e-06 -0.034064074537380105 0 1.4403827073961289e-05 -0.034028897968962524 0 7.0445832515589238e-06 -0.034064074537380105 0 1.4403827073961289e-05 -0.034028897968962524 0 1.0579002809862984e-05 -0.034164918313752492 0 1.4403827073961289e-05 -0.034028897968962524 0 1.4979909992346674e-05 -0.034030211503100184 0 3.5075411695430417e-05 -0.033964820325003572 0 1.4403827073961289e-05 -0.034028897968962524 0 1.4979909992346674e-05 -0.034030211503100184 0 1.0485476163377835e-05 -0.034097073552486895 0 1.4979909992346674e-05 -0.034030211503100184 0 3.5075411695430417e-05 -0.033964820325003572 0 5.3270260136640544e-05 -0.033901794722491954 0 6.1670232449614011e-05 -0.033901687515680332 0 3.5075411695430417e-05 -0.033964820325003572 0 5.3270260136640544e-05 -0.033901794722491954 0 0.00013422954967080362 -0.033790254568811039 0 6.1670232449614011e-05 -0.033901687515680332 0 5.3270260136640544e-05 -0.033901794722491954 0 7.7423221009816778e-06 -0.034247206732628328 0 1.0579002809862984e-05 -0.034164918313752492 0 2.1138701906606781e-05 -0.034243172796210815 0 7.7423221009816778e-06 -0.034247206732628328 0 4.3466974982053351e-05 -0.034331630831392485 0 -2.8696280638770612e-05 -0.034326501052403396 0 7.7423221009816778e-06 -0.034247206732628328 0 -2.8696280638770612e-05 -0.034326501052403396 0 -2.9689376976136735e-05 -0.034301440031285116 0 1.4403827073961289e-05 -0.034028897968962524 0 1.0485476163377835e-05 -0.034097073552486895 0 1.0579002809862984e-05 -0.034164918313752492 0 1.0485476163377835e-05 -0.034097073552486895 0 1.0579002809862984e-05 -0.034164918313752492 0 -2.8947403042443896e-07 -0.034159996545092788 0 7.7423221009816778e-06 -0.034247206732628328 0 1.0579002809862984e-05 -0.034164918313752492 0 -2.8947403042443896e-07 -0.034159996545092788 0 1.4979909992346674e-05 -0.034030211503100184 0 1.0485476163377835e-05 -0.034097073552486895 0 -2.8947403042443896e-07 -0.034159996545092788 0 1.0579002809862984e-05 -0.034164918313752492 0 2.031619472445903e-05 -0.034194982309088968 0 1.6296577315940084e-05 -0.034108337234970976 0 1.0579002809862984e-05 -0.034164918313752492 0 2.031619472445903e-05 -0.034194982309088968 0 2.1138701906606781e-05 -0.034243172796210815 0 7.0445832515589238e-06 -0.034064074537380105 0 1.0579002809862984e-05 -0.034164918313752492 0 1.6296577315940084e-05 -0.034108337234970976 0 2.031619472445903e-05 -0.034194982309088968 0 4.3466974982053351e-05 -0.034331630831392485 0 3.9184049343004024e-05 -0.034123710110958889 0 7.7423221009816778e-06 -0.034247206732628328 0 2.1138701906606781e-05 -0.034243172796210815 0 4.3466974982053351e-05 -0.034331630831392485 0 2.031619472445903e-05 -0.034194982309088968 0 2.1138701906606781e-05 -0.034243172796210815 0 4.3466974982053351e-05 -0.034331630831392485 0 2.8055192075950988e-05 -0.034440375385111917 0 4.3466974982053351e-05 -0.034331630831392485 0 6.0436861271579475e-05 -0.034733199406111921 0 4.3466974982053351e-05 -0.034331630831392485 0 3.9184049343004024e-05 -0.034123710110958889 0 0.00011265049997370404 -0.034034113849596141 0 2.8055192075950988e-05 -0.034440375385111917 0 6.0436861271579475e-05 -0.034733199406111921 0 1.3017026110553263e-06 -0.034642704900206267 0 3.9184049343004024e-05 -0.034123710110958889 0 0.00011265049997370404 -0.034034113849596141 0 5.1226314597386933e-05 -0.034011121230441643 0 5.4052737735451569e-05 -0.034332964442976427 0 7.5772957120543742e-05 -0.034379689621820704 0 3.9184049343004024e-05 -0.034123710110958889 0 1.6296577315940084e-05 -0.034108337234970976 0 5.1226314597386933e-05 -0.034011121230441643 0 1.6296577315940084e-05 -0.034108337234970976 0 1.7279985559670111e-05 -0.034044975081498056 0 5.1226314597386933e-05 -0.034011121230441643 0 7.0445832515589238e-06 -0.034064074537380105 0 1.6296577315940084e-05 -0.034108337234970976 0 1.7279985559670111e-05 -0.034044975081498056 0 2.031619472445903e-05 -0.034194982309088968 0 3.9184049343004024e-05 -0.034123710110958889 0 1.6296577315940084e-05 -0.034108337234970976 0 3.3615010325618449e-05 -0.034001187225071901 0 5.1226314597386933e-05 -0.034011121230441643 0 7.2584221320144213e-05 -0.033935693003808678 0 3.3615010325618449e-05 -0.034001187225071901 0 1.7279985559670111e-05 -0.034044975081498056 0 5.1226314597386933e-05 -0.034011121230441643 0 7.5772957120543742e-05 -0.034379689621820704 0 2.5568343859387558e-05 -0.034373900473671448 0 0.00011265049997370404 -0.034034113849596141 0 5.1226314597386933e-05 -0.034011121230441643 0 6.3796798770488403e-05 -0.03394530498535283 0 6.0436861271579475e-05 -0.034733199406111921 0 -2.0257898645415303e-05 -0.034765344410084435 0 -1.7319853569051172e-05 -0.034706005004009992 0 6.0436861271579475e-05 -0.034733199406111921 0 -2.0257898645415303e-05 -0.034765344410084435 0 -9.9523931353380474e-06 -0.034805880513772827 0 -2.0257898645415303e-05 -0.034765344410084435 0 -3.9893256036104189e-05 -0.034719386128901589 0 -1.7319853569051172e-05 -0.034706005004009992 0 -2.0257898645415303e-05 -0.034765344410084435 0 -4.0734096423630548e-05 -0.034743992279601441 0 -3.9893256036104189e-05 -0.034719386128901589 0 -2.0257898645415303e-05 -0.034765344410084435 0 -4.0734096423630548e-05 -0.034743992279601441 0 -2.1005582857462354e-05 -0.034797305203213648 0 -3.9893256036104189e-05 -0.034719386128901589 0 -5.5527611636870368e-05 -0.034707036889530349 0 -4.7317765282915774e-05 -0.034671419195601114 0 -4.0734096423630548e-05 -0.034743992279601441 0 -3.9893256036104189e-05 -0.034719386128901589 0 -5.5527611636870368e-05 -0.034707036889530349 0 -4.0734096423630548e-05 -0.034743992279601441 0 -5.5527611636870368e-05 -0.034707036889530349 0 -4.5124013988339936e-05 -0.034728934212863501 0 -5.5527611636870368e-05 -0.034707036889530349 0 -5.3724871860137271e-05 -0.034722898721224756 0 -7.0986988256230811e-05 -0.034676173321996316 0 -5.5527611636870368e-05 -0.034707036889530349 0 -4.7317765282915774e-05 -0.034671419195601114 0 -7.0986988256230811e-05 -0.034676173321996316 0 2.8055192075950988e-05 -0.034440375385111917 0 -4.7317765282915774e-05 -0.034671419195601114 0 1.3017026110553263e-06 -0.034642704900206267 0 2.8055192075950988e-05 -0.034440375385111917 0 -4.7317765282915774e-05 -0.034671419195601114 0 -7.0986988256230811e-05 -0.034676173321996316 0 6.0436861271579475e-05 -0.034733199406111921 0 1.3017026110553263e-06 -0.034642704900206267 0 -1.7319853569051172e-05 -0.034706005004009992 0 -4.7317765282915774e-05 -0.034671419195601114 0 1.3017026110553263e-06 -0.034642704900206267 0 -1.7319853569051172e-05 -0.034706005004009992 0 -3.9893256036104189e-05 -0.034719386128901589 0 -4.7317765282915774e-05 -0.034671419195601114 0 -1.7319853569051172e-05 -0.034706005004009992 0 -6.8464364529605344e-06 -0.03486826961934622 0 -3.39754844791149e-05 -0.034888785104916074 0 1.983734778870061e-08 -0.035000057236773414 0 -7.5541540112883043e-09 -0.034999977645528112 0 -2.8464126444969743e-07 -0.034999537546680712 0 -4.8265684754909987e-05 -0.034755494923791222 0 -9.6531059861180131e-06 -0.034718658112270005 0 -8.1245039384028101e-05 -0.034779136994837104 0 -4.8265684754909987e-05 -0.034755494923791222 0 -8.1245039384028101e-05 -0.034779136994837104 0 -3.8071197627149158e-05 -0.034800275326657075 0 -4.8265684754909987e-05 -0.034755494923791222 0 -3.7900389091808428e-05 -0.034772767436129802 0 -3.8071197627149158e-05 -0.034800275326657075 0 -4.8265684754909987e-05 -0.034755494923791222 0 -4.048736954789718e-05 -0.034740686874629063 0 -3.7900389091808428e-05 -0.034772767436129802 0 -4.048736954789718e-05 -0.034740686874629063 0 -3.7900389091808428e-05 -0.034772767436129802 0 -3.5435279899879216e-05 -0.034761692948608973 0 -4.048736954789718e-05 -0.034740686874629063 0 -3.5435279899879216e-05 -0.034761692948608973 0 -4.5124013988339936e-05 -0.034728934212863501 0 -3.7900389091808428e-05 -0.034772767436129802 0 -3.5435279899879216e-05 -0.034761692948608973 0 -2.5245497844341696e-05 -0.034803036961431486 0 -4.0734096423630548e-05 -0.034743992279601441 0 -3.5435279899879216e-05 -0.034761692948608973 0 -2.1005582857462354e-05 -0.034797305203213648 0 -4.0734096423630548e-05 -0.034743992279601441 0 -3.5435279899879216e-05 -0.034761692948608973 0 -4.5124013988339936e-05 -0.034728934212863501 0 -4.5124013988339936e-05 -0.034728934212863501 0 -5.3724871860137271e-05 -0.034722898721224756 0 -3.8175453714436071e-05 -0.034728151523635481 0 -5.5527611636870368e-05 -0.034707036889530349 0 -4.5124013988339936e-05 -0.034728934212863501 0 -5.3724871860137271e-05 -0.034722898721224756 0 -5.3724871860137271e-05 -0.034722898721224756 0 -3.8175453714436071e-05 -0.034728151523635481 0 -4.1979052812860021e-05 -0.03474970123084288 0 -4.048736954789718e-05 -0.034740686874629063 0 -4.5124013988339936e-05 -0.034728934212863501 0 -3.8175453714436071e-05 -0.034728151523635481 0 1.983734778870061e-08 -0.035000057236773414 0 2.8969174177179215e-06 -0.035005326313055717 0 -2.8464126444969743e-07 -0.034999537546680712 0 1.983734778870061e-08 -0.035000057236773414 0 2.8969174177179215e-06 -0.035005326313055717 0 -4.1784259923906328e-08 -0.034999888819715809 0 -4.8265684754909987e-05 -0.034755494923791222 0 -4.048736954789718e-05 -0.034740686874629063 0 -9.6531059861180131e-06 -0.034718658112270005 0 -4.048736954789718e-05 -0.034740686874629063 0 -3.8175453714436071e-05 -0.034728151523635481 0 -9.6531059861180131e-06 -0.034718658112270005 0 -3.8175453714436071e-05 -0.034728151523635481 0 -9.6531059861180131e-06 -0.034718658112270005 0 -4.1979052812860021e-05 -0.03474970123084288 0 2.8969174177179215e-06 -0.035005326313055717 0 -4.1784259923906328e-08 -0.034999888819715809 0 -4.0888440921879727e-06 -0.034946380608526596 0 -9.6531059861180131e-06 -0.034718658112270005 0 -2.8643679635775497e-05 -0.034811607774890958 0 -4.0888440921879727e-06 -0.034946380608526596 0 -6.8464364529605344e-06 -0.03486826961934622 0 -4.1068243518090894e-06 -0.034942613320531425 0 -9.6531059861180131e-06 -0.034718658112270005 0 -2.8643679635775497e-05 -0.034811607774890958 0 -4.1979052812860021e-05 -0.03474970123084288 0 -2.8643679635775497e-05 -0.034811607774890958 0 -4.1979052812860021e-05 -0.03474970123084288 0 -5.6822853047657515e-05 -0.03476836098396479 0 -2.8643679635775497e-05 -0.034811607774890958 0 -5.6822853047657515e-05 -0.03476836098396479 0 -3.496101675492629e-05 -0.03485406209153874 0 -5.3724871860137271e-05 -0.034722898721224756 0 -4.1979052812860021e-05 -0.03474970123084288 0 -5.6822853047657515e-05 -0.03476836098396479 0 -5.6822853047657515e-05 -0.03476836098396479 0 -4.4859503049518943e-05 -0.03489317572417789 0 -7.9812234856886367e-05 -0.034694712516985006 0 -4.4859503049518943e-05 -0.03489317572417789 0 -3.496101675492629e-05 -0.03485406209153874 0 -4.0888440921879727e-06 -0.034946380608526596 0 -5.6822853047657515e-05 -0.03476836098396479 0 -4.4859503049518943e-05 -0.03489317572417789 0 -3.496101675492629e-05 -0.03485406209153874 0 -4.1784259923906328e-08 -0.034999888819715809 0 -4.0888440921879727e-06 -0.034946380608526596 0 7.2473274512115132e-08 -0.034999961756728287 0 -4.4859503049518943e-05 -0.03489317572417789 0 -4.0888440921879727e-06 -0.034946380608526596 0 7.2473274512115132e-08 -0.034999961756728287 0 -2.8643679635775497e-05 -0.034811607774890958 0 -3.496101675492629e-05 -0.03485406209153874 0 -4.0888440921879727e-06 -0.034946380608526596 0 2.8055192075950988e-05 -0.034440375385111917 0 4.3466974982053351e-05 -0.034331630831392485 0 -8.7857143191323391e-05 -0.034390393940176081 0 2.8055192075950988e-05 -0.034440375385111917 0 -7.0986988256230811e-05 -0.034676173321996316 0 -7.9812234856886367e-05 -0.034694712516985006 0 2.3080236271673785e-05 -0.034470507874557292 0 -6.841014091407154e-05 -0.034547300733122371 0 -5.6822853047657515e-05 -0.03476836098396479 0 -7.0986988256230811e-05 -0.034676173321996316 0 -7.9812234856886367e-05 -0.034694712516985006 0 -5.3724871860137271e-05 -0.034722898721224756 0 -5.6822853047657515e-05 -0.03476836098396479 0 -7.0986988256230811e-05 -0.034676173321996316 0 -4.3623817031867074e-05 -0.034569997710887548 0 -8.7857143191323391e-05 -0.034390393940176081 0 -7.6702003048562364e-05 -0.03449632483322003 0 -5.7806090304415159e-05 -0.034732425898093944 0 -6.841014091407154e-05 -0.034547300733122371 0 -8.7857143191323391e-05 -0.034390393940176081 0 -7.6702003048562364e-05 -0.03449632483322003 0 -6.4035513655758951e-05 -0.034401341679616164 0 4.3466974982053351e-05 -0.034331630831392485 0 -8.7857143191323391e-05 -0.034390393940176081 0 -2.8696280638770612e-05 -0.034326501052403396 0 -8.7857143191323391e-05 -0.034390393940176081 0 -2.8696280638770612e-05 -0.034326501052403396 0 -6.4035513655758951e-05 -0.034401341679616164 0 -2.8696280638770612e-05 -0.034326501052403396 0 -6.4035513655758951e-05 -0.034401341679616164 0 -2.9689376976136735e-05 -0.034301440031285116 0 -6.4035513655758951e-05 -0.034401341679616164 0 -3.9585367471186477e-05 -0.03431297827884594 0 -2.9689376976136735e-05 -0.034301440031285116 0 -6.4035513655758951e-05 -0.034401341679616164 0 -7.3009168729766221e-05 -0.034490005457223041 0 -3.9585367471186477e-05 -0.03431297827884594 0 -7.6702003048562364e-05 -0.03449632483322003 0 -6.4035513655758951e-05 -0.034401341679616164 0 -7.3009168729766221e-05 -0.034490005457223041 0 -7.6702003048562364e-05 -0.03449632483322003 0 -7.3009168729766221e-05 -0.034490005457223041 0 -7.3955335954492313e-05 -0.034598472852867219 0 -7.3009168729766221e-05 -0.034490005457223041 0 -7.3955335954492313e-05 -0.034598472852867219 0 -8.2156960655594628e-05 -0.034621472088878266 0 -6.6677175487615974e-05 -0.03446015678424403 0 -8.2156960655594628e-05 -0.034621472088878266 0 -0.0001064856150640351 -0.034707802354820461 0 -7.3009168729766221e-05 -0.034490005457223041 0 -6.6677175487615974e-05 -0.03446015678424403 0 -8.2156960655594628e-05 -0.034621472088878266 0 -7.3009168729766221e-05 -0.034490005457223041 0 -6.6677175487615974e-05 -0.03446015678424403 0 -3.9585367471186477e-05 -0.03431297827884594 0 -4.3623817031867074e-05 -0.034569997710887548 0 1.4775652793063768e-08 -0.034999222250342805 0 -4.766819109879936e-05 -0.034761093027415854 0 -5.7806090304415159e-05 -0.034732425898093944 0 -3.6058864742166551e-08 -0.034999877402923277 0 -4.3623817031867074e-05 -0.034569997710887548 0 -4.766819109879936e-05 -0.034761093027415854 0 -7.3955335954492313e-05 -0.034598472852867219 0 -4.3623817031867074e-05 -0.034569997710887548 0 -7.6702003048562364e-05 -0.03449632483322003 0 -7.3955335954492313e-05 -0.034598472852867219 0 -4.766819109879936e-05 -0.034761093027415854 0 -7.3955335954492313e-05 -0.034598472852867219 0 -8.2156960655594628e-05 -0.034621472088878266 0 -4.766819109879936e-05 -0.034761093027415854 0 -8.2156960655594628e-05 -0.034621472088878266 0 -0.0001064856150640351 -0.034707802354820461 0 -4.766819109879936e-05 -0.034761093027415854 0 7.1163474245680632e-10 -0.034999787147083072 0 -0.0001064856150640351 -0.034707802354820461 0 1.4775652793063768e-08 -0.034999222250342805 0 -4.766819109879936e-05 -0.034761093027415854 0 7.1163474245680632e-10 -0.034999787147083072 0 7.1163474245680632e-10 -0.034999787147083072 0 -0.0001064856150640351 -0.034707802354820461 0 -3.2477631431893691e-05 -0.034937397564256248 0 -0.0001064856150640351 -0.034707802354820461 0 -3.2477631431893691e-05 -0.034937397564256248 0 -0.0001384840712525993 -0.034962865787009766 0 -0.00010066680189404311 -0.034671934421607244 0 -0.00014801289866626276 -0.034623119890525959 0 -4.3938969546848932e-05 -0.034996287094260704 0 -3.2477631431893691e-05 -0.034937397564256248 0 -0.0001384840712525993 -0.034962865787009766 0 -4.3938969546848932e-05 -0.034996287094260704 0 -2.253112222855237e-08 -0.034999950172493868 0 -3.2477631431893691e-05 -0.034937397564256248 0 7.1163474245680632e-10 -0.034999787147083072 0 -2.253112222855237e-08 -0.034999950172493868 0 -3.2477631431893691e-05 -0.034937397564256248 0 -6.6677175487615974e-05 -0.03446015678424403 0 -3.9585367471186477e-05 -0.03431297827884594 0 -2.6658177587177688e-05 -0.034225718355352285 0 -6.6677175487615974e-05 -0.03446015678424403 0 -0.0001064856150640351 -0.034707802354820461 0 -0.0001297795929422845 -0.03424576224395659 0 -6.6677175487615974e-05 -0.03446015678424403 0 -2.6658177587177688e-05 -0.034225718355352285 0 -0.0001297795929422845 -0.03424576224395659 0 -4.6751943601612862e-05 -0.034150364481204766 0 -2.6658177587177688e-05 -0.034225718355352285 0 -0.0001297795929422845 -0.03424576224395659 0 -4.6751943601612862e-05 -0.034150364481204766 0 -2.6658177587177688e-05 -0.034225718355352285 0 -2.1266175755371183e-05 -0.034096263799279256 0 -2.6658177587177688e-05 -0.034225718355352285 0 -2.1266175755371183e-05 -0.034096263799279256 0 -2.2744815756889323e-05 -0.03416773823812376 0 -3.9585367471186477e-05 -0.03431297827884594 0 -2.6658177587177688e-05 -0.034225718355352285 0 -2.2744815756889323e-05 -0.03416773823812376 0 -3.1575118377450104e-05 -0.034060496371190477 0 -2.945583890256432e-05 -0.033979252014971928 0 -1.2803089219000569e-05 -0.03411926190214655 0 -2.1266175755371183e-05 -0.034096263799279256 0 -2.2744815756889323e-05 -0.03416773823812376 0 -3.1575118377450104e-05 -0.034060496371190477 0 -2.2744815756889323e-05 -0.03416773823812376 0 -3.1575118377450104e-05 -0.034060496371190477 0 -1.2803089219000569e-05 -0.03411926190214655 0 -4.6404420519814444e-05 -0.034036834158833851 0 -2.1266175755371183e-05 -0.034096263799279256 0 -7.2736271538949193e-05 -0.033951749514200734 0 -2.1266175755371183e-05 -0.034096263799279256 0 -3.1575118377450104e-05 -0.034060496371190477 0 -7.2736271538949193e-05 -0.033951749514200734 0 -7.9554132343963321e-05 -0.033781096584892548 0 -0.00010939495316263639 -0.033840003931187163 0 -5.2603865412665511e-05 -0.033879579219301105 0 -0.00014372516775146003 -0.033886469058031887 0 -7.2736271538949193e-05 -0.033951749514200734 0 -0.00010939495316263639 -0.033840003931187163 0 -7.2736271538949193e-05 -0.033951749514200734 0 -0.00010939495316263639 -0.033840003931187163 0 -5.2603865412665511e-05 -0.033879579219301105 0 -5.2603865412665511e-05 -0.033879579219301105 0 -2.945583890256432e-05 -0.033979252014971928 0 -1.5566776888761936e-06 -0.033888178395409925 0 -3.4683130631471358e-05 -0.033822661462688725 0 -5.2603865412665511e-05 -0.033879579219301105 0 -1.5566776888761936e-06 -0.033888178395409925 0 -7.2736271538949193e-05 -0.033951749514200734 0 -5.2603865412665511e-05 -0.033879579219301105 0 -2.945583890256432e-05 -0.033979252014971928 0 -3.1575118377450104e-05 -0.034060496371190477 0 -7.2736271538949193e-05 -0.033951749514200734 0 -2.945583890256432e-05 -0.033979252014971928 0 -2.945583890256432e-05 -0.033979252014971928 0 1.5298026191090642e-06 -0.033993592391716544 0 -1.2803089219000569e-05 -0.03411926190214655 0 6.9459803964263232e-05 -0.033822234573446346 0 -1.5566776888761936e-06 -0.033888178395409925 0 2.8007637932040947e-05 -0.033914858658670041 0 1.5298026191090642e-06 -0.033993592391716544 0 -1.5566776888761936e-06 -0.033888178395409925 0 2.8007637932040947e-05 -0.033914858658670041 0 -2.945583890256432e-05 -0.033979252014971928 0 1.5298026191090642e-06 -0.033993592391716544 0 -1.5566776888761936e-06 -0.033888178395409925 0 1.4979909992346674e-05 -0.034030211503100184 0 5.3270260136640544e-05 -0.033901794722491954 0 2.8007637932040947e-05 -0.033914858658670041 0 6.9459803964263232e-05 -0.033822234573446346 0 5.3270260136640544e-05 -0.033901794722491954 0 2.8007637932040947e-05 -0.033914858658670041 0 1.4979909992346674e-05 -0.034030211503100184 0 1.5298026191090642e-06 -0.033993592391716544 0 2.8007637932040947e-05 -0.033914858658670041 0 1.4979909992346674e-05 -0.034030211503100184 0 1.5298026191090642e-06 -0.033993592391716544 0 9.7813974046058344e-07 -0.034082869848920269 0 1.5298026191090642e-06 -0.033993592391716544 0 9.7813974046058344e-07 -0.034082869848920269 0 -1.2803089219000569e-05 -0.03411926190214655 0 1.4979909992346674e-05 -0.034030211503100184 0 9.7813974046058344e-07 -0.034082869848920269 0 -2.8947403042443896e-07 -0.034159996545092788 0 9.7813974046058344e-07 -0.034082869848920269 0 -7.9021104199851382e-06 -0.034148647302551176 0 -2.8947403042443896e-07 -0.034159996545092788 0 9.7813974046058344e-07 -0.034082869848920269 0 -7.9021104199851382e-06 -0.034148647302551176 0 -1.2803089219000569e-05 -0.03411926190214655 0 -7.9021104199851382e-06 -0.034148647302551176 0 -2.0953511995142871e-05 -0.034229696387937616 0 -1.2803089219000569e-05 -0.03411926190214655 0 -7.9021104199851382e-06 -0.034148647302551176 0 -2.8947403042443896e-07 -0.034159996545092788 0 -2.0953511995142871e-05 -0.034229696387937616 0 7.7423221009816778e-06 -0.034247206732628328 0 -2.8947403042443896e-07 -0.034159996545092788 0 -2.0953511995142871e-05 -0.034229696387937616 0 -3.9585367471186477e-05 -0.03431297827884594 0 -2.9689376976136735e-05 -0.034301440031285116 0 -2.0953511995142871e-05 -0.034229696387937616 0 7.7423221009816778e-06 -0.034247206732628328 0 -2.9689376976136735e-05 -0.034301440031285116 0 -2.0953511995142871e-05 -0.034229696387937616 0 -3.9585367471186477e-05 -0.03431297827884594 0 -2.0953511995142871e-05 -0.034229696387937616 0 -1.2803089219000569e-05 -0.03411926190214655 0 -3.9585367471186477e-05 -0.03431297827884594 0 -2.2744815756889323e-05 -0.03416773823812376 0 -1.2803089219000569e-05 -0.03411926190214655 0 0.0048688595454920939 0.0039825691988906809 0 0.0045227282614387927 0.0036114585370802268 0 0.0044542462204776347 0.0041064500290726941 0 0.0048688595454920939 0.0039825691988906809 0 0.0044542462204776347 0.0041064500290726941 0 0.0047860370469150629 0.0044892053168971296 0 0.0048688595454920939 0.0039825691988906809 0 0.0047860370469150629 0.0044892053168971296 0 0.0051757155309665372 0.0046366778248236526 0 0.0048688595454920939 0.0039825691988906809 0 0.0054314870696829075 0.003472553034617507 0 0.0051757155309665372 0.0046366778248236526 0 0.0052087261777013349 0.0045941860751363486 0 0.0051757155309665372 0.0046366778248236526 0 0.0052224820947305616 0.0046070298624748462 0 0.0053519476266530525 0.0038089284685984184 0 0.0051972757246631718 0.00467495799208059 0 0.0051757155309665372 0.0046366778248236526 0 0.0052224820947305616 0.0046070298624748462 0 0.0052407647606829135 0.0046929284398970891 0 0.0048688595454920939 0.0039825691988906809 0 0.0054314870696829075 0.003472553034617507 0 0.0049117835644840136 0.0033868475755828363 0 0.0052087261777013349 0.0045941860751363486 0 0.0052224820947305616 0.0046070298624748462 0 0.0052134777077719073 0.0045918573700875183 0 0.0054314870696829075 0.003472553034617507 0 0.0049117835644840136 0.0033868475755828363 0 0.0051762726400334108 0.0030334490272197643 0 0.0049117835644840136 0.0033868475755828363 0 0.004587179958074567 0.0031512011927898433 0 0.0048889911494291336 0.0029479339920146525 0 0.0049117835644840136 0.0033868475755828363 0 0.0048889911494291336 0.0029479339920146525 0 0.0051762726400334108 0.0030334490272197643 0 0.0048688595454920939 0.0039825691988906809 0 0.0049117835644840136 0.0033868475755828363 0 0.0045227282614387927 0.0036114585370802268 0 0.0049117835644840136 0.0033868475755828363 0 0.0045227282614387927 0.0036114585370802268 0 0.004587179958074567 0.0031512011927898433 0 0.0045227282614387927 0.0036114585370802268 0 0.004587179958074567 0.0031512011927898433 0 0.0041581362408902346 0.0030113395406243448 0 0.0041581362408902346 0.0030113395406243448 0 0.0036580819294476995 0.0032715610602208696 0 0.0037310125439647826 0.0028262351107692174 0 0.0041581362408902346 0.0030113395406243448 0 0.0036580819294476995 0.0032715610602208696 0 0.0040987785132873735 0.0036526511741222269 0 0.0045227282614387927 0.0036114585370802268 0 0.0041581362408902346 0.0030113395406243448 0 0.0040987785132873735 0.0036526511741222269 0 0.0034213678703005445 0.002974689464208436 0 0.0036580819294476995 0.0032715610602208696 0 0.0037310125439647826 0.0028262351107692174 0 0.003457671605755705 0.0031788768935869711 0 0.0030189599699239067 0.0030274337167105186 0 0.0034213678703005445 0.002974689464208436 0 0.0036580819294476995 0.0032715610602208696 0 0.0034204276774690598 0.0033722428871806225 0 0.0037806400522719334 0.0040923693136266353 0 0.0041173193748792721 0.0043668804489531777 0 0.0039780654433346791 0.0047678884522894894 0 0.0036580819294476995 0.0032715610602208696 0 0.0031870083683407714 0.0036320357685021222 0 0.0038333566520301347 0.004189539590899607 0 0.0030189599699239067 0.0030274337167105186 0 0.0041096580225738607 0.004371220096999185 0 0.0036580819294476995 0.0032715610602208696 0 0.0040987785132873735 0.0036526511741222269 0 0.0038333566520301347 0.004189539590899607 0 0.0045227282614387927 0.0036114585370802268 0 0.0040987785132873735 0.0036526511741222269 0 0.0044542462204776347 0.0041064500290726941 0 0.0040987785132873735 0.0036526511741222269 0 0.0038333566520301347 0.004189539590899607 0 0.0044542462204776347 0.0041064500290726941 0 0.0038333566520301347 0.004189539590899607 0 0.0044542462204776347 0.0041064500290726941 0 0.0044782405274146186 0.0046546693842582938 0 0.0041173193748792721 0.0043668804489531777 0 0.0044782405274146186 0.0046546693842582938 0 0.0039780654433346791 0.0047678884522894894 0 0.0044782405274146186 0.0046546693842582938 0 0.0039780654433346791 0.0047678884522894894 0 0.0048111053959003294 0.0050948289762588594 0 0.0041096580225738607 0.004371220096999185 0 0.0043729885462459326 0.0045783350792543715 0 0.0050557722794301128 0.004594425370460029 0 0.0051996837847857677 0.0042320461172767358 0 0.004866141109481666 0.0042678984182641265 0 0.0050557722794301128 0.004594425370460029 0 0.0051996837847857677 0.0042320461172767358 0 0.005473298754940647 0.0044238171576542647 0 0.0051996837847857677 0.0042320461172767358 0 0.004866141109481666 0.0042678984182641265 0 0.0049679056648117975 0.003980678269050607 0 0.0044419504174555251 0.0049439883335331601 0 0.0046545986422824627 0.0047002037218335626 0 0.0050557722794301128 0.004594425370460029 0 0.004866141109481666 0.0042678984182641265 0 0.0045092280297284477 0.0043792985873045854 0 0.004866141109481666 0.0042678984182641265 0 0.0045092280297284477 0.0043792985873045854 0 0.0046521543315140223 0.0041096557510417074 0 0.0048111053959003294 0.0050948289762588594 0 0.004906642542057243 0.0048691889114087549 0 0.0047985149566952432 0.0050980729424418576 0 0.0044782405274146186 0.0046546693842582938 0 0.0048111053959003294 0.0050948289762588594 0 0.004906642542057243 0.0048691889114087549 0 0.0044782405274146186 0.0046546693842582938 0 0.004906642542057243 0.0048691889114087549 0 0.0047860370469150629 0.0044892053168971296 0 0.004906642542057243 0.0048691889114087549 0 0.0047860370469150629 0.0044892053168971296 0 0.0051757155309665372 0.0046366778248236526 0 0.0044542462204776347 0.0041064500290726941 0 0.0044782405274146186 0.0046546693842582938 0 0.0047860370469150629 0.0044892053168971296 0 0.004906642542057243 0.0048691889114087549 0 0.0051756235183865766 0.0049296013376479474 0 0.0051757155309665372 0.0046366778248236526 0 0.0051756235183865766 0.0049296013376479474 0 0.0051757155309665372 0.0046366778248236526 0 0.0052407647606829135 0.0046929284398970891 0 0.0046545986422824627 0.0047002037218335626 0 0.0043837719209002691 0.0047263521799595061 0 0.004906642542057243 0.0048691889114087549 0 0.0051756235183865766 0.0049296013376479474 0 0.0047985149566952432 0.0050980729424418576 0 0.0048111053959003294 0.0050948289762588594 0 0.0047985149566952432 0.0050980729424418576 0 0.0047275009228722386 0.0050922574888880188 0 0.0051756235183865766 0.0049296013376479474 0 0.0054794655086108611 0.0051360008215944816 0 0.0053439170429865875 0.004983746623505419 0 0.0048121261018234272 0.0051156814710105582 0 0.0049479661524090245 0.0051807225922093124 0 0.0047985149566952432 0.0050980729424418576 0 0.0044610264541951284 0.0052436572510051078 0 0.0047275009228722386 0.0050922574888880188 0 0.0051756235183865766 0.0049296013376479474 0 0.0047985149566952432 0.0050980729424418576 0 0.0054794655086108611 0.0051360008215944816 0 0.0054794655086108611 0.0051360008215944816 0 0.0054393475161414505 0.0052214544349379029 0 0.0053439170429865875 0.004983746623505419 0 0.0054794655086108611 0.0051360008215944816 0 0.0054393475161414505 0.0052214544349379029 0 0.0051668331701065096 0.0053666335557218435 0 0.0049479661524090245 0.0051807225922093124 0 0.0044446939529239199 0.0052392509539853508 0 0.0054393475161414505 0.0052214544349379029 0 0.0053504556033627778 0.0056264770399154845 0 0.0051668331701065096 0.0053666335557218435 0 0.0054393475161414505 0.0052214544349379029 0 0.0053504556033627778 0.0056264770399154845 0 0.0057175216188936904 0.0057230986375345853 0 0.0054393475161414505 0.0052214544349379029 0 0.0053439170429865875 0.004983746623505419 0 0.0054084777183944725 0.004741928759613912 0 0.0054667076503560176 0.0051943559383037458 0 0.005537572892199626 0.00525827347896072 0 0.0051756235183865766 0.0049296013376479474 0 0.0053439170429865875 0.004983746623505419 0 0.0052407647606829135 0.0046929284398970891 0 0.0053439170429865875 0.004983746623505419 0 0.0052407647606829135 0.0046929284398970891 0 0.0054084777183944725 0.004741928759613912 0 0.0038608758792124673 0.005280946950235379 0 0.0036373170392941362 0.0051961693847825232 0 0.0036049383485335274 0.0053850417241422576 0 0.0044446939529239199 0.0052392509539853508 0 0.0039887463715370403 0.0053716850852000026 0 0.005011122134030173 0.0051791980837940068 0 0.0046682034357760239 0.0057109291935139436 0 0.0043684754713869131 0.0053583209113623543 0 0.0054794655086108611 0.0051360008215944816 0 0.005011122134030173 0.0051791980837940068 0 0.0051668331701065096 0.0053666335557218435 0 0.0053504556033627778 0.0056264770399154845 0 0.0051668331701065096 0.0053666335557218435 0 0.0050792202950041814 0.0058855551550353012 0 0.0051668331701065096 0.0053666335557218435 0 0.0046682034357760239 0.0057109291935139436 0 0.0050792202950041814 0.0058855551550353012 0 0.005011122134030173 0.0051791980837940068 0 0.0051668331701065096 0.0053666335557218435 0 0.0046682034357760239 0.0057109291935139436 0 0.0046682034357760239 0.0057109291935139436 0 0.0047836416795701197 0.0061459736837741101 0 0.0043756089638612673 0.0061069646846952643 0 0.0046682034357760239 0.0057109291935139436 0 0.0047836416795701197 0.0061459736837741101 0 0.0050792202950041814 0.0058855551550353012 0 0.0050792202950041814 0.0058855551550353012 0 0.0054474596969353436 0.0059599689597702038 0 0.0052758804292489785 0.0063728689617192661 0 0.0047836416795701197 0.0061459736837741101 0 0.0052758804292489785 0.0063728689617192661 0 0.0047182150388454048 0.0066090255650618239 0 0.0046463469585143208 0.006742054407705771 0 0.0044108004757443765 0.0067392334972568224 0 0.0047836416795701197 0.0061459736837741101 0 0.0050792202950041814 0.0058855551550353012 0 0.0052758804292489785 0.0063728689617192661 0 0.0047836416795701197 0.0061459736837741101 0 0.0047182150388454048 0.0066090255650618239 0 0.0043756089638612673 0.0061069646846952643 0 0.0057175216188936904 0.0057230986375345853 0 0.0054474596969353436 0.0059599689597702038 0 0.0059005290395863479 0.0061267443074472291 0 0.005537572892199626 0.00525827347896072 0 0.0050106877613982029 0.0055440675309791111 0 0.0052224820947305616 0.0046070298624748462 0 0.0052407647606829135 0.0046929284398970891 0 0.0052874903770735865 0.0045735553981942744 0 0.0053404448524183509 0.0050996582070852396 0 0.0050106877613982029 0.0055440675309791111 0 0.0052407647606829135 0.0046929284398970891 0 0.0054084777183944725 0.004741928759613912 0 0.0052874903770735865 0.0045735553981942744 0 0.0053504556033627778 0.0056264770399154845 0 0.0057175216188936904 0.0057230986375345853 0 0.0054474596969353436 0.0059599689597702038 0 0.0053504556033627778 0.0056264770399154845 0 0.0050792202950041814 0.0058855551550353012 0 0.0054474596969353436 0.0059599689597702038 0 0.0040857180501816777 0.0068758566879699289 0 0.0040905668784313653 0.0068675741172826328 0 0.0040975572667746006 0.0068528563849293263 0 0.0054474596969353436 0.0059599689597702038 0 0.0052758804292489785 0.0063728689617192661 0 0.0059005290395863479 0.0061267443074472291 0 0.0046463469585143208 0.006742054407705771 0 0.0050106877613982029 0.0055440675309791111 0 0.0052224820947305616 0.0046070298624748462 0 0.005227134572888952 0.0046076199639809926 0 0.0052134777077719073 0.0045918573700875183 0 0.0040905668784313653 0.0068675741172826328 0 0.0040975572667746006 0.0068528563849293263 0 0.0040939191421969874 0.0068629922613797556 0 0.0050106877613982029 0.0055440675309791111 0 0.004748431456568101 0.0058462640761545327 0 0.0040939191421969874 0.0068629922613797556 0 0.0040874102467392381 0.0068679487692634806 0 0.0040889443181908432 0.0068694244897988506 0 0.0040905668784313653 0.0068675741172826328 0 0.0040939191421969874 0.0068629922613797556 0 0.0040889443181908432 0.0068694244897988506 0 0.0040874102467392381 0.0068679487692634806 0 0.0040849365438207809 0.0068733002033785108 0 0.0040813032731723447 0.0068725352936917948 0 0.0040874102467392381 0.0068679487692634806 0 0.0040849365438207809 0.0068733002033785108 0 0.0040889443181908432 0.0068694244897988506 0 0.0040849365438207809 0.0068733002033785108 0 0.0040889443181908432 0.0068694244897988506 0 0.0040860771993036097 0.0068767581159390632 0 0.0040905668784313653 0.0068675741172826328 0 0.0040889443181908432 0.0068694244897988506 0 0.0040860771993036097 0.0068767581159390632 0 0.0040857180501816777 0.0068758566879699289 0 0.0040905668784313653 0.0068675741172826328 0 0.0040860771993036097 0.0068767581159390632 0 0.0040857180501816777 0.0068758566879699289 0 0.0040860771993036097 0.0068767581159390632 0 0.0040803520482804272 0.0068941011354942683 0 0.0040817295527248087 0.0068774792377870953 0 0.0040803520482804272 0.0068941011354942683 0 0.0040712757631874465 0.0069013714229387343 0 0.0040860771993036097 0.0068767581159390632 0 0.0040817295527248087 0.0068774792377870953 0 0.0040803520482804272 0.0068941011354942683 0 0.0040849365438207809 0.0068733002033785108 0 0.0040860771993036097 0.0068767581159390632 0 0.0040817295527248087 0.0068774792377870953 0 0.0040817295527248087 0.0068774792377870953 0 0.0040760924531019196 0.0068654573281722022 0 0.0040757671005947523 0.0068623187577307532 0 0.0040817295527248087 0.0068774792377870953 0 0.0040760924531019196 0.0068654573281722022 0 0.0040813032731723447 0.0068725352936917948 0 0.0040849365438207809 0.0068733002033785108 0 0.0040817295527248087 0.0068774792377870953 0 0.0040813032731723447 0.0068725352936917948 0 0.0040864693218643717 0.0069010463775009568 0 0.0040803520482804272 0.0068941011354942683 0 0.0040856939348341984 0.0069081962069729753 0 0.0040857180501816777 0.0068758566879699289 0 0.0040864693218643717 0.0069010463775009568 0 0.0040803520482804272 0.0068941011354942683 0 0.0040803520482804272 0.0068941011354942683 0 0.0040856939348341984 0.0069081962069729753 0 0.0040622457970834538 0.0069386365468860041 0 0.0040856939348341984 0.0069081962069729753 0 0.0040622457970834538 0.0069386365468860041 0 0.0040508718011924988 0.0069813250800426887 0 0.0040622457970834538 0.0069386365468860041 0 0.0040508718011924988 0.0069813250800426887 0 0.004018749398264845 0.0070049564298465608 0 0.0040803520482804272 0.0068941011354942683 0 0.0040622457970834538 0.0069386365468860041 0 0.0040712757631874465 0.0069013714229387343 0 0.0040622457970834538 0.0069386365468860041 0 0.0040431182215902271 0.0069514554878405844 0 0.0040712757631874465 0.0069013714229387343 0 0.0040431182215902271 0.0069514554878405844 0 0.0040712757631874465 0.0069013714229387343 0 0.0040612315188703228 0.0069032002394052447 0 0.0040622457970834538 0.0069386365468860041 0 0.0040431182215902271 0.0069514554878405844 0 0.004018749398264845 0.0070049564298465608 0 0.0040431182215902271 0.0069514554878405844 0 0.004018749398264845 0.0070049564298465608 0 0.0039986610666549087 0.0070084885721790457 0 0.0040757671005947523 0.0068623187577307532 0 0.0040676252921701267 0.0068698258942388075 0 0.004060891859885056 0.0068193253732251663 0 0.0040760924531019196 0.0068654573281722022 0 0.0040757671005947523 0.0068623187577307532 0 0.004060891859885056 0.0068193253732251663 0 0.0040757671005947523 0.0068623187577307532 0 0.0040741571635855879 0.0068778176704831061 0 0.0040676252921701267 0.0068698258942388075 0 0.0040817295527248087 0.0068774792377870953 0 0.0040757671005947523 0.0068623187577307532 0 0.0040741571635855879 0.0068778176704831061 0 0.0040741571635855879 0.0068778176704831061 0 0.0040712757631874465 0.0069013714229387343 0 0.0040676252921701267 0.0068698258942388075 0 0.0040817295527248087 0.0068774792377870953 0 0.0040741571635855879 0.0068778176704831061 0 0.0040712757631874465 0.0069013714229387343 0 0.0040712757631874465 0.0069013714229387343 0 0.0040612315188703228 0.0069032002394052447 0 0.0040676252921701267 0.0068698258942388075 0 0.0040676252921701267 0.0068698258942388075 0 0.004060891859885056 0.0068193253732251663 0 0.0040585830971417245 0.0068576519514816523 0 0.0040612315188703228 0.0069032002394052447 0 0.0040676252921701267 0.0068698258942388075 0 0.0040585830971417245 0.0068576519514816523 0 0.0023856196686911041 0.0017138479514735583 0 0.0024463221609197371 0.0029403377582822706 0 0.0041048428774235418 0.0067961218386638324 0 0.004060891859885056 0.0068193253732251663 0 0.0040585830971417245 0.0068576519514816523 0 0.0011664282696479805 -0.0014174791578646234 0 0.0010763813356869441 -0.0012622846096435772 0 0.0007842849026976046 -0.0012784010010543573 0 0.0011664282696479805 -0.0014174791578646234 0 0.0011835686290882661 -0.0012751721756435223 0 0.0010763813356869441 -0.0012622846096435772 0 0.0023856196686911041 0.0017138479514735583 0 0.00081061156167493685 -0.0022763666236424213 0 0.003691411160945784 0.0010366362395484233 0 0.0032859546036501288 0.0025164153362799936 0 0.0047511600351619939 0.0031534822420731319 0 0.0023856196686911041 0.0017138479514735583 0 0.0047760758859292252 0.0048038639880606058 0 0.0041048428774235418 0.0067961218386638324 0 0.004060891859885056 0.0068193253732251663 0 0.0040839126486661931 0.0066964694162990014 0 0.0040760924531019196 0.0068654573281722022 0 0.004060891859885056 0.0068193253732251663 0 0.0040645535615392459 0.0068755062711039682 0 0.0040108203746425991 0.0070695281295459298 0 0.0043041818618124649 0.0061587613763096271 0 0.004060891859885056 0.0068193253732251663 0 0.0040548034085557336 0.0066829784552489314 0 0.0040839126486661931 0.0066964694162990014 0 0.0040813032731723447 0.0068725352936917948 0 0.0040869948524434787 0.0068682275026186223 0 0.0040885173407107034 0.0068631079439754354 0 0.0040760924531019196 0.0068654573281722022 0 0.0040813032731723447 0.0068725352936917948 0 0.0040645535615392459 0.0068755062711039682 0 0.0043041818618124649 0.0061587613763096271 0 0.004851408208745394 0.0045494953862295238 0 0.0042345956981074918 0.0064890400636312493 0 0.0043041818618124649 0.0061587613763096271 0 0.0048130126686665217 0.0051077310725407468 0 0.0049119446454423416 0.0051495422281736883 0 0.0048193342227180564 0.0049577421721196668 0 0.0052583572064248659 0.0019880092169952809 0 0.0048444609175891697 0.0024220856589519169 0 0.0054748958778492512 0.0024340804642175198 0 0.0047760758859292252 0.0048038639880606058 0 0.004851408208745394 0.0045494953862295238 0 0.0043041818618124649 0.0061587613763096271 0 0.0047760758859292252 0.0048038639880606058 0 0.004446629389653272 0.0016072795883967249 0 0.0048444609175891697 0.0024220856589519169 0 0.0041808578406679975 0.0023878844739705142 0 0.004446629389653272 0.0016072795883967249 0 0.0052583572064248659 0.0019880092169952809 0 0.0048444609175891697 0.0024220856589519169 0 0.003956632437814381 0.0020877532150703126 0 0.0047760758859292252 0.0048038639880606058 0 0.0048444609175891697 0.0024220856589519169 0 0.004524295557394962 0.002786558150070118 0 0.0041808578406679975 0.0023878844739705142 0 0.004587179958074567 0.0031512011927898433 0 0.004524295557394962 0.002786558150070118 0 0.0048889911494291336 0.0029479339920146525 0 0.0048444609175891697 0.0024220856589519169 0 0.0048889911494291336 0.0029479339920146525 0 0.0051039135228981075 0.0027329933175653854 0 0.0048444609175891697 0.0024220856589519169 0 0.004524295557394962 0.002786558150070118 0 0.0048889911494291336 0.0029479339920146525 0 0.0048889911494291336 0.0029479339920146525 0 0.0051762726400334108 0.0030334490272197643 0 0.0051039135228981075 0.0027329933175653854 0 0.0052087261777013349 0.0045941860751363486 0 0.0052134777077719073 0.0045918573700875183 0 0.0052042401909730375 0.0045839006259401601 0 0.0054314870696829075 0.003472553034617507 0 0.0051762726400334108 0.0030334490272197643 0 0.0054748958778492512 0.0024340804642175198 0 0.0051762726400334108 0.0030334490272197643 0 0.0051039135228981075 0.0027329933175653854 0 0.0054748958778492512 0.0024340804642175198 0 0.0053519476266530525 0.0038089284685984184 0 0.004851408208745394 0.0045494953862295238 0 0.004748431456568101 0.0058462640761545327 0 0.004851408208745394 0.0045494953862295238 0 0.0040874102467392381 0.0068679487692634806 0 0.0040813032731723447 0.0068725352936917948 0 0.0040885173407107034 0.0068631079439754354 0 0.0040939191421969874 0.0068629922613797556 0 0.0040874102467392381 0.0068679487692634806 0 0.0040885173407107034 0.0068631079439754354 0 0.0048444609175891697 0.0024220856589519169 0 0.0051039135228981075 0.0027329933175653854 0 0.0054748958778492512 0.0024340804642175198 0 0.0037310125439647826 0.0028262351107692174 0 0.0036936865964193755 0.0021251112123248628 0 0.0033570737797682143 0.0025934485056164163 0 0.0034213678703005445 0.002974689464208436 0 0.0037310125439647826 0.0028262351107692174 0 0.0033570737797682143 0.0025934485056164163 0 0.0041581362408902346 0.0030113395406243448 0 0.004524295557394962 0.002786558150070118 0 0.0041808578406679975 0.0023878844739705142 0 0.0041581362408902346 0.0030113395406243448 0 0.0037310125439647826 0.0028262351107692174 0 0.0041808578406679975 0.0023878844739705142 0 0.0037310125439647826 0.0028262351107692174 0 0.0041808578406679975 0.0023878844739705142 0 0.0036936865964193755 0.0021251112123248628 0 0.004587179958074567 0.0031512011927898433 0 0.0041581362408902346 0.0030113395406243448 0 0.004524295557394962 0.002786558150070118 0 0.0040128514594065783 0.00229150436725621 0 0.0039134669229217191 0.0022038445650716305 0 0.004446629389653272 0.0016072795883967249 0 0.0041808578406679975 0.0023878844739705142 0 0.0034851998272579271 0.0019713682146884561 0 0.0036936865964193755 0.0021251112123248628 0 0.0033570737797682143 0.0025934485056164163 0 0.0032022402306219277 0.0022571095744992864 0 0.0036936865964193755 0.0021251112123248628 0 0.0033042586160570812 0.0019306813728802491 0 0.0032022402306219277 0.0022571095744992864 0 0.0039134669229217191 0.0022038445650716305 0 0.0028072727226301207 -0.0017183416056555582 0 0.0034851998272579271 0.0019713682146884561 0 0.0035641692627817346 0.0011952983051202756 0 0.002787179958050735 0.0015330692757106715 0 0.0021215046238780965 -0.0032245523068098981 0 0.0021153598635826778 -0.0032358030011657617 0 0.0021073877821328251 -0.0032374612611022584 0 0.0023597497588771542 -0.00068303164018597819 0 0.0028072727226301207 -0.0017183416056555582 0 0.0012788474563145572 -0.0022423868556892298 0 0.0012374924921202328 -0.0022698715061605624 0 0.0013021084620491628 -0.0022484319438176264 0 0.0023597497588771542 -0.00068303164018597819 0 0.001555328728458 -0.0031792598033573921 0 0.0012374924921202328 -0.0022698715061605624 0 0.0012486681689539043 -0.0022036588193312225 0 0.0011818729562907712 -0.0021587015676705693 0 0.0014831891065268724 -0.0031199593349885654 0 0.001555328728458 -0.0031792598033573921 0 0.0012788474563145572 -0.0022423868556892298 0 0.0012486681689539043 -0.0022036588193312225 0 0.0013069761103621316 -0.0021701339532175226 0 0.0012788474563145572 -0.0022423868556892298 0 0.0012374924921202328 -0.0022698715061605624 0 0.0012486681689539043 -0.0022036588193312225 0 0.0012788474563145572 -0.0022423868556892298 0 0.0013015637214876497 -0.0022482170022360181 0 0.0013069761103621316 -0.0021701339532175226 0 0.0023856196686911041 0.0017138479514735583 0 0.0023597497588771542 -0.00068303164018597819 0 0.003956632437814381 0.0020877532150703126 0 0.0023597497588771542 -0.00068303164018597819 0 0.003691411160945784 0.0010366362395484233 0 0.0032859546036501288 0.0025164153362799936 0 0.0018300650920813745 0.0018785883802545922 0 0.004446629389653272 0.0016072795883967249 0 0.0034851998272579271 0.0019713682146884561 0 0.0035641692627817346 0.0011952983051202756 0 0.00098962907393680406 -0.0021465356858241151 0 0.0011818729562907712 -0.0021587015676705693 0 0.0010893654853175569 -0.0020931163800637087 0 0.00098962907393680406 -0.0021465356858241151 0 0.0010893654853175569 -0.0020931163800637087 0 0.0010374299217790579 -0.0019627319583245461 0 0.00098962907393680406 -0.0021465356858241151 0 0.0012374924921202328 -0.0022698715061605624 0 0.0011818729562907712 -0.0021587015676705693 0 0.0011818729562907712 -0.0021587015676705693 0 0.0011532833300620204 -0.0020463921879183972 0 0.0010893654853175569 -0.0020931163800637087 0 0.0011925702011463203 -0.0020663008755420721 0 0.0014114672920293428 -0.002108898736850274 0 0.0011818729562907712 -0.0021587015676705693 0 0.0013453022021017902 -0.002096371746709872 0 0.0013069761103621316 -0.0021701339532175226 0 0.0011818729562907712 -0.0021587015676705693 0 0.0011532833300620204 -0.0020463921879183972 0 0.0013453022021017902 -0.002096371746709872 0 0.0012486681689539043 -0.0022036588193312225 0 0.0011818729562907712 -0.0021587015676705693 0 0.0013069761103621316 -0.0021701339532175226 0 0.001555328728458 -0.0031792598033573921 0 0.0016579058453699898 -0.0029190759978511469 0 0.001864869305712408 -0.0022782636315323047 0 0.0018552174767443523 -0.002106655827935794 0 0.0016424648867704391 -0.0020174232885579119 0 0.0014114672920293428 -0.002108898736850274 0 0.0016579058453699898 -0.0029190759978511469 0 0.0013015637214876497 -0.0022482170022360181 0 0.0013069761103621316 -0.0021701339532175226 0 0.0015421038483382258 -0.0021582865875795082 0 0.0015252811987288926 -0.0021975865524963578 0 0.001864869305712408 -0.0022782636315323047 0 0.0016424648867704391 -0.0020174232885579119 0 0.0013453022021017902 -0.002096371746709872 0 0.0013069761103621316 -0.0021701339532175226 0 0.0015421038483382258 -0.0021582865875795082 0 0.0016786286601121964 -0.0049827172838502335 0 0.0018259278338245808 -0.005032075922474807 0 0.0018468340753274857 -0.0049344333614383881 0 0.001555328728458 -0.0031792598033573921 0 0.0019067437969638766 -0.0063977187272286152 0 0.0021153598635826778 -0.0032358030011657617 0 0.0020946102437827178 -0.0032626808998134469 0 0.0021073877821328251 -0.0032374612611022584 0 0.0020305778640873039 -0.0065300328446190777 0 0.0021868025550045569 -0.0064123136729320393 0 0.0018989557116847889 -0.0063263804292717453 0 0.0019067437969638766 -0.0063977187272286152 0 0.0028072727226301207 -0.0017183416056555582 0 0.002125596248909789 -0.0097174047745965282 0 0.0016863181057989013 -0.010015639450149806 0 0.0013692173402612025 -0.0096466914721759292 0 0.0019067437969638766 -0.0063977187272286152 0 0.0022447472091785699 -0.0076343950144315076 0 0.0018259278338245808 -0.005032075922474807 0 0.0019460280198444679 -0.0049775809745191179 0 0.0018468340753274857 -0.0049344333614383881 0 0.0019067437969638766 -0.0063977187272286152 0 0.0016381665985639134 -0.0076009082126212747 0 0.0020305778640873039 -0.0065300328446190777 0 0.0016191636708923539 -0.0065253320505746417 0 0.0018989557116847889 -0.0063263804292717453 0 0.0020239001201483213 -0.0019155264217066107 0 0.0020542590247826461 -0.0021416777150263149 0 0.0019621004926915439 -0.0023922004533485828 0 0.0020239001201483213 -0.0019155264217066107 0 0.0022846125622641654 -0.0020540121497417442 0 0.0020542590247826461 -0.0021416777150263149 0 0.0016579058453699898 -0.0029190759978511469 0 0.002209422865800234 -0.002301771584816458 0 0.0022447472091785699 -0.0076343950144315076 0 0.0016579058453699898 -0.0029190759978511469 0 0.001864869305712408 -0.0022782636315323047 0 0.0020542590247826461 -0.0021416777150263149 0 0.0018552174767443523 -0.002106655827935794 0 0.0032317457263025566 -0.011831650788912969 0 0.0011248411828298449 -0.011310969015056013 0 0.00093198267249199127 -0.013278671876866243 0 0.0022447472091785699 -0.0076343950144315076 0 0.0011480116055884 -0.0071871985744888208 0 0.0020239001201483213 -0.0019155264217066107 0 0.0019621004926915439 -0.0023922004533485828 0 0.00098504564668407645 -0.002160086593526562 0 0.0011248411828298449 -0.011310969015056013 0 -0.00048402048207424076 -0.012573348998348294 0 0.00093198267249199127 -0.013278671876866243 0 0.0012457465296626907 -0.010527707670756321 0 -0.00093040575641266561 -0.01494940645163673 0 0.0011101183317969443 -0.0099143010610651481 0 0.0013692173402612025 -0.0096466914721759292 0 0.00061547127461476715 -0.0095973015341205663 0 0.0016863181057989013 -0.010015639450149806 0 0.0011101183317969443 -0.0099143010610651481 0 0.0013692173402612025 -0.0096466914721759292 0 0.0022447472091785699 -0.0076343950144315076 0 0.0012457465296626907 -0.010527707670756321 0 0.0016191636708923539 -0.0065253320505746417 0 0.0016101618712621528 -0.0062348019707875726 0 0.0018989557116847889 -0.0063263804292717453 0 0.0029692542624978253 0.0021569187821426526 0 0.0032068361292459375 0.0021884708141598772 0 0.0029206644782070125 0.0022139690427447722 0 0.0016191636708923539 -0.0065253320505746417 0 0.0014291140109721518 -0.0063537179899066012 0 0.0016101618712621528 -0.0062348019707875726 0 0.0022171788151845546 -0.0016082521084643273 0 0.002499325992114187 -0.0021576976825658698 0 0.0016191636708923539 -0.0065253320505746417 0 0.0014291140109721518 -0.0063537179899066012 0 0.0011723407388394441 -0.0065263851617736882 0 0.0016381665985639134 -0.0076009082126212747 0 0.00013971429792977537 -0.013441406070235442 0 0.0014291140109721518 -0.0063537179899066012 0 0.0013061644673567478 -0.0061224964040985565 0 0.0011723407388394441 -0.0065263851617736882 0 0.0022974161097866906 -0.006926080978104268 0 0.0022171788151845546 -0.0016082521084643273 0 0.0014291140109721518 -0.0063537179899066012 0 0.0013061644673567478 -0.0061224964040985565 0 0.0016101618712621528 -0.0062348019707875726 0 0.0038774314569309052 0.0017463815884960908 0 0.0032562972495608273 0.0017483691931683041 0 0.0038103658862975189 0.0015273335769780704 0 0.0038774314569309052 0.0017463815884960908 0 0.0032068361292459375 0.0021884708141598772 0 0.0032562972495608273 0.0017483691931683041 0 0.0038106837430507859 0.0013793683843682377 0 0.0037699029011427298 0.0014087648182899944 0 0.0038103658862975189 0.0015273335769780704 0 0.0022974161097866906 -0.006926080978104268 0 0.0040850076995026527 -0.00032287165253769659 0 0.0029692542624978253 0.0021569187821426526 0 0.0032562972495608273 0.0017483691931683041 0 0.002958690323571724 0.0015912422913125482 0 0.0029692542624978253 0.0021569187821426526 0 0.0032068361292459375 0.0021884708141598772 0 0.0032562972495608273 0.0017483691931683041 0 0.0029969793679472225 0.0022415648517132864 0 0.0027296461373504163 0.002148714094240411 0 0.0029692542624978253 0.0021569187821426526 0 0.0030373025163430061 0.0023850138017830862 0 0.0030095725628283519 0.0027853912875370813 0 0.0029692542624978253 0.0021569187821426526 0 0.0030373025163430061 0.0023850138017830862 0 0.0029206644782070125 0.0022139690427447722 0 0.0029692542624978253 0.0021569187821426526 0 0.0025439433912897973 0.0016905451993790657 0 0.002958690323571724 0.0015912422913125482 0 0.0033570737797682143 0.0025934485056164163 0 0.0030373025163430061 0.0023850138017830862 0 0.0030095725628283519 0.0027853912875370813 0 0.0034213678703005445 0.002974689464208436 0 0.0033570737797682143 0.0025934485056164163 0 0.0030095725628283519 0.0027853912875370813 0 0.0033570737797682143 0.0025934485056164163 0 0.0030373025163430061 0.0023850138017830862 0 0.0032022402306219277 0.0022571095744992864 0 0.0028072727226301207 -0.0017183416056555582 0 0.002499325992114187 -0.0021576976825658698 0 0.0030373025163430061 0.0023850138017830862 0 0.0032022402306219277 0.0022571095744992864 0 0.0029206644782070125 0.0022139690427447722 0 0.0033042586160570812 0.0019306813728802491 0 0.0032022402306219277 0.0022571095744992864 0 0.0029206644782070125 0.0022139690427447722 0 -0.00050645470988640859 -0.032784403802741759 0 -0.00019359471640826288 -0.032868937854265874 0 -0.00045356357196018113 -0.032492431364937686 0 -0.00050676829275381923 -0.032683693299350614 0 -0.00045356357196018113 -0.032492431364937686 0 -0.00049877646934780512 -0.032613120799823044 0 -0.00050676829275381923 -0.032683693299350614 0 -0.00050645470988640859 -0.032784403802741759 0 -0.00045356357196018113 -0.032492431364937686 0 -0.00050645470988640859 -0.032784403802741759 0 -0.00037096558068097803 -0.032943448463694812 0 -0.00019359471640826288 -0.032868937854265874 0 -0.00050645470988640859 -0.032784403802741759 0 -0.00037096558068097803 -0.032943448463694812 0 -0.00055942722200566584 -0.032919719128544848 0 -0.00065847147027910103 -0.026873875670587733 0 -0.0028386964942445272 -0.028124615593120145 0 -0.0022983317864886076 -0.02084338981900246 0 -0.0028312710820155348 -0.021976009241310022 0 -0.0027011426137479788 -0.021985042824480265 0 -0.00019359471640826288 -0.032868937854265874 0 0.00049958897029412481 -0.032806804173552681 0 -0.00017985483659856439 -0.03319356154577964 0 -0.00037096558068097803 -0.032943448463694812 0 -0.00019359471640826288 -0.032868937854265874 0 -0.00017985483659856439 -0.03319356154577964 0 -0.00019359471640826288 -0.032868937854265874 0 -8.1059998102991669e-06 -0.032608000754691023 0 0.00049958897029412481 -0.032806804173552681 0 -8.1059998102991669e-06 -0.032608000754691023 0 0.00035369528663050119 -0.031892678814502418 0 0.00049958897029412481 -0.032806804173552681 0 -0.00019359471640826288 -0.032868937854265874 0 -8.1059998102991669e-06 -0.032608000754691023 0 -0.00045356357196018113 -0.032492431364937686 0 -8.1059998102991669e-06 -0.032608000754691023 0 -0.00045356357196018113 -0.032492431364937686 0 0.00035369528663050119 -0.031892678814502418 0 0.00049958897029412481 -0.032806804173552681 0 0.0019463051690588645 -0.031144961758626678 0 0.0011245976486150854 -0.031304628454762132 0 -0.00065847147027910103 -0.026873875670587733 0 -0.00070603506722432575 -0.023624708561266597 0 -0.0016902865382565234 -0.020063534134993379 0 -0.0022983317864886076 -0.02084338981900246 0 -0.0012459759988528568 -0.02017935943284286 0 -0.0016902865382565234 -0.020063534134993379 0 -0.0022983317864886076 -0.02084338981900246 0 -0.0015967366062983449 -0.01954633915893144 0 0.00035369528663050119 -0.031892678814502418 0 0.00049958897029412481 -0.032806804173552681 0 0.0011245976486150854 -0.031304628454762132 0 -0.0022983317864886076 -0.02084338981900246 0 -0.0017723154318118263 -0.021571064403280493 0 -0.0022578845446415423 -0.021751027044036069 0 -0.0022983317864886076 -0.02084338981900246 0 -0.0027011426137479788 -0.021985042824480265 0 -0.0022578845446415423 -0.021751027044036069 0 -0.0022983317864886076 -0.02084338981900246 0 -0.0017723154318118263 -0.021571064403280493 0 -0.0012459759988528568 -0.02017935943284286 0 -0.0017019056513788572 -0.017241319435688848 0 -0.00093040575641266561 -0.01494940645163673 0 -0.0018201225048254037 -0.013109495782176262 0 -0.00048402048207424076 -0.012573348998348294 0 -0.0010056750591613856 -0.010776308266928698 0 0.0011248411828298449 -0.011310969015056013 0 -0.00048402048207424076 -0.012573348998348294 0 -0.0010056750591613856 -0.010776308266928698 0 0.0011101183317969443 -0.0099143010610651481 0 0.0005371957321743283 -0.0098285390714688628 0 0.00061547127461476715 -0.0095973015341205663 0 -0.0016902865382565234 -0.020063534134993379 0 -0.0012237165396568723 -0.020165774373557838 0 -0.0015967366062983449 -0.01954633915893144 0 -0.00093040575641266561 -0.01494940645163673 0 0.00013971429792977537 -0.013441406070235442 0 -0.00083044795470367657 -0.01724792201046587 0 -0.00093040575641266561 -0.01494940645163673 0 0.00096199640577450439 -0.018289991345275421 0 0.0022664406431141784 -0.010917558047467276 0 -0.0016486287147170244 -0.017827930046207991 0 0.0022974161097866906 -0.006926080978104268 0 0.00013971429792977537 -0.013441406070235442 0 0.0030941326551107047 -0.02839562658871856 0 0.0017499394841378102 -0.029729248326160231 0 0.0019463051690588645 -0.031144961758626678 0 0.00013971429792977537 -0.013441406070235442 0 -0.00070603506722432575 -0.023624708561266597 0 -0.0012237165396568723 -0.020165774373557838 0 -0.0010381907847017283 -0.019620578908898404 0 -0.0015967366062983449 -0.01954633915893144 0 0.0028806313367650128 -0.014291224041911754 0 -0.00070603506722432575 -0.023624708561266597 0 0.0032992778757576684 -0.011387098354615573 0 0.00096199640577450439 -0.018289991345275421 0 0.0022664406431141784 -0.010917558047467276 0 0.0030941326551107047 -0.02839562658871856 0 0.0037536312451681912 -0.028109503656781911 0 0.0019463051690588645 -0.031144961758626678 0 0.0038159090838793771 -0.013389874979415959 0 0.0037200836570657992 -0.013353483122117456 0 0.0038913519550471693 -0.013243117331704383 0 0.0022974161097866906 -0.006926080978104268 0 0.0028806313367650128 -0.014291224041911754 0 0.0028806313367650128 -0.014291224041911754 0 0.0029858549663559159 -0.020810468218539286 0 0.0030941326551107047 -0.02839562658871856 0 0.0037536312451681912 -0.028109503656781911 0 0.0030758847853864231 -0.027772655641985652 0 0.0028806313367650128 -0.014291224041911754 0 0.0047853650235288306 -0.0056678311218376909 0 0.0030817989142978949 -0.027846633831888616 0 0.0023949593459798128 -0.028279219241220194 0 0.0019003042685948903 -0.027333194243154502 0 0.0030941326551107047 -0.02839562658871856 0 0.0030817989142978949 -0.027846633831888616 0 0.0023949593459798128 -0.028279219241220194 0 0.0030459907180747474 -0.024539804885089073 0 0.0029858549663559159 -0.020810468218539286 0 0.0030941326551107047 -0.02839562658871856 0 0.0023949593459798128 -0.028279219241220194 0 0.0017499394841378102 -0.029729248326160231 0 0.0023949593459798128 -0.028279219241220194 0 0.0017499394841378102 -0.029729248326160231 0 0.0019003042685948903 -0.027333194243154502 0 -0.00027461383893937624 -0.03252147495886383 0 -0.00025056419701740559 -0.032271284230314189 0 5.8185231197988081e-05 -0.032103712086945679 0 0.0017499394841378102 -0.029729248326160231 0 0.00026476479807698629 -0.030110810034063351 0 0.0019003042685948903 -0.027333194243154502 0 -0.00021996027501917838 -0.031992902469761345 0 0.0013596481783780129 -0.026141863766047685 0 0.00026476479807698629 -0.030110810034063351 0 0.001184902046565596 -0.030461589690861306 0 0.0011245976486150854 -0.031304628454762132 0 0.0017499394841378102 -0.029729248326160231 0 0.00026476479807698629 -0.030110810034063351 0 0.001184902046565596 -0.030461589690861306 0 0.00035369528663050119 -0.031892678814502418 0 0.00026476479807698629 -0.030110810034063351 0 0.0011245976486150854 -0.031304628454762132 0 0.0017499394841378102 -0.029729248326160231 0 0.0014793710355953931 -0.030677515066433781 0 0.0019463051690588645 -0.031144961758626678 0 0.0017499394841378102 -0.029729248326160231 0 0.0014793710355953931 -0.030677515066433781 0 0.001184902046565596 -0.030461589690861306 0 0.0014793710355953931 -0.030677515066433781 0 0.0019463051690588645 -0.031144961758626678 0 0.0011245976486150854 -0.031304628454762132 0 0.0014793710355953931 -0.030677515066433781 0 0.001184902046565596 -0.030461589690861306 0 0.0011245976486150854 -0.031304628454762132 0 -0.00045356357196018113 -0.032492431364937686 0 0.00035369528663050119 -0.031892678814502418 0 0.00026476479807698629 -0.030110810034063351 0 -0.00045356357196018113 -0.032492431364937686 0 -0.00027461383893937624 -0.03252147495886383 0 -0.00049877646934780512 -0.032613120799823044 0 -0.00029994849492122241 -0.032091509615153654 0 -0.00021996027501917838 -0.031992902469761345 0 -0.00027461383893937624 -0.03252147495886383 0 -0.00042014789818594055 -0.032431892193644209 0 -0.00049877646934780512 -0.032613120799823044 0 -0.00027461383893937624 -0.03252147495886383 0 -0.00025056419701740559 -0.032271284230314189 0 -0.00042014789818594055 -0.032431892193644209 0 -0.00025056419701740559 -0.032271284230314189 0 -0.00042014789818594055 -0.032431892193644209 0 -0.00046504020901478308 -0.032218884906116851 0 -0.00027889590208575693 -0.032575996178970695 0 -0.00061612966059031973 -0.032603075806108141 0 -0.00078893635485333612 -0.032325647866494264 0 -0.00042014789818594055 -0.032431892193644209 0 -0.00049877646934780512 -0.032613120799823044 0 -0.00078893635485333612 -0.032325647866494264 0 -0.00042014789818594055 -0.032431892193644209 0 -0.00046504020901478308 -0.032218884906116851 0 -0.00027889590208575693 -0.032575996178970695 0 -0.00027655049714992206 -0.032055489221635057 0 -0.00050923744301736244 -0.032794136430273534 0 -0.00050676829275381923 -0.032683693299350614 0 -0.00049877646934780512 -0.032613120799823044 0 -0.00050923744301736244 -0.032794136430273534 0 -0.00051632060706639782 -0.032891272378300959 0 -0.00049877646934780512 -0.032613120799823044 0 0.00077851951396376215 -0.03364190840364345 0 0.00086560475423652617 -0.03356664894633133 0 0.00095736565851043992 -0.033622591565012003 0 0.00092138272619577191 -0.03349056867061101 0 0.00099558930347168209 -0.033563666236214769 0 0.00096536231579137459 -0.033406781141355202 0 0.00084216398607811157 -0.033509143114085919 0 0.00092138272619577191 -0.03349056867061101 0 0.00087439675072356659 -0.033436948938733634 0 0.00084216398607811157 -0.033509143114085919 0 0.00092138272619577191 -0.03349056867061101 0 0.00086560475423652617 -0.03356664894633133 0 0.00092138272619577191 -0.03349056867061101 0 0.0009457937646971525 -0.033556589659654044 0 0.00099558930347168209 -0.033563666236214769 0 0.0009457937646971525 -0.033556589659654044 0 0.000983750605929248 -0.033567244816698337 0 0.00095736565851043992 -0.033622591565012003 0 0.0014166557153126116 -0.030830833578301884 0 0.00069663078306346103 -0.02967042626163793 0 0.0009457937646971525 -0.033556589659654044 0 0.00086560475423652617 -0.03356664894633133 0 0.00095736565851043992 -0.033622591565012003 0 0.00092138272619577191 -0.03349056867061101 0 0.0009457937646971525 -0.033556589659654044 0 0.00086560475423652617 -0.03356664894633133 0 0.00067350518652011459 -0.032500668830376556 0 0.00030682928200226084 -0.031090996199658612 0 0.00035291318232561468 -0.031243898750623497 0 0.00034798095823363145 -0.031225634332375646 0 0.00034559899693258886 -0.031229656574523777 0 0.00034858292848573047 -0.031243472575023409 0 0.00034798095823363145 -0.031225634332375646 0 0.00036452515796597785 -0.031230552129029192 0 0.00035291318232561468 -0.031243898750623497 0 0.00034858292848573047 -0.031243472575023409 0 0.00034798095823363145 -0.031225634332375646 0 0.00034798095823363145 -0.031225634332375646 0 0.00034899058176524224 -0.031207785435813172 0 0.00036452515796597785 -0.031230552129029192 0 0.0002994343841231092 -0.031135350164691988 0 0.00030682928200226084 -0.031090996199658612 0 0.00069663078306346103 -0.02967042626163793 0 0.00030682928200226084 -0.031090996199658612 0 -0.00027655049714992206 -0.032055489221635057 0 0.000850649315678188 -0.027016239672977668 0 0.00034899058176524224 -0.031207785435813172 0 0.00036452515796597785 -0.031230552129029192 0 0.00044214276987873701 -0.031151922401033545 0 0.00069663078306346103 -0.02967042626163793 0 0.0014506673496774579 -0.026841151935019993 0 0.00036452515796597785 -0.031230552129029192 0 0.00044214276987873701 -0.031151922401033545 0 0.00045653343323948244 -0.031150025279889231 0 0.00030682928200226084 -0.031090996199658612 0 0.0014506673496774579 -0.026841151935019993 0 0.00095867957927629332 -0.028983503615648689 0 0.00097393947911946063 -0.028955428961178857 0 0.00085149050671821415 -0.028893778253074581 0 -0.00025056419701740559 -0.032271284230314189 0 -0.00046504020901478308 -0.032218884906116851 0 -9.6287934783561628e-05 -0.032045688433132435 0 0.0029075108155764335 -0.023053323855499977 0 0.0030617488644553207 -0.022977090628599598 0 0.0030450411516291099 -0.022800237776714805 0 0.0029075108155764335 -0.023053323855499977 0 0.0030617488644553207 -0.022977090628599598 0 0.0031174496123996518 -0.023092550541722448 0 0.0030617488644553207 -0.022977090628599598 0 0.0031633518593156018 -0.022910849572267692 0 0.0030450411516291099 -0.022800237776714805 0 0.00069663078306346103 -0.02967042626163793 0 0.0053886822075543492 -0.022581215626204302 0 0.0060721579713269797 -0.016356412106513969 0 0.0063558113185165546 -0.015843936172694976 0 0.0072988179621505537 -0.017253390415109711 0 0.0060721579713269797 -0.016356412106513969 0 0.0063558113185165546 -0.015843936172694976 0 0.0035040198044794173 -0.013560787797592996 0 0.0047612915726908877 -0.019472057237073157 0 0.004993916733488115 -0.014510673763055239 0 0.0031633518593156018 -0.022910849572267692 0 0.0031610327665574228 -0.022995437485611166 0 0.0032780871026152794 -0.022983502998085881 0 0.0030617488644553207 -0.022977090628599598 0 0.0031633518593156018 -0.022910849572267692 0 0.0031610327665574228 -0.022995437485611166 0 0.0030617488644553207 -0.022977090628599598 0 0.0031610327665574228 -0.022995437485611166 0 0.0031174496123996518 -0.023092550541722448 0 0.0031610327665574228 -0.022995437485611166 0 0.0031174496123996518 -0.023092550541722448 0 0.0031660875646855585 -0.023084852953148504 0 -0.00025056419701740559 -0.032271284230314189 0 -9.6287934783561628e-05 -0.032045688433132435 0 5.8185231197988081e-05 -0.032103712086945679 0 0.0014506673496774579 -0.026841151935019993 0 0.000850649315678188 -0.027016239672977668 0 0.0016225139058998834 -0.025882872136711966 0 0.0013369313266178063 -0.025744294869175146 0 0.0011451898381063881 -0.025790791864081834 0 0.0014506673496774579 -0.026841151935019993 0 0.0018968464046427169 -0.024839858404501345 0 0.0018248153411217255 -0.021881212057378092 0 0.0032200108289484513 -0.021493736571839756 0 0.002846694948457382 -0.022040619361318545 0 0.000850649315678188 -0.027016239672977668 0 0.0013596481783780129 -0.026141863766047685 0 0.0021138433206544494 -0.024786284944645121 0 0.00094084200452256429 -0.024233140767285988 0 0.0017597046137157661 -0.024875649207524792 0 0.000850649315678188 -0.027016239672977668 0 0.0018968464046427169 -0.024839858404501345 0 0.0018968464046427169 -0.024839858404501345 0 0.0026893130711131011 -0.021439474985605198 0 0.00094084200452256429 -0.024233140767285988 0 0.0017597046137157661 -0.024875649207524792 0 0.0006364958754985705 -0.024671143435067568 0 0.0013596481783780129 -0.026141863766047685 0 0.0026893130711131011 -0.021439474985605198 0 0.0031660875646855585 -0.023084852953148504 0 0.0032109213406074639 -0.023023033352621809 0 0.0032529270140574935 -0.023030989984877338 0 0.0018968464046427169 -0.024839858404501345 0 0.0034402348044136016 -0.018474475881560627 0 0.0031610327665574228 -0.022995437485611166 0 0.0031660875646855585 -0.023084852953148504 0 0.0032109213406074639 -0.023023033352621809 0 0.0031610327665574228 -0.022995437485611166 0 0.0032109213406074639 -0.023023033352621809 0 0.0032780871026152794 -0.022983502998085881 0 0.0032109213406074639 -0.023023033352621809 0 0.0032780871026152794 -0.022983502998085881 0 0.0032529270140574935 -0.023030989984877338 0 0.004993916733488115 -0.014510673763055239 0 0.0034402348044136016 -0.018474475881560627 0 0.0073556782801019929 -0.012401817099161046 0 0.0066700660000739362 -0.011734246714628593 0 0.006774343574185532 -0.013239830205439389 0 0.004993916733488115 -0.014510673763055239 0 0.0071775666222865554 -0.0079213826493660308 0 0.0073461323858341815 -0.012403353330207836 0 0.0066700660000739362 -0.011734246714628593 0 0.0067315709057530022 -0.011015899480142094 0 0.004993916733488115 -0.014510673763055239 0 0.0050285175559293023 -0.013833664209608415 0 0.004993916733488115 -0.014510673763055239 0 0.0050457304478631919 -0.014354780055191354 0 0.0039819774873125309 -0.017457126287775092 0 0.0037369462643038372 -0.017527907901557154 0 0.0039858264177298694 -0.017792239304416282 0 0.0050285175559293023 -0.013833664209608415 0 0.0034402348044136016 -0.018474475881560627 0 0.0051282640296071843 -0.01522590987850302 0 0.0053805571856905864 -0.015792830409899136 0 0.004589533639039467 -0.016005266774397522 0 0.0034402348044136016 -0.018474475881560627 0 0.0026893130711131011 -0.021439474985605198 0 0.0034527742325273225 -0.021404869993955609 0 0.0030971946608223983 -0.021916073360869263 0 0.0017699880825218059 -0.021677625649500543 0 0.0037369462643038372 -0.017527907901557154 0 0.0035945479091354315 -0.017737006234687245 0 0.0039858264177298694 -0.017792239304416282 0 0.0029858549663559159 -0.020810468218539286 0 0.0013596481783780129 -0.026141863766047685 0 0.0017504098009397543 -0.020607532599909949 0 0.0034527742325273225 -0.021404869993955609 0 0.0017699880825218059 -0.021677625649500543 0 0.0050285175559293023 -0.013833664209608415 0 0.0038557507713082228 -0.015366582117736097 0 0.0026893130711131011 -0.021439474985605198 0 0.0038557507713082228 -0.015366582117736097 0 0.0029858549663559159 -0.020810468218539286 0 0.0038557507713082228 -0.015366582117736097 0 0.0044365497438066575 -0.0095854630148198925 0 0.0054610463425138391 -0.0091338896775155377 0 0.0063524533549962703 -0.009913340961758969 0 0.0037200836570657992 -0.013353483122117456 0 0.0037208044990893838 -0.013236052758048386 0 0.0038913519550471693 -0.013243117331704383 0 0.0038557507713082228 -0.015366582117736097 0 0.0047853650235288306 -0.0056678311218376909 0 0.004422438654761468 -0.0082867947144358977 0 0.0044365497438066575 -0.0095854630148198925 0 0.0054610463425138391 -0.0091338896775155377 0 0.0054610463425138391 -0.0091338896775155377 0 0.0065806765088068783 -0.0092779928469691412 0 0.0063524533549962703 -0.009913340961758969 0 0.006003484505437983 -0.0092122875530890741 0 0.0060153262206327843 -0.0089808334950047305 0 0.0054610463425138391 -0.0091338896775155377 0 0.0053063402417914719 -0.0080481481318700754 0 0.0065806765088068783 -0.0092779928469691412 0 0.0066700660000739362 -0.011734246714628593 0 0.0067315709057530022 -0.011015899480142094 0 0.0049331615754946642 -0.011480899875359947 0 0.004422438654761468 -0.0082867947144358977 0 0.0054610463425138391 -0.0091338896775155377 0 0.0053063402417914719 -0.0080481481318700754 0 0.0050285175559293023 -0.013833664209608415 0 0.006003484505437983 -0.0092122875530890741 0 0.0066700660000739362 -0.011734246714628593 0 0.0049331615754946642 -0.011480899875359947 0 0.006774343574185532 -0.013239830205439389 0 0.0066695954958632484 -0.001556265170777744 0 0.0068037034521794774 -0.0011341641274946854 0 0.0062733400125341036 -0.0011745170284250637 0 0.006003484505437983 -0.0092122875530890741 0 0.0071775666222865554 -0.0079213826493660308 0 0.010229088908622015 -0.0092043342843291815 0 0.010339037535577461 -0.0093309828017244349 0 0.010414673304308389 -0.0090292603825346852 0 0.0071775666222865554 -0.0079213826493660308 0 0.0085229621965907231 -0.0034040261426666316 0 0.006283461999619387 -0.001752105896078782 0 0.0063058024356421622 0.001154692173830227 0 0.0073790904245981869 -0.00010113021925107522 0 0.0068037034521794774 -0.0011341641274946854 0 0.0062733400125341036 -0.0011745170284250637 0 0.007046649459996647 -0.00078448945911436369 0 0.0062733400125341036 -0.0011745170284250637 0 0.007046649459996647 -0.00078448945911436369 0 0.0072838144174255061 0.00024518587108298567 0 0.0084933332520312332 -0.013291692530058276 0 0.0071775666222865554 -0.0079213826493660308 0 0.0063558113185165546 -0.015843936172694976 0 0.0037590175647510778 -0.013192826998138655 0 0.0035040198044794173 -0.013560787797592996 0 0.0071775666222865554 -0.0079213826493660308 0 0.0077635853704107992 0.00087796190362295805 0 0.0063058024356421622 0.001154692173830227 0 0.0073790904245981869 -0.00010113021925107522 0 0.0073350380001352064 0.0010144709967855855 0 0.0063058024356421622 0.001154692173830227 0 0.0073350380001352064 0.0010144709967855855 0 0.0072232820284922382 0.0022685226004317141 0 0.0063058024356421622 0.001154692173830227 0 0.0072232820284922382 0.0022685226004317141 0 0.0066920469525985973 0.0035289856827996017 0 0.010414673304308389 -0.0090292603825346852 0 0.010359053177858709 -0.008835944983377194 0 0.010634414819256883 -0.0085498173049454989 0 0.0085229621965907231 -0.0034040261426666316 0 0.0086500431496499153 -0.002657600432920351 0 0.010141388136622466 -0.0086633758633017956 0 0.0086978736885182095 -0.013273975059712758 0 0.010240327292146341 -0.0089777378037529682 0 0.010123416576926813 -0.008744243455274827 0 0.010022093154767308 -0.0090500803995196 0 0.010414673304308389 -0.0090292603825346852 0 0.010240327292146341 -0.0089777378037529682 0 0.010359053177858709 -0.008835944983377194 0 0.010240327292146341 -0.0089777378037529682 0 0.010359053177858709 -0.008835944983377194 0 0.010123416576926813 -0.008744243455274827 0 0.010229088908622015 -0.0092043342843291815 0 0.010240327292146341 -0.0089777378037529682 0 0.010022093154767308 -0.0090500803995196 0 0.010229088908622015 -0.0092043342843291815 0 0.010414673304308389 -0.0090292603825346852 0 0.010240327292146341 -0.0089777378037529682 0 0.0084933332520312332 -0.013291692530058276 0 0.0086978736885182095 -0.013273975059712758 0 0.0047612915726908877 -0.019472057237073157 0 0.0053886822075543492 -0.022581215626204302 0 0.0060721579713269797 -0.016356412106513969 0 0.0072988179621505537 -0.017253390415109711 0 0.0085181712242972021 -0.018926093753496721 0 0.0063558113185165546 -0.015843936172694976 0 0.0072988179621505537 -0.017253390415109711 0 0.0087927610556783799 -0.018388708403156043 0 0.00099558930347168209 -0.033563666236214769 0 0.0011182128054035047 -0.033298611406464604 0 0.00096536231579137459 -0.033406781141355202 0 0.006558932681242277 -0.019224900571043573 0 0.0053886822075543492 -0.022581215626204302 0 0.0011182128054035047 -0.033298611406464604 0 0.0010407354773618693 -0.033271520864961122 0 0.00098149147873878204 -0.033330673335864369 0 0.0011182128054035047 -0.033298611406464604 0 0.00098149147873878204 -0.033330673335864369 0 0.00096536231579137459 -0.033406781141355202 0 0.0053886822075543492 -0.022581215626204302 0 0.0027325268647670157 -0.025176783105048419 0 0.0072988179621505537 -0.017253390415109711 0 0.0085181712242972021 -0.018926093753496721 0 0.0088199140224918121 -0.018349442539568089 0 0.009706656592336476 -0.013139277707255998 0 0.0095015863171887607 -0.0135343180732857 0 0.0087848658416562891 -0.01270118263719412 0 0.0086978736885182095 -0.013273975059712758 0 0.0053886822075543492 -0.022581215626204302 0 0.009706656592336476 -0.013139277707255998 0 0.0087848658416562891 -0.01270118263719412 0 0.007938057581949513 -0.010868698929836482 0 0.0096388747512177325 -0.0097651839119971863 0 0.0089162731071329836 -0.011166745217703215 0 0.0086878347984308789 -0.0099760318609634722 0 0.0089162731071329836 -0.011166745217703215 0 0.0086878347984308789 -0.0099760318609634722 0 0.0076053834941407616 -0.0098223593195808506 0 0.0086978736885182095 -0.013273975059712758 0 0.0077536834777006342 -0.010178369237887655 0 0.0032558252900741413 -0.019935265558731402 0 0.0027325268647670157 -0.025176783105048419 0 5.6826504332454353e-05 -0.03312816275084151 0 0.0027325268647670157 -0.025176783105048419 0 0.006644331632854745 -0.0099943062538427642 0 0.0087848658416562891 -0.01270118263719412 0 0.007938057581949513 -0.010868698929836482 0 0.00088518538241518776 -0.03329779582346936 0 0.0010407354773618693 -0.033271520864961122 0 0.00098149147873878204 -0.033330673335864369 0 0.0008630006798482782 -0.033212827194923751 0 0.00088518538241518776 -0.03329779582346936 0 0.0010407354773618693 -0.033271520864961122 0 -0.00023351699507641907 -0.031181015625346704 0 -9.4025691207642834e-05 -0.03111444434515951 0 -0.0012770399323455241 -0.029217519530829232 0 0.00085730979487992458 -0.033354338382065522 0 0.00088518538241518776 -0.03329779582346936 0 0.00090362689195652615 -0.033362129612139475 0 0.00088518538241518776 -0.03329779582346936 0 0.00090362689195652615 -0.033362129612139475 0 0.00098149147873878204 -0.033330673335864369 0 0.00090362689195652615 -0.033362129612139475 0 0.00098149147873878204 -0.033330673335864369 0 0.00096536231579137459 -0.033406781141355202 0 0.00090362689195652615 -0.033362129612139475 0 0.00096536231579137459 -0.033406781141355202 0 0.00087439675072356659 -0.033436948938733634 0 0.00092138272619577191 -0.03349056867061101 0 0.00096536231579137459 -0.033406781141355202 0 0.00087439675072356659 -0.033436948938733634 0 0.0026901889862236505 0.0013433243966973216 0 0.0025998365741387057 0.0009993590521229106 0 0.0030810231714163087 0.0011715932156691608 0 0.0052051660435845698 0.0027549826125647906 0 0.006382768388917162 0.00032699467891488519 0 0.0030189599699239067 0.0030274337167105186 0 0.0052051660435845698 0.0027549826125647906 0 0.0037806400522719334 0.0040923693136266353 0 0.0039780654433346791 0.0047678884522894894 0 0.0033413314715387324 0.0044442113980478863 0 0.0021509650093066422 0.0013584648900769533 0 0.0026901889862236505 0.0013433243966973216 0 0.0025998365741387057 0.0009993590521229106 0 0.0021509650093066422 0.0013584648900769533 0 0.0026901889862236505 0.0013433243966973216 0 0.0025439433912897973 0.0016905451993790657 0 0.0030189599699239067 0.0030274337167105186 0 0.0027296461373504163 0.002148714094240411 0 0.0034213678703005445 0.002974689464208436 0 0.0034204276774690598 0.0033722428871806225 0 0.0030095725628283519 0.0027853912875370813 0 0.0026901889862236505 0.0013433243966973216 0 0.002958690323571724 0.0015912422913125482 0 0.0030810231714163087 0.0011715932156691608 0 0.0026901889862236505 0.0013433243966973216 0 0.0025439433912897973 0.0016905451993790657 0 0.002958690323571724 0.0015912422913125482 0 0.002958690323571724 0.0015912422913125482 0 0.0032886759132216602 0.0014613165361507055 0 0.0030810231714163087 0.0011715932156691608 0 0.0032562972495608273 0.0017483691931683041 0 0.002958690323571724 0.0015912422913125482 0 0.0032886759132216602 0.0014613165361507055 0 0.0032562972495608273 0.0017483691931683041 0 0.0032886759132216602 0.0014613165361507055 0 0.0034508583792109051 0.0015488285006562054 0 0.0026438582123203096 0.0024820975872303203 0 0.0047853650235288306 -0.0056678311218376909 0 0.0032562972495608273 0.0017483691931683041 0 0.0038502124797033092 0.0016025889795129918 0 0.0034508583792109051 0.0015488285006562054 0 0.0032562972495608273 0.0017483691931683041 0 0.0038103658862975189 0.0015273335769780704 0 0.0038595607836460657 0.0014611121274038714 0 0.0037699029011427298 0.0014087648182899944 0 0.0038103658862975189 0.0015273335769780704 0 0.0038595607836460657 0.0014611121274038714 0 0.0038502124797033092 0.0016025889795129918 0 0.0034508583792109051 0.0015488285006562054 0 0.003635498908717442 0.0014644274586322278 0 0.0032886759132216602 0.0014613165361507055 0 0.0036081014589098926 0.0013266484379841786 0 0.0034233660748667419 0.0012757537482789045 0 0.0032886759132216602 0.0014613165361507055 0 0.0036081014589098926 0.0013266484379841786 0 0.0035390218172746406 0.0014510092921422926 0 0.0032886759132216602 0.0014613165361507055 0 0.0034508583792109051 0.0015488285006562054 0 0.0035390218172746406 0.0014510092921422926 0 0.0036081014589098926 0.0013266484379841786 0 0.0036500812505590135 0.0013043603073555853 0 0.0034880265833134292 0.0012686739683440619 0 0.0042470586957221316 0.00022729615002546784 0 0.0054368853592514513 -2.8930333425990837e-05 0 0.0036081014589098926 0.0013266484379841786 0 0.003635498908717442 0.0014644274586322278 0 0.0036500812505590135 0.0013043603073555853 0 0.0034508583792109051 0.0015488285006562054 0 0.0035390218172746406 0.0014510092921422926 0 0.003635498908717442 0.0014644274586322278 0 0.0036081014589098926 0.0013266484379841786 0 0.0035390218172746406 0.0014510092921422926 0 0.003635498908717442 0.0014644274586322278 0 0.0065806765088068783 -0.0092779928469691412 0 0.0063524533549962703 -0.009913340961758969 0 0.0079060022572999197 -0.0071664738820206306 0 0.0047853650235288306 -0.0056678311218376909 0 0.0072357805013031802 -0.002525496881580898 0 0.0052203673765511098 -0.0078819648100619758 0 0.0065806765088068783 -0.0092779928469691412 0 0.0079060022572999197 -0.0071664738820206306 0 0.0066695954958632484 -0.001556265170777744 0 0.0068037034521794774 -0.0011341641274946854 0 0.0077307516756246579 -0.0012386123422361611 0 0.0038502124797033092 0.0016025889795129918 0 0.003635498908717442 0.0014644274586322278 0 0.0036500812505590135 0.0013043603073555853 0 0.006003484505437983 -0.0092122875530890741 0 0.0072357805013031802 -0.002525496881580898 0 0.0077307516756246579 -0.0012386123422361611 0 0.0075895794935866316 -0.00045600564507325235 0 0.007046649459996647 -0.00078448945911436369 0 0.0068037034521794774 -0.0011341641274946854 0 0.0077307516756246579 -0.0012386123422361611 0 0.007046649459996647 -0.00078448945911436369 0 0.0077859195384911749 -0.00093905081582405434 0 0.0082929746717207257 -7.2903743418458212e-05 0 0.0083683540214726689 -0.00079130303033840587 0 0.0077307516756246579 -0.0012386123422361611 0 0.0075895794935866316 -0.00045600564507325235 0 0.0082929746717207257 -7.2903743418458212e-05 0 0.0072357805013031802 -0.002525496881580898 0 0.0084360905928004513 6.5879672037195218e-05 0 0.0072357805013031802 -0.002525496881580898 0 0.0054368853592514513 -2.8930333425990837e-05 0 0.0075895794935866316 -0.00045600564507325235 0 0.0082929746717207257 -7.2903743418458212e-05 0 0.0072838144174255061 0.00024518587108298567 0 0.0075895794935866316 -0.00045600564507325235 0 0.007046649459996647 -0.00078448945911436369 0 0.0072838144174255061 0.00024518587108298567 0 0.0082929746717207257 -7.2903743418458212e-05 0 0.009287187905092505 -0.00034599665557717978 0 0.0083683540214726689 -0.00079130303033840587 0 0.0032886759132216602 0.0014613165361507055 0 0.0030810231714163087 0.0011715932156691608 0 0.0034233660748667419 0.0012757537482789045 0 0.006382768388917162 0.00032699467891488519 0 0.0054368853592514513 -2.8930333425990837e-05 0 0.0082929746717207257 -7.2903743418458212e-05 0 0.009287187905092505 -0.00034599665557717978 0 0.0088038027937575349 0.00063139531166704209 0 0.0088038027937575349 0.00063139531166704209 0 0.0095070689900438529 0.0011895567411153818 0 0.008196370916906788 0.0014244217731278074 0 0.009287187905092505 -0.00034599665557717978 0 0.0088038027937575349 0.00063139531166704209 0 0.0095070689900438529 0.0011895567411153818 0 0.0082929746717207257 -7.2903743418458212e-05 0 0.0088038027937575349 0.00063139531166704209 0 0.008196370916906788 0.0014244217731278074 0 0.0082929746717207257 -7.2903743418458212e-05 0 0.0072838144174255061 0.00024518587108298567 0 0.008196370916906788 0.0014244217731278074 0 0.0077635853704107992 0.00087796190362295805 0 0.0079273893728896167 0.00099758280769131694 0 0.008196370916906788 0.0014244217731278074 0 0.0073350380001352064 0.0010144709967855855 0 0.0077966802813141918 0.0018099283386655213 0 0.0073790904245981869 -0.00010113021925107522 0 0.008196370916906788 0.0014244217731278074 0 0.0073350380001352064 0.0010144709967855855 0 0.0083712916589720986 0.0022615243446057125 0 0.0072232820284922382 0.0022685226004317141 0 0.0070256879971431728 0.0034638413208578833 0 0.0073350380001352064 0.0010144709967855855 0 0.0077966802813141918 0.0018099283386655213 0 0.0072232820284922382 0.0022685226004317141 0 0.008196370916906788 0.0014244217731278074 0 0.0077966802813141918 0.0018099283386655213 0 0.0083712916589720986 0.0022615243446057125 0 0.0077966802813141918 0.0018099283386655213 0 0.0083712916589720986 0.0022615243446057125 0 0.0072232820284922382 0.0022685226004317141 0 0.0095070689900438529 0.0011895567411153818 0 0.008196370916906788 0.0014244217731278074 0 0.0083712916589720986 0.0022615243446057125 0 0.0061521040395828902 0.0045368966395799943 0 0.0066234411072935489 0.0041363589074863445 0 0.0062162936308457605 0.0041607214360394546 0 0.0082644109397629947 0.0026490047626680602 0 0.0073816868393501069 0.0032575541492824373 0 0.0066234411072935489 0.0041363589074863445 0 0.0062162936308457605 0.0041607214360394546 0 0.0063974845512520242 0.0039141301207868597 0 0.0062162936308457605 0.0041607214360394546 0 0.0058383732515071415 0.00428794388794769 0 0.0060951299552376445 0.0039338802975114918 0 0.0061521040395828902 0.0045368966395799943 0 0.0062162936308457605 0.0041607214360394546 0 0.0058383732515071415 0.00428794388794769 0 0.0052051660435845698 0.0027549826125647906 0 0.0082644109397629947 0.0026490047626680602 0 0.0057059633469636432 0.0048675804334993768 0 0.0061521040395828902 0.0045368966395799943 0 0.0058383732515071415 0.00428794388794769 0 0.010578867169175806 0.00028606804503930594 0 0.009287187905092505 -0.00034599665557717978 0 0.0095070689900438529 0.0011895567411153818 0 0.0044419504174555251 0.0049439883335331601 0 0.0052051660435845698 0.0027549826125647906 0 0.0057059633469636432 0.0048675804334993768 0 0.0058383732515071415 0.00428794388794769 0 0.005473298754940647 0.0044238171576542647 0 0.0050557722794301128 0.004594425370460029 0 0.0057059633469636432 0.0048675804334993768 0 0.005473298754940647 0.0044238171576542647 0 0.0058383732515071415 0.00428794388794769 0 0.0055285611378545286 0.0041655360768186695 0 0.0057380697361442412 0.0038889837595839131 0 0.0058383732515071415 0.00428794388794769 0 0.005473298754940647 0.0044238171576542647 0 0.0055285611378545286 0.0041655360768186695 0 0.0051996837847857677 0.0042320461172767358 0 0.005473298754940647 0.0044238171576542647 0 0.0055285611378545286 0.0041655360768186695 0 0.0051996837847857677 0.0042320461172767358 0 0.0055285611378545286 0.0041655360768186695 0 0.0053686368308568698 0.0038600255554994863 0 0.0053686368308568698 0.0038600255554994863 0 0.0055777789087658632 0.0034874722543037956 0 0.0057380697361442412 0.0038889837595839131 0 0.0055285611378545286 0.0041655360768186695 0 0.0053686368308568698 0.0038600255554994863 0 0.0057380697361442412 0.0038889837595839131 0 0.0053686368308568698 0.0038600255554994863 0 0.0055777789087658632 0.0034874722543037956 0 0.0051002222973845325 0.0036029536692705894 0 0.0055777789087658632 0.0034874722543037956 0 0.0060334876293841391 0.0036201753606864293 0 0.0057380697361442412 0.0038889837595839131 0 0.0055777789087658632 0.0034874722543037956 0 0.0060334876293841391 0.0036201753606864293 0 0.0060535931708611823 0.0032881525232368331 0 0.0060334876293841391 0.0036201753606864293 0 0.0063522706186491355 0.0034392328421215105 0 0.0060535931708611823 0.0032881525232368331 0 0.0060334876293841391 0.0036201753606864293 0 0.0057380697361442412 0.0038889837595839131 0 0.0060951299552376445 0.0039338802975114918 0 0.0058383732515071415 0.00428794388794769 0 0.0057380697361442412 0.0038889837595839131 0 0.0060951299552376445 0.0039338802975114918 0 0.0062162936308457605 0.0041607214360394546 0 0.0060951299552376445 0.0039338802975114918 0 0.0063974845512520242 0.0039141301207868597 0 0.0060951299552376445 0.0039338802975114918 0 0.0063974845512520242 0.0039141301207868597 0 0.0063610856666878879 0.0036745271186249201 0 0.0063974845512520242 0.0039141301207868597 0 0.0063610856666878879 0.0036745271186249201 0 0.0066658422685635689 0.0036701192312789269 0 0.0066234411072935489 0.0041363589074863445 0 0.0063974845512520242 0.0039141301207868597 0 0.0066658422685635689 0.0036701192312789269 0 0.0063610856666878879 0.0036745271186249201 0 0.0066658422685635689 0.0036701192312789269 0 0.0066684207865022136 0.0034531158850489578 0 0.0060334876293841391 0.0036201753606864293 0 0.0060951299552376445 0.0039338802975114918 0 0.0063610856666878879 0.0036745271186249201 0 0.0066234411072935489 0.0041363589074863445 0 0.0066658422685635689 0.0036701192312789269 0 0.0070256879971431728 0.0034638413208578833 0 0.0073816868393501069 0.0032575541492824373 0 0.007086430507532316 0.0034469524858140345 0 0.0066658422685635689 0.0036701192312789269 0 0.0068453292850046508 0.0034827744608222641 0 0.0066684207865022136 0.0034531158850489578 0 0.0068453292850046508 0.0034827744608222641 0 0.0070256879971431728 0.0034638413208578833 0 0.006899820411803456 0.0034432768160013896 0 0.0066658422685635689 0.0036701192312789269 0 0.0068453292850046508 0.0034827744608222641 0 0.0070256879971431728 0.0034638413208578833 0 0.0066684207865022136 0.0034531158850489578 0 0.0068814048797508284 0.0033154238565886798 0 0.0066456498227124286 0.0030842650624040681 0 0.0068453292850046508 0.0034827744608222641 0 0.0068814048797508284 0.0033154238565886798 0 0.006899820411803456 0.0034432768160013896 0 0.0068453292850046508 0.0034827744608222641 0 0.0066684207865022136 0.0034531158850489578 0 0.0068814048797508284 0.0033154238565886798 0 0.0066684207865022136 0.0034531158850489578 0 0.0063522706186491355 0.0034392328421215105 0 0.0066456498227124286 0.0030842650624040681 0 0.0060334876293841391 0.0036201753606864293 0 0.0063610856666878879 0.0036745271186249201 0 0.0063522706186491355 0.0034392328421215105 0 0.0063610856666878879 0.0036745271186249201 0 0.0066684207865022136 0.0034531158850489578 0 0.0063522706186491355 0.0034392328421215105 0 0.0061676461777160733 0.0029461633415742085 0 0.0066456498227124286 0.0030842650624040681 0 0.0064369718382265911 0.0026619656474242575 0 0.0063522706186491355 0.0034392328421215105 0 0.0066456498227124286 0.0030842650624040681 0 0.0060535931708611823 0.0032881525232368331 0 0.0061676461777160733 0.0029461633415742085 0 0.0066456498227124286 0.0030842650624040681 0 0.0060535931708611823 0.0032881525232368331 0 0.0068814048797508284 0.0033154238565886798 0 0.0066456498227124286 0.0030842650624040681 0 0.0070292596146607758 0.0028673196422229529 0 0.0064483553710123279 0.0030554698625681587 0 0.008802691294124327 -0.00098742518098535181 0 0.0070292596146607758 0.0028673196422229529 0 0.0069235172494809399 0.0025672445867505104 0 0.0073138670579900519 0.002462297788479376 0 0.0066456498227124286 0.0030842650624040681 0 0.0070292596146607758 0.0028673196422229529 0 0.0069235172494809399 0.0025672445867505104 0 0.0066456498227124286 0.0030842650624040681 0 0.0069235172494809399 0.0025672445867505104 0 0.0064369718382265911 0.0026619656474242575 0 0.0069235172494809399 0.0025672445867505104 0 0.0064369718382265911 0.0026619656474242575 0 0.006253146587654866 0.0021107525657882088 0 0.0061676461777160733 0.0029461633415742085 0 0.0064369718382265911 0.0026619656474242575 0 0.0060265581757338992 0.0026605813075409272 0 0.0064369718382265911 0.0026619656474242575 0 0.0060265581757338992 0.0026605813075409272 0 0.006253146587654866 0.0021107525657882088 0 0.0060265581757338992 0.0026605813075409272 0 0.0057466960047349797 0.0029859150781981541 0 0.005581496419401857 0.0025172460881026709 0 0.0061676461777160733 0.0029461633415742085 0 0.0060265581757338992 0.0026605813075409272 0 0.0057466960047349797 0.0029859150781981541 0 0.005581496419401857 0.0025172460881026709 0 0.005204948131279875 0.0024185232168192771 0 0.0051553447493694893 0.0030056628802440275 0 0.0057466960047349797 0.0029859150781981541 0 0.005581496419401857 0.0025172460881026709 0 0.0051553447493694893 0.0030056628802440275 0 0.0055777789087658632 0.0034874722543037956 0 0.0051553447493694893 0.0030056628802440275 0 0.0051002222973845325 0.0036029536692705894 0 0.0055777789087658632 0.0034874722543037956 0 0.0057466960047349797 0.0029859150781981541 0 0.0051553447493694893 0.0030056628802440275 0 0.0055777789087658632 0.0034874722543037956 0 0.0060535931708611823 0.0032881525232368331 0 0.0057466960047349797 0.0029859150781981541 0 0.0061676461777160733 0.0029461633415742085 0 0.0060535931708611823 0.0032881525232368331 0 0.0057466960047349797 0.0029859150781981541 0 0.0079356734147677417 -0.0081734428933034585 0 0.0083153642055770506 -0.0067471274050734387 0 0.0070420694796036387 -0.0071759178289793491 0 0.0079356734147677417 -0.0081734428933034585 0 0.0070266199591161793 -0.0081411053529904329 0 0.0070420694796036387 -0.0071759178289793491 0 0.0062747121796422958 -0.0087312253618194915 0 0.0076053834941407616 -0.0098223593195808506 0 0.0070266199591161793 -0.0081411053529904329 0 0.0076053834941407616 -0.0098223593195808506 0 0.0079356734147677417 -0.0081734428933034585 0 0.0070266199591161793 -0.0081411053529904329 0 0.006644331632854745 -0.0099943062538427642 0 0.0062747121796422958 -0.0087312253618194915 0 0.007938057581949513 -0.010868698929836482 0 0.0063610518609209538 -0.0088637581276487225 0 0.0077536834777006342 -0.010178369237887655 0 0.008600653382240012 -0.0091436570081510019 0 0.0091255716930123115 -0.0078030789898645685 0 0.0094104867136302773 -0.0087131550630053095 0 0.0076053834941407616 -0.0098223593195808506 0 0.0079356734147677417 -0.0081734428933034585 0 0.008600653382240012 -0.0091436570081510019 0 0.0086878347984308789 -0.0099760318609634722 0 0.0076053834941407616 -0.0098223593195808506 0 0.008600653382240012 -0.0091436570081510019 0 0.0096388747512177325 -0.0097651839119971863 0 0.008600653382240012 -0.0091436570081510019 0 0.0094104867136302773 -0.0087131550630053095 0 0.0096388747512177325 -0.0097651839119971863 0 0.0086878347984308789 -0.0099760318609634722 0 0.008600653382240012 -0.0091436570081510019 0 0.0079356734147677417 -0.0081734428933034585 0 0.0091255716930123115 -0.0078030789898645685 0 0.0083153642055770506 -0.0067471274050734387 0 0.0079356734147677417 -0.0081734428933034585 0 0.008600653382240012 -0.0091436570081510019 0 0.0091255716930123115 -0.0078030789898645685 0 0.009994605824478274 -0.0072760075047058354 0 0.010294095330327772 -0.0081998041054950274 0 0.010916468104303986 -0.0068515986071774797 0 0.0091255716930123115 -0.0078030789898645685 0 0.009994605824478274 -0.0072760075047058354 0 0.0092478010326629643 -0.0068548657364853501 0 0.0091255716930123115 -0.0078030789898645685 0 0.009994605824478274 -0.0072760075047058354 0 0.010294095330327772 -0.0081998041054950274 0 0.0091255716930123115 -0.0078030789898645685 0 0.010294095330327772 -0.0081998041054950274 0 0.0094104867136302773 -0.0087131550630053095 0 0.010123416576926813 -0.008744243455274827 0 0.010294095330327772 -0.0081998041054950274 0 0.010634414819256883 -0.0085498173049454989 0 0.010359053177858709 -0.008835944983377194 0 0.010123416576926813 -0.008744243455274827 0 0.010634414819256883 -0.0085498173049454989 0 0.010141388136622466 -0.0086633758633017956 0 0.010170207972101053 -0.0085191340230316246 0 0.0096388747512177325 -0.0097651839119971863 0 0.010294095330327772 -0.0081998041054950274 0 0.0094104867136302773 -0.0087131550630053095 0 0.0072232820284922382 0.0022685226004317141 0 0.0066920469525985973 0.0035289856827996017 0 0.0070256879971431728 0.0034638413208578833 0 0.0066920469525985973 0.0035289856827996017 0 0.0070256879971431728 0.0034638413208578833 0 0.006899820411803456 0.0034432768160013896 0 0.010294095330327772 -0.0081998041054950274 0 0.010634414819256883 -0.0085498173049454989 0 0.010916468104303986 -0.0068515986071774797 0 0.0086500431496499153 -0.002657600432920351 0 0.0090778658317247577 -0.0018500676232261909 0 0.0066920469525985973 0.0035289856827996017 0 0.006899820411803456 0.0034432768160013896 0 0.0072137608965628245 0.0031358286361893588 0 0.0068814048797508284 0.0033154238565886798 0 0.006899820411803456 0.0034432768160013896 0 0.0072137608965628245 0.0031358286361893588 0 0.0068814048797508284 0.0033154238565886798 0 0.0070292596146607758 0.0028673196422229529 0 0.0072137608965628245 0.0031358286361893588 0 0.0070292596146607758 0.0028673196422229529 0 0.0072137608965628245 0.0031358286361893588 0 0.0073138670579900519 0.002462297788479376 0 0.0090778658317247577 -0.0018500676232261909 0 0.008802691294124327 -0.00098742518098535181 0 0.0095431352685863349 -0.0059599424168610823 0 0.0092351765342619917 -0.0042313138168485814 0 0.010933256336026279 -0.0046076495541123577 0 0.010916468104303986 -0.0068515986071774797 0 0.0095431352685863349 -0.0059599424168610823 0 0.010933256336026279 -0.0046076495541123577 0 0.009994605824478274 -0.0072760075047058354 0 0.0095431352685863349 -0.0059599424168610823 0 0.0092478010326629643 -0.0068548657364853501 0 0.009994605824478274 -0.0072760075047058354 0 0.010916468104303986 -0.0068515986071774797 0 0.0095431352685863349 -0.0059599424168610823 0 0.0095431352685863349 -0.0059599424168610823 0 0.0083153642055770506 -0.0067471274050734387 0 0.0077459158228704306 -0.0053470280810806545 0 0.0095431352685863349 -0.0059599424168610823 0 0.0092478010326629643 -0.0068548657364853501 0 0.0083153642055770506 -0.0067471274050734387 0 0.0091255716930123115 -0.0078030789898645685 0 0.0092478010326629643 -0.0068548657364853501 0 0.0083153642055770506 -0.0067471274050734387 0 0.0095431352685863349 -0.0059599424168610823 0 0.0077459158228704306 -0.0053470280810806545 0 0.0092351765342619917 -0.0042313138168485814 0 0.0063145596502027571 -0.0059679157224607603 0 0.0064846898563545924 -0.0046200595028511333 0 0.0077459158228704306 -0.0053470280810806545 0 0.0063145596502027571 -0.0059679157224607603 0 0.0077459158228704306 -0.0053470280810806545 0 0.007360395676015455 -0.0063100889921271115 0 0.0064846898563545924 -0.0046200595028511333 0 0.0077459158228704306 -0.0053470280810806545 0 0.0075161650384271113 -0.0037844614954475886 0 0.0083153642055770506 -0.0067471274050734387 0 0.007360395676015455 -0.0063100889921271115 0 0.0070420694796036387 -0.0071759178289793491 0 0.0063145596502027571 -0.0059679157224607603 0 0.007360395676015455 -0.0063100889921271115 0 0.0070420694796036387 -0.0071759178289793491 0 0.0083153642055770506 -0.0067471274050734387 0 0.0077459158228704306 -0.0053470280810806545 0 0.007360395676015455 -0.0063100889921271115 0 0.0066895226715456496 -0.0021900297339899951 0 0.0065365980079015494 -0.0029306228983014731 0 0.0070997996151674113 -0.0023604818487222151 0 0.006171525893156924 -0.0025788700649050679 0 0.0066895226715456496 -0.0021900297339899951 0 0.0065365980079015494 -0.0029306228983014731 0 0.006171525893156924 -0.0025788700649050679 0 0.0066895226715456496 -0.0021900297339899951 0 0.0062472443750874801 -0.0020032897482356602 0 0.0077459158228704306 -0.0053470280810806545 0 0.0075161650384271113 -0.0037844614954475886 0 0.0092351765342619917 -0.0042313138168485814 0 0.0065365980079015494 -0.0029306228983014731 0 0.0074003045355354943 -0.0029603259123922245 0 0.0070997996151674113 -0.0023604818487222151 0 0.0069124849821351666 -0.0033393805980677892 0 0.0085841198510719155 -0.0038552019438989793 0 0.0074003045355354943 -0.0029603259123922245 0 0.0070997996151674113 -0.0023604818487222151 0 0.0076400595749994017 -0.0019506067340028118 0 0.0066895226715456496 -0.0021900297339899951 0 0.0070997996151674113 -0.0023604818487222151 0 0.0073051244939240697 -0.0015556732520588335 0 0.0070997996151674113 -0.0023604818487222151 0 0.0076400595749994017 -0.0019506067340028118 0 0.0073051244939240697 -0.0015556732520588335 0 0.0074003045355354943 -0.0029603259123922245 0 0.0076400595749994017 -0.0019506067340028118 0 0.0085078917867546771 -0.0021783450116239027 0 0.0080053882237805379 -0.001445759924268288 0 0.0076400595749994017 -0.0019506067340028118 0 0.0085078917867546771 -0.0021783450116239027 0 0.0080053882237805379 -0.001445759924268288 0 0.0076400595749994017 -0.0019506067340028118 0 0.0077729919803035371 -0.0011716609715497137 0 0.0074003045355354943 -0.0029603259123922245 0 0.008531466404613568 -0.0031662528697651675 0 0.0085078917867546771 -0.0021783450116239027 0 0.0085841198510719155 -0.0038552019438989793 0 0.008802691294124327 -0.00098742518098535181 0 0.008802691294124327 -0.00098742518098535181 0 0.0083868260531942355 -0.00040787830987763839 0 0.0082985573377567321 0.002348011559452412 0 0.0083513951725796599 0.001149441711621099 0 0.0075276912846092142 0.0017398516580648092 0 0.0083513951725796599 0.001149441711621099 0 0.0072818135981613345 0.00084550343451210994 0 0.0076505210755488688 9.1024318205877393e-05 0 0.0083868260531942355 -0.00040787830987763839 0 0.00830214137719615 -0.00061494050329291398 0 0.0083513951725796599 0.001149441711621099 0 0.0075276912846092142 0.0017398516580648092 0 0.0072818135981613345 0.00084550343451210994 0 0.0083513951725796599 0.001149441711621099 0 0.008243156344103891 -0.00057437407771572242 0 0.0076505210755488688 9.1024318205877393e-05 0 0.0080053882237805379 -0.001445759924268288 0 0.0085078917867546771 -0.0021783450116239027 0 0.008243156344103891 -0.00057437407771572242 0 0.008243156344103891 -0.00057437407771572242 0 0.0080285291435281715 -0.00070459056888184403 0 0.0077898097793525174 -0.00052166005704696651 0 0.008243156344103891 -0.00057437407771572242 0 0.0077898097793525174 -0.00052166005704696651 0 0.0076505210755488688 9.1024318205877393e-05 0 0.0080285291435281715 -0.00070459056888184403 0 0.0077025604167988235 -0.00063360717611596633 0 0.0080598604770722084 -0.00045296923923658546 0 0.007933634352762238 -0.00078461103776455922 0 0.0081868355659199948 -0.00049505326384451044 0 0.0080285291435281715 -0.00070459056888184403 0 0.0077898097793525174 -0.00052166005704696651 0 0.0077903830983385236 -0.00091557814241746954 0 0.0080285291435281715 -0.00070459056888184403 0 0.0077025604167988235 -0.00063360717611596633 0 0.0076403546431152549 -0.00098712016344558386 0 0.0077025604167988235 -0.00063360717611596633 0 0.0076403546431152549 -0.00098712016344558386 0 0.0072992237885212002 -0.0010187280326602001 0 0.008243156344103891 -0.00057437407771572242 0 0.0080285291435281715 -0.00070459056888184403 0 0.0077729919803035371 -0.0011716609715497137 0 0.0080285291435281715 -0.00070459056888184403 0 0.0076403546431152549 -0.00098712016344558386 0 0.0077729919803035371 -0.0011716609715497137 0 0.0080053882237805379 -0.001445759924268288 0 0.008243156344103891 -0.00057437407771572242 0 0.0077729919803035371 -0.0011716609715497137 0 0.0076403546431152549 -0.00098712016344558386 0 0.0077729919803035371 -0.0011716609715497137 0 0.0073051244939240697 -0.0015556732520588335 0 0.0076400595749994017 -0.0019506067340028118 0 0.0077729919803035371 -0.0011716609715497137 0 0.0073051244939240697 -0.0015556732520588335 0 0.0066895226715456496 -0.0021900297339899951 0 0.0073051244939240697 -0.0015556732520588335 0 0.0067864009286402001 -0.0014401971291999754 0 0.0073051244939240697 -0.0015556732520588335 0 0.0072992237885212002 -0.0010187280326602001 0 0.0067864009286402001 -0.0014401971291999754 0 0.0076403546431152549 -0.00098712016344558386 0 0.0073051244939240697 -0.0015556732520588335 0 0.0072992237885212002 -0.0010187280326602001 0 0.0072992237885212002 -0.0010187280326602001 0 0.0067864009286402001 -0.0014401971291999754 0 0.006740076837498896 -0.00059726406719886921 0 0.0077025604167988235 -0.00063360717611596633 0 0.0072992237885212002 -0.0010187280326602001 0 0.006740076837498896 -0.00059726406719886921 0 0.0062656892992388911 -0.0014080794278340675 0 0.0067864009286402001 -0.0014401971291999754 0 0.006740076837498896 -0.00059726406719886921 0 0.0062656892992388911 -0.0014080794278340675 0 0.0067864009286402001 -0.0014401971291999754 0 0.0062472443750874801 -0.0020032897482356602 0 0.0066895226715456496 -0.0021900297339899951 0 0.0067864009286402001 -0.0014401971291999754 0 0.0062472443750874801 -0.0020032897482356602 0 0.0057710474118257069 0.001735841735737427 0 0.0061585084499703588 0.0011207212365731824 0 0.005790047696773569 0.00089764840752699665 0 0.0057710474118257069 0.001735841735737427 0 0.005790047696773569 0.00089764840752699665 0 0.0053024728457177388 0.0013064397770273857 0 0.0057710474118257069 0.001735841735737427 0 0.0061585084499703588 0.0011207212365731824 0 0.0063042067647785544 0.0015174411831584233 0 0.0057710474118257069 0.001735841735737427 0 0.0052005046910346001 0.0019422231868948285 0 0.0053024728457177388 0.0013064397770273857 0 0.0057710474118257069 0.001735841735737427 0 0.0052005046910346001 0.0019422231868948285 0 0.005204948131279875 0.0024185232168192771 0 0.0052005046910346001 0.0019422231868948285 0 0.0053024728457177388 0.0013064397770273857 0 0.0049310937382549373 0.0018549796174230941 0 0.0057710474118257069 0.001735841735737427 0 0.005581496419401857 0.0025172460881026709 0 0.005204948131279875 0.0024185232168192771 0 0.0052005046910346001 0.0019422231868948285 0 0.005204948131279875 0.0024185232168192771 0 0.004866825541436989 0.0023670799576406471 0 0.0060265581757338992 0.0026605813075409272 0 0.005581496419401857 0.0025172460881026709 0 0.006253146587654866 0.0021107525657882088 0 0.0057710474118257069 0.001735841735737427 0 0.005581496419401857 0.0025172460881026709 0 0.006253146587654866 0.0021107525657882088 0 0.0057710474118257069 0.001735841735737427 0 0.006253146587654866 0.0021107525657882088 0 0.0063042067647785544 0.0015174411831584233 0 0.0069235172494809399 0.0025672445867505104 0 0.006253146587654866 0.0021107525657882088 0 0.0067846424841410931 0.0016316257750306922 0 0.006253146587654866 0.0021107525657882088 0 0.0067846424841410931 0.0016316257750306922 0 0.0063042067647785544 0.0015174411831584233 0 0.0069235172494809399 0.0025672445867505104 0 0.0067846424841410931 0.0016316257750306922 0 0.0075276912846092142 0.0017398516580648092 0 0.0069235172494809399 0.0025672445867505104 0 0.0082985573377567321 0.002348011559452412 0 0.0075276912846092142 0.0017398516580648092 0 0.0067846424841410931 0.0016316257750306922 0 0.0072818135981613345 0.00084550343451210994 0 0.0066000818159545416 0.00095336372925769355 0 0.0067846424841410931 0.0016316257750306922 0 0.0075276912846092142 0.0017398516580648092 0 0.0072818135981613345 0.00084550343451210994 0 0.0072818135981613345 0.00084550343451210994 0 0.0066000818159545416 0.00095336372925769355 0 0.0068186464432151393 0.00028980041133766428 0 0.0067846424841410931 0.0016316257750306922 0 0.0063042067647785544 0.0015174411831584233 0 0.0066000818159545416 0.00095336372925769355 0 0.0061585084499703588 0.0011207212365731824 0 0.0063042067647785544 0.0015174411831584233 0 0.0066000818159545416 0.00095336372925769355 0 0.0061585084499703588 0.0011207212365731824 0 0.0066000818159545416 0.00095336372925769355 0 0.0063467946433756013 0.00047850726491353873 0 0.0066000818159545416 0.00095336372925769355 0 0.0063467946433756013 0.00047850726491353873 0 0.0068186464432151393 0.00028980041133766428 0 0.0068186464432151393 0.00028980041133766428 0 0.0065114721538963478 -8.8423580983679152e-05 0 0.0069774596129479035 -0.00021112611660250311 0 0.0063467946433756013 0.00047850726491353873 0 0.0068186464432151393 0.00028980041133766428 0 0.0065114721538963478 -8.8423580983679152e-05 0 0.0072818135981613345 0.00084550343451210994 0 0.0068186464432151393 0.00028980041133766428 0 0.0073315250031883864 -7.821542588236603e-05 0 0.0072818135981613345 0.00084550343451210994 0 0.0076505210755488688 9.1024318205877393e-05 0 0.0073315250031883864 -7.821542588236603e-05 0 0.0068186464432151393 0.00028980041133766428 0 0.0073315250031883864 -7.821542588236603e-05 0 0.0069774596129479035 -0.00021112611660250311 0 0.0077898097793525174 -0.00052166005704696651 0 0.0076505210755488688 9.1024318205877393e-05 0 0.0073315250031883864 -7.821542588236603e-05 0 0.0077898097793525174 -0.00052166005704696651 0 0.0073545556418609971 -0.00058660551024187785 0 0.0077903830983385236 -0.00091557814241746954 0 0.0073545556418609971 -0.00058660551024187785 0 0.0077903830983385236 -0.00091557814241746954 0 0.0071156988115680811 -0.00098082042555238877 0 0.0077898097793525174 -0.00052166005704696651 0 0.0073315250031883864 -7.821542588236603e-05 0 0.0073545556418609971 -0.00058660551024187785 0 0.0073315250031883864 -7.821542588236603e-05 0 0.0073545556418609971 -0.00058660551024187785 0 0.0069774596129479035 -0.00021112611660250311 0 0.0073545556418609971 -0.00058660551024187785 0 0.0069774596129479035 -0.00021112611660250311 0 0.0067754501750320632 -0.00056478368163350085 0 0.0073545556418609971 -0.00058660551024187785 0 0.0067754501750320632 -0.00056478368163350085 0 0.0071156988115680811 -0.00098082042555238877 0 0.0065114721538963478 -8.8423580983679152e-05 0 0.0067754501750320632 -0.00056478368163350085 0 0.0062252099083057585 -0.00041908190871207257 0 0.0065114721538963478 -8.8423580983679152e-05 0 0.0069774596129479035 -0.00021112611660250311 0 0.0067754501750320632 -0.00056478368163350085 0 0.0067754501750320632 -0.00056478368163350085 0 0.0062252099083057585 -0.00041908190871207257 0 0.0063471490347152158 -0.0011292416730485106 0 0.0046410399360796726 0.0027626700164134358 0 0.0045692515251973534 0.00273079078468894 0 0.0048420168173530388 0.0025518288265889795 0 0.0062252099083057585 -0.00041908190871207257 0 0.0055410592971147903 -0.00025506739503363237 0 0.0063471490347152158 -0.0011292416730485106 0 0.0062252099083057585 -0.00041908190871207257 0 0.0060050127898193502 0.00018133993674297237 0 0.0055410592971147903 -0.00025506739503363237 0 0.0060050127898193502 0.00018133993674297237 0 0.0054987680018537249 0.00061554201369093311 0 0.0055410592971147903 -0.00025506739503363237 0 0.0065114721538963478 -8.8423580983679152e-05 0 0.0062252099083057585 -0.00041908190871207257 0 0.0060050127898193502 0.00018133993674297237 0 0.0063467946433756013 0.00047850726491353873 0 0.0060050127898193502 0.00018133993674297237 0 0.005790047696773569 0.00089764840752699665 0 0.0063467946433756013 0.00047850726491353873 0 0.0065114721538963478 -8.8423580983679152e-05 0 0.0060050127898193502 0.00018133993674297237 0 0.0060050127898193502 0.00018133993674297237 0 0.005790047696773569 0.00089764840752699665 0 0.0054987680018537249 0.00061554201369093311 0 0.0061585084499703588 0.0011207212365731824 0 0.0063467946433756013 0.00047850726491353873 0 0.005790047696773569 0.00089764840752699665 0 0.0054987680018537249 0.00061554201369093311 0 0.0055410592971147903 -0.00025506739503363237 0 0.0048309359654332808 0.00092804864434368561 0 0.0053024728457177388 0.0013064397770273857 0 0.0054987680018537249 0.00061554201369093311 0 0.0048309359654332808 0.00092804864434368561 0 0.0053024728457177388 0.0013064397770273857 0 0.0048309359654332808 0.00092804864434368561 0 0.0049310937382549373 0.0018549796174230941 0 0.005790047696773569 0.00089764840752699665 0 0.0053024728457177388 0.0013064397770273857 0 0.0054987680018537249 0.00061554201369093311 0 0.0046410399360796726 0.0027626700164134358 0 0.0045692515251973534 0.00273079078468894 0 0.0045027853264927942 0.0028506266549572896 0 0.0052309295854366103 0.001061933619854347 0 0.0046877420004956608 0.0019223860227037264 0 0.0045030621594051613 0.0031932518237804616 0 0.004378007016899544 0.0032331023592992109 0 0.0044529646874823924 0.0031833567711853205 0 0.004378007016899544 0.0032331023592992109 0 0.0043851936132116619 0.0032211257165110823 0 0.0044173164497889458 0.0031870266075391105 0 0.0045692515251973534 0.00273079078468894 0 0.0045129166790950411 0.0028240614280685417 0 0.0045027853264927942 0.0028506266549572896 0 0.004378007016899544 0.0032331023592992109 0 0.0044529646874823924 0.0031833567711853205 0 0.0044173164497889458 0.0031870266075391105 0 0.0043964536628367393 0.0031000062700867019 0 0.004495331308912053 0.0030061628261202457 0 0.0043851936132116619 0.0032211257165110823 0 0.0043789389791574346 0.0032297068360473422 0 0.0044085479706001424 0.0032429937882703084 0 0.004378007016899544 0.0032331023592992109 0 0.0043851936132116619 0.0032211257165110823 0 0.0044085479706001424 0.0032429937882703084 0 0.004378007016899544 0.0032331023592992109 0 0.0044085479706001424 0.0032429937882703084 0 0.0044607071357504182 0.0031295361970566198 0 0.004495331308912053 0.0030061628261202457 0 0.004451980505847602 0.0031131183255384753 0 0.0045368306705556713 0.0028674283355141143 0 0.0044607071357504182 0.0031295361970566198 0 0.0045652445545214691 0.0029210728987513314 0 0.0045129166790950411 0.0028240614280685417 0 0.0045368306705556713 0.0028674283355141143 0 0.0044607071357504182 0.0031295361970566198 0 0.0046877420004956608 0.0019223860227037264 0 0.0045504281725972373 0.0024240762404111049 0 0.0045368306705556713 0.0028674283355141143 0 0.0045027853264927942 0.0028506266549572896 0 0.0045239529400730233 0.0025861167055243849 0 0.0045129166790950411 0.0028240614280685417 0 0.0045368306705556713 0.0028674283355141143 0 0.0045027853264927942 0.0028506266549572896 0 0.0042460781335510265 0.0033905475063136592 0 0.0044085479706001424 0.0032429937882703084 0 0.004266581790381343 0.0034396901837841156 0 0.0042460781335510265 0.0033905475063136592 0 0.0044085479706001424 0.0032429937882703084 0 0.0043433110212024589 0.003257843348324514 0 0.0043789389791574346 0.0032297068360473422 0 0.0044085479706001424 0.0032429937882703084 0 0.0043433110212024589 0.003257843348324514 0 0.0044085479706001424 0.0032429937882703084 0 0.0044607071357504182 0.0031295361970566198 0 0.004266581790381343 0.0034396901837841156 0 0.0044607071357504182 0.0031295361970566198 0 0.004266581790381343 0.0034396901837841156 0 0.0043217327956089112 0.0035617097607692095 0 0.004266581790381343 0.0034396901837841156 0 0.0043217327956089112 0.0035617097607692095 0 0.0041508090527081383 0.0037154559644159563 0 0.0044607071357504182 0.0031295361970566198 0 0.0044933643387304869 0.0031803432659070134 0 0.0045652445545214691 0.0029210728987513314 0 0.0044607071357504182 0.0031295361970566198 0 0.0044933643387304869 0.0031803432659070134 0 0.0043217327956089112 0.0035617097607692095 0 0.004642619618349924 0.0029905747630521126 0 0.0045059478977453856 0.0034751202645955603 0 0.0044933643387304869 0.0031803432659070134 0 0.0046431222568880867 0.0029212988355289205 0 0.004584940637483088 0.0039686338122562155 0 0.0044933643387304869 0.0031803432659070134 0 0.0043217327956089112 0.0035617097607692095 0 0.004584940637483088 0.0039686338122562155 0 0.0048309359654332808 0.00092804864434368561 0 0.0049310937382549373 0.0018549796174230941 0 0.0045239529400730233 0.0025861167055243849 0 0.004866825541436989 0.0023670799576406471 0 0.0045239529400730233 0.0025861167055243849 0 0.0046847202569890002 0.0026652168371984471 0 0.004866825541436989 0.0023670799576406471 0 0.0049310937382549373 0.0018549796174230941 0 0.0045239529400730233 0.0025861167055243849 0 0.0052005046910346001 0.0019422231868948285 0 0.004866825541436989 0.0023670799576406471 0 0.0049310937382549373 0.0018549796174230941 0 0.0045368306705556713 0.0028674283355141143 0 0.0045239529400730233 0.0025861167055243849 0 0.0045652445545214691 0.0029210728987513314 0 0.0044933643387304869 0.0031803432659070134 0 0.0045652445545214691 0.0029210728987513314 0 0.0046431222568880867 0.0029212988355289205 0 0.0045239529400730233 0.0025861167055243849 0 0.0046431222568880867 0.0029212988355289205 0 0.0046847202569890002 0.0026652168371984471 0 0.0045239529400730233 0.0025861167055243849 0 0.0045652445545214691 0.0029210728987513314 0 0.0046431222568880867 0.0029212988355289205 0 0.0046431222568880867 0.0029212988355289205 0 0.0046571898599255266 0.0028727808915795234 0 0.004469849652669498 0.0029775704253738383 0 0.0046431222568880867 0.0029212988355289205 0 0.0046847202569890002 0.0026652168371984471 0 0.0046571898599255266 0.0028727808915795234 0 0.0046847202569890002 0.0026652168371984471 0 0.0048958964075439242 0.0026629561336452803 0 0.0046571898599255266 0.0028727808915795234 0 0.004866825541436989 0.0023670799576406471 0 0.0046847202569890002 0.0026652168371984471 0 0.0048958964075439242 0.0026629561336452803 0 0.005204948131279875 0.0024185232168192771 0 0.004866825541436989 0.0023670799576406471 0 0.0048958964075439242 0.0026629561336452803 0 0.0051553447493694893 0.0030056628802440275 0 0.0048528992020093649 0.0033285985353892467 0 0.0046571898599255266 0.0028727808915795234 0 0.0048958964075439242 0.0026629561336452803 0 0.0051553447493694893 0.0030056628802440275 0 0.0046571898599255266 0.0028727808915795234 0 0.005204948131279875 0.0024185232168192771 0 0.0048958964075439242 0.0026629561336452803 0 0.0051553447493694893 0.0030056628802440275 0 0.0051553447493694893 0.0030056628802440275 0 0.0048528992020093649 0.0033285985353892467 0 0.0051002222973845325 0.0036029536692705894 0 0.0048528992020093649 0.0033285985353892467 0 0.0046571898599255266 0.0028727808915795234 0 0.0045371689036744905 0.0033583722048400092 0 0.0048528992020093649 0.0033285985353892467 0 0.0045371689036744905 0.0033583722048400092 0 0.0046933123834611871 0.003734474680112807 0 0.0046571898599255266 0.0028727808915795234 0 0.004469849652669498 0.0029775704253738383 0 0.0045371689036744905 0.0033583722048400092 0 0.0043217327956089112 0.0035617097607692095 0 0.004584940637483088 0.0039686338122562155 0 0.0042464012263599563 0.0041965505497072453 0 0.004584940637483088 0.0039686338122562155 0 0.0042464012263599563 0.0041965505497072453 0 0.0043006866869559277 0.0045038660396788093 0 0.004469849652669498 0.0029775704253738383 0 0.0045371689036744905 0.0033583722048400092 0 0.0041655091992239624 0.003567615002741038 0 0.0045059478977453856 0.0034751202645955603 0 0.0042461988013679673 0.004023882487067627 0 0.0041655091992239624 0.003567615002741038 0 0.004376329714999668 0.004090185412431716 0 0.0046933123834611871 0.003734474680112807 0 0.0045371689036744905 0.0033583722048400092 0 0.0041655091992239624 0.003567615002741038 0 0.0046933123834611871 0.003734474680112807 0 0.0042461988013679673 0.004023882487067627 0 0.004087992324930523 0.0043672944421548907 0 0.0041655091992239624 0.003567615002741038 0 0.0041872512150202016 0.0041545784928259033 0 0.004376329714999668 0.004090185412431716 0 0.0041655091992239624 0.003567615002741038 0 0.0041872512150202016 0.0041545784928259033 0 0.0040707969082865872 0.0044168905929545567 0 0.0041872512150202016 0.0041545784928259033 0 0.004376329714999668 0.004090185412431716 0 0.0040706592401147752 0.0043358220216224161 0 0.0045092280297284477 0.0043792985873045854 0 0.004376329714999668 0.004090185412431716 0 0.0040706592401147752 0.0043358220216224161 0 0.0041872512150202016 0.0041545784928259033 0 0.0040707969082865872 0.0044168905929545567 0 0.0040706592401147752 0.0043358220216224161 0 0.004376329714999668 0.004090185412431716 0 0.0046521543315140223 0.0041096557510417074 0 0.0046933123834611871 0.003734474680112807 0 0.0045092280297284477 0.0043792985873045854 0 0.004376329714999668 0.004090185412431716 0 0.0046521543315140223 0.0041096557510417074 0 0.0046521543315140223 0.0041096557510417074 0 0.0049679056648117975 0.003980678269050607 0 0.0046933123834611871 0.003734474680112807 0 0.004866141109481666 0.0042678984182641265 0 0.0046521543315140223 0.0041096557510417074 0 0.0049679056648117975 0.003980678269050607 0 0.0053686368308568698 0.0038600255554994863 0 0.0049679056648117975 0.003980678269050607 0 0.0051002222973845325 0.0036029536692705894 0 0.0051996837847857677 0.0042320461172767358 0 0.0053686368308568698 0.0038600255554994863 0 0.0049679056648117975 0.003980678269050607 0 0.0048528992020093649 0.0033285985353892467 0 0.0051002222973845325 0.0036029536692705894 0 0.0046933123834611871 0.003734474680112807 0 0.0049679056648117975 0.003980678269050607 0 0.0051002222973845325 0.0036029536692705894 0 0.0046933123834611871 0.003734474680112807 0 0.0037909533121189246 0.0049962667116383508 0 0.0038832873868963926 0.0047172917717462036 0 0.0036252548949805325 0.0050455942709774935 0 0.0037909533121189246 0.0049962667116383508 0 0.004115241939824695 0.0048014734856372402 0 0.0038832873868963926 0.0047172917717462036 0 0.0038608758792124673 0.005280946950235379 0 0.0037909533121189246 0.0049962667116383508 0 0.0036373170392941362 0.0051961693847825232 0 0.0038608758792124673 0.005280946950235379 0 0.0037909533121189246 0.0049962667116383508 0 0.004115241939824695 0.0048014734856372402 0 0.0044610264541951284 0.0052436572510051078 0 0.0038608758792124673 0.005280946950235379 0 0.004115241939824695 0.0048014734856372402 0 0.004115241939824695 0.0048014734856372402 0 0.0040707969082865872 0.0044168905929545567 0 0.0040706592401147752 0.0043358220216224161 0 0.0044610264541951284 0.0052436572510051078 0 0.004115241939824695 0.0048014734856372402 0 0.0047275009228722386 0.0050922574888880188 0 0.0041171403284443915 0.0047643735444297146 0 0.0043837719209002691 0.0047263521799595061 0 0.004115241939824695 0.0048014734856372402 0 0.0040707969082865872 0.0044168905929545567 0 0.0041401495794546415 0.0045814574860157352 0 0.0043006866869559277 0.0045038660396788093 0 0.0040707969082865872 0.0044168905929545567 0 0.0041401495794546415 0.0045814574860157352 0 0.004115241939824695 0.0048014734856372402 0 0.0041401495794546415 0.0045814574860157352 0 0.0038832873868963926 0.0047172917717462036 0 0.0041401495794546415 0.0045814574860157352 0 0.0040446140090068519 0.0044035304730495623 0 0.0038832873868963926 0.0047172917717462036 0 0.0042464012263599563 0.0041965505497072453 0 0.0043006866869559277 0.0045038660396788093 0 0.0041401495794546415 0.0045814574860157352 0 0.0042464012263599563 0.0041965505497072453 0 0.0041401495794546415 0.0045814574860157352 0 0.0040446140090068519 0.0044035304730495623 0 0.0042464012263599563 0.0041965505497072453 0 0.0040446140090068519 0.0044035304730495623 0 0.0041151826345826618 0.00401470916524481 0 0.0040446140090068519 0.0044035304730495623 0 0.0038367646159285264 0.0044788398565291212 0 0.0041151826345826618 0.00401470916524481 0 0.0038367646159285264 0.0044788398565291212 0 0.0038832873868963926 0.0047172917717462036 0 0.0037328784556287212 0.004780547056571563 0 0.0038832873868963926 0.0047172917717462036 0 0.0037328784556287212 0.004780547056571563 0 0.0036252548949805325 0.0050455942709774935 0 0.0040446140090068519 0.0044035304730495623 0 0.0038367646159285264 0.0044788398565291212 0 0.0038832873868963926 0.0047172917717462036 0 0.0038367646159285264 0.0044788398565291212 0 0.0037328784556287212 0.004780547056571563 0 0.0037587212584745638 0.0048277908830683591 0 0.0038422871617274251 0.0045014577930760922 0 0.0037430093216055125 0.0044531369894225221 0 0.0038367646159285264 0.0044788398565291212 0 0.0036908160668410036 0.0040634363242768087 0 0.003928788887781939 0.0039694080480437632 0 0.003928788887781939 0.0039694080480437632 0 0.0037980870424587565 0.0039336273393695154 0 0.0040209065027845062 0.0037202060386041578 0 0.0036908160668410036 0.0040634363242768087 0 0.0037980870424587565 0.0039336273393695154 0 0.0036894021448277236 0.0040702930275438266 0 0.0036908160668410036 0.0040634363242768087 0 0.003928788887781939 0.0039694080480437632 0 0.0037980870424587565 0.0039336273393695154 0 0.0043217327956089112 0.0035617097607692095 0 0.0042464012263599563 0.0041965505497072453 0 0.0041151826345826618 0.00401470916524481 0 0.0043217327956089112 0.0035617097607692095 0 0.0041151826345826618 0.00401470916524481 0 0.0041508090527081383 0.0037154559644159563 0 0.0038367646159285264 0.0044788398565291212 0 0.003928788887781939 0.0039694080480437632 0 0.0041151826345826618 0.00401470916524481 0 0.003928788887781939 0.0039694080480437632 0 0.0041151826345826618 0.00401470916524481 0 0.0041508090527081383 0.0037154559644159563 0 0.003928788887781939 0.0039694080480437632 0 0.0041508090527081383 0.0037154559644159563 0 0.0040209065027845062 0.0037202060386041578 0 0.004266581790381343 0.0034396901837841156 0 0.0041508090527081383 0.0037154559644159563 0 0.0040209065027845062 0.0037202060386041578 0 0.004266581790381343 0.0034396901837841156 0 0.0040209065027845062 0.0037202060386041578 0 0.0040784080316525516 0.0035536285696756678 0 0.0040209065027845062 0.0037202060386041578 0 0.0040784080316525516 0.0035536285696756678 0 0.0038517959056891871 0.0038265818668403329 0 0.0042460781335510265 0.0033905475063136592 0 0.004266581790381343 0.0034396901837841156 0 0.0040784080316525516 0.0035536285696756678 0 0.0037980870424587565 0.0039336273393695154 0 0.0038517959056891871 0.0038265818668403329 0 0.0036894021448277236 0.0040702930275438266 0 0.0037980870424587565 0.0039336273393695154 0 0.0040209065027845062 0.0037202060386041578 0 0.0038517959056891871 0.0038265818668403329 0 0.0040784080316525516 0.0035536285696756678 0 0.0038517959056891871 0.0038265818668403329 0 0.0039549907367056325 0.0036429317134389527 0 0.0038517959056891871 0.0038265818668403329 0 0.0038544552764740352 0.0038047140582779739 0 0.0039549907367056325 0.0036429317134389527 0 0.0038517959056891871 0.0038265818668403329 0 0.0038544552764740352 0.0038047140582779739 0 0.0037609924865067042 0.0039977526811521731 0 0.0038544552764740352 0.0038047140582779739 0 0.0038452049215265669 0.0037290809590831684 0 0.0037609924865067042 0.0039977526811521731 0 0.0038544552764740352 0.0038047140582779739 0 0.0039549907367056325 0.0036429317134389527 0 0.0038452049215265669 0.0037290809590831684 0 0.0039549907367056325 0.0036429317134389527 0 0.0039864487759561328 0.003524565083632648 0 0.0038452049215265669 0.0037290809590831684 0 0.0039864487759561328 0.003524565083632648 0 0.0038452049215265669 0.0037290809590831684 0 0.003909952669188135 0.0035332693105841885 0 0.0038452049215265669 0.0037290809590831684 0 0.003909952669188135 0.0035332693105841885 0 0.0038048935968444204 0.0035884979631246256 0 0.0038537498170201907 0.003495826151434137 0 0.003909952669188135 0.0035332693105841885 0 0.0038048935968444204 0.0035884979631246256 0 0.0038537498170201907 0.003495826151434137 0 0.0038048935968444204 0.0035884979631246256 0 0.0038064010020801187 0.0034794564752963744 0 0.0038537498170201907 0.003495826151434137 0 0.003909952669188135 0.0035332693105841885 0 0.0039160991646791888 0.0034521381174523196 0 0.0039864487759561328 0.003524565083632648 0 0.003909952669188135 0.0035332693105841885 0 0.003990989319456969 0.0034372759720387924 0 0.003909952669188135 0.0035332693105841885 0 0.0039160991646791888 0.0034521381174523196 0 0.003990989319456969 0.0034372759720387924 0 0.0039160991646791888 0.0034521381174523196 0 0.0039639720016497095 0.0033680424004184418 0 0.003990989319456969 0.0034372759720387924 0 0.0030547648453429005 -0.00022278716640729103 0 0.0025725231589960899 0.00060812517779300129 0 0.0039639720016497095 0.0033680424004184418 0 0.003820444629256231 0.0033906839843503328 0 0.0038337144213756954 0.003419283499939741 0 0.0039160991646791888 0.0034521381174523196 0 0.0039639720016497095 0.0033680424004184418 0 0.0038337144213756954 0.003419283499939741 0 0.0038240773679595543 0.0033917500171173958 0 0.0038337144213756954 0.003419283499939741 0 0.0038064010020801187 0.0034794564752963744 0 0.0025725231589960899 0.00060812517779300129 0 0.0032493587929749083 0.002105752913489709 0 0.0038537498170201907 0.003495826151434137 0 0.0038337144213756954 0.003419283499939741 0 0.0038064010020801187 0.0034794564752963744 0 0.0038537498170201907 0.003495826151434137 0 0.0039160991646791888 0.0034521381174523196 0 0.0038337144213756954 0.003419283499939741 0 0.0039639720016497095 0.0033680424004184418 0 0.0040556275308079809 0.0033285111950583585 0 0.003990989319456969 0.0034372759720387924 0 0.0021528230858953827 -0.0036462861558345279 0 0.0027859257710488665 -0.0036225064579740182 0 0.0025107584935574224 -0.003881441831828219 0 0.0030547648453429005 -0.00022278716640729103 0 0.0034688442761765092 -0.00013479757288721432 0 0.0040556275308079809 0.0033285111950583585 0 0.003990989319456969 0.0034372759720387924 0 0.0040548382634564509 0.0034115357438749896 0 0.0039864487759561328 0.003524565083632648 0 0.003990989319456969 0.0034372759720387924 0 0.0040548382634564509 0.0034115357438749896 0 0.0040556275308079809 0.0033285111950583585 0 0.0040548382634564509 0.0034115357438749896 0 0.0040869677956702497 0.0033319015096750495 0 0.0040548382634564509 0.0034115357438749896 0 0.0040879328619356841 0.0034042728928785982 0 0.0040869677956702497 0.0033319015096750495 0 0.004058548076231093 0.0034266242241339541 0 0.0041864656979014479 0.0032244178799398101 0 0.0040548382634564509 0.0034115357438749896 0 0.0040679934915997008 0.0034344477245209838 0 0.0040879328619356841 0.0034042728928785982 0 0.0040679934915997008 0.0034344477245209838 0 0.0042539844656559779 0.003286190845180492 0 0.0042181414410470547 0.0031743317793551848 0 0.0039864487759561328 0.003524565083632648 0 0.0040548382634564509 0.0034115357438749896 0 0.0040679934915997008 0.0034344477245209838 0 0.0040784080316525516 0.0035536285696756678 0 0.0039549907367056325 0.0036429317134389527 0 0.0040679934915997008 0.0034344477245209838 0 0.0039549907367056325 0.0036429317134389527 0 0.0039864487759561328 0.003524565083632648 0 0.0040679934915997008 0.0034344477245209838 0 0.0042460781335510265 0.0033905475063136592 0 0.0040679934915997008 0.0034344477245209838 0 0.0042539844656559779 0.003286190845180492 0 0.0042460781335510265 0.0033905475063136592 0 0.0040784080316525516 0.0035536285696756678 0 0.0040679934915997008 0.0034344477245209838 0 0.0042460781335510265 0.0033905475063136592 0 0.0042539844656559779 0.003286190845180492 0 0.0043433110212024589 0.003257843348324514 0 0.0042539844656559779 0.003286190845180492 0 0.0043433110212024589 0.003257843348324514 0 0.0043310488163505641 0.0031896520072735926 0 0.0043789389791574346 0.0032297068360473422 0 0.0043433110212024589 0.003257843348324514 0 0.0043679042420209802 0.0031868470508775856 0 0.0043433110212024589 0.003257843348324514 0 0.0043310488163505641 0.0031896520072735926 0 0.0043679042420209802 0.0031868470508775856 0 0.0042539844656559779 0.003286190845180492 0 0.0043310488163505641 0.0031896520072735926 0 0.0042928852023807595 0.0031490667135974939 0 0.0042928852023807595 0.0031490667135974939 0 0.0042181414410470547 0.0031743317793551848 0 0.0043113426149502731 0.0030395599917863304 0 0.0043310488163505641 0.0031896520072735926 0 0.0043370690652437581 0.0031001271941995387 0 0.0043665322231421786 0.0031235738124811945 0 0.0043310488163505641 0.0031896520072735926 0 0.0043370690652437581 0.0031001271941995387 0 0.0042928852023807595 0.0031490667135974939 0 0.0043370690652437581 0.0031001271941995387 0 0.0042928852023807595 0.0031490667135974939 0 0.0043113426149502731 0.0030395599917863304 0 0.0042539844656559779 0.003286190845180492 0 0.0042928852023807595 0.0031490667135974939 0 0.0042181414410470547 0.0031743317793551848 0 0.004422039680161056 0.0031434991768092644 0 0.0044406139764569036 0.0030868037936203681 0 0.004463310087008298 0.00313408817911103 0 0.0044173164497889458 0.0031870266075391105 0 0.004422039680161056 0.0031434991768092644 0 0.004463310087008298 0.00313408817911103 0 0.0044529646874823924 0.0031833567711853205 0 0.0044173164497889458 0.0031870266075391105 0 0.004463310087008298 0.00313408817911103 0 0.0043851936132116619 0.0032211257165110823 0 0.0044173164497889458 0.0031870266075391105 0 0.0043927457753198439 0.0031821042358994764 0 0.0044173164497889458 0.0031870266075391105 0 0.004422039680161056 0.0031434991768092644 0 0.0043927457753198439 0.0031821042358994764 0 0.004422039680161056 0.0031434991768092644 0 0.0044032555649654356 0.0031222345180163353 0 0.0044406139764569036 0.0030868037936203681 0 0.004422039680161056 0.0031434991768092644 0 0.0043927457753198439 0.0031821042358994764 0 0.0044032555649654356 0.0031222345180163353 0 0.0043927457753198439 0.0031821042358994764 0 0.0043679042420209802 0.0031868470508775856 0 0.0044032555649654356 0.0031222345180163353 0 0.0043851936132116619 0.0032211257165110823 0 0.0043789389791574346 0.0032297068360473422 0 0.0043927457753198439 0.0031821042358994764 0 0.0043789389791574346 0.0032297068360473422 0 0.0043927457753198439 0.0031821042358994764 0 0.0043679042420209802 0.0031868470508775856 0 0.0043310488163505641 0.0031896520072735926 0 0.0043679042420209802 0.0031868470508775856 0 0.0043665322231421786 0.0031235738124811945 0 0.0043370690652437581 0.0031001271941995387 0 0.0043665322231421786 0.0031235738124811945 0 0.0043679129116561514 0.0030340448611518899 0 0.0043665322231421786 0.0031235738124811945 0 0.004402958630489724 0.0030601156668729097 0 0.0043679129116561514 0.0030340448611518899 0 0.0043679042420209802 0.0031868470508775856 0 0.0043665322231421786 0.0031235738124811945 0 0.0044032555649654356 0.0031222345180163353 0 0.0043665322231421786 0.0031235738124811945 0 0.0044032555649654356 0.0031222345180163353 0 0.004402958630489724 0.0030601156668729097 0 0.0044032555649654356 0.0031222345180163353 0 0.004402958630489724 0.0030601156668729097 0 0.0044406139764569036 0.0030868037936203681 0 0.004402958630489724 0.0030601156668729097 0 0.0044406139764569036 0.0030868037936203681 0 0.0044461290213031598 0.0030065960659832213 0 0.0044406139764569036 0.0030868037936203681 0 0.0044461290213031598 0.0030065960659832213 0 0.0045034217291262625 0.0030583591916968408 0 0.0044461290213031598 0.0030065960659832213 0 0.0044017416711989877 0.002914156925723162 0 0.0045085597958573224 0.0029281023302898529 0 0.0044461290213031598 0.0030065960659832213 0 0.0043953149357847839 0.0029775209235951968 0 0.0044017416711989877 0.002914156925723162 0 0.0020212292594941565 -0.0045333339913283264 0 0.0036990147799764389 -0.00068007416273389582 0 0.004402958630489724 0.0030601156668729097 0 0.0044461290213031598 0.0030065960659832213 0 0.0043953149357847839 0.0029775209235951968 0 0.0043953149357847839 0.0029775209235951968 0 0.0043815639596265594 0.0029171524647194666 0 0.0044017416711989877 0.002914156925723162 0 0.0027314858858379656 -0.0025803018537889372 0 0.0042698092049093623 0.0037455677210922736 0 0.0043199598992665423 0.0031485356990654375 0 0.0042001736315165905 0.0033035207787973815 0 0.0042279160963221811 0.0031897101238463044 0 0.0043679129116561514 0.0030340448611518899 0 0.0043815639596265594 0.0029171524647194666 0 0.0043113426149502731 0.0030395599917863304 0 0.0043953149357847839 0.0029775209235951968 0 0.0043679129116561514 0.0030340448611518899 0 0.0043815639596265594 0.0029171524647194666 0 0.004402958630489724 0.0030601156668729097 0 0.0043953149357847839 0.0029775209235951968 0 0.0043679129116561514 0.0030340448611518899 0 0.0043370690652437581 0.0031001271941995387 0 0.0043679129116561514 0.0030340448611518899 0 0.0043113426149502731 0.0030395599917863304 0 0.0027314858858379656 -0.0025803018537889372 0 0.003844606406044903 -0.00011665357017809756 0 0.002307724249044235 -0.0051445762204886981 0 0.0027964333868730393 -0.0071061916359219839 0 0.0027296492333995022 -0.003321915649996063 0 0.0030549574826058698 -0.0032973959071601515 0 0.003207763004991631 -0.0031291430269462348 0 0.0018712011019246554 -0.0092213675105719348 0 0.0014409221499393659 -0.0093869079950872989 0 0.0016928519254088108 -0.0096818597916381362 0 0.0027586184851270527 -0.0033358893757362246 0 0.0027296492333995022 -0.003321915649996063 0 0.0030549574826058698 -0.0032973959071601515 0 0.0027314858858379656 -0.0025803018537889372 0 0.002307724249044235 -0.0051445762204886981 0 0.0018712011019246554 -0.0092213675105719348 0 0.0020288164010293362 -0.0093191203332984463 0 0.0016928519254088108 -0.0096818597916381362 0 -0.00040984207859199559 -0.013084719358425478 0 -0.00044308715444078589 -0.013087248905187658 0 -0.00033246357787038871 -0.013166453309216328 0 0.002307724249044235 -0.0051445762204886981 0 0.00045701038511111389 -0.011059922760506567 0 0.0027314858858379656 -0.0025803018537889372 0 0.0020212292594941565 -0.0045333339913283264 0 0.0029060369982069692 -0.00335599751262008 0 0.0017647949425968804 -0.0034709830791251812 0 0.0025460069381713895 -0.0031645356737524774 0 0.0020212292594941565 -0.0045333339913283264 0 0.002307724249044235 -0.0051445762204886981 0 -0.00034612082719481438 -0.013309266827606294 0 -0.00026062637414126563 -0.013122200795707523 0 -0.00027284690243533526 -0.013329682186915871 0 -0.00036615035775398018 -0.013300558962700482 0 -0.00034612082719481438 -0.013309266827606294 0 -0.0003511780015330236 -0.013439122492094883 0 0.00045701038511111389 -0.011059922760506567 0 0.00045710270866696813 -0.011177123005712816 0 -0.00031030548387853932 -0.013396281188187106 0 -0.00034612082719481438 -0.013309266827606294 0 -0.00027284690243533526 -0.013329682186915871 0 -0.00031030548387853932 -0.013396281188187106 0 -0.00034612082719481438 -0.013309266827606294 0 -0.0003511780015330236 -0.013439122492094883 0 -0.00040984207859199559 -0.013084719358425478 0 -0.00033246357787038871 -0.013166453309216328 0 -0.00026062637414126563 -0.013122200795707523 0 0.00045701038511111389 -0.011059922760506567 0 -0.00059036201156144395 -0.012751155571033063 0 -0.00039499356634487421 -0.013281017823495079 0 -0.00034612082719481438 -0.013309266827606294 0 -0.00026062637414126563 -0.013122200795707523 0 0.0041864656979014479 0.0032244178799398101 0 0.0042698092049093623 0.0037455677210922736 0 0.0040879328619356841 0.0034042728928785982 0 0.004140339512808457 0.0032998710330121505 0 0.0042001736315165905 0.0033035207787973815 0 0.004140339512808457 0.0032998710330121505 0 0.0040869677956702497 0.0033319015096750495 0 0.0041320310670007509 0.0032111750478889022 0 0.0040879328619356841 0.0034042728928785982 0 0.004140339512808457 0.0032998710330121505 0 0.0040869677956702497 0.0033319015096750495 0 0.004140339512808457 0.0032998710330121505 0 0.0042001736315165905 0.0033035207787973815 0 0.0042279160963221811 0.0031897101238463044 0 0.004140339512808457 0.0032998710330121505 0 0.0042279160963221811 0.0031897101238463044 0 0.0041320310670007509 0.0032111750478889022 0 0.0030549574826058698 -0.0032973959071601515 0 0.003207763004991631 -0.0031291430269462348 0 0.0033464671928631132 -0.0032538295862704018 0 0.003844606406044903 -0.00011665357017809756 0 0.0035166482005449225 -0.00015071471309588102 0 0.0027964333868730393 -0.0071061916359219839 0 0.0035166482005449225 -0.00015071471309588102 0 0.0040556275308079809 0.0033285111950583585 0 0.0040869677956702497 0.0033319015096750495 0 0.0041020737017853472 0.0032875541663445985 0 0.0027859257710488665 -0.0036225064579740182 0 0.0033793016692858476 -0.0035880110877483198 0 0.0029599849455050646 -0.0040100905815333571 0 0.0035520413553062854 -0.0037853644200507332 0 0.0033793016692858476 -0.0035880110877483198 0 0.0029599849455050646 -0.0040100905815333571 0 0.0034688442761765092 -0.00013479757288721432 0 0.0035166482005449225 -0.00015071471309588102 0 0.0034540811195321419 0.0034639892592216661 0 0.0035166482005449225 -0.00015071471309588102 0 0.0021329188480767374 -0.01163968012927526 0 0.0020064265314936373 -0.011953748388833519 0 0.0017499592405452941 -0.01182960140715165 0 0.0027964333868730393 -0.0071061916359219839 0 0.0023368043803664415 -0.0080133976483045145 0 0.0021329188480767374 -0.01163968012927526 0 0.0020064265314936373 -0.011953748388833519 0 0.0023659630677018836 -0.011907580633293656 0 0.0027964333868730393 -0.0071061916359219839 0 0.001067254865725409 -0.012587811918162309 0 0.0020064265314936373 -0.011953748388833519 0 0.0023659630677018836 -0.011907580633293656 0 0.0020587036154090868 -0.012229660121224839 0 0.001067254865725409 -0.012587811918162309 0 0.0013275786433950649 -0.013156559468623123 0 0.00023133482093171749 -0.014249950162474346 0 0.00027787421703164168 -0.013920352195451994 0 0.00056169872795075275 -0.0139343500606245 0 0.0020064265314936373 -0.011953748388833519 0 0.0017499592405452941 -0.01182960140715165 0 0.0017410674736531404 -0.012154006084268637 0 0.0020064265314936373 -0.011953748388833519 0 0.0020587036154090868 -0.012229660121224839 0 0.0017410674736531404 -0.012154006084268637 0 0.00045701038511111389 -0.011059922760506567 0 0.001067254865725409 -0.012587811918162309 0 -0.00036615035775398018 -0.013300558962700482 0 -0.00041834938931512743 -0.013553822480351816 0 -0.00058744259819936979 -0.013625932487730703 0 -0.00032058931973225882 -0.013562377042292646 0 -0.00032935541452847945 -0.013674776036111702 0 -0.00024848120688593676 -0.013650009455960227 0 -0.00032058931973225882 -0.013562377042292646 0 -0.00041834938931512743 -0.013553822480351816 0 -0.00032935541452847945 -0.013674776036111702 0 -0.00032058931973225882 -0.013562377042292646 0 -0.0003511780015330236 -0.013439122492094883 0 -0.00024942754654860274 -0.013474385858643528 0 -0.00036615035775398018 -0.013300558962700482 0 -0.0003511780015330236 -0.013439122492094883 0 -0.00041834938931512743 -0.013553822480351816 0 -0.00032058931973225882 -0.013562377042292646 0 -0.0003511780015330236 -0.013439122492094883 0 -0.00041834938931512743 -0.013553822480351816 0 -0.00031030548387853932 -0.013396281188187106 0 -0.0003511780015330236 -0.013439122492094883 0 -0.00024942754654860274 -0.013474385858643528 0 0.00023133482093171749 -0.014249950162474346 0 3.0015437172298314e-05 -0.014054366296916856 0 0.00027787421703164168 -0.013920352195451994 0 -0.00041834938931512743 -0.013553822480351816 0 -0.00058744259819936979 -0.013625932487730703 0 -0.00040293105168189345 -0.013795833489325218 0 0.001067254865725409 -0.012587811918162309 0 -0.00016894224113814105 -0.013921558605761643 0 -0.00041834938931512743 -0.013553822480351816 0 -0.00040293105168189345 -0.013795833489325218 0 -0.00032935541452847945 -0.013674776036111702 0 -0.00040293105168189345 -0.013795833489325218 0 -0.00025807897527767396 -0.013778041504676306 0 -0.00016953931347689092 -0.01385707121090371 0 -0.00040293105168189345 -0.013795833489325218 0 -0.00025807897527767396 -0.013778041504676306 0 -0.00032935541452847945 -0.013674776036111702 0 -0.00025807897527767396 -0.013778041504676306 0 -0.00032935541452847945 -0.013674776036111702 0 -0.00024848120688593676 -0.013650009455960227 0 3.0015437172298314e-05 -0.014054366296916856 0 -0.00016953931347689092 -0.01385707121090371 0 0.00010792506984335612 -0.01374065757216952 0 -0.00016894224113814105 -0.013921558605761643 0 -0.00019197816017418683 -0.013862703599969944 0 0.00010792506984335612 -0.01374065757216952 0 0.00027787421703164168 -0.013920352195451994 0 0.00047916048033436518 -0.013591205090095374 0 3.0015437172298314e-05 -0.014054366296916856 0 0.00010792506984335612 -0.01374065757216952 0 0.00027787421703164168 -0.013920352195451994 0 0.00010792506984335612 -0.01374065757216952 0 0.00047916048033436518 -0.013591205090095374 0 0.00022352568159743764 -0.013393366001147872 0 0.00010792506984335612 -0.01374065757216952 0 -0.00015234377616029179 -0.013646338972173622 0 0.00022352568159743764 -0.013393366001147872 0 -0.00016953931347689092 -0.01385707121090371 0 0.00010792506984335612 -0.01374065757216952 0 -0.00015234377616029179 -0.013646338972173622 0 0.00056169872795075275 -0.0139343500606245 0 0.00047916048033436518 -0.013591205090095374 0 0.00094524403060134419 -0.013506952559263475 0 0.0013275786433950649 -0.013156559468623123 0 0.0013412442957087109 -0.012988838227333915 0 0.0020587036154090868 -0.012229660121224839 0 0.0017529069959799587 -0.012516873656397526 0 0.0017410674736531404 -0.012154006084268637 0 0.00027787421703164168 -0.013920352195451994 0 0.00056169872795075275 -0.0139343500606245 0 0.00047916048033436518 -0.013591205090095374 0 0.00047916048033436518 -0.013591205090095374 0 0.00094524403060134419 -0.013506952559263475 0 0.00073771589016401011 -0.012996536457331211 0 0.0017529069959799587 -0.012516873656397526 0 0.0014517320070680201 -0.012364083831303137 0 0.0013528782973075948 -0.012805115180411159 0 0.0017529069959799587 -0.012516873656397526 0 0.0014517320070680201 -0.012364083831303137 0 0.0017410674736531404 -0.012154006084268637 0 0.0014517320070680201 -0.012364083831303137 0 0.0013121160998437937 -0.012513547346059223 0 0.0013528782973075948 -0.012805115180411159 0 0.0013121160998437937 -0.012513547346059223 0 0.0013181925905131524 -0.012473680907615624 0 0.00128882133658114 -0.012435837215428571 0 0.0013121160998437937 -0.012513547346059223 0 0.00128882133658114 -0.012435837215428571 0 0.0012730277492252521 -0.012333053417741421 0 0.0013181925905131524 -0.012473680907615624 0 0.00128882133658114 -0.012435837215428571 0 0.0013177212464923719 -0.012450202281739566 0 0.00128882133658114 -0.012435837215428571 0 0.0013073749997696627 -0.012454830753322432 0 0.0013177212464923719 -0.012450202281739566 0 0.0012730277492252521 -0.012333053417741421 0 0.0013535604623368302 -0.012246266225710248 0 0.0012300866795488421 -0.012202692840193569 0 0.0012730277492252521 -0.012333053417741421 0 0.0012180229520786495 -0.012226357806654851 0 0.0012225595574744015 -0.01222960414673196 0 0.0013090021542735879 -0.012319152013262656 0 0.0011942840503148897 -0.012265862591346403 0 0.00128882133658114 -0.012435837215428571 0 0.0012730277492252521 -0.012333053417741421 0 0.0013073749997696627 -0.012454830753322432 0 0.0012730277492252521 -0.012333053417741421 0 0.0012300866795488421 -0.012202692840193569 0 0.0012225595574744015 -0.01222960414673196 0 0.0014517320070680201 -0.012364083831303137 0 0.0013121160998437937 -0.012513547346059223 0 0.0013535604623368302 -0.012246266225710248 0 0.0013121160998437937 -0.012513547346059223 0 0.0012730277492252521 -0.012333053417741421 0 0.0013535604623368302 -0.012246266225710248 0 0.0013535604623368302 -0.012246266225710248 0 0.0012300866795488421 -0.012202692840193569 0 0.0014234725579305241 -0.012033008485810962 0 0.0013137145437270104 -0.0088220754518277475 0 0.0019327731103327426 -0.0080697603049209327 0 0.001661236936228672 -0.0045410488547051814 0 0.001844902065512706 -0.0040448640326507818 0 0.0023377574382891261 -0.004265188244392649 0 0.001661236936228672 -0.0045410488547051814 0 0.001844902065512706 -0.0040448640326507818 0 0.0012064857742740923 -0.0042417476084748414 0 0.0021528230858953827 -0.0036462861558345279 0 0.0014666269007700494 -0.0036740288772510246 0 0.001844902065512706 -0.0040448640326507818 0 0.0014666269007700494 -0.0036740288772510246 0 0.001844902065512706 -0.0040448640326507818 0 0.0012064857742740923 -0.0042417476084748414 0 0.0021528230858953827 -0.0036462861558345279 0 0.001844902065512706 -0.0040448640326507818 0 0.0023377574382891261 -0.004265188244392649 0 0.0025107584935574224 -0.003881441831828219 0 0.0029599849455050646 -0.0040100905815333571 0 0.0023377574382891261 -0.004265188244392649 0 0.0023368043803664415 -0.0080133976483045145 0 0.0019327731103327426 -0.0080697603049209327 0 0.0021528230858953827 -0.0036462861558345279 0 0.0025107584935574224 -0.003881441831828219 0 0.0023377574382891261 -0.004265188244392649 0 0.0027859257710488665 -0.0036225064579740182 0 0.0025107584935574224 -0.003881441831828219 0 0.0029599849455050646 -0.0040100905815333571 0 0.0017499592405452941 -0.01182960140715165 0 0.0017410674736531404 -0.012154006084268637 0 0.0014234725579305241 -0.012033008485810962 0 0.0014517320070680201 -0.012364083831303137 0 0.0017410674736531404 -0.012154006084268637 0 0.0014234725579305241 -0.012033008485810962 0 0.0014517320070680201 -0.012364083831303137 0 0.0013535604623368302 -0.012246266225710248 0 0.0014234725579305241 -0.012033008485810962 0 0.001622065331644538 -0.016341140068638963 0 0.0013517741193910372 -0.016141754697841824 0 0.0013581871043646576 -0.016577180915064573 0 0.0015330881783778424 -0.016271230318736802 0 0.0015429567652131301 -0.016127247551593282 0 0.0018596167254870566 -0.016669633067758365 0 0.001622065331644538 -0.016341140068638963 0 0.0016310860109619643 -0.016636450079835167 0 0.001622065331644538 -0.016341140068638963 0 0.0013581871043646576 -0.016577180915064573 0 0.0016310860109619643 -0.016636450079835167 0 0.001072471710325495 -0.016354204998541795 0 0.0013517741193910372 -0.016141754697841824 0 0.0010273686040356883 -0.015917577361430957 0 0.001072471710325495 -0.016354204998541795 0 0.0013517741193910372 -0.016141754697841824 0 0.0013581871043646576 -0.016577180915064573 0 0.0021195058041451652 -0.0052758498430390596 0 0.0022533796161898641 -0.0053484019772100785 0 0.002368255063333503 -0.0052079902206228958 0 0.0018045039054113438 -0.010472175969180745 0 0.001828622100673462 -0.011636376271410535 0 0.0012757914473557077 -0.016128117128125286 0 0.001543680749445019 -0.015909507463280733 0 0.00094103356712857769 -0.015904444069148583 0 0.0015429567652131301 -0.016127247551593282 0 0.001828622100673462 -0.011636376271410535 0 0.001622065331644538 -0.016341140068638963 0 0.0012757914473557077 -0.016128117128125286 0 0.001543680749445019 -0.015909507463280733 0 0.0018015534409843242 -0.016116937930819222 0 0.001622065331644538 -0.016341140068638963 0 0.001543680749445019 -0.015909507463280733 0 0.0021195058041451652 -0.0052758498430390596 0 0.0020765313283213232 -0.0053673596639972621 0 0.0022533796161898641 -0.0053484019772100785 0 0.0020765313283213232 -0.0053673596639972621 0 0.0021509013391627831 -0.0054675794698667212 0 0.0022533796161898641 -0.0053484019772100785 0 0.0044230680359282851 -0.0030525510956100708 0 0.0052130956241437879 -0.0027776312222803651 0 0.0077025604167988235 -0.00063360717611596633 0 0.006740076837498896 -0.00059726406719886921 0 0.007717791531948009 -0.00025451366647532013 0 0.0021509013391627831 -0.0054675794698667212 0 0.0022533796161898641 -0.0053484019772100785 0 0.0024465226066652493 -0.0054468265214384784 0 0.0022533796161898641 -0.0053484019772100785 0 0.0024073752112444831 -0.0053114780463330508 0 0.002368255063333503 -0.0052079902206228958 0 0.0024073752112444831 -0.0053114780463330508 0 0.0024465226066652493 -0.0054468265214384784 0 0.002573662677166258 -0.00524979444944679 0 0.0022533796161898641 -0.0053484019772100785 0 0.0024073752112444831 -0.0053114780463330508 0 0.0024465226066652493 -0.0054468265214384784 0 0.0077025604167988235 -0.00063360717611596633 0 0.007717791531948009 -0.00025451366647532013 0 0.0080598604770722084 -0.00045296923923658546 0 0.007717791531948009 -0.00025451366647532013 0 0.0080598604770722084 -0.00045296923923658546 0 0.0081461294381787262 -0.00017042624728063935 0 0.0024465226066652493 -0.0054468265214384784 0 0.002573662677166258 -0.00524979444944679 0 0.0028002866703586492 -0.0053321235557504554 0 0.0025442988241290423 -0.0088905564195206586 0 0.0020683553939805856 -0.0088558559749720659 0 0.0020447592249875539 -0.0085759604935204212 0 0.0022880340890676682 -0.0069369671452060465 0 0.0048918856508409301 -0.0031175362299307305 0 0.0052130956241437879 -0.0027776312222803651 0 0.0048918856508409301 -0.0031175362299307305 0 0.001828622100673462 -0.011636376271410535 0 0.001020423460624337 -0.012719542489153763 0 0.0025442988241290423 -0.0088905564195206586 0 0.0022826367411658208 -0.009021079453282144 0 0.0020683553939805856 -0.0088558559749720659 0 0.0022826367411658208 -0.009021079453282144 0 0.0030384591345338626 -0.0091771541132363715 0 0.0021396536321634236 -0.0092477955823754617 0 0.0025442988241290423 -0.0088905564195206586 0 0.0022826367411658208 -0.009021079453282144 0 0.0030384591345338626 -0.0091771541132363715 0 0.0024073752112444831 -0.0053114780463330508 0 0.002573662677166258 -0.00524979444944679 0 0.002368255063333503 -0.0052079902206228958 0 0.0022880340890676682 -0.0069369671452060465 0 0.001828622100673462 -0.011636376271410535 0 0.001072471710325495 -0.016354204998541795 0 0.0010273686040356883 -0.015917577361430957 0 0.00069700257265551844 -0.016467329583794852 0 0.0005903957948331024 -0.015394868134909576 0 0.001020423460624337 -0.012719542489153763 0 0.00050072650700722814 -0.013714197350885141 0 0.00020478310537477539 -0.013708645102678304 0 0.00029576228367798516 -0.013459010619782361 0 0.0010273686040356883 -0.015917577361430957 0 0.00069700257265551844 -0.016467329583794852 0 0.00028208185425606942 -0.015943305155971275 0 0.00020478310537477539 -0.013708645102678304 0 6.9416329173242254e-05 -0.013479630253109678 0 0.00029576228367798516 -0.013459010619782361 0 0.00020478310537477539 -0.013708645102678304 0 -5.2744579535575781e-05 -0.013703074886995917 0 6.9416329173242254e-05 -0.013479630253109678 0 -0.00018548623026840429 -0.014100439152244789 0 0.0014775497570144345 -0.010470696746400407 0 0.0032104786079589598 -0.0051689572192884928 0 0.0029046218187141694 -0.0047770173443893345 0 0.0036056859720314293 -0.0044917735888677134 0 0.0014775497570144345 -0.010470696746400407 0 0.001020423460624337 -0.012719542489153763 0 0.0015090470020078578 -0.0093237646869519172 0 0.0020683553939805856 -0.0088558559749720659 0 0.0019156107405766242 -0.0086219472943256277 0 0.0015090470020078578 -0.0093237646869519172 0 0.0021478597847774876 -0.0092657085193806107 0 0.002043700983824314 -0.0091367019637724218 0 0.0015090470020078578 -0.0093237646869519172 0 0.002043700983824314 -0.0091367019637724218 0 0.0020683553939805856 -0.0088558559749720659 0 0.0014775497570144345 -0.010470696746400407 0 0.004250117765973724 -0.0031936920188401761 0 0.001020423460624337 -0.012719542489153763 0 0.00074694941018667153 -0.011432799849648467 0 0.0022826367411658208 -0.009021079453282144 0 0.002043700983824314 -0.0091367019637724218 0 0.0020683553939805856 -0.0088558559749720659 0 0.0022826367411658208 -0.009021079453282144 0 0.0021396536321634236 -0.0092477955823754617 0 0.002043700983824314 -0.0091367019637724218 0 0.0020683553939805856 -0.0088558559749720659 0 0.0019156107405766242 -0.0086219472943256277 0 0.0020447592249875539 -0.0085759604935204212 0 0.0047193779584007722 0.0029295872490266001 0 0.0047227388564399586 0.0029390418492626601 0 0.0046869838316548045 0.0029700792465118054 0 0.0048918856508409301 -0.0031175362299307305 0 0.0055073657882923881 -0.001283123830454811 0 0.0056860196413453948 -0.0027443264019970147 0 0.0048883094866271201 -0.0030522508190464646 0 0.0053635853883019719 -0.0032966528157737764 0 0.004250117765973724 -0.0031936920188401761 0 0.0055073657882923881 -0.001283123830454811 0 0.004250117765973724 -0.0031936920188401761 0 0.0048918856508409301 -0.0031175362299307305 0 0.0081868355659199948 -0.00049505326384451044 0 0.0055073657882923881 -0.001283123830454811 0 0.0077903830983385236 -0.00091557814241746954 0 0.0073861649197647416 -0.0016388582736893615 0 0.0071156988115680811 -0.00098082042555238877 0 0.0080598604770722084 -0.00045296923923658546 0 0.0081461294381787262 -0.00017042624728063935 0 0.008175814913517836 -0.00018763616609591673 0 0.0073861649197647416 -0.0016388582736893615 0 0.0071156988115680811 -0.00098082042555238877 0 0.0063471490347152158 -0.0011292416730485106 0 0.0067754501750320632 -0.00056478368163350085 0 0.0071156988115680811 -0.00098082042555238877 0 0.0063471490347152158 -0.0011292416730485106 0 0.0055073657882923881 -0.001283123830454811 0 0.005260765242391309 0.0019293066166601652 0 0.005260765242391309 0.0019293066166601652 0 0.0044171317008855635 0.0031844844984504532 0 0.0047227388564399586 0.0029390418492626601 0 0.0046665232443530861 0.0029953354438949737 0 0.0046869838316548045 0.0029700792465118054 0 0.0037729283136886424 -0.00072021371209303909 0 0.004250117765973724 -0.0031936920188401761 0 0.0046327506753714278 0.0029273822645500608 0 0.0046869838316548045 0.0029700792465118054 0 0.0045865747220713675 0.0030094175065157568 0 0.0046327506753714278 0.0029273822645500608 0 0.0047193779584007722 0.0029295872490266001 0 0.0046869838316548045 0.0029700792465118054 0 0.0046369572580870818 0.0030793550187578561 0 0.0046869838316548045 0.0029700792465118054 0 0.0045865747220713675 0.0030094175065157568 0 0.0045865747220713675 0.0030094175065157568 0 0.0045518777538208965 0.0031034900393074093 0 0.0045034217291262625 0.0030583591916968408 0 0.0043964536628367393 0.0031000062700867019 0 0.005260765242391309 0.0019293066166601652 0 0.0046369572580870818 0.0030793550187578561 0 0.0045865747220713675 0.0030094175065157568 0 0.0045518777538208965 0.0031034900393074093 0 0.0052309295854366103 0.001061933619854347 0 0.005260765242391309 0.0019293066166601652 0 0.0045030621594051613 0.0031932518237804616 0 0.0046369572580870818 0.0030793550187578561 0 0.0045518777538208965 0.0031034900393074093 0 0.0044529646874823924 0.0031833567711853205 0 0.0045024452840613707 0.0031371174731812811 0 0.004463310087008298 0.00313408817911103 0 0.0045030621594051613 0.0031932518237804616 0 0.0044529646874823924 0.0031833567711853205 0 0.0045024452840613707 0.0031371174731812811 0 0.0045030621594051613 0.0031932518237804616 0 0.0045518777538208965 0.0031034900393074093 0 0.0045024452840613707 0.0031371174731812811 0 0.0045518777538208965 0.0031034900393074093 0 0.0045024452840613707 0.0031371174731812811 0 0.0045034217291262625 0.0030583591916968408 0 0.0044406139764569036 0.0030868037936203681 0 0.004463310087008298 0.00313408817911103 0 0.0045034217291262625 0.0030583591916968408 0 0.0045024452840613707 0.0031371174731812811 0 0.004463310087008298 0.00313408817911103 0 0.0045034217291262625 0.0030583591916968408 0 0.0044461290213031598 0.0030065960659832213 0 0.0045034217291262625 0.0030583591916968408 0 0.0045085597958573224 0.0029281023302898529 0 0.0045865747220713675 0.0030094175065157568 0 0.0045034217291262625 0.0030583591916968408 0 0.0045085597958573224 0.0029281023302898529 0 0.0016775161179447182 -0.0052606001378336523 0 0.0022629738731139741 -0.0050409767154265392 0 0.0023987224239369804 -0.0052181499214593152 0 0.0014775497570144345 -0.010470696746400407 0 0.00093570570712631529 -0.0095705373309556713 0 0.0037729283136886424 -0.00072021371209303909 0 0.0036990147799764389 -0.00068007416273389582 0 0.0029046218187141694 -0.0047770173443893345 0 0.0022629738731139741 -0.0050409767154265392 0 0.0023987224239369804 -0.0052181499214593152 0 0.0032104786079589598 -0.0051689572192884928 0 0.0029046218187141694 -0.0047770173443893345 0 0.0023987224239369804 -0.0052181499214593152 0 0.0046327506753714278 0.0029273822645500608 0 0.0045865747220713675 0.0030094175065157568 0 0.0045085597958573224 0.0029281023302898529 0 0.00027520158561884035 -0.013416898076538987 0 -5.5777927973559687e-05 -0.013098534393130782 0 1.5954997320004298e-05 -0.013505181180117773 0 0.00027520158561884035 -0.013416898076538987 0 0.00052203323888515784 -0.013001560662602909 0 -5.5777927973559687e-05 -0.013098534393130782 0 -5.5777927973559687e-05 -0.013098534393130782 0 -0.0001259538225698496 -0.013418059043024826 0 1.5954997320004298e-05 -0.013505181180117773 0 -0.00040984207859199559 -0.013084719358425478 0 -0.00026062637414126563 -0.013122200795707523 0 -5.5777927973559687e-05 -0.013098534393130782 0 0.0020212292594941565 -0.0045333339913283264 0 0.00093570570712631529 -0.0095705373309556713 0 -5.5777927973559687e-05 -0.013098534393130782 0 -0.00020128153403088314 -0.0132972419665236 0 -0.0001259538225698496 -0.013418059043024826 0 -0.00026062637414126563 -0.013122200795707523 0 -0.00020128153403088314 -0.0132972419665236 0 -0.00027284690243533526 -0.013329682186915871 0 -0.00020128153403088314 -0.0132972419665236 0 -0.00024942754654860274 -0.013474385858643528 0 -0.0001259538225698496 -0.013418059043024826 0 -0.00020128153403088314 -0.0132972419665236 0 -0.00027284690243533526 -0.013329682186915871 0 -0.00024942754654860274 -0.013474385858643528 0 -0.00031030548387853932 -0.013396281188187106 0 -0.00027284690243533526 -0.013329682186915871 0 -0.00024942754654860274 -0.013474385858643528 0 -0.00026062637414126563 -0.013122200795707523 0 -5.5777927973559687e-05 -0.013098534393130782 0 -0.00020128153403088314 -0.0132972419665236 0 -0.00032058931973225882 -0.013562377042292646 0 -0.00024848120688593676 -0.013650009455960227 0 -0.00024942754654860274 -0.013474385858643528 0 -0.00013699797954620424 -0.013645552438014491 0 -0.00024848120688593676 -0.013650009455960227 0 -0.00024942754654860274 -0.013474385858643528 0 -0.00013699797954620424 -0.013645552438014491 0 -0.00024942754654860274 -0.013474385858643528 0 -0.0001259538225698496 -0.013418059043024826 0 -0.00013699797954620424 -0.013645552438014491 0 -0.0001259538225698496 -0.013418059043024826 0 1.5954997320004298e-05 -0.013505181180117773 0 0.00027520158561884035 -0.013416898076538987 0 1.5954997320004298e-05 -0.013505181180117773 0 -8.6096313899020448e-05 -0.0138046861380296 0 -5.2744579535575781e-05 -0.013703074886995917 0 -8.6096313899020448e-05 -0.0138046861380296 0 -4.5665871948982653e-05 -0.013901334861513185 0 -0.00018548623026840429 -0.014100439152244789 0 5.9463435198823e-05 -0.013574902004721546 0 -0.00013699797954620424 -0.013645552438014491 0 1.5954997320004298e-05 -0.013505181180117773 0 -8.6096313899020448e-05 -0.0138046861380296 0 -8.6096313899020448e-05 -0.0138046861380296 0 -0.00018059947585776095 -0.013896476077729942 0 -4.5665871948982653e-05 -0.013901334861513185 0 -8.6096313899020448e-05 -0.0138046861380296 0 -0.00018059947585776095 -0.013896476077729942 0 -0.000185359244577226 -0.013829897938288887 0 -0.00013699797954620424 -0.013645552438014491 0 -0.00024848120688593676 -0.013650009455960227 0 -0.000185359244577226 -0.013829897938288887 0 -0.00013699797954620424 -0.013645552438014491 0 -8.6096313899020448e-05 -0.0138046861380296 0 -0.000185359244577226 -0.013829897938288887 0 -0.00025807897527767396 -0.013778041504676306 0 -0.00024848120688593676 -0.013650009455960227 0 -0.000185359244577226 -0.013829897938288887 0 -0.00025807897527767396 -0.013778041504676306 0 -0.00016953931347689092 -0.01385707121090371 0 -0.000185359244577226 -0.013829897938288887 0 -0.00016953931347689092 -0.01385707121090371 0 -0.00019919340485788375 -0.013828340696180188 0 -0.00015234377616029179 -0.013646338972173622 0 -0.00018059947585776095 -0.013896476077729942 0 -0.000185359244577226 -0.013829897938288887 0 -0.00019919340485788375 -0.013828340696180188 0 -0.00016953931347689092 -0.01385707121090371 0 -0.000185359244577226 -0.013829897938288887 0 -0.00019919340485788375 -0.013828340696180188 0 -0.00019919340485788375 -0.013828340696180188 0 -0.00015234377616029179 -0.013646338972173622 0 -0.00027878121053674166 -0.013730180514915468 0 -0.00018059947585776095 -0.013896476077729942 0 -0.00027878121053674166 -0.013730180514915468 0 -0.00033817671234897813 -0.01373077871104662 0 -0.00018059947585776095 -0.013896476077729942 0 -0.00019919340485788375 -0.013828340696180188 0 -0.00027878121053674166 -0.013730180514915468 0 -0.00018059947585776095 -0.013896476077729942 0 1.1005085676620045e-05 -0.014337402627267029 0 -4.5665871948982653e-05 -0.013901334861513185 0 -0.00018095115644143418 -0.013919180289484754 0 -0.00014764324304270555 -0.014034268556819055 0 -0.00027878121053674166 -0.013730180514915468 0 -0.00033817671234897813 -0.01373077871104662 0 -0.00035624133885709341 -0.013738728447319923 0 -0.00014764324304270555 -0.014034268556819055 0 5.5244187903683805e-05 -0.014278071679348891 0 1.1005085676620045e-05 -0.014337402627267029 0 0.00035881419756946708 -0.014252726397829771 0 0.0002753308042608721 -0.014705596188626154 0 -0.00033817671234897813 -0.01373077871104662 0 -0.00015660553106320977 -0.013808121529990079 0 -0.00035624133885709341 -0.013738728447319923 0 1.1005085676620045e-05 -0.014337402627267029 0 0.00012222944565884754 -0.01394739606456482 0 0.00035881419756946708 -0.014252726397829771 0 1.1005085676620045e-05 -0.014337402627267029 0 0.00012222944565884754 -0.01394739606456482 0 -4.5665871948982653e-05 -0.013901334861513185 0 -5.2744579535575781e-05 -0.013703074886995917 0 0.00012222944565884754 -0.01394739606456482 0 -4.5665871948982653e-05 -0.013901334861513185 0 0.00020478310537477539 -0.013708645102678304 0 -5.2744579535575781e-05 -0.013703074886995917 0 0.00012222944565884754 -0.01394739606456482 0 0.00020478310537477539 -0.013708645102678304 0 0.00012222944565884754 -0.01394739606456482 0 0.00036479804031774843 -0.01392451347424028 0 0.00050072650700722814 -0.013714197350885141 0 0.00020478310537477539 -0.013708645102678304 0 0.00036479804031774843 -0.01392451347424028 0 0.00050072650700722814 -0.013714197350885141 0 0.00036479804031774843 -0.01392451347424028 0 0.00073505306198668775 -0.014006666050048067 0 0.0005903957948331024 -0.015394868134909576 0 0.00092056457011206662 -0.015418398571596015 0 0.001072471710325495 -0.016354204998541795 0 0.00069700257265551844 -0.016467329583794852 0 0.001134421660392092 -0.016942719292001057 0 0.00012222944565884754 -0.01394739606456482 0 0.00036479804031774843 -0.01392451347424028 0 0.00035881419756946708 -0.014252726397829771 0 0.00036479804031774843 -0.01392451347424028 0 0.00035881419756946708 -0.014252726397829771 0 0.00073505306198668775 -0.014006666050048067 0 0.0006010505394653282 -0.014459373091878024 0 0.00075442258698601181 -0.014907451416408686 0 0.0002753308042608721 -0.014705596188626154 0 0.00035881419756946708 -0.014252726397829771 0 0.0006010505394653282 -0.014459373091878024 0 0.0002753308042608721 -0.014705596188626154 0 0.00035881419756946708 -0.014252726397829771 0 0.0006010505394653282 -0.014459373091878024 0 0.00073505306198668775 -0.014006666050048067 0 0.0006010505394653282 -0.014459373091878024 0 0.0010268508321579811 -0.014365030605748116 0 0.00073505306198668775 -0.014006666050048067 0 0.0006010505394653282 -0.014459373091878024 0 0.0010268508321579811 -0.014365030605748116 0 0.00075442258698601181 -0.014907451416408686 0 0.0017419817011337458 -0.016116039360251782 0 0.0013342502957408102 -0.01583702130526499 0 0.001476637139978946 -0.01495823985253408 0 0.0010268508321579811 -0.014365030605748116 0 0.00075442258698601181 -0.014907451416408686 0 0.0019424887710980483 -0.01733415713699954 0 0.002109241450858541 -0.017288451888635373 0 0.0016255619089992038 -0.017326584410357684 0 0.0019424887710980483 -0.01733415713699954 0 0.0016255619089992038 -0.017326584410357684 0 0.0016698050351558859 -0.016952526181135224 0 0.0016255619089992038 -0.017326584410357684 0 0.0016698050351558859 -0.016952526181135224 0 0.001134421660392092 -0.016942719292001057 0 0.0013342502957408102 -0.01583702130526499 0 0.00092056457011206662 -0.015418398571596015 0 0.001072471710325495 -0.016354204998541795 0 0.001134421660392092 -0.016942719292001057 0 0.0013581871043646576 -0.016577180915064573 0 0.0016698050351558859 -0.016952526181135224 0 0.001134421660392092 -0.016942719292001057 0 0.0013581871043646576 -0.016577180915064573 0 0.0018596167254870566 -0.016669633067758365 0 0.0016698050351558859 -0.016952526181135224 0 0.0016310860109619643 -0.016636450079835167 0 0.0016698050351558859 -0.016952526181135224 0 0.0013581871043646576 -0.016577180915064573 0 0.0016310860109619643 -0.016636450079835167 0 -0.00029938845162138562 -0.01560827631923045 0 -0.0011941025724112751 -0.014811660309146117 0 -0.00037283676988080172 -0.016685439675996162 0 -0.00057988685448246465 -0.017516962674709185 0 1.1978462461040804e-05 -0.016578146269533241 0 -0.0023211299300593953 -0.013344755542735374 0 -0.0019448761652135394 -0.012966687600959237 0 -0.0017501621722686188 -0.013289660594169537 0 -0.0019448761652135394 -0.012966687600959237 0 -0.0017501621722686188 -0.013289660594169537 0 -0.0014711342817607801 -0.01294193701201618 0 0.00070624601844692444 -0.015604199758973421 0 0.00092426070813681198 -0.015630355267981653 0 0.00044124014544194746 -0.014827576949002693 0 0.0014412038688215 -0.016311371395030867 0 0.00092426070813681198 -0.015630355267981653 0 0.001349560387183745 -0.016079630741139477 0 0.0014412038688215 -0.016311371395030867 0 0.00070624601844692444 -0.015604199758973421 0 0.00092426070813681198 -0.015630355267981653 0 -0.00029938845162138562 -0.01560827631923045 0 -0.00051264824902532964 -0.014334622462921645 0 0.00092426070813681198 -0.015630355267981653 0 0.001349560387183745 -0.016079630741139477 0 0.0013058034392772469 -0.01589373999469413 0 0.0013436983259380048 -0.015675077088253633 0 0.0013058034392772469 -0.01589373999469413 0 0.00092876846394525413 -0.015382856557394268 0 0.00092426070813681198 -0.015630355267981653 0 0.0013058034392772469 -0.01589373999469413 0 0.00092876846394525413 -0.015382856557394268 0 0.0013436983259380048 -0.015675077088253633 0 0.00075442258698601181 -0.014907451416408686 0 0.00092876846394525413 -0.015382856557394268 0 0.0013436983259380048 -0.015675077088253633 0 0.001476637139978946 -0.01495823985253408 0 0.00075442258698601181 -0.014907451416408686 0 0.00075442258698601181 -0.014907451416408686 0 0.00092876846394525413 -0.015382856557394268 0 0.00044124014544194746 -0.014827576949002693 0 0.00092426070813681198 -0.015630355267981653 0 0.00092876846394525413 -0.015382856557394268 0 0.00044124014544194746 -0.014827576949002693 0 0.00075442258698601181 -0.014907451416408686 0 0.00044124014544194746 -0.014827576949002693 0 0.0002753308042608721 -0.014705596188626154 0 0.00041794358282896846 -0.014762091321841858 0 5.5244187903683805e-05 -0.014278071679348891 0 0.00044124014544194746 -0.014827576949002693 0 -0.00015660553106320977 -0.013808121529990079 0 -0.00010037561156646513 -0.014289642787830402 0 0.00044124014544194746 -0.014827576949002693 0 -0.00010037561156646513 -0.014289642787830402 0 -3.5754725108990142e-05 -0.014755672778238348 0 0.00070624601844692444 -0.015604199758973421 0 0.00044124014544194746 -0.014827576949002693 0 -3.5754725108990142e-05 -0.014755672778238348 0 -0.0017501621722686188 -0.013289660594169537 0 -0.0014711342817607801 -0.01294193701201618 0 -0.0010858339857893462 -0.01328898327663346 0 -0.00051264824902532964 -0.014334622462921645 0 -0.00049905771885902267 -0.014012676464181428 0 -0.0014711342817607801 -0.01294193701201618 0 -0.0010858339857893462 -0.01328898327663346 0 -0.0009852317920364651 -0.012636627965314779 0 -0.0010858339857893462 -0.01328898327663346 0 -0.00041861385582476172 -0.01344918571022913 0 -0.00044703337758094719 -0.012924542170592865 0 -0.0010858339857893462 -0.01328898327663346 0 -0.00044703337758094719 -0.012924542170592865 0 -0.0009852317920364651 -0.012636627965314779 0 -0.00049905771885902267 -0.014012676464181428 0 -0.00035616125182913022 -0.013531430056495286 0 -0.00041861385582476172 -0.01344918571022913 0 -0.00038505544921876942 -0.012936301376861718 0 -0.00044703337758094719 -0.012924542170592865 0 -0.00041861385582476172 -0.01344918571022913 0 -0.0003759733393522808 -0.013601716082334831 0 -0.00033486143970669037 -0.014002418027849923 0 -3.5754725108990142e-05 -0.014755672778238348 0 -0.00041861385582476172 -0.01344918571022913 0 -0.00033486143970669037 -0.014002418027849923 0 -0.00010037561156646513 -0.014289642787830402 0 -3.5754725108990142e-05 -0.014755672778238348 0 -0.00033486143970669037 -0.014002418027849923 0 -0.00010037561156646513 -0.014289642787830402 0 -0.00033486143970669037 -0.014002418027849923 0 -0.00036341556941840893 -0.013894664394900178 0 -0.00015660553106320977 -0.013808121529990079 0 -0.00010037561156646513 -0.014289642787830402 0 -0.00036341556941840893 -0.013894664394900178 0 -0.00015660553106320977 -0.013808121529990079 0 -0.00035624133885709341 -0.013738728447319923 0 -0.00036341556941840893 -0.013894664394900178 0 -0.00035624133885709341 -0.013738728447319923 0 -0.00036341556941840893 -0.013894664394900178 0 -0.00033109040021569211 -0.013594000259498107 0 -0.0003759733393522808 -0.013601716082334831 0 -0.00036341556941840893 -0.013894664394900178 0 -0.00033109040021569211 -0.013594000259498107 0 -0.0003759733393522808 -0.013601716082334831 0 -0.00033486143970669037 -0.014002418027849923 0 -0.00036341556941840893 -0.013894664394900178 0 -0.0003759733393522808 -0.013601716082334831 0 -0.00033109040021569211 -0.013594000259498107 0 -0.00035291228319761031 -0.013263914890864847 0 -0.00027878121053674166 -0.013730180514915468 0 -0.00035624133885709341 -0.013738728447319923 0 -0.00033109040021569211 -0.013594000259498107 0 -0.00015234377616029179 -0.013646338972173622 0 -0.00027878121053674166 -0.013730180514915468 0 -0.00033109040021569211 -0.013594000259498107 0 -0.00015234377616029179 -0.013646338972173622 0 -0.00033109040021569211 -0.013594000259498107 0 -0.00012177334943932966 -0.013370493566664556 0 -0.00033109040021569211 -0.013594000259498107 0 -0.00035291228319761031 -0.013263914890864847 0 -0.00012177334943932966 -0.013370493566664556 0 -0.00035291228319761031 -0.013263914890864847 0 -0.00012177334943932966 -0.013370493566664556 0 -1.3999211637513422e-05 -0.013051679666459294 0 -0.00041861385582476172 -0.01344918571022913 0 -0.0003759733393522808 -0.013601716082334831 0 -0.00035291228319761031 -0.013263914890864847 0 -0.00035291228319761031 -0.013263914890864847 0 -0.00038505544921876942 -0.012936301376861718 0 -0.00050357361813180279 -0.01272430975589689 0 -0.00041861385582476172 -0.01344918571022913 0 -0.00035291228319761031 -0.013263914890864847 0 -0.00038505544921876942 -0.012936301376861718 0 -0.00035291228319761031 -0.013263914890864847 0 -0.00050357361813180279 -0.01272430975589689 0 -1.3999211637513422e-05 -0.013051679666459294 0 -0.00050357361813180279 -0.01272430975589689 0 -0.00043031884800813031 -0.012807115227997851 0 -0.00040704085276826183 -0.012799077106831142 0 -0.00038505544921876942 -0.012936301376861718 0 -0.00050357361813180279 -0.01272430975589689 0 -0.00043031884800813031 -0.012807115227997851 0 -0.00053372931157790967 -0.012528588176670746 0 -0.00069556719555811432 -0.01208362267127871 0 -0.00038505544921876942 -0.012936301376861718 0 -0.000424185933217861 -0.01284173717981885 0 -0.00044703337758094719 -0.012924542170592865 0 -0.00038505544921876942 -0.012936301376861718 0 -0.000424185933217861 -0.01284173717981885 0 -0.00043031884800813031 -0.012807115227997851 0 -0.00023281477340857842 -0.012498538744432647 0 -0.00017212116756506606 -0.012219668407048339 0 -2.4756302154756471e-05 -0.012174666061663319 0 0.00023326816112104672 -0.011383440993003145 0 -5.886092814664485e-05 -0.01123843667882325 0 -2.4756302154756471e-05 -0.012174666061663319 0 -5.886092814664485e-05 -0.01123843667882325 0 -0.00021152054562979255 -0.011563605147476969 0 -0.000424185933217861 -0.01284173717981885 0 -0.00044921527602538244 -0.01275387985710438 0 -0.00043031884800813031 -0.012807115227997851 0 -0.00044921527602538244 -0.01275387985710438 0 -0.00043031884800813031 -0.012807115227997851 0 -0.00040704085276826183 -0.012799077106831142 0 -0.00017212116756506606 -0.012219668407048339 0 -0.00020371051315762399 -0.010043081981961187 0 -0.00044921527602538244 -0.01275387985710438 0 -0.00040704085276826183 -0.012799077106831142 0 -0.00032406002985133807 -0.012593606364193075 0 0.00023326816112104672 -0.011383440993003145 0 7.0196938401180956e-05 -0.010297647167204275 0 0.00061218814758971427 -0.010145950123310977 0 0.00023326816112104672 -0.011383440993003145 0 7.0196938401180956e-05 -0.010297647167204275 0 -5.886092814664485e-05 -0.01123843667882325 0 -8.2067407919403601e-07 -0.0097784961036183355 0 7.0196938401180956e-05 -0.010297647167204275 0 2.3593623896018407e-06 -0.0077865602949195997 0 -8.2067407919403601e-07 -0.0097784961036183355 0 -0.00020107159352741874 -0.011235309376440157 0 -1.708232406302704e-07 -0.011773649362534945 0 -8.2067407919403601e-07 -0.0097784961036183355 0 7.0196938401180956e-05 -0.010297647167204275 0 -0.00020107159352741874 -0.011235309376440157 0 7.0196938401180956e-05 -0.010297647167204275 0 -0.00020107159352741874 -0.011235309376440157 0 -5.886092814664485e-05 -0.01123843667882325 0 -0.00020107159352741874 -0.011235309376440157 0 -5.886092814664485e-05 -0.01123843667882325 0 -0.00021152054562979255 -0.011563605147476969 0 -0.00020107159352741874 -0.011235309376440157 0 -0.00031332397754411809 -0.011824565938120105 0 -7.310148015897091e-05 -0.012155526380239055 0 -0.00020107159352741874 -0.011235309376440157 0 -0.00021152054562979255 -0.011563605147476969 0 -0.00031332397754411809 -0.011824565938120105 0 -0.00020107159352741874 -0.011235309376440157 0 -7.310148015897091e-05 -0.012155526380239055 0 -1.708232406302704e-07 -0.011773649362534945 0 -7.310148015897091e-05 -0.012155526380239055 0 -1.708232406302704e-07 -0.011773649362534945 0 5.0600880150795199e-05 -0.013479627084156719 0 -1.708232406302704e-07 -0.011773649362534945 0 5.0600880150795199e-05 -0.013479627084156719 0 1.7705170453617334e-07 -0.01376826825570034 0 -0.00031332397754411809 -0.011824565938120105 0 -7.310148015897091e-05 -0.012155526380239055 0 -0.00082918191997351546 -0.011949248777997128 0 -0.00013641113006238132 -0.012393085807770293 0 -0.00040941168208948454 -0.013328258845718395 0 -7.310148015897091e-05 -0.012155526380239055 0 0.00019897580937139388 -0.014681936872859137 0 5.0600880150795199e-05 -0.013479627084156719 0 -0.00045733327678811221 -0.012157760734932178 0 -0.0009852317920364651 -0.012636627965314779 0 -0.00082918191997351546 -0.011949248777997128 0 -0.00031332397754411809 -0.011824565938120105 0 -0.00045733327678811221 -0.012157760734932178 0 -0.00082918191997351546 -0.011949248777997128 0 -0.00021152054562979255 -0.011563605147476969 0 -0.00031332397754411809 -0.011824565938120105 0 -0.00045733327678811221 -0.012157760734932178 0 -2.4756302154756471e-05 -0.012174666061663319 0 -0.00021152054562979255 -0.011563605147476969 0 -0.00045733327678811221 -0.012157760734932178 0 -0.00023281477340857842 -0.012498538744432647 0 -0.00046298024026985733 -0.012886277772529502 0 -2.4756302154756471e-05 -0.012174666061663319 0 -0.00045733327678811221 -0.012157760734932178 0 -0.00044703337758094719 -0.012924542170592865 0 -0.00045733327678811221 -0.012157760734932178 0 -0.00044703337758094719 -0.012924542170592865 0 -0.0009852317920364651 -0.012636627965314779 0 -0.0014711342817607801 -0.01294193701201618 0 -0.0009852317920364651 -0.012636627965314779 0 -0.0015089169523531548 -0.012492982852196225 0 6.3580629235593654e-05 -0.015810506632064403 0 -0.00012108665896126758 -0.015009372553569296 0 -0.00019474906526970566 -0.015814147941510478 0 6.3580629235593654e-05 -0.015810506632064403 0 0.00019897580937139388 -0.014681936872859137 0 -0.00012108665896126758 -0.015009372553569296 0 -0.0009852317920364651 -0.012636627965314779 0 -0.0015089169523531548 -0.012492982852196225 0 -0.00082918191997351546 -0.011949248777997128 0 -0.00069578105596328189 -0.014147264932397648 0 -0.00040941168208948454 -0.013328258845718395 0 0.00019897580937139388 -0.014681936872859137 0 5.0600880150795199e-05 -0.013479627084156719 0 -0.00012108665896126758 -0.015009372553569296 0 5.0600880150795199e-05 -0.013479627084156719 0 1.7705170453617334e-07 -0.01376826825570034 0 -0.00012108665896126758 -0.015009372553569296 0 1.7705170453617334e-07 -0.01376826825570034 0 -0.00012108665896126758 -0.015009372553569296 0 -9.4457701391971099e-07 -0.015763657174674903 0 -0.00012108665896126758 -0.015009372553569296 0 -0.00022264184126393583 -0.016203143461954752 0 -0.00019474906526970566 -0.015814147941510478 0 -0.00012108665896126758 -0.015009372553569296 0 -9.4457701391971099e-07 -0.015763657174674903 0 -0.00022264184126393583 -0.016203143461954752 0 5.7843862158362112e-07 -0.017753993835840046 0 -9.4457701391971099e-07 -0.015763657174674903 0 -0.00022264184126393583 -0.016203143461954752 0 -0.00024506296045174921 -0.016118254406430766 0 -0.00022264184126393583 -0.016203143461954752 0 -0.00019474906526970566 -0.015814147941510478 0 -0.00024506296045174921 -0.016118254406430766 0 -0.00019474906526970566 -0.015814147941510478 0 -0.00013067040488994004 -0.016174955667352355 0 6.3580629235593654e-05 -0.015810506632064403 0 -0.00019474906526970566 -0.015814147941510478 0 -0.00013067040488994004 -0.016174955667352355 0 1.1978462461040804e-05 -0.016578146269533241 0 6.3580629235593654e-05 -0.015810506632064403 0 -0.00013067040488994004 -0.016174955667352355 0 -0.0011941025724112751 -0.014811660309146117 0 -0.00069578105596328189 -0.014147264932397648 0 -0.0019448761652135394 -0.012966687600959237 0 -0.0014711342817607801 -0.01294193701201618 0 -0.0015089169523531548 -0.012492982852196225 0 -0.00037283676988080172 -0.016685439675996162 0 -0.00024506296045174921 -0.016118254406430766 0 -0.00013067040488994004 -0.016174955667352355 0 -0.00037283676988080172 -0.016685439675996162 0 1.1978462461040804e-05 -0.016578146269533241 0 -0.00013067040488994004 -0.016174955667352355 0 0.001147960759200184 -0.012422049958862435 0 0.0012764110283286138 -0.012566753465387846 0 0.0011129576443539347 -0.012656736733944121 0 0.001147960759200184 -0.012422049958862435 0 0.0012796904650896374 -0.012392547873481922 0 0.0012764110283286138 -0.012566753465387846 0 0.001147960759200184 -0.012422049958862435 0 0.0009303888258628206 -0.012541247823912437 0 0.0011129576443539347 -0.012656736733944121 0 0.001147960759200184 -0.012422049958862435 0 0.0009303888258628206 -0.012541247823912437 0 0.0010173713117013229 -0.012326073034459453 0 0.001147960759200184 -0.012422049958862435 0 0.0010173713117013229 -0.012326073034459453 0 0.0011248749928421552 -0.012211550501248277 0 0.0009303888258628206 -0.012541247823912437 0 0.0010173713117013229 -0.012326073034459453 0 0.00084163232791675401 -0.012320694481848988 0 0.0010173713117013229 -0.012326073034459453 0 0.00084163232791675401 -0.012320694481848988 0 0.0010097839144084849 -0.012137066394133353 0 0.0010173713117013229 -0.012326073034459453 0 0.0011248749928421552 -0.012211550501248277 0 0.0010097839144084849 -0.012137066394133353 0 0.001147960759200184 -0.012422049958862435 0 0.0011248749928421552 -0.012211550501248277 0 0.0012575402768793024 -0.012216756513159281 0 0.001147960759200184 -0.012422049958862435 0 0.0012796904650896374 -0.012392547873481922 0 0.0012575402768793024 -0.012216756513159281 0 0.0012575402768793024 -0.012216756513159281 0 0.0013388811127967042 -0.012288930922713688 0 0.0013643947227701535 -0.012146355891507867 0 0.0012796904650896374 -0.012392547873481922 0 0.0012575402768793024 -0.012216756513159281 0 0.0013388811127967042 -0.012288930922713688 0 0.0013388811127967042 -0.012288930922713688 0 0.001405875462400123 -0.012258127936198369 0 0.0013585313822369867 -0.012426789871670854 0 0.001405875462400123 -0.012258127936198369 0 0.0013643947227701535 -0.012146355891507867 0 0.0014679396600462578 -0.012167441997314425 0 0.0013388811127967042 -0.012288930922713688 0 0.001405875462400123 -0.012258127936198369 0 0.0013643947227701535 -0.012146355891507867 0 0.001405875462400123 -0.012258127936198369 0 0.0013585313822369867 -0.012426789871670854 0 0.0014318467010367042 -0.012327093343016994 0 0.0013585313822369867 -0.012426789871670854 0 0.0013752685371734975 -0.012465670090309678 0 0.0014318467010367042 -0.012327093343016994 0 0.0012796904650896374 -0.012392547873481922 0 0.0012764110283286138 -0.012566753465387846 0 0.0013585313822369867 -0.012426789871670854 0 0.0012796904650896374 -0.012392547873481922 0 0.0013388811127967042 -0.012288930922713688 0 0.0013585313822369867 -0.012426789871670854 0 0.0012764110283286138 -0.012566753465387846 0 0.0013585313822369867 -0.012426789871670854 0 0.0013430383260796598 -0.012587031133938893 0 0.0013585313822369867 -0.012426789871670854 0 0.0013430383260796598 -0.012587031133938893 0 0.0013752685371734975 -0.012465670090309678 0 0.0013430383260796598 -0.012587031133938893 0 0.0013752685371734975 -0.012465670090309678 0 0.0013333565837939699 -0.012507904803860206 0 0.0013121160998437937 -0.012513547346059223 0 0.0013181925905131524 -0.012473680907615624 0 0.0013333565837939699 -0.012507904803860206 0 0.0013181925905131524 -0.012473680907615624 0 0.0013333565837939699 -0.012507904803860206 0 0.001371160135364588 -0.01244598406829845 0 0.0013752685371734975 -0.012465670090309678 0 0.0013333565837939699 -0.012507904803860206 0 0.001371160135364588 -0.01244598406829845 0 0.0013121160998437937 -0.012513547346059223 0 0.0013430383260796598 -0.012587031133938893 0 0.0013333565837939699 -0.012507904803860206 0 0.0013121160998437937 -0.012513547346059223 0 0.0013430383260796598 -0.012587031133938893 0 0.0013528782973075948 -0.012805115180411159 0 0.0012764110283286138 -0.012566753465387846 0 0.0013528782973075948 -0.012805115180411159 0 0.0011129576443539347 -0.012656736733944121 0 0.0012764110283286138 -0.012566753465387846 0 0.0013430383260796598 -0.012587031133938893 0 0.0013528782973075948 -0.012805115180411159 0 0.0013528782973075948 -0.012805115180411159 0 0.0011129576443539347 -0.012656736733944121 0 0.00073771589016401011 -0.012996536457331211 0 0.0009303888258628206 -0.012541247823912437 0 0.0011129576443539347 -0.012656736733944121 0 0.00073771589016401011 -0.012996536457331211 0 0.0013412442957087109 -0.012988838227333915 0 0.001360363712421089 -0.012838690975343575 0 0.00094524403060134419 -0.013506952559263475 0 0.0013528782973075948 -0.012805115180411159 0 0.00073771589016401011 -0.012996536457331211 0 0.00047916048033436518 -0.013591205090095374 0 0.00073771589016401011 -0.012996536457331211 0 0.00022352568159743764 -0.013393366001147872 0 0.00073771589016401011 -0.012996536457331211 0 0.00022352568159743764 -0.013393366001147872 0 0.000315695114881202 -0.013001164356039964 0 0.00073771589016401011 -0.012996536457331211 0 0.000315695114881202 -0.013001164356039964 0 0.00062898501966495975 -0.012618439418357391 0 -0.00015234377616029179 -0.013646338972173622 0 0.00022352568159743764 -0.013393366001147872 0 -0.00012177334943932966 -0.013370493566664556 0 0.00022352568159743764 -0.013393366001147872 0 0.000315695114881202 -0.013001164356039964 0 -0.00012177334943932966 -0.013370493566664556 0 0.000315695114881202 -0.013001164356039964 0 -0.00012177334943932966 -0.013370493566664556 0 -1.3999211637513422e-05 -0.013051679666459294 0 0.000315695114881202 -0.013001164356039964 0 -1.3999211637513422e-05 -0.013051679666459294 0 0.00030924794046304789 -0.012640277421559157 0 -1.3999211637513422e-05 -0.013051679666459294 0 0.00030924794046304789 -0.012640277421559157 0 4.1753675431901796e-06 -0.01223622685805848 0 0.00030924794046304789 -0.012640277421559157 0 0.00056404732265010599 -0.012201346768726645 0 4.1753675431901796e-06 -0.01223622685805848 0 -1.5114469039561972e-05 -0.013024391741011986 0 0.00015487828082929038 -0.01229994958740686 0 -0.00050357361813180279 -0.01272430975589689 0 -1.3999211637513422e-05 -0.013051679666459294 0 0.00026823927969599274 -0.012506325092526825 0 0.0009303888258628206 -0.012541247823912437 0 0.00073771589016401011 -0.012996536457331211 0 0.00062898501966495975 -0.012618439418357391 0 0.000315695114881202 -0.013001164356039964 0 0.00030924794046304789 -0.012640277421559157 0 0.00062898501966495975 -0.012618439418357391 0 0.00030924794046304789 -0.012640277421559157 0 0.00062898501966495975 -0.012618439418357391 0 0.00056404732265010599 -0.012201346768726645 0 0.00084163232791675401 -0.012320694481848988 0 0.00083554743162352985 -0.012106497434828275 0 0.00056404732265010599 -0.012201346768726645 0 0.0009303888258628206 -0.012541247823912437 0 0.00062898501966495975 -0.012618439418357391 0 0.00084163232791675401 -0.012320694481848988 0 0.00062898501966495975 -0.012618439418357391 0 0.00084163232791675401 -0.012320694481848988 0 0.00056404732265010599 -0.012201346768726645 0 0.00084163232791675401 -0.012320694481848988 0 0.00083554743162352985 -0.012106497434828275 0 0.0010097839144084849 -0.012137066394133353 0 0.00083554743162352985 -0.012106497434828275 0 0.00092677984026580634 -0.011955268480884986 0 0.0010097839144084849 -0.012137066394133353 0 0.00083554743162352985 -0.012106497434828275 0 0.00092677984026580634 -0.011955268480884986 0 0.00069299530733394059 -0.011955354922878627 0 -6.4348350718138275e-05 -0.0084570467548314033 0 0.00011312334279350622 -0.0087820106806518645 0 0.00092677984026580634 -0.011955268480884986 0 0.00069299530733394059 -0.011955354922878627 0 0.00070863316671706427 -0.011652524735092573 0 0.00083554743162352985 -0.012106497434828275 0 0.00069299530733394059 -0.011955354922878627 0 0.00056404732265010599 -0.012201346768726645 0 0.00056404732265010599 -0.012201346768726645 0 0.00045194735239472111 -0.011831414266046876 0 4.1753675431901796e-06 -0.01223622685805848 0 0.00069299530733394059 -0.011955354922878627 0 0.00056404732265010599 -0.012201346768726645 0 0.00045194735239472111 -0.011831414266046876 0 0.00045194735239472111 -0.011831414266046876 0 0.00070863316671706427 -0.011652524735092573 0 0.00067507347436771958 -0.011314812751358278 0 0.00045194735239472111 -0.011831414266046876 0 0.00011255416296899382 -0.011531212582026044 0 0.00067507347436771958 -0.011314812751358278 0 0.00069299530733394059 -0.011955354922878627 0 0.00045194735239472111 -0.011831414266046876 0 0.00070863316671706427 -0.011652524735092573 0 -6.4348350718138275e-05 -0.0084570467548314033 0 0.00041306358049080264 -0.0077315959352915872 0 0.00091234224845651926 -0.011907962013818151 0 0.00070863316671706427 -0.011652524735092573 0 0.00068906855303665004 -0.011288343158623019 0 0.00097197780925155775 -0.012125237378023946 0 0.00041306358049080264 -0.0077315959352915872 0 -0.00011856032517369067 -0.003348979874386392 0 -0.0001046448154845205 -0.0034943170385573082 0 0.00033466250176373587 -0.0035748451215151149 0 0.00091234224845651926 -0.011907962013818151 0 0.00092677984026580634 -0.011955268480884986 0 0.00070863316671706427 -0.011652524735092573 0 -0.00050357361813180279 -0.01272430975589689 0 -7.5463570528946846e-05 -0.011639620467468451 0 -0.00091518591607617813 -0.011125005835325269 0 -0.00050357361813180279 -0.01272430975589689 0 -7.5463570528946846e-05 -0.011639620467468451 0 0.00026823927969599274 -0.012506325092526825 0 -7.5463570528946846e-05 -0.011639620467468451 0 0.00026823927969599274 -0.012506325092526825 0 0.00094258464481065214 -0.010707157551622149 0 0.00015487828082929038 -0.01229994958740686 0 0.00054244826396474064 -0.011346479733815147 0 0.00045194735239472111 -0.011831414266046876 0 4.1753675431901796e-06 -0.01223622685805848 0 0.00011255416296899382 -0.011531212582026044 0 -7.5463570528946846e-05 -0.011639620467468451 0 0.00094258464481065214 -0.010707157551622149 0 -0.00017239929152211046 -0.010401861473226843 0 -7.5463570528946846e-05 -0.011639620467468451 0 -0.00017239929152211046 -0.010401861473226843 0 -0.00091518591607617813 -0.011125005835325269 0 -0.00017239929152211046 -0.010401861473226843 0 -0.00091518591607617813 -0.011125005835325269 0 -0.0008835736785363364 -0.0090462064423478782 0 -0.00069556719555811432 -0.01208362267127871 0 -0.00020371051315762399 -0.010043081981961187 0 -0.00017239929152211046 -0.010401861473226843 0 -0.0008835736785363364 -0.0090462064423478782 0 6.8996519804235924e-05 -0.0093430448735542168 0 -0.0008835736785363364 -0.0090462064423478782 0 6.8996519804235924e-05 -0.0093430448735542168 0 -0.00010439679780663512 -0.0079788210301515242 0 0.00094258464481065214 -0.010707157551622149 0 6.8996519804235924e-05 -0.0093430448735542168 0 0.0005156508927256474 -0.0085929181128685458 0 0.00094258464481065214 -0.010707157551622149 0 0.0005156508927256474 -0.0085929181128685458 0 0.0013685304792375342 -0.0080400630642165367 0 6.8996519804235924e-05 -0.0093430448735542168 0 0.0005156508927256474 -0.0085929181128685458 0 -0.00010439679780663512 -0.0079788210301515242 0 0.00094258464481065214 -0.010707157551622149 0 -0.00017239929152211046 -0.010401861473226843 0 6.8996519804235924e-05 -0.0093430448735542168 0 0.0005156508927256474 -0.0085929181128685458 0 2.8560998015873869e-06 -0.0067957071063924519 0 0.0013685304792375342 -0.0080400630642165367 0 0.0005156508927256474 -0.0085929181128685458 0 2.8560998015873869e-06 -0.0067957071063924519 0 -0.00010439679780663512 -0.0079788210301515242 0 2.8560998015873869e-06 -0.0067957071063924519 0 -0.00010439679780663512 -0.0079788210301515242 0 -2.1778051335059777e-06 -0.0077815333963331705 0 -0.00020371051315762399 -0.010043081981961187 0 3.9303725316026898e-07 -0.0077832444793039333 0 7.0196938401180956e-05 -0.010297647167204275 0 0.00061218814758971427 -0.010145950123310977 0 2.3593623896018407e-06 -0.0077865602949195997 0 -0.0003191703253248966 -0.0081406963898015151 0 -0.00010439679780663512 -0.0079788210301515242 0 -2.1778051335059777e-06 -0.0077815333963331705 0 -0.00020371051315762399 -0.010043081981961187 0 0.00014602800651837222 -0.0081873239414221935 0 -0.0001046448154845205 -0.0034943170385573082 0 -5.2450737704692872e-05 -0.0036691912384109269 0 0.00033466250176373587 -0.0035748451215151149 0 -0.00013754944228099668 -0.0040981066185322296 0 -5.2450737704692872e-05 -0.0036691912384109269 0 0.00033466250176373587 -0.0035748451215151149 0 -0.00013754944228099668 -0.0040981066185322296 0 -5.2450737704692872e-05 -0.0036691912384109269 0 -0.0002188255614375432 -0.0035727051233609432 0 0.00011255416296899382 -0.011531212582026044 0 0.00067507347436771958 -0.011314812751358278 0 0.00031672035584949613 -0.01071823443232194 0 0.00041306358049080264 -0.0077315959352915872 0 0.00032731179888523878 -0.0082127366704877192 0 0.00054244826396474064 -0.011346479733815147 0 0.00032731179888523878 -0.0082127366704877192 0 0.00041306358049080264 -0.0077315959352915872 0 -4.885580739079392e-07 -0.0058494172358138554 0 0.00036381169804694893 -0.0072583676614944997 0 -0.00023791243498902143 -0.0063738605379698799 0 5.4747422886109237e-07 -0.0058560714880391915 0 0.00032731179888523878 -0.0082127366704877192 0 5.378024767976136e-07 -0.0060513866604778024 0 -2.4474361466751696e-08 -0.0067908408428654834 0 1.3082937307022265e-06 -0.0063085083144955095 0 2.5990387462973476e-08 -0.0060538850466620589 0 -1.4963012625102867e-08 -0.0067931124512874974 0 0.00032731179888523878 -0.0082127366704877192 0 -0.00023791243498902143 -0.0063738605379698799 0 -5.3866284829744127e-07 -0.0060493940379473879 0 5.4747422886109237e-07 -0.0058560714880391915 0 -0.00013754944228099668 -0.0040981066185322296 0 1.4037014817070607e-06 -0.0058506238623377794 0 -7.0398867423473554e-07 -0.0042075979870235857 0 -0.00013754944228099668 -0.0040981066185322296 0 0.00033466250176373587 -0.0035748451215151149 0 1.4037014817070607e-06 -0.0058506238623377794 0 -7.0398867423473554e-07 -0.0042075979870235857 0 -0.00022980722948275466 -0.0035510762626420967 0 -9.0973876552909941e-07 -0.0025598400852180174 0 -0.00013754944228099668 -0.0040981066185322296 0 -7.0398867423473554e-07 -0.0042075979870235857 0 -0.00022980722948275466 -0.0035510762626420967 0 -9.0973876552909941e-07 -0.0025598400852180174 0 -0.00020232137808676501 -0.0031981034103940923 0 -3.4029276289636673e-05 -0.0024474636839084216 0 -0.00022980722948275466 -0.0035510762626420967 0 -9.0973876552909941e-07 -0.0025598400852180174 0 -0.00020232137808676501 -0.0031981034103940923 0 -0.00022980722948275466 -0.0035510762626420967 0 -0.00020232137808676501 -0.0031981034103940923 0 -0.000253220710336987 -0.003424957262253839 0 -0.00020232137808676501 -0.0031981034103940923 0 -0.000253220710336987 -0.003424957262253839 0 -4.7212882470851271e-05 -0.0033859300913602615 0 -0.00011937038667241095 -0.0032872267545096139 0 -0.00027646129399763216 -0.0032174824684631739 0 -0.00022980722948275466 -0.0035510762626420967 0 -0.0002188255614375432 -0.0035727051233609432 0 -0.000253220710336987 -0.003424957262253839 0 -0.00013754944228099668 -0.0040981066185322296 0 -0.00022980722948275466 -0.0035510762626420967 0 -0.0002188255614375432 -0.0035727051233609432 0 -0.0001046448154845205 -0.0034943170385573082 0 -5.2450737704692872e-05 -0.0036691912384109269 0 -0.0002188255614375432 -0.0035727051233609432 0 -0.0001046448154845205 -0.0034943170385573082 0 -0.0002188255614375432 -0.0035727051233609432 0 -0.00021032239909344618 -0.0034626742548782546 0 -6.4348350718138275e-05 -0.0084570467548314033 0 0.0005662103171292206 -0.0078207900387019837 0 -0.00011856032517369067 -0.003348979874386392 0 -0.00021032239909344618 -0.0034626742548782546 0 -0.00022960910783426488 -0.0035170583544173848 0 -0.00011856032517369067 -0.003348979874386392 0 -0.0001046448154845205 -0.0034943170385573082 0 -0.00021032239909344618 -0.0034626742548782546 0 -0.0002188255614375432 -0.0035727051233609432 0 -0.00021032239909344618 -0.0034626742548782546 0 -0.000253220710336987 -0.003424957262253839 0 -0.00021032239909344618 -0.0034626742548782546 0 -0.000253220710336987 -0.003424957262253839 0 -0.00022960910783426488 -0.0035170583544173848 0 -0.000253220710336987 -0.003424957262253839 0 -0.00022960910783426488 -0.0035170583544173848 0 -4.7212882470851271e-05 -0.0033859300913602615 0 0.0011248749928421552 -0.012211550501248277 0 0.0012575402768793024 -0.012216756513159281 0 0.0011824187311981018 -0.011979976699334233 0 0.0012575402768793024 -0.012216756513159281 0 0.0011824187311981018 -0.011979976699334233 0 0.0013014467595321663 -0.012078741608494398 0 0.00091651958969293508 -0.011936850180658877 0 0.00092677984026580634 -0.011955268480884986 0 0.0011824187311981018 -0.011979976699334233 0 0.00092677984026580634 -0.011955268480884986 0 0.0011824187311981018 -0.011979976699334233 0 0.0010097839144084849 -0.012137066394133353 0 0.0011248749928421552 -0.012211550501248277 0 0.0011824187311981018 -0.011979976699334233 0 0.0010097839144084849 -0.012137066394133353 0 0.0013643947227701535 -0.012146355891507867 0 0.001367046995405271 -0.011980256936911928 0 0.0014679396600462578 -0.012167441997314425 0 0.00079350806384274311 -0.0060402455907370006 0 0.0012639234850445264 -0.0078864263517935042 0 0.0010832245442872488 -0.013919419939179683 0 0.00079350806384274311 -0.0060402455907370006 0 0.00046573508760089431 -0.0029005408604524385 0 0.00087117838680789161 -0.0028232650641977384 0 0.00092749167802302294 -0.0032817569362014751 0 0.0011824187311981018 -0.011979976699334233 0 0.0013014467595321663 -0.012078741608494398 0 0.0014029914487671538 -0.011947454676924459 0 0.0012575402768793024 -0.012216756513159281 0 0.0013014467595321663 -0.012078741608494398 0 0.0013643947227701535 -0.012146355891507867 0 0.0013014467595321663 -0.012078741608494398 0 0.0013643947227701535 -0.012146355891507867 0 0.0014029914487671538 -0.011947454676924459 0 -0.00022960910783426488 -0.0035170583544173848 0 -4.7212882470851271e-05 -0.0033859300913602615 0 0.00010618257334537863 -0.00354328282347929 0 0.0005662103171292206 -0.0078207900387019837 0 0.00079350806384274311 -0.0060402455907370006 0 3.5829682623068818e-06 -0.0033868408023340095 0 0.00048912576893464337 -0.0038464485007720724 0 0.00056684231215201812 -0.0029363737039048874 0 -0.00027646129399763216 -0.0032174824684631739 0 0.00079350806384274311 -0.0060402455907370006 0 0.00079350806384274311 -0.0060402455907370006 0 0.00042806389586454147 -0.0021363357893663527 0 0.00042534410880854537 -0.0025705508934881389 0 0.00016238256751478655 -0.0028833708112646146 0 0.00072976722609254213 -0.0027968005087390013 0 0.00079350806384274311 -0.0060402455907370006 0 0.00078843239992515846 -0.0028100139146735605 0 0.00042534410880854537 -0.0025705508934881389 0 0.00016238256751478655 -0.0028833708112646146 0 0.00024131991073771141 -0.0021956446813328045 0 0.00042534410880854537 -0.0025705508934881389 0 0.00024131991073771141 -0.0021956446813328045 0 0.0010761348319979853 -0.0020546153469253995 0 -0.00020232137808676501 -0.0031981034103940923 0 3.5829682623068818e-06 -0.0033868408023340095 0 -3.4029276289636673e-05 -0.0024474636839084216 0 3.5829682623068818e-06 -0.0033868408023340095 0 0.00056684231215201812 -0.0029363737039048874 0 -3.4029276289636673e-05 -0.0024474636839084216 0 -9.0973876552909941e-07 -0.0025598400852180174 0 -3.4029276289636673e-05 -0.0024474636839084216 0 1.8616765090124492e-06 -0.00091590644787046052 0 0.00056684231215201812 -0.0029363737039048874 0 -3.4029276289636673e-05 -0.0024474636839084216 0 0.00020847191435548619 -0.0019481492368218776 0 -3.4029276289636673e-05 -0.0024474636839084216 0 0.00020847191435548619 -0.0019481492368218776 0 1.8616765090124492e-06 -0.00091590644787046052 0 0.00042806389586454147 -0.0021363357893663527 0 5.6537276039563221e-05 -0.0010187472952756208 0 0.00056684231215201812 -0.0029363737039048874 0 0.00020847191435548619 -0.0019481492368218776 0 0.00059673319496578267 -0.0013663659351585739 0 1.6420403608232463e-05 -0.00038477299332743199 0 7.6039424939115288e-07 -0.00062781552767726418 0 -7.5404101119964906e-07 0.00073918025756620923 0 0.00024131991073771141 -0.0021956446813328045 0 0.00031875015583389914 -0.0015306721655805888 0 0.0010761348319979853 -0.0020546153469253995 0 0.00020847191435548619 -0.0019481492368218776 0 1.8616765090124492e-06 -0.00091590644787046052 0 0.00059673319496578267 -0.0013663659351585739 0 -1.1162956187894232e-11 -0.00091268981445037395 0 -9.5363605515841281e-08 -0.00065291603704959258 0 -3.7444823878494096e-10 -0.00063019170439618136 0 3.6180436543338764e-08 -0.00091336727882871847 0 5.6537276039563221e-05 -0.0010187472952756208 0 5.6537276039563221e-05 -0.0010187472952756208 0 3.1321408675693986e-07 -0.00063036665720576078 0 1.6420403608232463e-05 -0.00038477299332743199 0 -7.5404101119964906e-07 0.00073918025756620923 0 -8.8790005316392734e-05 0.0011395902976561215 0 5.6537276039563221e-05 -0.0010187472952756208 0 0.00059740762465302624 -0.00082772247215529417 0 -7.5404101119964906e-07 0.00073918025756620923 0 -8.4611468066377656e-05 0.0013305054908491047 0 -8.8790005316392734e-05 0.0011395902976561215 0 -8.4611468066377656e-05 0.0013305054908491047 0 -8.8790005316392734e-05 0.0011395902976561215 0 0.00022707648669562672 0.0011381531624362602 0 -7.5404101119964906e-07 0.00073918025756620923 0 7.7330519174181733e-07 0.0021063262451764641 0 -8.4611468066377656e-05 0.0013305054908491047 0 7.7330519174181733e-07 0.0021063262451764641 0 -8.4611468066377656e-05 0.0013305054908491047 0 0.00022707648669562672 0.0011381531624362602 0 -8.8790005316392734e-05 0.0011395902976561215 0 0.00022707648669562672 0.0011381531624362602 0 0.00028070333309179426 0.00086924951716499204 0 0.0010761348319979853 -0.0020546153469253995 0 0.0017447961119574761 -0.0025442182972676042 0 0.0012701897353845219 -0.0027175382853473289 0 0.00059740762465302624 -0.00082772247215529417 0 0.00077334646516237558 0.0013439088115076308 0 0.00042534410880854537 -0.0025705508934881389 0 0.0010761348319979853 -0.0020546153469253995 0 0.00072976722609254213 -0.0027968005087390013 0 -8.7995903377025331e-07 0.0039737742704658522 0 -5.6018957503785865e-05 0.0037979381664053355 0 -0.00014194123544104966 0.0045437106954078375 0 2.1152317252914738e-07 0.0021082049232891849 0 0.00020018312359599609 0.0027634345112189452 0 1.6276594418870642e-06 0.0021106705257782766 0 -5.6018957503785865e-05 0.0037979381664053355 0 0.00040388216877364414 0.003917491597235534 0 1.6276594418870642e-06 0.0021106705257782766 0 -8.7995903377025331e-07 0.0039737742704658522 0 -5.6018957503785865e-05 0.0037979381664053355 0 0.00020018312359599609 0.0027634345112189452 0 0.00077334646516237558 0.0013439088115076308 0 0.00040388216877364414 0.003917491597235534 0 -2.5173090457861011e-05 0.0043291943489124005 0 0.00021443172791048377 0.0045185091277256959 0 -2.5173090457861011e-05 0.0043291943489124005 0 4.3789837713516892e-05 0.0044925001744073366 0 0.00021443172791048377 0.0045185091277256959 0 -5.6018957503785865e-05 0.0037979381664053355 0 0.00040388216877364414 0.003917491597235534 0 -2.5173090457861011e-05 0.0043291943489124005 0 -5.6018957503785865e-05 0.0037979381664053355 0 -2.5173090457861011e-05 0.0043291943489124005 0 -0.00014194123544104966 0.0045437106954078375 0 -2.5173090457861011e-05 0.0043291943489124005 0 -1.1651828138772761e-05 0.0044988582827339722 0 4.3789837713516892e-05 0.0044925001744073366 0 -2.5173090457861011e-05 0.0043291943489124005 0 -8.5871703636699597e-05 0.0045161514622969337 0 -1.1651828138772761e-05 0.0044988582827339722 0 -2.5173090457861011e-05 0.0043291943489124005 0 -8.5871703636699597e-05 0.0045161514622969337 0 -0.00014194123544104966 0.0045437106954078375 0 0.00010446743473913894 0.0045052665564768871 0 0.00050523137360481047 0.0038053659797082154 0 0.0013841335877783629 0.0041469454355230924 0 -1.1651828138772761e-05 0.0044988582827339722 0 0.00010446743473913894 0.0045052665564768871 0 -0.00010617487616205148 0.0045762263325575441 0 0.00024781864551367351 0.0043566876647285688 0 0.00051268889986077224 0.0051857389607543984 0 -8.5871703636699597e-05 0.0045161514622969337 0 -1.1651828138772761e-05 0.0044988582827339722 0 -0.00010617487616205148 0.0045762263325575441 0 0.00077334646516237558 0.0013439088115076308 0 0.00088133276694494936 -0.00046132773913087194 0 1.7764862894569572e-07 0.0045484453368572261 0 -0.0003017641369238285 0.0047536203692074884 0 -6.3892738282525071e-05 0.0031438994738537986 0 0.00010446743473913894 0.0045052665564768871 0 1.7764862894569572e-07 0.0045484453368572261 0 0.00050523137360481047 0.0038053659797082154 0 0.00010446743473913894 0.0045052665564768871 0 4.3789837713516892e-05 0.0044925001744073366 0 1.7764862894569572e-07 0.0045484453368572261 0 -1.1651828138772761e-05 0.0044988582827339722 0 0.00010446743473913894 0.0045052665564768871 0 4.3789837713516892e-05 0.0044925001744073366 0 4.3789837713516892e-05 0.0044925001744073366 0 1.7764862894569572e-07 0.0045484453368572261 0 0.00021443172791048377 0.0045185091277256959 0 -0.000376613357571171 0.0029437098274463784 0 0.00077334646516237558 0.0013439088115076308 0 1.7764862894569572e-07 0.0045484453368572261 0 -6.3892738282525071e-05 0.0031438994738537986 0 0.00050523137360481047 0.0038053659797082154 0 0.0017447961119574761 -0.0025442182972676042 0 0.0018534717266211636 -0.0032591160046936667 0 0.0013810992705353459 -0.0031613470134975981 0 0.00111644474971038 0.0049927961581107596 0 0.0012927229666851324 0.0048894219726537819 0 0.00060729486982612972 0.0033111463696555723 0 0.0012475473391529292 0.0037134521944857317 0 0.00075371200696940652 0.0025846637956928528 0 -6.3892738282525071e-05 0.0031438994738537986 0 0.00060729486982612972 0.0033111463696555723 0 0.00075371200696940652 0.0025846637956928528 0 -6.3892738282525071e-05 0.0031438994738537986 0 0.00050523137360481047 0.0038053659797082154 0 0.00060729486982612972 0.0033111463696555723 0 0.00050523137360481047 0.0038053659797082154 0 0.0011897066949293838 0.0037177403770201289 0 0.0013841335877783629 0.0041469454355230924 0 0.00076335582693089926 0.0041536297144348124 0 0.00111644474971038 0.0049927961581107596 0 0.00050523137360481047 0.0038053659797082154 0 0.00060729486982612972 0.0033111463696555723 0 0.0012475473391529292 0.0037134521944857317 0 0.00087117838680789161 -0.0028232650641977384 0 0.0012701897353845219 -0.0027175382853473289 0 0.0011084513842391469 -0.0029952954340967787 0 0.00078843239992515846 -0.0028100139146735605 0 0.001224015977283014 -0.0027367132269921785 0 0.0010761348319979853 -0.0020546153469253995 0 0.00072976722609254213 -0.0027968005087390013 0 0.0012701897353845219 -0.0027175382853473289 0 0.0017447961119574761 -0.0025442182972676042 0 0.0012701897353845219 -0.0027175382853473289 0 0.0013810992705353459 -0.0031613470134975981 0 0.0012701897353845219 -0.0027175382853473289 0 0.0013810992705353459 -0.0031613470134975981 0 0.0011084513842391469 -0.0029952954340967787 0 0.0013810992705353459 -0.0031613470134975981 0 0.00092749167802302294 -0.0032817569362014751 0 0.0011084513842391469 -0.0029952954340967787 0 0.00087117838680789161 -0.0028232650641977384 0 0.00092749167802302294 -0.0032817569362014751 0 0.0011084513842391469 -0.0029952954340967787 0 0.0012639234850445264 -0.0078864263517935042 0 0.0015600956463564187 -0.0082643755050042043 0 0.0014679396600462578 -0.012167441997314425 0 0.0014318467010367042 -0.012327093343016994 0 0.0014854799507480454 -0.012264121349451172 0 0.001405875462400123 -0.012258127936198369 0 0.0014679396600462578 -0.012167441997314425 0 0.0014318467010367042 -0.012327093343016994 0 0.0014318467010367042 -0.012327093343016994 0 0.0014701354617111975 -0.012328430693378467 0 0.001418075423159752 -0.012394846654947162 0 0.0014701354617111975 -0.012328430693378467 0 0.0014854799507480454 -0.012264121349451172 0 0.0015197891162120707 -0.012288285732496131 0 0.0014318467010367042 -0.012327093343016994 0 0.0014701354617111975 -0.012328430693378467 0 0.0014854799507480454 -0.012264121349451172 0 0.0018534717266211636 -0.0032591160046936667 0 0.0013810992705353459 -0.0031613470134975981 0 0.001415176970279882 -0.0036991759153939189 0 0.0013810992705353459 -0.0031613470134975981 0 0.00092749167802302294 -0.0032817569362014751 0 0.001415176970279882 -0.0036991759153939189 0 0.00088133276694494936 -0.00046132773913087194 0 0.0014614078453250082 0.00047447369740985924 0 0.0018534717266211636 -0.0032591160046936667 0 0.001415176970279882 -0.0036991759153939189 0 0.0019648356863411084 -0.003924530624662549 0 0.0012927229666851324 0.0048894219726537819 0 0.0014614078453250082 0.00047447369740985924 0 -6.3892738282525071e-05 0.0031438994738537986 0 0.00075371200696940652 0.0025846637956928528 0 0.0002502114226618354 0.0014371684784355845 0 0.0015021619488100964 0.0062083210031379371 0 0.0015382334913725342 0.0060344059812432981 0 0.0014358608311766218 0.0060471547978886023 0 0.0015021619488100964 0.0062083210031379371 0 0.0015382334913725342 0.0060344059812432981 0 0.0016426576490979475 0.0061100629793328712 0 0.0015382334913725342 0.0060344059812432981 0 0.0014358608311766218 0.0060471547978886023 0 0.0014558485194875184 0.0059626959614365012 0 0.0014614078453250082 0.00047447369740985924 0 0.00066652705861608278 -0.00015674788986155393 0 0.0015600956463564187 -0.0082643755050042043 0 0.0015389419746963374 -0.0061599658419912093 0 0.001415176970279882 -0.0036991759153939189 0 0.0019648356863411084 -0.003924530624662549 0 0.0018891862030549146 -0.004096114729621206 0 0.0014146794062542677 -0.0018098030388470972 0 0.0012719716403601828 -0.0021172393972106133 0 0.0014938643883243153 -0.0023146418320389491 0 0.0014614078453250082 0.00047447369740985924 0 0.0015389419746963374 -0.0061599658419912093 0 0.0015389419746963374 -0.0061599658419912093 0 0.0005917905333591455 -0.0094302609082503198 0 0.00081571500416919131 -0.0043711486481034616 0 0.00095516225284265389 -0.0051449004922570494 0 0.00010324041697541231 -0.0052497837280092233 0 0.00058521791946725252 -0.0041728439535940352 0 0.00081571500416919131 -0.0043711486481034616 0 0.00010324041697541231 -0.0052497837280092233 0 0.0014701354617111975 -0.012328430693378467 0 0.0015197891162120707 -0.012288285732496131 0 0.001465479256594408 -0.01239003460556218 0 0.0015389419746963374 -0.0061599658419912093 0 0.00066652705861608278 -0.00015674788986155393 0 0.00066652705861608278 -0.00015674788986155393 0 0.0010790733840765018 -0.0027041149513794384 0 0.0011332492383171414 0.00042323654166715992 0 0.001063253468721707 0.00049885539793867158 0 0.0010589872503399351 0.00048437137944950924 0 0.0015382334913725342 0.0060344059812432981 0 0.0014558485194875184 0.0059626959614365012 0 0.0015704984064980076 0.0058937603602634272 0 0.0011332492383171414 0.00042323654166715992 0 0.001063253468721707 0.00049885539793867158 0 0.00096475805752280848 0.00058165218705394416 0 0.00066652705861608278 -0.00015674788986155393 0 0.0011287139947337675 0.0035418554537091423 0 0.001063253468721707 0.00049885539793867158 0 0.00096475805752280848 0.00058165218705394416 0 0.00099012046994932526 0.00085244019409604392 0 0.001063253468721707 0.00049885539793867158 0 0.0010589872503399351 0.00048437137944950924 0 0.0010974141964774726 0.00042593135527982601 0 0.0010790733840765018 -0.0027041149513794384 0 0.00072110967304720645 -0.0023612586800045967 0 0.0010747717149089224 0.00043159447780462739 0 0.0010532734180873566 0.00083925070288514401 0 0.0010589872503399351 0.00048437137944950924 0 0.0010621896653391883 0.00040636939502325939 0 0.0010974141964774726 0.00042593135527982601 0 0.00095516225284265389 -0.0051449004922570494 0 0.00063004457040483671 -0.0056025709926977368 0 0.0010943216878879214 -0.0059037379337991171 0 0.00063004457040483671 -0.0056025709926977368 0 0.00010324041697541231 -0.0052497837280092233 0 0.00036486703826939286 -0.0061099932674529454 0 0.00095516225284265389 -0.0051449004922570494 0 0.00063004457040483671 -0.0056025709926977368 0 0.00010324041697541231 -0.0052497837280092233 0 0.001465479256594408 -0.01239003460556218 0 0.001371160135364588 -0.01244598406829845 0 0.0013839124688964368 -0.01244029066808456 0 0.001465479256594408 -0.01239003460556218 0 0.001371160135364588 -0.01244598406829845 0 0.001418075423159752 -0.012394846654947162 0 0.001371160135364588 -0.01244598406829845 0 0.0013839124688964368 -0.01244029066808456 0 0.0013454778723294332 -0.012452200073113266 0 0.0013181925905131524 -0.012473680907615624 0 0.001371160135364588 -0.01244598406829845 0 0.0013454778723294332 -0.012452200073113266 0 0.0013752685371734975 -0.012465670090309678 0 0.0014318467010367042 -0.012327093343016994 0 0.001418075423159752 -0.012394846654947162 0 0.0013752685371734975 -0.012465670090309678 0 0.001371160135364588 -0.01244598406829845 0 0.001418075423159752 -0.012394846654947162 0 0.0014701354617111975 -0.012328430693378467 0 0.001465479256594408 -0.01239003460556218 0 0.001418075423159752 -0.012394846654947162 0 0.0022071734802253948 0.0071860801443352652 0 0.001783311816712883 0.0077042454501360528 0 0.0024471754591035722 0.0079763503608352958 0 0.0018909227815145362 0.0060680070256567652 0 0.0018451478659427623 0.005867675331346283 0 0.0017683494781161491 0.0059346908066591573 0 0.0020075647844928174 0.0062241842623591837 0 0.0017207111463435276 0.0089190962572139945 0 0.0022071734802253948 0.0071860801443352652 0 0.0015638310430962899 0.007210331647151234 0 0.001783311816712883 0.0077042454501360528 0 0.00087185724121658845 0.015149376855983665 0 0.00058773722041554927 0.014744745046526442 0 0.0014832001836103947 0.014712432195104531 0 0.0018558785505520953 0.014159537870366706 0 0.00087711391221936786 0.01310131403775187 0 0.00087185724121658845 0.015149376855983665 0 0.00058773722041554927 0.014744745046526442 0 9.7533105069635327e-05 0.014737085770987538 0 0.00058773722041554927 0.014744745046526442 0 0.0014832001836103947 0.014712432195104531 0 0.00055102427095291169 0.014301777214163144 0 -3.0621281228960411e-05 0.014786432302378904 0 0.00087711391221936786 0.01310131403775187 0 0.00058773722041554927 0.014744745046526442 0 9.7533105069635327e-05 0.014737085770987538 0 0.00055102427095291169 0.014301777214163144 0 0.0013596263131915669 0.011585610804952481 0 0.0017207111463435276 0.0089190962572139945 0 9.7533105069635327e-05 0.014737085770987538 0 -0.00014967809369302216 0.014678844292857837 0 0.00067709443961277787 0.01404598371352554 0 0.00087185724121658845 0.015149376855983665 0 9.7533105069635327e-05 0.014737085770987538 0 -0.00014967809369302216 0.014678844292857837 0 0.0018451478659427623 0.005867675331346283 0 0.0017040615590736006 0.005810606806634545 0 0.0016926012734363146 0.0057897967287505406 0 0.0018451478659427623 0.005867675331346283 0 0.0017040615590736006 0.005810606806634545 0 0.0017683494781161491 0.0059346908066591573 0 0.0017207111463435276 0.0089190962572139945 0 0.0010941364690761719 0.0048378791816716298 0 0.0016820902531507556 0.0058034429755101143 0 0.0017040615590736006 0.005810606806634545 0 0.0016732849489253187 0.0058987643591820677 0 0.0013563974056308463 0.0036777266324683642 0 0.0010941364690761719 0.0048378791816716298 0 0.0016766532985563339 0.0058002754881684463 0 0.0017040615590736006 0.005810606806634545 0 0.0016926012734363146 0.0057897967287505406 0 0.0013563974056308463 0.0036777266324683642 0 0.0015588212620122979 0.0039075583881870435 0 0.0017040615590736006 0.005810606806634545 0 0.0017683494781161491 0.0059346908066591573 0 0.0016732849489253187 0.0058987643591820677 0 0.00073437913372791086 0.0008118926936570085 0 0.00096475805752280848 0.00058165218705394416 0 0.00099012046994932526 0.00085244019409604392 0 0.0016820902531507556 0.0058034429755101143 0 0.0016732849489253187 0.0058987643591820677 0 0.0015704984064980076 0.0058937603602634272 0 0.0013563974056308463 0.0036777266324683642 0 0.0011287139947337675 0.0035418554537091423 0 0.0015382334913725342 0.0060344059812432981 0 0.0015704984064980076 0.0058937603602634272 0 0.001629541865257997 0.0059924430597981942 0 0.0016732849489253187 0.0058987643591820677 0 0.001629541865257997 0.0059924430597981942 0 0.0017263266284101449 0.0060263867019273078 0 0.0016732849489253187 0.0058987643591820677 0 0.0015704984064980076 0.0058937603602634272 0 0.001629541865257997 0.0059924430597981942 0 0.0018909227815145362 0.0060680070256567652 0 0.0017683494781161491 0.0059346908066591573 0 0.0017263266284101449 0.0060263867019273078 0 0.0017683494781161491 0.0059346908066591573 0 0.0016732849489253187 0.0058987643591820677 0 0.0017263266284101449 0.0060263867019273078 0 0.0017263266284101449 0.0060263867019273078 0 0.0017748924939263403 0.0061887791889007268 0 0.0016426576490979475 0.0061100629793328712 0 0.0015382334913725342 0.0060344059812432981 0 0.001629541865257997 0.0059924430597981942 0 0.0016426576490979475 0.0061100629793328712 0 0.001629541865257997 0.0059924430597981942 0 0.0017263266284101449 0.0060263867019273078 0 0.0016426576490979475 0.0061100629793328712 0 0.0015021619488100964 0.0062083210031379371 0 0.0016426576490979475 0.0061100629793328712 0 0.0016779831645580008 0.0062374826547301459 0 0.0017748924939263403 0.0061887791889007268 0 0.0016426576490979475 0.0061100629793328712 0 0.0016779831645580008 0.0062374826547301459 0 0.0016779831645580008 0.0062374826547301459 0 0.0018320101433515765 0.0062827069883993293 0 0.0017791281524518374 0.0063272701199008994 0 0.0017748924939263403 0.0061887791889007268 0 0.0016779831645580008 0.0062374826547301459 0 0.0018320101433515765 0.0062827069883993293 0 0.0017748924939263403 0.0061887791889007268 0 0.0018320101433515765 0.0062827069883993293 0 0.0018818145832021364 0.0063666323593149585 0 0.0018320101433515765 0.0062827069883993293 0 0.0018818145832021364 0.0063666323593149585 0 0.0018321747357746081 0.0062015672867054474 0 0.0018909227815145362 0.0060680070256567652 0 0.0017263266284101449 0.0060263867019273078 0 0.0017748924939263403 0.0061887791889007268 0 0.0020075647844928174 0.0062241842623591837 0 0.0019377322816753755 0.0065346724230812584 0 0.0018909227815145362 0.0060680070256567652 0 0.0017748924939263403 0.0061887791889007268 0 0.0018818145832021364 0.0063666323593149585 0 0.0022071734802253948 0.0071860801443352652 0 0.0017167815460025415 0.0067954729781149201 0 0.0018818145832021364 0.0063666323593149585 0 0.0022071734802253948 0.0071860801443352652 0 0.0015638310430962899 0.007210331647151234 0 0.0017167815460025415 0.0067954729781149201 0 0.0015638310430962899 0.007210331647151234 0 0.0017167815460025415 0.0067954729781149201 0 0.0014038281463681147 0.0068048212534447088 0 0.0017167815460025415 0.0067954729781149201 0 0.0016179058943474047 0.0064518173500249798 0 0.0014038281463681147 0.0068048212534447088 0 0.0017167815460025415 0.0067954729781149201 0 0.0016179058943474047 0.0064518173500249798 0 0.0018818145832021364 0.0063666323593149585 0 0.0016179058943474047 0.0064518173500249798 0 0.0018321747357746081 0.0062015672867054474 0 0.0015132835012505433 0.00633452297000376 0 0.0016179058943474047 0.0064518173500249798 0 0.0018818145832021364 0.0063666323593149585 0 0.0018321747357746081 0.0062015672867054474 0 0.0012000228073063305 0.0060223220576331362 0 0.00093249232244650888 0.0060226125310857007 0 0.00028820442840974569 0.0061008647739422923 0 8.5256354657104708e-05 0.0063358007191133478 0 0.00041113335352047428 0.0063731483435447728 0 0.00028820442840974569 0.0061008647739422923 0 0.00041113335352047428 0.0063731483435447728 0 0.00063758972799843555 0.006067901120643795 0 0.00028820442840974569 0.0061008647739422923 0 8.5256354657104708e-05 0.0063358007191133478 0 -1.3347781525848825e-05 0.0062911107883479858 0 0.0018320101433515765 0.0062827069883993293 0 0.0018321747357746081 0.0062015672867054474 0 0.0017791281524518374 0.0063272701199008994 0 0.00099308130726381903 0.0057585776662382321 0 0.00091231080818915443 0.0057655755186505619 0 0.00090846882759507619 0.005755621941479154 0 0.0012000228073063305 0.0060223220576331362 0 0.00032410236538375553 0.0061336275688649898 0 0.0012000228073063305 0.0060223220576331362 0 0.0013873593014784422 0.0061539331174102537 0 8.5256354657104708e-05 0.0063358007191133478 0 -9.5590728690498253e-05 0.0063779450042687142 0 0.00013225188893286358 0.0065328303864377116 0 8.5256354657104708e-05 0.0063358007191133478 0 0.00041113335352047428 0.0063731483435447728 0 0.00013225188893286358 0.0065328303864377116 0 0.0015667333058144201 0.0063501435368116263 0 0.0015021619488100964 0.0062083210031379371 0 0.0016779831645580008 0.0062374826547301459 0 0.0015667333058144201 0.0063501435368116263 0 0.0016779831645580008 0.0062374826547301459 0 0.0017791281524518374 0.0063272701199008994 0 0.00032410236538375553 0.0061336275688649898 0 0.00051268889986077224 0.0051857389607543984 0 0.00084808473982884536 0.0057496105188295085 0 0.00090846882759507619 0.005755621941479154 0 0.00085411048858093097 0.0057664759630691341 0 0.00111644474971038 0.0049927961581107596 0 0.0013873593014784422 0.0061539331174102537 0 0.00111644474971038 0.0049927961581107596 0 0.00051268889986077224 0.0051857389607543984 0 0.00091231080818915443 0.0057655755186505619 0 0.00090846882759507619 0.005755621941479154 0 0.00085411048858093097 0.0057664759630691341 0 -5.4015979661565297e-06 0.0063378033178078629 0 0.00015074657814412125 0.0062229786183372465 0 -9.5590728690498253e-05 0.0063779450042687142 0 8.5256354657104708e-05 0.0063358007191133478 0 -1.3347781525848825e-05 0.0062911107883479858 0 -5.4015979661565297e-06 0.0063378033178078629 0 -1.3347781525848825e-05 0.0062911107883479858 0 -5.4015979661565297e-06 0.0063378033178078629 0 0.00011580053698218758 0.0063650784331718844 0 8.5256354657104708e-05 0.0063358007191133478 0 -5.4015979661565297e-06 0.0063378033178078629 0 -9.5590728690498253e-05 0.0063779450042687142 0 -5.4015979661565297e-06 0.0063378033178078629 0 0.00011580053698218758 0.0063650784331718844 0 0.00015074657814412125 0.0062229786183372465 0 0.00051268889986077224 0.0051857389607543984 0 3.4557897683946391e-05 0.0054321023155216299 0 -8.5871703636699597e-05 0.0045161514622969337 0 -0.00010617487616205148 0.0045762263325575441 0 -4.246382979149702e-05 0.0046165777435667387 0 -0.00014194123544104966 0.0045437106954078375 0 -4.246382979149702e-05 0.0046165777435667387 0 -1.4043686105867322e-06 0.0056190798040647791 0 -8.5871703636699597e-05 0.0045161514622969337 0 -0.00014194123544104966 0.0045437106954078375 0 -4.246382979149702e-05 0.0046165777435667387 0 3.4557897683946391e-05 0.0054321023155216299 0 1.2600530565947658e-05 0.0055361340623597492 0 0.00015074657814412125 0.0062229786183372465 0 -9.5590728690498253e-05 0.0063779450042687142 0 -1.4043686105867322e-06 0.0056190798040647791 0 -9.5590728690498253e-05 0.0063779450042687142 0 -1.4043686105867322e-06 0.0056190798040647791 0 -8.8180730127970195e-05 0.0065821575086825925 0 3.988280004597985e-08 0.0058393108436018103 0 -1.4043686105867322e-06 0.0056190798040647791 0 -2.9996118816070832e-05 0.0066040452039335179 0 -1.4043686105867322e-06 0.0056190798040647791 0 -8.8180730127970195e-05 0.0065821575086825925 0 -2.9996118816070832e-05 0.0066040452039335179 0 -8.7995903377025331e-07 0.0039737742704658522 0 3.988280004597985e-08 0.0058393108436018103 0 -1.4043686105867322e-06 0.0056190798040647791 0 -8.7995903377025331e-07 0.0039737742704658522 0 -0.00014194123544104966 0.0045437106954078375 0 -1.4043686105867322e-06 0.0056190798040647791 0 3.8582840679280778e-05 0.0074597273174413711 0 0.00012787448348885734 0.0080072520342122661 0 0.00041113335352047428 0.0063731483435447728 0 0.00013225188893286358 0.0065328303864377116 0 0.00057883784281828111 0.0067070229041986378 0 0.00013225188893286358 0.0065328303864377116 0 5.1750180919868501e-05 0.0072404719799277397 0 0.00057883784281828111 0.0067070229041986378 0 -9.5590728690498253e-05 0.0063779450042687142 0 0.00013225188893286358 0.0065328303864377116 0 -8.8180730127970195e-05 0.0065821575086825925 0 0.00013225188893286358 0.0065328303864377116 0 -8.8180730127970195e-05 0.0065821575086825925 0 5.1750180919868501e-05 0.0072404719799277397 0 3.988280004597985e-08 0.0058393108436018103 0 -2.9996118816070832e-05 0.0066040452039335179 0 3.4742040530621862e-07 0.0077048276675339483 0 -8.8180730127970195e-05 0.0065821575086825925 0 5.1750180919868501e-05 0.0072404719799277397 0 -2.9996118816070832e-05 0.0066040452039335179 0 5.1750180919868501e-05 0.0072404719799277397 0 -2.9996118816070832e-05 0.0066040452039335179 0 3.4742040530621862e-07 0.0077048276675339483 0 3.4742040530621862e-07 0.0077048276675339483 0 -3.0011045117514661e-07 0.0095703521929994088 0 2.6377665426231822e-05 0.0093954723527901584 0 5.1750180919868501e-05 0.0072404719799277397 0 3.4742040530621862e-07 0.0077048276675339483 0 2.6377665426231822e-05 0.0093954723527901584 0 -3.0011045117514661e-07 0.0095703521929994088 0 2.6377665426231822e-05 0.0093954723527901584 0 -8.8020841434473761e-05 0.0099889331344006262 0 2.6377665426231822e-05 0.0093954723527901584 0 -8.8020841434473761e-05 0.0099889331344006262 0 -0.00016742455782188171 0.010519365663436106 0 0.00057883784281828111 0.0067070229041986378 0 0.0006723732895172565 0.0064752097853181543 0 0.00089256518682761241 0.0065122779801121992 0 0.00012787448348885734 0.0080072520342122661 0 0.00080531274256019961 0.0088735771080042571 0 -0.00017224882344655314 0.010438901320412157 0 -0.00015018717622926429 0.010569950873028864 0 -0.00016742455782188171 0.010519365663436106 0 -8.8020841434473761e-05 0.0099889331344006262 0 -0.00017224882344655314 0.010438901320412157 0 -0.00016742455782188171 0.010519365663436106 0 -8.8020841434473761e-05 0.0099889331344006262 0 -0.00017224882344655314 0.010438901320412157 0 -0.00013017355905600814 0.010411533946148009 0 -0.00017224882344655314 0.010438901320412157 0 -0.00013017355905600814 0.010411533946148009 0 -0.00012688661038195634 0.010878146780970736 0 -3.0011045117514661e-07 0.0095703521929994088 0 -8.8020841434473761e-05 0.0099889331344006262 0 -0.00013017355905600814 0.010411533946148009 0 -3.0011045117514661e-07 0.0095703521929994088 0 -0.00013017355905600814 0.010411533946148009 0 -6.6952456685863081e-07 0.011436390304219442 0 -6.6952456685863081e-07 0.011436390304219442 0 -5.536979069053972e-05 0.011450083235398867 0 -0.00012688661038195634 0.010878146780970736 0 -0.00013017355905600814 0.010411533946148009 0 -6.6952456685863081e-07 0.011436390304219442 0 -0.00012688661038195634 0.010878146780970736 0 -5.536979069053972e-05 0.011450083235398867 0 6.6889605656457579e-05 0.01226960468726212 0 1.3977521359674489e-06 0.013346222883848348 0 -6.6952456685863081e-07 0.011436390304219442 0 -5.536979069053972e-05 0.011450083235398867 0 1.3977521359674489e-06 0.013346222883848348 0 -0.00013274360970107354 0.01156510664882039 0 0.00033967691976977718 0.010909146868406673 0 -5.536979069053972e-05 0.011450083235398867 0 0.0003345681637718131 0.010686401104521556 0 4.2833981670759243e-05 0.010756429151797264 0 -5.536979069053972e-05 0.011450083235398867 0 6.6889605656457579e-05 0.01226960468726212 0 0.00013422673872121892 0.011736069788857786 0 0.0003345681637718131 0.010686401104521556 0 4.2833981670759243e-05 0.010756429151797264 0 0.00014491166849199378 0.010622347072013276 0 -5.536979069053972e-05 0.011450083235398867 0 -0.00012688661038195634 0.010878146780970736 0 -0.00013111349042554729 0.010728375461060834 0 -0.00017224882344655314 0.010438901320412157 0 -0.00012688661038195634 0.010878146780970736 0 -0.00013111349042554729 0.010728375461060834 0 -5.536979069053972e-05 0.011450083235398867 0 -0.00013111349042554729 0.010728375461060834 0 4.2833981670759243e-05 0.010756429151797264 0 -0.00013111349042554729 0.010728375461060834 0 4.2833981670759243e-05 0.010756429151797264 0 -4.6415893161543052e-05 0.010598730446267921 0 4.2833981670759243e-05 0.010756429151797264 0 -4.6415893161543052e-05 0.010598730446267921 0 0.00014491166849199378 0.010622347072013276 0 -0.00017224882344655314 0.010438901320412157 0 -0.00013111349042554729 0.010728375461060834 0 -0.00015018717622926429 0.010569950873028864 0 -0.00013111349042554729 0.010728375461060834 0 -0.00015018717622926429 0.010569950873028864 0 -4.6415893161543052e-05 0.010598730446267921 0 0.00037069119540445594 0.010622287159898644 0 0.00080531274256019961 0.0088735771080042571 0 0.00088651176655305637 0.010367519181242678 0 0.0012642954490047684 0.01049441897676043 0 0.0014444959506923327 0.010086132259333913 0 -4.6415893161543052e-05 0.010598730446267921 0 7.4689558313259193e-05 0.010532540642665691 0 -0.00016742455782188171 0.010519365663436106 0 -0.00015018717622926429 0.010569950873028864 0 -4.6415893161543052e-05 0.010598730446267921 0 -0.00016742455782188171 0.010519365663436106 0 -4.6415893161543052e-05 0.010598730446267921 0 7.4689558313259193e-05 0.010532540642665691 0 0.00014491166849199378 0.010622347072013276 0 7.4689558313259193e-05 0.010532540642665691 0 0.00014491166849199378 0.010622347072013276 0 0.00026178244459678886 0.010630857092677089 0 7.4689558313259193e-05 0.010532540642665691 0 0.00026178244459678886 0.010630857092677089 0 0.00030220034437120904 0.010694215842214329 0 0.0003345681637718131 0.010686401104521556 0 0.00014491166849199378 0.010622347072013276 0 0.00026178244459678886 0.010630857092677089 0 0.00088651176655305637 0.010367519181242678 0 0.00066983751853030838 0.010731777897436874 0 0.00030220034437120904 0.010694215842214329 0 0.00037069119540445594 0.010622287159898644 0 0.00034567087697357553 0.010617853250615993 0 0.00088651176655305637 0.010367519181242678 0 0.00066983751853030838 0.010731777897436874 0 0.00090943274226627227 0.010775788433227315 0 0.00066983751853030838 0.010731777897436874 0 0.00076520328258361211 0.010883487944783377 0 0.00090943274226627227 0.010775788433227315 0 0.00066983751853030838 0.010731777897436874 0 0.00076520328258361211 0.010883487944783377 0 0.00053836316997564297 0.011047216995418706 0 0.00066983751853030838 0.010731777897436874 0 0.00030220034437120904 0.010694215842214329 0 0.00033172928523793566 0.010958314411340502 0 0.00088651176655305637 0.010367519181242678 0 0.0010703644484903957 0.010605209080991544 0 0.0012642954490047684 0.01049441897676043 0 0.0010703644484903957 0.010605209080991544 0 0.0011954698093438873 0.010709672404673382 0 0.0012642954490047684 0.01049441897676043 0 0.00088651176655305637 0.010367519181242678 0 0.0010703644484903957 0.010605209080991544 0 0.00090943274226627227 0.010775788433227315 0 0.0010703644484903957 0.010605209080991544 0 0.00090943274226627227 0.010775788433227315 0 0.0010985466550703206 0.010881299708783073 0 0.00076520328258361211 0.010883487944783377 0 0.00090943274226627227 0.010775788433227315 0 0.00096652983309926388 0.010972118305681839 0 0.00090943274226627227 0.010775788433227315 0 0.0010985466550703206 0.010881299708783073 0 0.00096652983309926388 0.010972118305681839 0 0.0011954698093438873 0.010709672404673382 0 0.0013501620063819991 0.010900293660970811 0 0.0010985466550703206 0.010881299708783073 0 0.0010703644484903957 0.010605209080991544 0 0.0011954698093438873 0.010709672404673382 0 0.0010985466550703206 0.010881299708783073 0 0.0012642954490047684 0.01049441897676043 0 0.0014444959506923327 0.010086132259333913 0 0.0013501620063819991 0.010900293660970811 0 0.00083797437329418648 0.0062916632768600846 0 0.00089256518682761241 0.0065122779801121992 0 0.00095384581958835827 0.0060518886497347305 0 0.00081204778211826077 0.0061601882564623432 0 0.00063758972799843555 0.006067901120643795 0 0.00095384581958835827 0.0060518886497347305 0 0.0011954698093438873 0.010709672404673382 0 0.0012642954490047684 0.01049441897676043 0 0.0013501620063819991 0.010900293660970811 0 0.00093249232244650888 0.0060226125310857007 0 0.0011899814015410327 0.008338344701387208 0 0.00083797437329418648 0.0062916632768600846 0 0.00081204778211826077 0.0061601882564623432 0 0.00095384581958835827 0.0060518886497347305 0 0.00080531274256019961 0.0088735771080042571 0 0.0011899814015410327 0.008338344701387208 0 0.00083797437329418648 0.0062916632768600846 0 0.00081204778211826077 0.0061601882564623432 0 0.00072248439045592672 0.0063113105857371997 0 0.0018268612594067616 0.0060498492789708156 0 0.0013248149835178402 0.0061354192669657494 0 0.001250705194161189 0.0062416029464148516 0 0.0012000228073063305 0.0060223220576331362 0 0.0015146175566229897 0.0062245998996948628 0 0.00041113335352047428 0.0063731483435447728 0 0.00063758972799843555 0.006067901120643795 0 0.00072248439045592672 0.0063113105857371997 0 0.00081204778211826077 0.0061601882564623432 0 0.00063758972799843555 0.006067901120643795 0 0.00072248439045592672 0.0063113105857371997 0 0.00041113335352047428 0.0063731483435447728 0 0.00057883784281828111 0.0067070229041986378 0 0.0006723732895172565 0.0064752097853181543 0 0.00041113335352047428 0.0063731483435447728 0 0.00072248439045592672 0.0063113105857371997 0 0.0006723732895172565 0.0064752097853181543 0 0.00072248439045592672 0.0063113105857371997 0 0.0006723732895172565 0.0064752097853181543 0 0.00080900638438996932 0.0064207754568883363 0 0.0006723732895172565 0.0064752097853181543 0 0.00089256518682761241 0.0065122779801121992 0 0.00080900638438996932 0.0064207754568883363 0 0.00083797437329418648 0.0062916632768600846 0 0.00089256518682761241 0.0065122779801121992 0 0.00080900638438996932 0.0064207754568883363 0 0.00083797437329418648 0.0062916632768600846 0 0.00072248439045592672 0.0063113105857371997 0 0.00080900638438996932 0.0064207754568883363 0 7.5600426136815906e-05 0.017950316975493642 0 0.00011826766828175898 0.018852448877750377 0 1.5084077378757895e-05 0.019039544697520977 0 7.5600426136815906e-05 0.017950316975493642 0 0.00036571677974679077 0.018431617175952063 0 0.00011826766828175898 0.018852448877750377 0 7.5600426136815906e-05 0.017950316975493642 0 -1.2613332622769495e-07 0.017106224481184793 0 1.5084077378757895e-05 0.019039544697520977 0 7.5600426136815906e-05 0.017950316975493642 0 -1.2613332622769495e-07 0.017106224481184793 0 0.00011135376993740284 0.016685423124446222 0 0.00011135376993740284 0.016685423124446222 0 0.00055682315657558357 0.017539521716210666 0 0.00037637006398420818 0.015555028930477921 0 -1.2613332622769495e-07 0.017106224481184793 0 0.00011135376993740284 0.016685423124446222 0 5.0377820927723673e-07 0.015223782286875258 0 7.5600426136815906e-05 0.017950316975493642 0 0.00055682315657558357 0.017539521716210666 0 0.00036571677974679077 0.018431617175952063 0 7.5600426136815906e-05 0.017950316975493642 0 0.00011135376993740284 0.016685423124446222 0 0.00055682315657558357 0.017539521716210666 0 0.00043409951182495901 0.017335060651977464 0 0.00083524369088916418 0.016240860132082265 0 0.00055682315657558357 0.017539521716210666 0 0.0014699095963992457 0.017832900206885976 0 0.0016167419371834154 0.016748477573253838 0 0.0014699095963992457 0.017832900206885976 0 0.0016167419371834154 0.016748477573253838 0 0.0022904090217680572 0.017407599673712425 0 0.00055682315657558357 0.017539521716210666 0 0.0014699095963992457 0.017832900206885976 0 0.00095251288538510494 0.018587433797975391 0 5.0377820927723673e-07 0.015223782286875258 0 0.00037637006398420818 0.015555028930477921 0 1.1288468412790252e-06 0.013351107132355596 0 0.00011135376993740284 0.016685423124446222 0 5.0377820927723673e-07 0.015223782286875258 0 0.00037637006398420818 0.015555028930477921 0 0.0015949280661514021 0.014841706345290567 0 0.0013989814673950678 0.014936508010768368 0 6.6889605656457579e-05 0.01226960468726212 0 1.3977521359674489e-06 0.013346222883848348 0 0.00056325909451661576 0.011859132226492255 0 0.0016167419371834154 0.016748477573253838 0 0.0026595786602190779 0.015940859532576755 0 0.0022904090217680572 0.017407599673712425 0 0.00083524369088916418 0.016240860132082265 0 0.0015949280661514021 0.014841706345290567 0 0.00013422673872121892 0.011736069788857786 0 0.00056325909451661576 0.011859132226492255 0 0.00070694336295214991 0.011215347655318482 0 0.0014699095963992457 0.017832900206885976 0 0.0022904090217680572 0.017407599673712425 0 0.0018664994391560752 0.018766544775242096 0 6.6889605656457579e-05 0.01226960468726212 0 0.00013422673872121892 0.011736069788857786 0 0.00056325909451661576 0.011859132226492255 0 0.0013989814673950678 0.014936508010768368 0 0.00055272161207715594 0.013126700418292113 0 0.00033967691976977718 0.010909146868406673 0 0.00055272161207715594 0.013126700418292113 0 0.0003345681637718131 0.010686401104521556 0 0.00019342149474653613 0.010617625096608553 0 0.00026178244459678886 0.010630857092677089 0 0.00019342149474653613 0.010617625096608553 0 0.00026178244459678886 0.010630857092677089 0 0.00023258853567234845 0.010652503539121977 0 0.00055272161207715594 0.013126700418292113 0 0.00067643275554549653 0.0112360357028943 0 0.00026178244459678886 0.010630857092677089 0 0.00030220034437120904 0.010694215842214329 0 0.00023258853567234845 0.010652503539121977 0 0.00030220034437120904 0.010694215842214329 0 0.00011570560320857244 0.010681300933690919 0 0.00010642282453967932 0.010959317437365515 0 0.00030220034437120904 0.010694215842214329 0 0.00010642282453967932 0.010959317437365515 0 0.00033172928523793566 0.010958314411340502 0 0.00030220034437120904 0.010694215842214329 0 0.00023258853567234845 0.010652503539121977 0 0.00011570560320857244 0.010681300933690919 0 0.00019342149474653613 0.010617625096608553 0 0.00023258853567234845 0.010652503539121977 0 0.00011570560320857244 0.010681300933690919 0 0.00015820355962881051 0.010544309475537599 0 0.00011570560320857244 0.010681300933690919 0 -0.00015146973887735732 0.010822415657889122 0 0.00055272161207715594 0.013126700418292113 0 0.00047277258952255837 0.015120064744658089 0 0.00011570560320857244 0.010681300933690919 0 -0.00015146973887735732 0.010822415657889122 0 0.00010642282453967932 0.010959317437365515 0 0.0018664994391560752 0.018766544775242096 0 0.0011102968711568678 0.019362579130759124 0 0.00095251288538510494 0.018587433797975391 0 0.0014699095963992457 0.017832900206885976 0 0.0018664994391560752 0.018766544775242096 0 0.00095251288538510494 0.018587433797975391 0 0.00055682315657558357 0.017539521716210666 0 0.00095251288538510494 0.018587433797975391 0 0.00036571677974679077 0.018431617175952063 0 0.00095251288538510494 0.018587433797975391 0 0.00036571677974679077 0.018431617175952063 0 0.00045979526893012609 0.019014929492410074 0 0.0011102968711568678 0.019362579130759124 0 0.00049858508802368877 0.019415337887848522 0 0.00061453186480046017 0.019724501389765076 0 0.0011102968711568678 0.019362579130759124 0 0.00045979526893012609 0.019014929492410074 0 0.00049858508802368877 0.019415337887848522 0 0.0011102968711568678 0.019362579130759124 0 0.00095251288538510494 0.018587433797975391 0 0.00045979526893012609 0.019014929492410074 0 0.00047277258952255837 0.015120064744658089 0 8.387576870050053e-05 0.016120121018786022 0 0.00045979526893012609 0.019014929492410074 0 0.00049858508802368877 0.019415337887848522 0 0.00020770839452680304 0.01937720533877892 0 0.00049858508802368877 0.019415337887848522 0 0.00020770839452680304 0.01937720533877892 0 0.0003184555826016942 0.019559557484916949 0 0.00020770839452680304 0.01937720533877892 0 0.0003184555826016942 0.019559557484916949 0 0.00027221309410841924 0.019558163664977146 0 0.00020770839452680304 0.01937720533877892 0 0.00011826766828175898 0.018852448877750377 0 0.00012591972725316985 0.019435130564645541 0 0.00045979526893012609 0.019014929492410074 0 0.00020770839452680304 0.01937720533877892 0 0.00011826766828175898 0.018852448877750377 0 0.00036571677974679077 0.018431617175952063 0 0.00045979526893012609 0.019014929492410074 0 0.00011826766828175898 0.018852448877750377 0 0.0003013387234555412 0.015980674379167708 0 0.00033388126645378239 0.017472118068985541 0 -2.1310834289813061e-05 0.016053007634033386 0 0.00016236471046156609 0.016166160164997494 0 -0.00029928950441265482 0.016343535646121374 0 0.00046899296260065061 0.016044025690201632 0 0.00041644259878904363 0.016101924572373468 0 0.00037060635469699193 0.016093990778447424 0 -1.6431528753098816e-05 0.018003994944886408 0 0.00033388126645378239 0.017472118068985541 0 0.00030024923189599177 0.019551946737332015 0 0.00031234058624657937 0.019583143841193626 0 0.00035988677247871155 0.019552843713346008 0 0.00030024923189599177 0.019551946737332015 0 0.0003184555826016942 0.019559557484916949 0 0.00031173392508874613 0.019540624972839982 0 0.00030024923189599177 0.019551946737332015 0 0.00031234058624657937 0.019583143841193626 0 0.0003184555826016942 0.019559557484916949 0 0.00031234058624657937 0.019583143841193626 0 0.0003184555826016942 0.019559557484916949 0 0.00027221309410841924 0.019558163664977146 0 -1.6431528753098816e-05 0.018003994944886408 0 8.387576870050053e-05 0.016120121018786022 0 8.387576870050053e-05 0.016120121018786022 0 7.4792378530239242e-05 0.013439846326315863 0 0.00025150877367846819 0.015778726442026644 0 0.00039863572578648001 0.015956852631768405 0 0.00058142736010834454 0.015911752142613568 0 0.00025150877367846819 0.015778726442026644 0 0.00039863572578648001 0.015956852631768405 0 0.00016236471046156609 0.016166160164997494 0 0.0009339041455900971 0.019041613145256438 0 8.387576870050053e-05 0.016120121018786022 0 0.00049858508802368877 0.019415337887848522 0 0.0003184555826016942 0.019559557484916949 0 0.00061453186480046017 0.019724501389765076 0 0.0003013387234555412 0.015980674379167708 0 0.00056656144926517838 0.016014083090468909 0 0.00039863572578648001 0.015956852631768405 0 0.00016236471046156609 0.016166160164997494 0 0.00058568426568918652 0.015974953792681542 0 -2.1310834289813061e-05 0.016053007634033386 0 0.00025150877367846819 0.015778726442026644 0 0.00016236471046156609 0.016166160164997494 0 0.00046899296260065061 0.016044025690201632 0 0.00058568426568918652 0.015974953792681542 0 0.00056026009951017227 0.01608190689450955 0 0.00058568426568918652 0.015974953792681542 0 0.00058142736010834454 0.015911752142613568 0 0.00071880148125129069 0.01597339767346892 0 0.00058568426568918652 0.015974953792681542 0 0.00071880148125129069 0.01597339767346892 0 0.00056026009951017227 0.01608190689450955 0 0.00067896698913310195 0.01347269609939976 0 0.0007104915129752667 0.016157388324222904 0 -0.00015146973887735732 0.010822415657889122 0 -6.2038074119622323e-05 0.011235931826230113 0 0.00010642282453967932 0.010959317437365515 0 0.00039863572578648001 0.015956852631768405 0 0.00058568426568918652 0.015974953792681542 0 0.00058142736010834454 0.015911752142613568 0 -0.00015146973887735732 0.010822415657889122 0 -0.00043619235556471478 0.011124666601341289 0 -6.2038074119622323e-05 0.011235931826230113 0 0.00010642282453967932 0.010959317437365515 0 0.00033172928523793566 0.010958314411340502 0 0.00032084547200564127 0.011391988737618347 0 -6.2038074119622323e-05 0.011235931826230113 0 0.00010642282453967932 0.010959317437365515 0 0.00032084547200564127 0.011391988737618347 0 0.00033172928523793566 0.010958314411340502 0 0.00032084547200564127 0.011391988737618347 0 0.00053836316997564297 0.011047216995418706 0 7.4792378530239242e-05 0.013439846326315863 0 0.00067896698913310195 0.01347269609939976 0 0.0013140196174404395 0.015456602583038083 0 0.0012417932093609842 0.015779142642655584 0 0.0010566122205164616 0.015630739277528668 0 0.0012417932093609842 0.015779142642655584 0 0.0014011165338504747 0.015673148811514714 0 0.0013738583165076191 0.015824021887022453 0 0.0013140196174404395 0.015456602583038083 0 0.0012417932093609842 0.015779142642655584 0 0.0014011165338504747 0.015673148811514714 0 0.0012417932093609842 0.015779142642655584 0 0.0012672779882600669 0.015961158418154462 0 0.0013738583165076191 0.015824021887022453 0 0.0012417932093609842 0.015779142642655584 0 0.0012672779882600669 0.015961158418154462 0 0.0011586836398611682 0.016055211455704339 0 0.0012672779882600669 0.015961158418154462 0 0.0013738583165076191 0.015824021887022453 0 0.0013869159514965756 0.015958905549798799 0 0.0012417932093609842 0.015779142642655584 0 0.0011586836398611682 0.016055211455704339 0 0.0010566122205164616 0.015630739277528668 0 0.0007104915129752667 0.016157388324222904 0 0.00095657343440845805 0.016147355471300244 0 0.00046899296260065061 0.016044025690201632 0 0.00056026009951017227 0.01608190689450955 0 0.00045521032245118148 0.016158469075700167 0 0.0011586836398611682 0.016055211455704339 0 0.0010566122205164616 0.015630739277528668 0 0.00071482698532307704 0.015857148204909702 0 0.0011586836398611682 0.016055211455704339 0 0.0013915127884272711 0.016469489016733757 0 0.0013691597916708478 0.016283557691908434 0 0.0012026807326762359 0.016091033266742577 0 0.00095657343440845805 0.016147355471300244 0 0.0013915127884272711 0.016469489016733757 0 0.0013691597916708478 0.016283557691908434 0 0.001517252955757132 0.016454900288093308 0 0.0013691597916708478 0.016283557691908434 0 0.001625406393629663 0.016427823215902294 0 0.0016747869271090037 0.016346095411824395 0 0.0014036994885878163 0.016532566921012331 0 0.001517252955757132 0.016454900288093308 0 0.0016451032246556064 0.016531365402013352 0 0.00095657343440845805 0.016147355471300244 0 0.0013981189745538264 0.016275105474746202 0 0.0013691597916708478 0.016283557691908434 0 0.001517252955757132 0.016454900288093308 0 0.001625406393629663 0.016427823215902294 0 0.00046899296260065061 0.016044025690201632 0 0.00045521032245118148 0.016158469075700167 0 0.00041644259878904363 0.016101924572373468 0 0.00045521032245118148 0.016158469075700167 0 0.00041644259878904363 0.016101924572373468 0 0.00035105345807137482 0.016114589964894236 0 0.00095657343440845805 0.016147355471300244 0 0.0010117645977101772 0.017092703887867485 0 0.00066494408546717749 0.0067113281502011873 0 0.00098664854786525481 0.0069703615535176393 0 0.00060065573238450088 0.0072214042769694958 0 0.0012938398019813778 0.0084829404870923695 0 0.0012388336050256498 0.012327783720010048 0 0.0010844866533216682 0.0066776963472566109 0 0.00066494408546717749 0.0067113281502011873 0 0.00098664854786525481 0.0069703615535176393 0 0.00098664854786525481 0.0069703615535176393 0 0.0014038281463681147 0.0068048212534447088 0 0.0011745434519294603 0.007438160532295025 0 0.0010844866533216682 0.0066776963472566109 0 0.0014038281463681147 0.0068048212534447088 0 0.0013191260497607928 0.0064833172932063461 0 0.0010844866533216682 0.0066776963472566109 0 0.00098664854786525481 0.0069703615535176393 0 0.0014038281463681147 0.0068048212534447088 0 0.0018321747357746081 0.0062015672867054474 0 0.0015132835012505433 0.00633452297000376 0 0.001250705194161189 0.0062416029464148516 0 0.0010844866533216682 0.0066776963472566109 0 0.0013191260497607928 0.0064833172932063461 0 0.0010136863838070258 0.0064664043645458026 0 0.0016179058943474047 0.0064518173500249798 0 0.0014038281463681147 0.0068048212534447088 0 0.0013191260497607928 0.0064833172932063461 0 0.0016179058943474047 0.0064518173500249798 0 0.0013191260497607928 0.0064833172932063461 0 0.0015132835012505433 0.00633452297000376 0 0.0013191260497607928 0.0064833172932063461 0 0.0015132835012505433 0.00633452297000376 0 0.001250705194161189 0.0062416029464148516 0 0.0013191260497607928 0.0064833172932063461 0 0.001250705194161189 0.0062416029464148516 0 0.0010136863838070258 0.0064664043645458026 0 0.00066494408546717749 0.0067113281502011873 0 0.0010136863838070258 0.0064664043645458026 0 0.00073784052371578636 0.0062160766378014116 0 0.0013248149835178402 0.0061354192669657494 0 0.001250705194161189 0.0062416029464148516 0 0.00073784052371578636 0.0062160766378014116 0 0.001250705194161189 0.0062416029464148516 0 0.0010136863838070258 0.0064664043645458026 0 0.00073784052371578636 0.0062160766378014116 0 0.0012938398019813778 0.0084829404870923695 0 0.0011899814015410327 0.008338344701387208 0 0.0010844866533216682 0.0066776963472566109 0 0.00066494408546717749 0.0067113281502011873 0 0.0010136863838070258 0.0064664043645458026 0 0.0013501620063819991 0.010900293660970811 0 0.0010985466550703206 0.010881299708783073 0 0.00097271890985005448 0.010961003869309774 0 0.0011899814015410327 0.008338344701387208 0 0.0011113148363021603 0.010348017303805206 0 0.0018026482977571315 0.011119597328385336 0 0.0018892190769850214 0.010389807120038118 0 0.0012610928449011008 0.01049413254100761 0 0.0009730123139618771 0.010569491483466718 0 0.0011113148363021603 0.010348017303805206 0 0.0018026482977571315 0.011119597328385336 0 0.0012610928449011008 0.01049413254100761 0 0.0012190814894160482 0.011115452040469587 0 0.00067896698913310195 0.01347269609939976 0 0.0011113148363021603 0.010348017303805206 0 0.00032084547200564127 0.011391988737618347 0 0.00096652983309926388 0.010972118305681839 0 0.00053836316997564297 0.011047216995418706 0 0.00012896543516038199 0.011252400275430684 0 0.0012610928449011008 0.01049413254100761 0 0.0012190814894160482 0.011115452040469587 0 0.00076520328258361211 0.010883487944783377 0 0.00096652983309926388 0.010972118305681839 0 0.00053836316997564297 0.011047216995418706 0 0.00066983751853030838 0.010731777897436874 0 0.00033172928523793566 0.010958314411340502 0 0.00053836316997564297 0.011047216995418706 0 0.00067896698913310195 0.01347269609939976 0 0.0013433956530422922 0.013628539763291942 0 0.00012896543516038199 0.011252400275430684 0 0.00092124491350935355 0.011544319704760284 0 0.0012190814894160482 0.011115452040469587 0 0.0013140196174404395 0.015456602583038083 0 0.0014928961031533724 0.015536057822774568 0 0.0014011165338504747 0.015673148811514714 0 0.0013433956530422922 0.013628539763291942 0 0.0012388336050256498 0.012327783720010048 0 0.00092124491350935355 0.011544319704760284 0 0.0012190814894160482 0.011115452040469587 0 0.0017133199476951279 0.011846542569466514 0 0.0018026482977571315 0.011119597328385336 0 0.0012190814894160482 0.011115452040469587 0 0.0017133199476951279 0.011846542569466514 0 0.0014928961031533724 0.015536057822774568 0 0.0016170242287763597 0.015588943845862834 0 0.0015930631743902163 0.015646891873315878 0 0.0012388336050256498 0.012327783720010048 0 0.0015449817877223558 0.016748032399843252 0 0.0016170242287763597 0.015588943845862834 0 0.0015930631743902163 0.015646891873315878 0 0.0016175557030192935 0.015682716659413575 0 0.0017705334002513947 0.015303440633162472 0 0.0016175557030192935 0.015682716659413575 0 0.0016527423222129482 0.015656000286751029 0 0.0014928961031533724 0.015536057822774568 0 0.0015930631743902163 0.015646891873315878 0 0.0014993077906415866 0.015661693221820018 0 0.0015930631743902163 0.015646891873315878 0 0.0014993077906415866 0.015661693221820018 0 0.0015542141241693414 0.015709907265413343 0 0.0015930631743902163 0.015646891873315878 0 0.0015879935921096109 0.015687821233378939 0 0.0015542141241693414 0.015709907265413343 0 0.0014928961031533724 0.015536057822774568 0 0.0014011165338504747 0.015673148811514714 0 0.0014993077906415866 0.015661693221820018 0 0.0014993077906415866 0.015661693221820018 0 0.0014632561631408724 0.015746780876677299 0 0.0015542141241693414 0.015709907265413343 0 0.0014011165338504747 0.015673148811514714 0 0.0014993077906415866 0.015661693221820018 0 0.0014632561631408724 0.015746780876677299 0 0.0014011165338504747 0.015673148811514714 0 0.0013738583165076191 0.015824021887022453 0 0.0014632561631408724 0.015746780876677299 0 0.0013738583165076191 0.015824021887022453 0 0.0014632561631408724 0.015746780876677299 0 0.0014955652694168084 0.015821283827302399 0 0.0014632561631408724 0.015746780876677299 0 0.0014955652694168084 0.015821283827302399 0 0.0015542141241693414 0.015709907265413343 0 0.0013738583165076191 0.015824021887022453 0 0.0014955652694168084 0.015821283827302399 0 0.0013869159514965756 0.015958905549798799 0 0.0015930631743902163 0.015646891873315878 0 0.0016175557030192935 0.015682716659413575 0 0.0015879935921096109 0.015687821233378939 0 0.0015836025665962625 0.015715366877017717 0 0.0016175557030192935 0.015682716659413575 0 0.0015683070178244395 0.015774450207453935 0 0.0016175557030192935 0.015682716659413575 0 0.0016527423222129482 0.015656000286751029 0 0.0016422588883149589 0.015783342959803541 0 0.0015836025665962625 0.015715366877017717 0 0.0016175557030192935 0.015682716659413575 0 0.0015879935921096109 0.015687821233378939 0 0.0015836025665962625 0.015715366877017717 0 0.0015879935921096109 0.015687821233378939 0 0.0015542141241693414 0.015709907265413343 0 0.0014955652694168084 0.015821283827302399 0 0.0015542141241693414 0.015709907265413343 0 0.0015683070178244395 0.015774450207453935 0 0.0015836025665962625 0.015715366877017717 0 0.0015542141241693414 0.015709907265413343 0 0.0015683070178244395 0.015774450207453935 0 0.0014955652694168084 0.015821283827302399 0 0.0015683070178244395 0.015774450207453935 0 0.0015777777080911973 0.015879863580802383 0 0.0014955652694168084 0.015821283827302399 0 0.0015777777080911973 0.015879863580802383 0 0.0015036562823943314 0.015934169627881894 0 0.0016422588883149589 0.015783342959803541 0 0.0017041577326941076 0.01587867798171836 0 0.0015777777080911973 0.015879863580802383 0 0.0015683070178244395 0.015774450207453935 0 0.0016422588883149589 0.015783342959803541 0 0.0015777777080911973 0.015879863580802383 0 0.0016175557030192935 0.015682716659413575 0 0.0015683070178244395 0.015774450207453935 0 0.0016422588883149589 0.015783342959803541 0 0.0017093373387565528 0.015675275667332088 0 0.0021612447390454946 0.014805298480060269 0 0.0016527423222129482 0.015656000286751029 0 0.0020778452897324321 0.015749192072919346 0 0.0020823093536415233 0.015663519266092864 0 0.0016527423222129482 0.015656000286751029 0 0.0020823093536415233 0.015663519266092864 0 0.0017999925186736525 0.015459751883508304 0 0.0016422588883149589 0.015783342959803541 0 0.0017324440188098127 0.015779782183795665 0 0.0017041577326941076 0.01587867798171836 0 0.0016527423222129482 0.015656000286751029 0 0.0017324440188098127 0.015779782183795665 0 0.0018472614875245914 0.015780283644934428 0 0.0016527423222129482 0.015656000286751029 0 0.0016422588883149589 0.015783342959803541 0 0.0017324440188098127 0.015779782183795665 0 0.0017324440188098127 0.015779782183795665 0 0.0018472614875245914 0.015780283644934428 0 0.0017041577326941076 0.01587867798171836 0 0.0020648121657867438 0.015048287357943632 0 0.0018841741059342928 0.015347107648949507 0 0.0017819142577702605 0.015124068232554667 0 0.0017999925186736525 0.015459751883508304 0 0.0017728360939316065 0.015162745986372647 0 0.0017999925186736525 0.015459751883508304 0 0.0017778698619023438 0.01538715310336259 0 0.0017728360939316065 0.015162745986372647 0 0.0021612447390454946 0.014805298480060269 0 0.0020648121657867438 0.015048287357943632 0 0.0017778698619023438 0.01538715310336259 0 0.001716247549216717 0.01527342923014627 0 0.0017728360939316065 0.015162745986372647 0 0.0017705334002513947 0.015303440633162472 0 0.0016527423222129482 0.015656000286751029 0 0.0017999925186736525 0.015459751883508304 0 0.0017705334002513947 0.015303440633162472 0 0.0017999925186736525 0.015459751883508304 0 0.0017778698619023438 0.01538715310336259 0 0.00098664854786525481 0.0069703615535176393 0 0.00060065573238450088 0.0072214042769694958 0 0.0011745434519294603 0.007438160532295025 0 0.0012388336050256498 0.012327783720010048 0 0.0013538738157270445 0.011330925221469378 0 0.0017705334002513947 0.015303440633162472 0 0.0017778698619023438 0.01538715310336259 0 0.0017121029447779402 0.015440556617652229 0 0.0013596263131915669 0.011585610804952481 0 0.0013538738157270445 0.011330925221469378 0 0.0015638310430962899 0.007210331647151234 0 0.001783311816712883 0.0077042454501360528 0 0.0011745434519294603 0.007438160532295025 0 0.0015638310430962899 0.007210331647151234 0 0.0014038281463681147 0.0068048212534447088 0 0.0011745434519294603 0.007438160532295025 0 0.0017121029447779402 0.015440556617652229 0 0.001716247549216717 0.01527342923014627 0 0.0015534634446947653 0.01507408991871742 0 0.0017778698619023438 0.01538715310336259 0 0.0017121029447779402 0.015440556617652229 0 0.001716247549216717 0.01527342923014627 0 0.00087185724121658845 0.015149376855983665 0 0.0015534634446947653 0.01507408991871742 0 0.0014832001836103947 0.014712432195104531 0 0.00087185724121658845 0.015149376855983665 0 0.0017121029447779402 0.015440556617652229 0 0.0015534634446947653 0.01507408991871742 0 0.0017868997141602093 0.015068623043127569 0 0.0015534634446947653 0.01507408991871742 0 0.0014832001836103947 0.014712432195104531 0 0.001716247549216717 0.01527342923014627 0 0.0015534634446947653 0.01507408991871742 0 0.0017728360939316065 0.015162745986372647 0 0.0017868997141602093 0.015068623043127569 0 0.0015534634446947653 0.01507408991871742 0 0.0017728360939316065 0.015162745986372647 0 0.0020648121657867438 0.015048287357943632 0 0.0020554924255235911 0.015060073221865021 0 0.0025331298119887703 0.013648768948929078 0 0.0021083735220076595 0.013509580577787447 0 0.002110767455167964 0.012940389376219103 0 0.0021612447390454946 0.014805298480060269 0 0.0018558785505520953 0.014159537870366706 0 0.002149482022917266 0.014617099733418404 0 0.0021421491475191409 0.014755345216818335 0 0.0017980280881741487 0.014504317984923127 0 0.0020648121657867438 0.015048287357943632 0 0.0018558785505520953 0.014159537870366706 0 0.0025331298119887703 0.013648768948929078 0 0.002110767455167964 0.012940389376219103 0 0.0025913158341290092 0.01248832825048731 0 0.0021083735220076595 0.013509580577787447 0 0.002110767455167964 0.012940389376219103 0 0.0013300403603277876 0.012928182631298418 0 0.002110767455167964 0.012940389376219103 0 0.0019933734701475417 0.012131201422170468 0 0.0013300403603277876 0.012928182631298418 0 0.002110767455167964 0.012940389376219103 0 0.0019933734701475417 0.012131201422170468 0 0.0025913158341290092 0.01248832825048731 0 0.0019933734701475417 0.012131201422170468 0 0.0025913158341290092 0.01248832825048731 0 0.0026433126393309767 0.011339771133470527 0 0.0017722447038965152 0.016023947750956172 0 0.0016125680958787971 0.016132313831854966 0 0.0017202887916073024 0.01614566295146181 0 0.0021668442267531686 0.014671895055746082 0 0.002250623121172093 0.011580722953865995 0 0.0017722447038965152 0.016023947750956172 0 0.0017041577326941076 0.01587867798171836 0 0.0015552828803959975 0.016057123287093782 0 0.0018472614875245914 0.015780283644934428 0 0.0017722447038965152 0.016023947750956172 0 0.0017041577326941076 0.01587867798171836 0 0.0021612447390454946 0.014805298480060269 0 0.0021668442267531686 0.014671895055746082 0 0.0017041577326941076 0.01587867798171836 0 0.0015777777080911973 0.015879863580802383 0 0.0015552828803959975 0.016057123287093782 0 0.0015777777080911973 0.015879863580802383 0 0.0015552828803959975 0.016057123287093782 0 0.0015036562823943314 0.015934169627881894 0 0.0015552828803959975 0.016057123287093782 0 0.0013869159514965756 0.015958905549798799 0 0.0012168057907177819 0.016057669227220153 0 0.0015479080602913932 0.016070444395815807 0 0.0013808214466624732 0.016119191154506461 0 0.0014955652694168084 0.015821283827302399 0 0.0013869159514965756 0.015958905549798799 0 0.0015036562823943314 0.015934169627881894 0 0.0015552828803959975 0.016057123287093782 0 0.0013869159514965756 0.015958905549798799 0 0.0015036562823943314 0.015934169627881894 0 0.0015552828803959975 0.016057123287093782 0 0.0015246796703648918 0.016150981041574176 0 0.0016125680958787971 0.016132313831854966 0 0.0015552828803959975 0.016057123287093782 0 0.0015246796703648918 0.016150981041574176 0 0.0015238928852375066 0.01618768769810176 0 0.0017722447038965152 0.016023947750956172 0 0.0015552828803959975 0.016057123287093782 0 0.0016125680958787971 0.016132313831854966 0 0.0016125680958787971 0.016132313831854966 0 0.0015414182361674067 0.016185594254530832 0 0.0016646436463965768 0.0161917183725208 0 0.0015246796703648918 0.016150981041574176 0 0.0016125680958787971 0.016132313831854966 0 0.0015414182361674067 0.016185594254530832 0 -0.00053955050004550996 0.017242046210354394 0 -0.0011829865351694105 0.015988857502147957 0 -8.2952238176322457e-05 0.016121215183950679 0 0.00043205881476944373 0.01706155649780287 0 0.00027931007465787586 0.013839224942942109 0 0.00025173478237731868 0.012125559702778337 0 0.00023961485466090853 0.012292045746462974 0 9.7517396050548756e-05 0.012356671935950306 0 -0.00053955050004550996 0.017242046210354394 0 -0.0020187167080830347 0.017034100610451276 0 -0.0011829865351694105 0.015988857502147957 0 0.00027931007465787586 0.013839224942942109 0 -0.00075351769492697663 0.014359051146489926 0 0.00025173478237731868 0.012125559702778337 0 0.00033253964014795084 0.012125347815590149 0 0.00023961485466090853 0.012292045746462974 0 0.001610284021425973 0.011743275175733509 0 0.0020541682223177049 0.011780087180122559 0 0.0020911258347925846 0.011168898315321859 0 0.00027931007465787586 0.013839224942942109 0 0.0018148181239846632 0.0085236333789759523 0 0.0026252120046482792 0.0065150758625678604 0 0.002122254976540255 0.0067800482417780033 0 0.0017850151081377659 0.0063931207319971673 0 0.0018148181239846632 0.0085236333789759523 0 0.0019430950149056192 0.0046515565005804818 0 0.0017132178304595008 0.0033951513002634238 0 0.0019600719117289097 0.0036503361441028925 0 0.0020758254093457972 0.003383492090703898 0 0.0026252120046482792 0.0065150758625678604 0 0.002122254976540255 0.0067800482417780033 0 0.0026065651860022621 0.0068916226884313076 0 0.0020769685457826259 0.0075458952170372956 0 0.002122254976540255 0.0067800482417780033 0 0.0026065651860022621 0.0068916226884313076 0 0.0020769685457826259 0.0075458952170372956 0 0.002122254976540255 0.0067800482417780033 0 0.0017167346133430445 0.0070611267929029699 0 0.0022650653985510001 0.0093811461049776324 0 0.002250623121172093 0.011580722953865995 0 0.0016125680958787971 0.016132313831854966 0 0.0016646436463965768 0.0161917183725208 0 0.0017202887916073024 0.01614566295146181 0 0.00027931007465787586 0.013839224942942109 0 0.002250623121172093 0.011580722953865995 0 0.0018148181239846632 0.0085236333789759523 0 0.002250623121172093 0.011580722953865995 0 0.0016445312506660611 0.016270940004403329 0 0.0015900370417099355 0.016283916988454553 0 0.0016747869271090037 0.016346095411824395 0 0.0013691597916708478 0.016283557691908434 0 0.0012625728646701506 0.016102749565295123 0 0.0016747869271090037 0.016346095411824395 0 0.0014292560044467883 0.016201833070991573 0 0.0016553154273304589 0.016322749331177895 0 0.0011586836398611682 0.016055211455704339 0 0.0013691597916708478 0.016283557691908434 0 0.0012625728646701506 0.016102749565295123 0 0.0016445312506660611 0.016270940004403329 0 0.0015900370417099355 0.016283916988454553 0 0.001551367788630894 0.016209500072389974 0 0.0016445312506660611 0.016270940004403329 0 0.001551367788630894 0.016209500072389974 0 0.0016076367635535747 0.016190937759628064 0 0.0015900370417099355 0.016283916988454553 0 0.001551367788630894 0.016209500072389974 0 0.0015238928852375066 0.01618768769810176 0 0.0011586836398611682 0.016055211455704339 0 0.0012625728646701506 0.016102749565295123 0 0.0012168057907177819 0.016057669227220153 0 0.0014292560044467883 0.016201833070991573 0 0.0013808214466624732 0.016119191154506461 0 0.0012672779882600669 0.015961158418154462 0 0.0011586836398611682 0.016055211455704339 0 0.0012168057907177819 0.016057669227220153 0 0.0012672779882600669 0.015961158418154462 0 0.0013869159514965756 0.015958905549798799 0 0.0012168057907177819 0.016057669227220153 0 0.0015246796703648918 0.016150981041574176 0 0.001551367788630894 0.016209500072389974 0 0.0015238928852375066 0.01618768769810176 0 0.00043205881476944373 0.01706155649780287 0 0.0013189995467821759 0.016779423592285528 0 0.0015246796703648918 0.016150981041574176 0 0.0015414182361674067 0.016185594254530832 0 0.0015309300148390729 0.016174049687240129 0 0.0015246796703648918 0.016150981041574176 0 0.001551367788630894 0.016209500072389974 0 0.0015309300148390729 0.016174049687240129 0 -0.00053955050004550996 0.017242046210354394 0 0.0010749403384342946 0.017469288971456772 0 -8.2952238176322457e-05 0.016121215183950679 0 0.0010749403384342946 0.017469288971456772 0 0.001511801820322217 0.016102356655271561 0 -8.2952238176322457e-05 0.016121215183950679 0 0.0010749403384342946 0.017469288971456772 0 0.0027516418356712054 0.017661905929128693 0 0.001511801820322217 0.016102356655271561 0 0.001551367788630894 0.016209500072389974 0 0.0015309300148390729 0.016174049687240129 0 0.0016076367635535747 0.016190937759628064 0 0.0013189995467821759 0.016779423592285528 0 0.0021838867720355131 0.016918683369560424 0 0.0027516418356712054 0.017661905929128693 0 0.0031128794594719221 0.016112164558767409 0 0.001511801820322217 0.016102356655271561 0 0.0027516418356712054 0.017661905929128693 0 0.0031128794594719221 0.016112164558767409 0 0.0039990149869784837 0.016805075581429865 0 0.0016445312506660611 0.016270940004403329 0 0.0016076367635535747 0.016190937759628064 0 0.0017291044493457446 0.016226568665216934 0 0.0027516418356712054 0.017661905929128693 0 0.0044007051612023835 0.01779163769272785 0 0.0039990149869784837 0.016805075581429865 0 0.0021838867720355131 0.016918683369560424 0 0.0030237293043878437 0.017099129295333096 0 0.0037984747845535155 0.015130701156985688 0 0.0024450461728310379 0.015362968809009727 0 0.0032305079718890316 0.014159782845295057 0 0.0037984747845535155 0.015130701156985688 0 0.0033210355983102741 0.016258977560343241 0 0.0024450461728310379 0.015362968809009727 0 0.0037984747845535155 0.015130701156985688 0 0.0033210355983102741 0.016258977560343241 0 0.0045439062928761074 0.015625385641957281 0 0.00321530158274505 0.016183326795062479 0 0.0015095765684807006 0.016153707503754836 0 0.0033210355983102741 0.016258977560343241 0 0.0024450461728310379 0.015362968809009727 0 0.0015324308236725733 0.016206834660486457 0 0.0024450461728310379 0.015362968809009727 0 0.0021205696515294832 0.014277038986719856 0 0.0032305079718890316 0.014159782845295057 0 0.0024450461728310379 0.015362968809009727 0 0.0015324308236725733 0.016206834660486457 0 0.00092824921375029006 0.014880124532068124 0 0.0024450461728310379 0.015362968809009727 0 0.00092824921375029006 0.014880124532068124 0 0.0021205696515294832 0.014277038986719856 0 0.0015324308236725733 0.016206834660486457 0 0.00050017131073825109 0.01550473096494517 0 0.00092824921375029006 0.014880124532068124 0 0.0015095765684807006 0.016153707503754836 0 1.3830647557421476e-05 0.016130790307937716 0 0.00050017131073825109 0.01550473096494517 0 -8.2952238176322457e-05 0.016121215183950679 0 -0.00034006182806823628 0.014837019739185092 0 0.0015324308236725733 0.016206834660486457 0 0.00050017131073825109 0.01550473096494517 0 -8.2952238176322457e-05 0.016121215183950679 0 0.00050017131073825109 0.01550473096494517 0 0.00092824921375029006 0.014880124532068124 0 -0.00034006182806823628 0.014837019739185092 0 0.00046405937984037694 0.012613196245729099 0 2.4180840649079169e-05 0.012629393412814547 0 0.00013507954902221143 0.012616172916254838 0 0.00092824921375029006 0.014880124532068124 0 0.00055106283549709518 0.013522610134865507 0 -0.00034006182806823628 0.014837019739185092 0 0.00054461019508351624 0.013026866494150304 0 -9.7994900252613203e-05 0.0136785089085543 0 0.00046405937984037694 0.012613196245729099 0 3.1234466944675254e-05 0.012086119756684133 0 0.00054405347812957973 0.011510294401347104 0 0.00046405937984037694 0.012613196245729099 0 0.00013507954902221143 0.012616172916254838 0 3.1234466944675254e-05 0.012086119756684133 0 0.00054461019508351624 0.013026866494150304 0 0.0015286404267619983 0.011962627075108364 0 0.00046405937984037694 0.012613196245729099 0 0.0015871891558256509 0.011924520978437561 0 0.00054405347812957973 0.011510294401347104 0 0.00055106283549709518 0.013522610134865507 0 0.0017131354874854331 0.013357061791490137 0 0.0015871891558256509 0.011924520978437561 0 0.00055106283549709518 0.013522610134865507 0 0.0017131354874854331 0.013357061791490137 0 0.0012779366330149644 0.014047476546873293 0 0.00092824921375029006 0.014880124532068124 0 0.00055106283549709518 0.013522610134865507 0 0.0012779366330149644 0.014047476546873293 0 0.0017131354874854331 0.013357061791490137 0 0.0012779366330149644 0.014047476546873293 0 0.0021205696515294832 0.014277038986719856 0 0.00092824921375029006 0.014880124532068124 0 0.0012779366330149644 0.014047476546873293 0 0.0021205696515294832 0.014277038986719856 0 0.0021205696515294832 0.014277038986719856 0 0.0026491315575933759 0.013051060174396832 0 0.0032305079718890316 0.014159782845295057 0 0.0017131354874854331 0.013357061791490137 0 0.0021205696515294832 0.014277038986719856 0 0.0026491315575933759 0.013051060174396832 0 0.0017131354874854331 0.013357061791490137 0 0.0026491315575933759 0.013051060174396832 0 0.0015871891558256509 0.011924520978437561 0 0.0026491315575933759 0.013051060174396832 0 0.0032305079718890316 0.014159782845295057 0 0.0042362677423904739 0.012949620423154434 0 0.0026491315575933759 0.013051060174396832 0 0.0042362677423904739 0.012949620423154434 0 0.0028835284570307941 0.011418648886620099 0 0.0032305079718890316 0.014159782845295057 0 0.0043500492188468234 0.014269765839517765 0 0.0042362677423904739 0.012949620423154434 0 0.0037984747845535155 0.015130701156985688 0 0.0032305079718890316 0.014159782845295057 0 0.0043500492188468234 0.014269765839517765 0 0.00087680972185651227 0.0081474096541742733 0 0.00084252153520449264 0.0076721966795691614 0 0.00028763045323189471 0.012424278490681218 0 0.0002259388298109477 0.012578118975275207 0 0.00019347817511293253 0.012531704836294299 0 0.00028763045323189471 0.012424278490681218 0 0.00017813154679905787 0.012473088237321154 0 0.00019347817511293253 0.012531704836294299 0 0.0016626397483797133 0.0038499941259249387 0 0.0019239931339971033 0.0039090936909419397 0 0.0017858912980243714 0.0041776952529676134 0 0.0017132178304595008 0.0033951513002634238 0 0.0016626397483797133 0.0038499941259249387 0 0.0019600719117289097 0.0036503361441028925 0 0.0016626397483797133 0.0038499941259249387 0 0.0019239931339971033 0.0039090936909419397 0 0.0019600719117289097 0.0036503361441028925 0 0.0019239931339971033 0.0039090936909419397 0 0.0019600719117289097 0.0036503361441028925 0 0.002189495090511146 0.0038087294182517053 0 0.00033253964014795084 0.012125347815590149 0 0.00028763045323189471 0.012424278490681218 0 0.00023961485466090853 0.012292045746462974 0 0.0018148181239846632 0.0085236333789759523 0 0.00087680972185651227 0.0081474096541742733 0 0.00028763045323189471 0.012424278490681218 0 0.00023961485466090853 0.012292045746462974 0 0.00017813154679905787 0.012473088237321154 0 0.00023961485466090853 0.012292045746462974 0 9.7517396050548756e-05 0.012356671935950306 0 0.00017813154679905787 0.012473088237321154 0 -0.0011829865351694105 0.015988857502147957 0 -8.2952238176322457e-05 0.016121215183950679 0 -0.00034006182806823628 0.014837019739185092 0 9.7517396050548756e-05 0.012356671935950306 0 2.4180840649079169e-05 0.012629393412814547 0 0.00010463114578295627 0.012543293598675677 0 -0.00075351769492697663 0.014359051146489926 0 -9.7994900252613203e-05 0.0136785089085543 0 2.4180840649079169e-05 0.012629393412814547 0 0.00010463114578295627 0.012543293598675677 0 9.0500620948535325e-05 0.012605347061760919 0 9.7517396050548756e-05 0.012356671935950306 0 0.00017813154679905787 0.012473088237321154 0 0.00010463114578295627 0.012543293598675677 0 0.00010463114578295627 0.012543293598675677 0 0.00014126502667333442 0.012559091323208938 0 9.0500620948535325e-05 0.012605347061760919 0 0.00017813154679905787 0.012473088237321154 0 0.00010463114578295627 0.012543293598675677 0 0.00014126502667333442 0.012559091323208938 0 0.00017813154679905787 0.012473088237321154 0 0.00014126502667333442 0.012559091323208938 0 0.00019347817511293253 0.012531704836294299 0 0.00014126502667333442 0.012559091323208938 0 0.00015279848101894849 0.012588896543589825 0 0.00019347817511293253 0.012531704836294299 0 0.00014126502667333442 0.012559091323208938 0 0.00015279848101894849 0.012588896543589825 0 9.0500620948535325e-05 0.012605347061760919 0 0.00015279848101894849 0.012588896543589825 0 9.0500620948535325e-05 0.012605347061760919 0 0.0001068449515094681 0.012601891383114988 0 2.4180840649079169e-05 0.012629393412814547 0 9.0500620948535325e-05 0.012605347061760919 0 0.00013507954902221143 0.012616172916254838 0 9.0500620948535325e-05 0.012605347061760919 0 0.00013507954902221143 0.012616172916254838 0 0.0001068449515094681 0.012601891383114988 0 5.1845106661015004e-05 0.012587532361998607 0 -0.00010248492398019278 0.012425289463509497 0 3.1234466944675254e-05 0.012086119756684133 0 -0.0005288369999995134 0.012338612867644424 0 -0.00045187822241798742 0.011139687631020502 0 0.00013507954902221143 0.012616172916254838 0 3.1234466944675254e-05 0.012086119756684133 0 -0.0005288369999995134 0.012338612867644424 0 -0.0005288369999995134 0.012338612867644424 0 -0.0011317213307344386 0.011889577529856856 0 -0.00045187822241798742 0.011139687631020502 0 0.00015279848101894849 0.012588896543589825 0 0.00015413840068516702 0.012622408323630966 0 0.0002259388298109477 0.012578118975275207 0 -0.00010248492398019278 0.012425289463509497 0 0.00061253062126409 0.010132618656558248 0 0.00015279848101894849 0.012588896543589825 0 0.0001068449515094681 0.012601891383114988 0 0.00015413840068516702 0.012622408323630966 0 0.0015550002427220304 0.0043587564570668133 0 0.0017369861949600011 0.0046041099425281453 0 0.0014938926072706079 0.0048444393821925986 0 0.00084252153520449264 0.0076721966795691614 0 0.0015443116929547383 0.0061449120719382425 0 0.0011955035215718268 0.0079230528623445672 0 0.00093281307845242435 0.008161649337165254 0 0.00095604329128815403 0.0077339740517408558 0 0.00061253062126409 0.010132618656558248 0 0.00084252153520449264 0.0076721966795691614 0 0.00015279848101894849 0.012588896543589825 0 0.0002259388298109477 0.012578118975275207 0 0.00019347817511293253 0.012531704836294299 0 0.0016626397483797133 0.0038499941259249387 0 0.0015908698959554402 0.0043703461168399559 0 0.0017858912980243714 0.0041776952529676134 0 0.00084252153520449264 0.0076721966795691614 0 0.0024757088568463557 0.0039857126562872708 0 0.0017858912980243714 0.0041776952529676134 0 0.0018566516853823197 0.0043866710196967806 0 0.0021692053926354836 0.0042067784890899625 0 0.0019239931339971033 0.0039090936909419397 0 0.0017858912980243714 0.0041776952529676134 0 0.0021692053926354836 0.0042067784890899625 0 0.0015550002427220304 0.0043587564570668133 0 0.0017858912980243714 0.0041776952529676134 0 0.0018566516853823197 0.0043866710196967806 0 0.0018566516853823197 0.0043866710196967806 0 0.0019836127915382399 0.004589401614328241 0 0.0021692053926354836 0.0042067784890899625 0 0.0018566516853823197 0.0043866710196967806 0 0.0017369861949600011 0.0046041099425281453 0 0.0019836127915382399 0.004589401614328241 0 0.0015550002427220304 0.0043587564570668133 0 0.0018566516853823197 0.0043866710196967806 0 0.0017369861949600011 0.0046041099425281453 0 0.0017369861949600011 0.0046041099425281453 0 0.0019836127915382399 0.004589401614328241 0 0.0019194819422584956 0.0048211176836247633 0 0.0019836127915382399 0.004589401614328241 0 0.0021692053926354836 0.0042067784890899625 0 0.0022860687051765162 0.0046815628837258705 0 0.0025973807182870443 0.0044135644159178896 0 0.0021692053926354836 0.0042067784890899625 0 0.0022860687051765162 0.0046815628837258705 0 0.0025973807182870443 0.0044135644159178896 0 0.0021692053926354836 0.0042067784890899625 0 0.0024870015986860985 0.0039642078917171194 0 0.0019239931339971033 0.0039090936909419397 0 0.0021692053926354836 0.0042067784890899625 0 0.002189495090511146 0.0038087294182517053 0 0.0021692053926354836 0.0042067784890899625 0 0.002189495090511146 0.0038087294182517053 0 0.0024870015986860985 0.0039642078917171194 0 0.002189495090511146 0.0038087294182517053 0 0.0024870015986860985 0.0039642078917171194 0 0.002456877983727256 0.0036400416595454678 0 0.0024870015986860985 0.0039642078917171194 0 0.002456877983727256 0.0036400416595454678 0 0.0027106607560414102 0.0037273128664331448 0 0.002456877983727256 0.0036400416595454678 0 0.0022282570365121292 0.0035724697593725921 0 0.0024507226977092803 0.0033895871207200042 0 0.0019600719117289097 0.0036503361441028925 0 0.002189495090511146 0.0038087294182517053 0 0.0022282570365121292 0.0035724697593725921 0 0.002189495090511146 0.0038087294182517053 0 0.002456877983727256 0.0036400416595454678 0 0.0022282570365121292 0.0035724697593725921 0 0.0030609096641634097 0.0035351415981115918 0 0.0027106607560414102 0.0037273128664331448 0 0.0028316426036359404 0.0033192727514599332 0 0.002456877983727256 0.0036400416595454678 0 0.0027106607560414102 0.0037273128664331448 0 0.0027867179230964012 0.0034124969243010512 0 0.0030136039275791946 0.003579907334001218 0 0.0012521664918431926 0.0034100951012401627 0 0.0024870015986860985 0.0039642078917171194 0 0.0027106607560414102 0.0037273128664331448 0 0.0028766323095338374 0.0040703248512422227 0 0.0027106607560414102 0.0037273128664331448 0 0.003078271092831941 0.0038067033821526097 0 0.0028766323095338374 0.0040703248512422227 0 0.0030609096641634097 0.0035351415981115918 0 0.0027106607560414102 0.0037273128664331448 0 0.003078271092831941 0.0038067033821526097 0 0.003078271092831941 0.0038067033821526097 0 0.0028766323095338374 0.0040703248512422227 0 0.0032520477105993052 0.0040489473408775551 0 0.0025973807182870443 0.0044135644159178896 0 0.0024870015986860985 0.0039642078917171194 0 0.0028766323095338374 0.0040703248512422227 0 0.0025973807182870443 0.0044135644159178896 0 0.0028766323095338374 0.0040703248512422227 0 0.0030672257897415133 0.0045132969584353996 0 0.0028766323095338374 0.0040703248512422227 0 0.0032520477105993052 0.0040489473408775551 0 0.0030672257897415133 0.0045132969584353996 0 0.0034304266172424823 0.0042624355172332469 0 0.0032520477105993052 0.0040489473408775551 0 0.0030672257897415133 0.0045132969584353996 0 0.0034304266172424823 0.0042624355172332469 0 0.0035079513092000935 0.0039346125895288846 0 0.0036678878460352248 0.0040011710591513908 0 0.0034304266172424823 0.0042624355172332469 0 0.0035079513092000935 0.0039346125895288846 0 0.0032520477105993052 0.0040489473408775551 0 0.0035079513092000935 0.0039346125895288846 0 0.0032520477105993052 0.0040489473408775551 0 0.0034303685350903523 0.0036626958239070256 0 0.0038452049215265669 0.0037290809590831684 0 0.0036678878460352248 0.0040011710591513908 0 0.0037609924865067042 0.0039977526811521731 0 0.0035079513092000935 0.0039346125895288846 0 0.0036678878460352248 0.0040011710591513908 0 0.0036836307478662258 0.0037436449858637929 0 0.0038452049215265669 0.0037290809590831684 0 0.0036836307478662258 0.0037436449858637929 0 0.0038048935968444204 0.0035884979631246256 0 0.0038452049215265669 0.0037290809590831684 0 0.0036678878460352248 0.0040011710591513908 0 0.0036836307478662258 0.0037436449858637929 0 0.0036836307478662258 0.0037436449858637929 0 0.0038048935968444204 0.0035884979631246256 0 0.0037122899526746854 0.0035105787168364256 0 0.0038048935968444204 0.0035884979631246256 0 0.0037122899526746854 0.0035105787168364256 0 0.0038064010020801187 0.0034794564752963744 0 0.0036836307478662258 0.0037436449858637929 0 0.0037122899526746854 0.0035105787168364256 0 0.0034303685350903523 0.0036626958239070256 0 0.0037122899526746854 0.0035105787168364256 0 0.0034303685350903523 0.0036626958239070256 0 0.0035996713131436781 0.0033991671312170028 0 0.0038240773679595543 0.0033917500171173958 0 0.0037122899526746854 0.0035105787168364256 0 0.0035996713131436781 0.0033991671312170028 0 0.0025725231589960899 0.00060812517779300129 0 0.002836101911713765 0.002478076426544888 0 0.0038240773679595543 0.0033917500171173958 0 0.0037122899526746854 0.0035105787168364256 0 0.0038064010020801187 0.0034794564752963744 0 0.003078271092831941 0.0038067033821526097 0 0.0032520477105993052 0.0040489473408775551 0 0.0034303685350903523 0.0036626958239070256 0 0.0030609096641634097 0.0035351415981115918 0 0.003078271092831941 0.0038067033821526097 0 0.0034303685350903523 0.0036626958239070256 0 0.0035079513092000935 0.0039346125895288846 0 0.0036836307478662258 0.0037436449858637929 0 0.0034303685350903523 0.0036626958239070256 0 0.0034303685350903523 0.0036626958239070256 0 0.0032719924035056721 0.0033710090297282441 0 0.0035996713131436781 0.0033991671312170028 0 0.0030609096641634097 0.0035351415981115918 0 0.0034303685350903523 0.0036626958239070256 0 0.0032719924035056721 0.0033710090297282441 0 0.00094272655283073829 0.0010267389241332631 0 0.0010088896727167675 0.00058754883819373731 0 0.00064920436065713666 0.00065004702439894527 0 0.00094272655283073829 0.0010267389241332631 0 0.0013756100609371264 0.00069583246583212728 0 0.0010088896727167675 0.00058754883819373731 0 0.0021137761198880595 0.0020125920835448335 0 0.002836101911713765 0.002478076426544888 0 0.00094272655283073829 0.0010267389241332631 0 0.0013756100609371264 0.00069583246583212728 0 0.001771888197821555 0.001088633872038648 0 0.0013756100609371264 0.00069583246583212728 0 0.0013575085223371474 0.00035973252094070109 0 0.0010088896727167675 0.00058754883819373731 0 0.0013575085223371474 0.00035973252094070109 0 0.0010741903784557141 0.00022708421891133438 0 0.0010088896727167675 0.00058754883819373731 0 0.0013575085223371474 0.00035973252094070109 0 0.0018059244097985907 0.00041083182070536501 0 0.0015396347712361444 -0.00027592941387322129 0 0.0013756100609371264 0.00069583246583212728 0 0.0013575085223371474 0.00035973252094070109 0 0.0018059244097985907 0.00041083182070536501 0 0.00069942796005286964 0.00033056851646706676 0 0.00055024535225060497 0.00035993579643506154 0 0.0010741903784557141 0.00022708421891133438 0 0.00069725243351976044 0.00047776186623694203 0 0.00076483481207580909 -1.2150278054735196e-05 0 0.00069725243351976044 0.00047776186623694203 0 0.0007408846127388702 0.00018301843737957769 0 0.00055674767615748234 0.00039081774703307614 0 0.00069725243351976044 0.00047776186623694203 0 0.0010088896727167675 0.00058754883819373731 0 0.00064920436065713666 0.00065004702439894527 0 0.0010741903784557141 0.00022708421891133438 0 0.00069725243351976044 0.00047776186623694203 0 0.0010088896727167675 0.00058754883819373731 0 0.0026071175173789083 0.0011512279311781299 0 0.001771888197821555 0.001088633872038648 0 0.0023254416808235132 0.00053376974095978714 0 0.0025725231589960899 0.00060812517779300129 0 0.0017884699611499684 -0.0017060027535287312 0 0.001771888197821555 0.001088633872038648 0 0.0018059244097985907 0.00041083182070536501 0 0.0023254416808235132 0.00053376974095978714 0 0.0013756100609371264 0.00069583246583212728 0 0.001771888197821555 0.001088633872038648 0 0.0018059244097985907 0.00041083182070536501 0 0.0018059244097985907 0.00041083182070536501 0 0.0023254416808235132 0.00053376974095978714 0 0.0020417925543408108 -9.5815600917618715e-05 0 0.0017884699611499684 -0.0017060027535287312 0 0.0011938085521442264 -0.0052460743351534795 0 0.001661236936228672 -0.0045410488547051814 0 0.0012064857742740923 -0.0042417476084748414 0 0.00095069305839694902 -0.0048213442695149485 0 0.0012300866795488421 -0.012202692840193569 0 0.0012225595574744015 -0.01222960414673196 0 0.0012202623977908428 -0.012192020292379705 0 0.0013137145437270104 -0.0088220754518277475 0 0.0011938085521442264 -0.0052460743351534795 0 0.0012225595574744015 -0.01222960414673196 0 0.0012207665568389132 -0.012202012640290062 0 0.0012202623977908428 -0.012192020292379705 0 0.0012180229520786495 -0.012226357806654851 0 0.0012225595574744015 -0.01222960414673196 0 0.0012207665568389132 -0.012202012640290062 0 0.0012207665568389132 -0.012202012640290062 0 0.0012202623977908428 -0.012192020292379705 0 0.0012258455280291893 -0.012174281290861238 0 0.0011942840503148897 -0.012265862591346403 0 0.0011642520167182489 -0.010020138645815899 0 0.0012180229520786495 -0.012226357806654851 0 0.0012207665568389132 -0.012202012640290062 0 0.0012258455280291893 -0.012174281290861238 0 0.0011938085521442264 -0.0052460743351534795 0 0.0010551503843402852 -0.0029339262850192737 0 0.00078135916793081826 -0.0051748080728819604 0 0.00082539029022224756 -0.0050787026412308497 0 0.00094438790657496829 -0.0051026534110287505 0 0.0018059244097985907 0.00041083182070536501 0 0.0020417925543408108 -9.5815600917618715e-05 0 0.0015396347712361444 -0.00027592941387322129 0 0.0012202623977908428 -0.012192020292379705 0 0.0012347840311162435 -0.012168358463739416 0 0.0012258455280291893 -0.012174281290861238 0 0.0011938085521442264 -0.0052460743351534795 0 0.00076207804978966839 -0.00820392421551858 0 0.00076207804978966839 -0.00820392421551858 0 0.0010551503843402852 -0.0029339262850192737 0 0.0003881213828196286 -0.0043087990154926882 0 0.00036124549265704336 -0.0043710266696973506 0 0.00066713184742779239 -0.0044374037261270555 0 0.00062666695019438466 -0.0083491267018725203 0 0.0005729259204824477 -0.0051522675634133883 0 0.00010324041697541231 -0.0052497837280092233 0 -0.00036590446384270314 -0.0063131725249087013 0 0.00036486703826939286 -0.0061099932674529454 0 0.001465479256594408 -0.01239003460556218 0 0.0013839124688964368 -0.01244029066808456 0 0.0014003302797721501 -0.01245372622675097 0 0.0005917905333591455 -0.0094302609082503198 0 0.00062666695019438466 -0.0083491267018725203 0 0.0013839124688964368 -0.01244029066808456 0 0.0014003302797721501 -0.01245372622675097 0 0.0013832974591653504 -0.012459022269565039 0 0.00062666695019438466 -0.0083491267018725203 0 0.0011642520167182489 -0.010020138645815899 0 0.0010044944066102417 -0.0091246562301210109 0 0.00095755282555577389 -0.0092291625233925003 0 0.00078826914543452203 -0.0091813374136483945 0 0.00062666695019438466 -0.0083491267018725203 0 0.00076207804978966839 -0.00820392421551858 0 0.00076207804978966839 -0.00820392421551858 0 0.0011642520167182489 -0.010020138645815899 0 0.0013839124688964368 -0.01244029066808456 0 0.0013832974591653504 -0.012459022269565039 0 0.001347075614868779 -0.012452168183295859 0 0.0013073749997696627 -0.012454830753322432 0 0.0013753631021824662 -0.012456902669730211 0 0.001347075614868779 -0.012452168183295859 0 0.0011642520167182489 -0.010020138645815899 0 0.0016637451728054159 -0.011203195385396186 0 0.0013839124688964368 -0.01244029066808456 0 0.001347075614868779 -0.012452168183295859 0 0.0013454778723294332 -0.012452200073113266 0 0.0013181925905131524 -0.012473680907615624 0 0.0013454778723294332 -0.012452200073113266 0 0.0013177212464923719 -0.012450202281739566 0 0.0013073749997696627 -0.012454830753322432 0 0.001347075614868779 -0.012452168183295859 0 0.0013177212464923719 -0.012450202281739566 0 0.001347075614868779 -0.012452168183295859 0 0.0013454778723294332 -0.012452200073113266 0 0.0013177212464923719 -0.012450202281739566 0 0.00055024535225060497 0.00035993579643506154 0 0.00044117429145492705 -0.001080536605276928 0 0.00040316419251333195 -0.0010267801803324472 0 0.001096481225408751 -0.0012490314605874419 0 0.00048485044855931637 -0.0014728245493714298 0 0.0010741903784557141 0.00022708421891133438 0 0.00076483481207580909 -1.2150278054735196e-05 0 0.0015396347712361444 -0.00027592941387322129 0 0.00055024535225060497 0.00035993579643506154 0 0.0010551503843402852 -0.0029339262850192737 0 0.0013575085223371474 0.00035973252094070109 0 0.0010741903784557141 0.00022708421891133438 0 0.0015396347712361444 -0.00027592941387322129 0 0.0003881213828196286 -0.0043087990154926882 0 0.00066713184742779239 -0.0044374037261270555 0 0.00079822497528092204 -0.004172545073274061 0 0.0005729259204824477 -0.0051522675634133883 0 0.00072110967304720645 -0.0023612586800045967 0 0.0010551503843402852 -0.0029339262850192737 0 0.00044117429145492705 -0.001080536605276928 0 0.00066713184742779239 -0.0044374037261270555 0 0.00079822497528092204 -0.004172545073274061 0 0.0012377996094706898 -0.0041768617122753945 0 0.00063004457040483671 -0.0056025709926977368 0 0.00036486703826939286 -0.0061099932674529454 0 0.0010943216878879214 -0.0059037379337991171 0 0.00079822497528092204 -0.004172545073274061 0 0.001212300095296454 -0.004040400519809125 0 0.0012377996094706898 -0.0041768617122753945 0 0.00065268713369931062 0.0014876972730088031 0 0.00077361954977333604 0.00083015975779034037 0 0.00042466788680468469 0.00069998793576456404 0 0.00044117429145492705 -0.001080536605276928 0 0.00073502774309749832 0.0022330659372458879 0 0.00035639802943064717 -0.00049549869894326961 0 0.00073024033979880981 -9.4386217161258472e-05 0 0.0012175494917926698 -0.00015440197353064862 0 0.00072110967304720645 -0.0023612586800045967 0 0.0010532734180873566 0.00083925070288514401 0 0.00073024033979880981 -9.4386217161258472e-05 0 0.0010878067059019803 0.00024234804807100074 0 0.0012175494917926698 -0.00015440197353064862 0 0.00025922474701712628 3.0007085769565616e-05 0 0.00073024033979880981 -9.4386217161258472e-05 0 0.0010878067059019803 0.00024234804807100074 0 0.00025922474701712628 3.0007085769565616e-05 0 0.00035639802943064717 -0.00049549869894326961 0 0.00073024033979880981 -9.4386217161258472e-05 0 0.00072110967304720645 -0.0023612586800045967 0 0.00044117429145492705 -0.001080536605276928 0 0.0013563974056308463 0.0036777266324683642 0 0.0010532734180873566 0.00083925070288514401 0 0.0015879323388549389 0.0031360071646379241 0 0.000450934863303526 0.0025183686113801566 0 0.0017117911932448828 0.0030287018556328709 0 0.0015879323388549389 0.0031360071646379241 0 0.00035547088811830165 0.0028105177159015162 0 0.000450934863303526 0.0025183686113801566 0 0.00061429550435268304 0.0049657091980889355 0 0.00064185470225773154 0.004915834802161379 0 0.00070866379530671079 0.0050128010166792161 0 0.00073502774309749832 0.0022330659372458879 0 0.0010941364690761719 0.0048378791816716298 0 0.0010532734180873566 0.00083925070288514401 0 0.00073502774309749832 0.0022330659372458879 0 0.00061429550435268304 0.0049657091980889355 0 0.00064185470225773154 0.004915834802161379 0 0.00065781081484297596 0.0048395779767316091 0 0.00073502774309749832 0.0022330659372458879 0 0.00046486197585071226 0.0028462257780858522 0 0.00065268713369931062 0.0014876972730088031 0 0.00042466788680468469 0.00069998793576456404 0 0.00011541881480018412 0.0016543696944015343 0 0.00064185470225773154 0.004915834802161379 0 0.00068293974992155804 0.0048923850511717621 0 0.00065781081484297596 0.0048395779767316091 0 0.00064185470225773154 0.004915834802161379 0 0.00068293974992155804 0.0048923850511717621 0 0.00072157204106681084 0.0049304834201335558 0 0.00065781081484297596 0.0048395779767316091 0 0.00071915270110691431 0.0048778747793297716 0 0.00072626309096489067 0.0048213343765731529 0 0.00068293974992155804 0.0048923850511717621 0 0.00065781081484297596 0.0048395779767316091 0 0.00071915270110691431 0.0048778747793297716 0 0.0007408846127388702 0.00018301843737957769 0 0.00046154263912464178 0.00026524372993880777 0 0.00055674767615748234 0.00039081774703307614 0 0.00055024535225060497 0.00035993579643506154 0 0.00046486197585071226 0.0028462257780858522 0 0.0004372263123584492 0.0059407294751058718 0 0.00027850586697436493 0.007562610411682485 0 0.00076941456093212242 0.0048532892082655066 0 0.00076678411245067741 0.0049482143004963373 0 0.00080884441657105518 0.0049954934859624007 0 0.00036132202348704555 0.0073370990764607602 0 0.00079139718743673931 0.0073610071462758067 0 0.00058794546986227917 0.0070158066289795311 0 0.00076941456093212242 0.0048532892082655066 0 0.00071915270110691431 0.0048778747793297716 0 0.00072626309096489067 0.0048213343765731529 0 0.0004372263123584492 0.0059407294751058718 0 0.00053990301800523174 0.0050529279197331347 0 0.00071915270110691431 0.0048778747793297716 0 0.00072157204106681084 0.0049304834201335558 0 0.00076678411245067741 0.0049482143004963373 0 0.00076941456093212242 0.0048532892082655066 0 0.00071915270110691431 0.0048778747793297716 0 0.00076678411245067741 0.0049482143004963373 0 0.00068293974992155804 0.0048923850511717621 0 0.00071915270110691431 0.0048778747793297716 0 0.00072157204106681084 0.0049304834201335558 0 0.00072157204106681084 0.0049304834201335558 0 0.00076678411245067741 0.0049482143004963373 0 0.00079179460121954622 0.005009404085979303 0 0.0006107663792337811 0.0044845247376219758 0 0.00049994216126622831 0.0072794193352974249 0 0.0014466152639690559 0.0076568870096538205 0 0.00093056394815522038 0.0074406856166922743 0 0.0013068063231900756 0.0072173872866855473 0 0.00064185470225773154 0.004915834802161379 0 0.00072157204106681084 0.0049304834201335558 0 0.00079179460121954622 0.005009404085979303 0 0.00064185470225773154 0.004915834802161379 0 0.00076339481400532292 0.0049738031191136432 0 0.00070866379530671079 0.0050128010166792161 0 0.00076678411245067741 0.0049482143004963373 0 0.00079179460121954622 0.005009404085979303 0 0.00080884441657105518 0.0049954934859624007 0 0.00049994216126622831 0.0072794193352974249 0 0.00039986572956319627 0.0092276708527791011 0 0.00027850586697436493 0.007562610411682485 0 0.00039986572956319627 0.0092276708527791011 0 0.00019281547308187512 0.0079209611003149237 0 -0.00021647430710124919 0.0082801966854724896 0 -0.00038497995364942703 0.0077413198516812689 0 0.00049994216126622831 0.0072794193352974249 0 0.00027850586697436493 0.007562610411682485 0 0.00049994216126622831 0.0072794193352974249 0 0.0010941364690761719 0.0048378791816716298 0 0.0012263753121593973 0.0071904963757002845 0 0.00093056394815522038 0.0074406856166922743 0 0.0013068063231900756 0.0072173872866855473 0 0.0017207111463435276 0.0089190962572139945 0 0.00039986572956319627 0.0092276708527791011 0 -0.00014967809369302216 0.014678844292857837 0 -0.00047537200200337219 0.013638441302261668 0 0.00067709443961277787 0.01404598371352554 0 0.00019347367611101922 0.0098956200776654513 0 0.0006108523187731157 0.0097294231822669212 0 0.001269829506725904 0.010253151768658247 0 0.00039986572956319627 0.0092276708527791011 0 0.00087711391221936786 0.01310131403775187 0 0.0014788315056848429 0.011222763794217655 0 0.00071052005089700554 0.0077878374703304817 0 0.0006108523187731157 0.0097294231822669212 0 0.0015311193956601861 0.0099365450721386039 0 0.000655309230938995 0.0092869272397510475 0 0.00027850586697436493 0.007562610411682485 0 0.00071052005089700554 0.0077878374703304817 0 0.00014418703758957413 0.0097357561389166992 0 0.0006108523187731157 0.0097294231822669212 0 0.000655309230938995 0.0092869272397510475 0 0.00014418703758957413 0.0097357561389166992 0 0.00019347367611101922 0.0098956200776654513 0 0.0006108523187731157 0.0097294231822669212 0 0.0018558785505520953 0.014159537870366706 0 0.0014788315056848429 0.011222763794217655 0 0.0020610992402093822 0.013365247726938321 0 0.00098567494817654636 0.013016777886635598 0 0.0012129345883364964 0.012740977635321955 0 0.0006108523187731157 0.0097294231822669212 0 0.001269829506725904 0.010253151768658247 0 0.0015311193956601861 0.0099365450721386039 0 0.00087711391221936786 0.01310131403775187 0 0.0014788315056848429 0.011222763794217655 0 0.0020769685457826259 0.0075458952170372956 0 0.0012806553498316009 0.0074600927506381374 0 0.0017167346133430445 0.0070611267929029699 0 0.0022650653985510001 0.0093811461049776324 0 0.0014788315056848429 0.011222763794217655 0 0.0020769685457826259 0.0075458952170372956 0 0.0015162994610265141 0.0082563056897630143 0 0.0012806553498316009 0.0074600927506381374 0 0.0015162994610265141 0.0082563056897630143 0 0.0012806553498316009 0.0074600927506381374 0 0.00089562388983206081 0.0077997874818485601 0 0.00013373201866087258 0.0065746932829593881 0 0.0004264667532289694 0.0075195795809474076 0 0.00088175590099624432 0.0071204696355564147 0 0.0012003124960147619 0.0074807654074805184 0 0.00071052005089700554 0.0077878374703304817 0 0.0012806553498316009 0.0074600927506381374 0 0.00093057565789024673 0.0077556847982900882 0 0.00079139718743673931 0.0073610071462758067 0 0.0012806553498316009 0.0074600927506381374 0 0.00079139718743673931 0.0073610071462758067 0 0.00090290932919838375 0.0070591579950790798 0 0.0004372263123584492 0.0059407294751058718 0 0.00071052005089700554 0.0077878374703304817 0 0.00036132202348704555 0.0073370990764607602 0 0.00093057565789024673 0.0077556847982900882 0 0.00079139718743673931 0.0073610071462758067 0 0.0012806553498316009 0.0074600927506381374 0 0.00090290932919838375 0.0070591579950790798 0 0.001216229956467782 0.0068105220514536385 0 0.00079139718743673931 0.0073610071462758067 0 0.00090290932919838375 0.0070591579950790798 0 0.00058794546986227917 0.0070158066289795311 0 0.00090290932919838375 0.0070591579950790798 0 0.00063787045482834308 0.0066532604713355377 0 0.00058794546986227917 0.0070158066289795311 0 0.00090290932919838375 0.0070591579950790798 0 0.001216229956467782 0.0068105220514536385 0 0.00063787045482834308 0.0066532604713355377 0 0.0012806553498316009 0.0074600927506381374 0 0.001216229956467782 0.0068105220514536385 0 0.0017167346133430445 0.0070611267929029699 0 0.001216229956467782 0.0068105220514536385 0 0.0017167346133430445 0.0070611267929029699 0 0.0017850151081377659 0.0063931207319971673 0 0.002122254976540255 0.0067800482417780033 0 0.0017167346133430445 0.0070611267929029699 0 0.0017850151081377659 0.0063931207319971673 0 0.001216229956467782 0.0068105220514536385 0 0.0017850151081377659 0.0063931207319971673 0 0.00093160580703946006 0.0062773429358507242 0 0.0019600719117289097 0.0036503361441028925 0 0.0022282570365121292 0.0035724697593725921 0 0.0020758254093457972 0.003383492090703898 0 0.0022282570365121292 0.0035724697593725921 0 0.0020758254093457972 0.003383492090703898 0 0.0024507226977092803 0.0033895871207200042 0 0.0019430950149056192 0.0046515565005804818 0 0.0017440066356018602 0.0049438329231405835 0 0.002456877983727256 0.0036400416595454678 0 0.0024507226977092803 0.0033895871207200042 0 0.0027867179230964012 0.0034124969243010512 0 0.001216229956467782 0.0068105220514536385 0 0.00063787045482834308 0.0066532604713355377 0 0.00093160580703946006 0.0062773429358507242 0 0.00063787045482834308 0.0066532604713355377 0 0.00093160580703946006 0.0062773429358507242 0 9.9064350321569671e-05 0.0061724483256984696 0 0.0017440066356018602 0.0049438329231405835 0 0.0012521664918431926 0.0034100951012401627 0 0.00063787045482834308 0.0066532604713355377 0 9.9064350321569671e-05 0.0061724483256984696 0 0.00022549456140552276 0.0066857140028517975 0 0.0012521664918431926 0.0034100951012401627 0 0.00036798961085426413 0.0031603428812611877 0 0.0030609096641634097 0.0035351415981115918 0 0.0032719924035056721 0.0033710090297282441 0 0.0028316426036359404 0.0033192727514599332 0 0.00017336047478635846 0.00096979526725504369 0 0.00064920436065713666 0.00065004702439894527 0 0.00034339131103458266 0.00045356197373613838 0 0.00094272655283073829 0.0010267389241332631 0 0.00017336047478635846 0.00096979526725504369 0 0.00064920436065713666 0.00065004702439894527 0 0.0021137761198880595 0.0020125920835448335 0 0.0012521664918431926 0.0034100951012401627 0 6.9247629118472266e-05 0.00068184495880552122 0 0.00036798961085426413 0.0031603428812611877 0 0.00064920436065713666 0.00065004702439894527 0 0.00055674767615748234 0.00039081774703307614 0 0.00038934495183593068 0.00045499188289214196 0 0.00069725243351976044 0.00047776186623694203 0 0.00064920436065713666 0.00065004702439894527 0 0.00055674767615748234 0.00039081774703307614 0 0.00046486197585071226 0.0028462257780858522 0 0.00053990301800523174 0.0050529279197331347 0 0.00046486197585071226 0.0028462257780858522 0 0.00036798961085426413 0.0031603428812611877 0 0.0004542464037125881 0.0037632999092767267 0 0.00044285555420285622 0.0037977056691229066 0 0.00041394755345148236 0.0037804588185744539 0 0.00046154263912464178 0.00026524372993880777 0 0.00055674767615748234 0.00039081774703307614 0 0.00038934495183593068 0.00045499188289214196 0 0.00036798961085426413 0.0031603428812611877 0 0.00053990301800523174 0.0050529279197331347 0 9.9064350321569671e-05 0.0061724483256984696 0 -0.00013552772999995903 0.0068934902427341118 0 0.00022549456140552276 0.0066857140028517975 0 -0.00013552772999995903 0.0068934902427341118 0 0.00015651037847110144 0.0071111099069387567 0 0.00014587905215230165 0.0069008035783331423 0 0.00015651037847110144 0.0071111099069387567 0 0.00014587905215230165 0.0069008035783331423 0 0.00033604953038721851 0.006909824319002604 0 0.00015651037847110144 0.0071111099069387567 0 0.00031714705563103823 0.0070704801111956313 0 0.00033604953038721851 0.006909824319002604 0 0.00053990301800523174 0.0050529279197331347 0 0.00024113605840038113 0.0060846638902498692 0 0.00059461619243476936 0.0056810957944762059 0 0.00031655337803570795 0.0054788351288336239 0 0.00051371071079386638 0.0054217078199599675 0 0.00036132202348704555 0.0073370990764607602 0 0.0002874151684973508 0.007100792713235788 0 0.00058794546986227917 0.0070158066289795311 0 0.0004372263123584492 0.0059407294751058718 0 0.00024113605840038113 0.0060846638902498692 0 0.00031714705563103823 0.0070704801111956313 0 0.00058794546986227917 0.0070158066289795311 0 0.00033604953038721851 0.006909824319002604 0 0.00024113605840038113 0.0060846638902498692 0 0.00033158247607027486 0.0064697834209076939 0 0.00063787045482834308 0.0066532604713355377 0 0.00058794546986227917 0.0070158066289795311 0 0.00033604953038721851 0.006909824319002604 0 0.00063787045482834308 0.0066532604713355377 0 0.00033604953038721851 0.006909824319002604 0 0.00022549456140552276 0.0066857140028517975 0 -0.00013552772999995903 0.0068934902427341118 0 0.00014587905215230165 0.0069008035783331423 0 0.00022549456140552276 0.0066857140028517975 0 0.00014587905215230165 0.0069008035783331423 0 0.00033604953038721851 0.006909824319002604 0 0.00022549456140552276 0.0066857140028517975 0 -0.00019247411478551807 0.035027620391901833 0 -0.00014308477755476393 0.034984424678980393 0 -0.00041033432709809621 0.03495557551548617 0 -0.00019247411478551807 0.035027620391901833 0 -0.00014308477755476393 0.034984424678980393 0 -9.3157930910182235e-05 0.035026801283055353 0 -0.00065254259898409029 0.034375510738026076 0 -0.00074803644771839176 0.034025077320454879 0 -1.220863874360087e-07 0.035000045873843144 0 -0.00014308477755476393 0.034984424678980393 0 -9.3157930910182235e-05 0.035026801283055353 0 -1.220863874360087e-07 0.035000045873843144 0 -0.00014308477755476393 0.034984424678980393 0 -3.7468062717105473e-08 0.03499964073449046 0 -0.00014308477755476393 0.034984424678980393 0 -0.00026124254096175289 0.034761814566475466 0 -3.7468062717105473e-08 0.03499964073449046 0 -0.00014308477755476393 0.034984424678980393 0 -0.00041033432709809621 0.03495557551548617 0 -0.00026124254096175289 0.034761814566475466 0 -0.0010947151302120534 0.033303809375614946 0 -0.0008406624873549441 0.033061550164534083 0 -0.00077393445981092782 0.033464117993240838 0 -0.0008406624873549441 0.033061550164534083 0 -0.00077391200670618983 0.033022816731938201 0 -0.00077393445981092782 0.033464117993240838 0 -0.0008406624873549441 0.033061550164534083 0 -0.00074401754943581816 0.032930251446419027 0 -0.00077391200670618983 0.033022816731938201 0 -0.0011029715087021699 0.032948440212030528 0 -0.0010947151302120534 0.033303809375614946 0 -0.0008406624873549441 0.033061550164534083 0 -0.0011029715087021699 0.032948440212030528 0 -0.0008406624873549441 0.033061550164534083 0 -0.00088343530254666482 0.032804802493943797 0 -0.0011029715087021699 0.032948440212030528 0 -0.00088343530254666482 0.032804802493943797 0 -0.0011259409351714411 0.032672715364576055 0 0.00052268898250468763 0.026766940724954572 0 0.00032602250639232914 0.026872011174535245 0 0.00021645433195971228 0.026638909817770919 0 -0.0002716609877708901 0.029579576820078141 0 -0.00016763678638212205 0.02973085879392991 0 -0.0008406624873549441 0.033061550164534083 0 -0.00088343530254666482 0.032804802493943797 0 -0.00074401754943581816 0.032930251446419027 0 0.00032602250639232914 0.026872011174535245 0 0.00055415066740971083 0.026974004923955481 0 0.00044473264373184196 0.027059711776693644 0 0.00052268898250468763 0.026766940724954572 0 0.00032602250639232914 0.026872011174535245 0 0.00055415066740971083 0.026974004923955481 0 0.00052268898250468763 0.026766940724954572 0 0.00055415066740971083 0.026974004923955481 0 0.00066316547518382421 0.026982121456521367 0 0.00052268898250468763 0.026766940724954572 0 0.00066316547518382421 0.026982121456521367 0 0.00077820438636464026 0.026927088756097183 0 -0.0002716609877708901 0.029579576820078141 0 -0.00034591656978599864 0.031938292542200736 0 -9.7082348614385111e-05 0.035074059503295563 0 -0.00013697987663946145 0.035057186295203484 0 -9.3157930910182235e-05 0.035026801283055353 0 0.00066316547518382421 0.026982121456521367 0 0.00077820438636464026 0.026927088756097183 0 0.0007857138445258741 0.027043478205661477 0 -0.00034591656978599864 0.031938292542200736 0 0.00078189068978516034 0.030111922514632704 0 3.4642786979489088e-05 0.034974585595550799 0 4.8590031057461196e-05 0.034953128309076972 0 9.1083796875670033e-05 0.034919799411109897 0 -0.00013585575987648239 0.033997163426170221 0 0.00078189068978516034 0.030111922514632704 0 -0.00017745346569769457 0.032191358276201815 0 0.00020950085368962471 0.032374726867998277 0 0.00016237760099354397 0.031958714180687811 0 -0.00013585575987648239 0.033997163426170221 0 -0.00034591656978599864 0.031938292542200736 0 -0.00019247411478551807 0.035027620391901833 0 -0.00013697987663946145 0.035057186295203484 0 -9.3157930910182235e-05 0.035026801283055353 0 -0.00065254259898409029 0.034375510738026076 0 -0.00034591656978599864 0.031938292542200736 0 -1.220863874360087e-07 0.035000045873843144 0 -9.3157930910182235e-05 0.035026801283055353 0 -8.2385106739025996e-08 0.035000181615087986 0 3.4642786979489088e-05 0.034974585595550799 0 4.8590031057461196e-05 0.034953128309076972 0 4.7868330064469727e-07 0.035001246837783662 0 -0.00013585575987648239 0.033997163426170221 0 -3.8087877867816086e-07 0.035000393786558538 0 -1.5977233037528112e-06 0.034993875276886723 0 3.6702536938410037e-10 0.034999993791524124 0 -1.7417943026399707e-09 0.03499999523131269 0 -9.7082348614385111e-05 0.035074059503295563 0 -9.3157930910182235e-05 0.035026801283055353 0 -8.2385106739025996e-08 0.035000181615087986 0 -0.00013585575987648239 0.033997163426170221 0 4.5294957109047463e-07 0.035000242146568418 0 4.7868330064469727e-07 0.035001246837783662 0 5.6791546292872571e-05 0.034943429975296147 0 1.5646010143481313e-05 0.034853461500840836 0 4.8590031057461196e-05 0.034953128309076972 0 4.7868330064469727e-07 0.035001246837783662 0 5.6791546292872571e-05 0.034943429975296147 0 0.0021630088756960284 0.026591563622044328 0 0.0021805918244859335 0.026719703288672163 0 0.0015286671196558929 0.026920462203051849 0 0.00078189068978516034 0.030111922514632704 0 0.00078441065109980724 0.031694259773135711 0 4.8590031057461196e-05 0.034953128309076972 0 9.1083796875670033e-05 0.034919799411109897 0 8.7971196335111623e-05 0.03486670287687002 0 -0.00048666913247991691 0.034494885319084449 0 0.00078441065109980724 0.031694259773135711 0 0.00020913680281923734 0.031584625141530868 0 0.00028855713958710814 0.032124180479077502 0 -9.1459123832453697e-05 0.03197827977175545 0 0.00078441065109980724 0.031694259773135711 0 6.4317804367001826e-05 0.033807296212531361 0 4.7868330064469727e-07 0.035001246837783662 0 1.5646010143481313e-05 0.034853461500840836 0 -9.6531476425261961e-07 0.034996644937005349 0 6.4317804367001826e-05 0.033807296212531361 0 5.4936341580730887e-08 0.033789957404655874 0 0.00028855713958710814 0.032124180479077502 0 1.1893340635695975e-06 0.033787892918044342 0 -0.00012057217591534061 0.032396689310752083 0 1.5646010143481313e-05 0.034853461500840836 0 1.4685620285349707e-06 0.033796033476921165 0 -9.6531476425261961e-07 0.034996644937005349 0 -1.1295133802673092e-06 0.032037413659736787 0 -6.0199877148382218e-05 0.032088013114992792 0 1.1143190285672618e-06 0.030285714578590285 0 0.00047655459402515932 0.030273141158571045 0 1.4588473643613095e-07 0.030283678701350809 0 -1.1295133802673092e-06 0.032037413659736787 0 -0.00012057217591534061 0.032396689310752083 0 -6.0199877148382218e-05 0.032088013114992792 0 1.1893340635695975e-06 0.033787892918044342 0 -1.1295133802673092e-06 0.032037413659736787 0 -0.00012057217591534061 0.032396689310752083 0 0.00028855713958710814 0.032124180479077502 0 -0.00012057217591534061 0.032396689310752083 0 -9.1459123832453697e-05 0.03197827977175545 0 0.00047655459402515932 0.030273141158571045 0 0.0010637525264619769 0.029209855076463582 0 -0.00012057217591534061 0.032396689310752083 0 -6.0199877148382218e-05 0.032088013114992792 0 -9.1459123832453697e-05 0.03197827977175545 0 0.0012631792196700173 0.028288448419084206 0 0.00178433767903537 0.027336725587312972 0 0.00050984694739881684 0.027377792285248465 0 0.0012631792196700173 0.028288448419084206 0 0.00050984694739881684 0.027377792285248465 0 0.00030798180003285765 0.028098635609816604 0 0.00058651552481176752 0.027156571907076453 0 0.00044473264373184196 0.027059711776693644 0 0.00050984694739881684 0.027377792285248465 0 0.00178433767903537 0.027336725587312972 0 0.0015286671196558929 0.026920462203051849 0 0.00050984694739881684 0.027377792285248465 0 0.0013590952822129035 0.026583539905953298 0 0.00037785178975710011 0.027516275174569782 0 0.00078441065109980724 0.031694259773135711 0 0.0010637525264619769 0.029209855076463582 0 0.00078189068978516034 0.030111922514632704 0 0.0013590952822129035 0.026583539905953298 0 0.0021805918244859335 0.026719703288672163 0 0.00178433767903537 0.027336725587312972 0 0.0015286671196558929 0.026920462203051849 0 0.00055415066740971083 0.026974004923955481 0 0.00066316547518382421 0.026982121456521367 0 0.00058651552481176752 0.027156571907076453 0 0.00066316547518382421 0.026982121456521367 0 0.0007857138445258741 0.027043478205661477 0 0.00058651552481176752 0.027156571907076453 0 0.00055415066740971083 0.026974004923955481 0 0.00058651552481176752 0.027156571907076453 0 0.00044473264373184196 0.027059711776693644 0 0.00044473264373184196 0.027059711776693644 0 0.00017578032360558433 0.026975863998944197 0 0.00050984694739881684 0.027377792285248465 0 0.00032602250639232914 0.026872011174535245 0 0.00044473264373184196 0.027059711776693644 0 0.00017578032360558433 0.026975863998944197 0 0.00017578032360558433 0.026975863998944197 0 -0.00011531033016883228 0.026969416565749336 0 3.3447783501510368e-05 0.027255057821660714 0 0.00017578032360558433 0.026975863998944197 0 -0.00011531033016883228 0.026969416565749336 0 -0.00012905100466043611 0.026923323321014433 0 -0.00011531033016883228 0.026969416565749336 0 -0.00024763896004400529 0.02683684398282413 0 -0.00012905100466043611 0.026923323321014433 0 -0.00011531033016883228 0.026969416565749336 0 3.3447783501510368e-05 0.027255057821660714 0 -0.00026381588490783731 0.026887569517509567 0 0.00017578032360558433 0.026975863998944197 0 3.3447783501510368e-05 0.027255057821660714 0 0.00050984694739881684 0.027377792285248465 0 3.3447783501510368e-05 0.027255057821660714 0 0.00030798180003285765 0.028098635609816604 0 -0.00012546003891531946 0.027899761520886957 0 3.3447783501510368e-05 0.027255057821660714 0 0.00050984694739881684 0.027377792285248465 0 0.00030798180003285765 0.028098635609816604 0 3.3447783501510368e-05 0.027255057821660714 0 -0.00012546003891531946 0.027899761520886957 0 -0.00026381588490783731 0.026887569517509567 0 -0.00012546003891531946 0.027899761520886957 0 2.1849784351934785e-06 0.030279532847647617 0 -1.0306792889066299e-06 0.028401182258485945 0 0.0012631792196700173 0.028288448419084206 0 0.00030798180003285765 0.028098635609816604 0 2.1849784351934785e-06 0.030279532847647617 0 0.00030798180003285765 0.028098635609816604 0 -0.00012546003891531946 0.027899761520886957 0 2.1849784351934785e-06 0.030279532847647617 0 -2.4579989586664381e-07 0.026517822748478092 0 -0.00018033644655949375 0.027251219984936962 0 -0.00019873055859174642 0.02638376239364814 0 -2.4579989586664381e-07 0.026517822748478092 0 -1.0306792889066299e-06 0.028401182258485945 0 -0.00018033644655949375 0.027251219984936962 0 -0.00012546003891531946 0.027899761520886957 0 -1.0306792889066299e-06 0.028401182258485945 0 -0.00018033644655949375 0.027251219984936962 0 -0.00018033644655949375 0.027251219984936962 0 -0.00019873055859174642 0.02638376239364814 0 -0.00026381588490783731 0.026887569517509567 0 -0.00012546003891531946 0.027899761520886957 0 -0.00018033644655949375 0.027251219984936962 0 -0.00026381588490783731 0.026887569517509567 0 -0.00019873055859174642 0.02638376239364814 0 -0.0002603687516441262 0.026377548496720624 0 -0.00021936694851549835 0.025849477126109952 0 -0.00019873055859174642 0.02638376239364814 0 -0.0002603687516441262 0.026377548496720624 0 -0.00026381588490783731 0.026887569517509567 0 -0.0002603687516441262 0.026377548496720624 0 -0.00028429793118264518 0.02662232092380178 0 -0.00026383179622255242 0.026298772765232854 0 -0.0002603687516441262 0.026377548496720624 0 -0.00026383179622255242 0.026298772765232854 0 -0.00021936694851549835 0.025849477126109952 0 -0.0002603687516441262 0.026377548496720624 0 -0.00026381588490783731 0.026887569517509567 0 -0.00028429793118264518 0.02662232092380178 0 -0.00028429793118264518 0.02662232092380178 0 -0.00024763896004400529 0.02683684398282413 0 -0.00026739344923534727 0.027034057902043458 0 -0.00011531033016883228 0.026969416565749336 0 -0.00026381588490783731 0.026887569517509567 0 -0.00024763896004400529 0.02683684398282413 0 -0.00026381588490783731 0.026887569517509567 0 -0.00028429793118264518 0.02662232092380178 0 -0.00024763896004400529 0.02683684398282413 0 -0.00028429793118264518 0.02662232092380178 0 -0.00027085972711797388 0.026612802366551242 0 -0.00026739344923534727 0.027034057902043458 0 -0.00027085972711797388 0.026612802366551242 0 -0.00026739344923534727 0.027034057902043458 0 -0.00024797113750794084 0.02646622440603015 0 -0.00028429793118264518 0.02662232092380178 0 -0.00026383179622255242 0.026298772765232854 0 -0.00027085972711797388 0.026612802366551242 0 -0.00026383179622255242 0.026298772765232854 0 -0.00027085972711797388 0.026612802366551242 0 -0.00024797113750794084 0.02646622440603015 0 -0.00036546346216670801 0.026786937788311944 0 -0.00026739344923534727 0.027034057902043458 0 -0.00077592263858623355 0.027794733388592775 0 -0.00037575335683930294 0.027050421467417089 0 -0.00043726577300181641 0.027163144020851241 0 -0.00026739344923534727 0.027034057902043458 0 -0.00077592263858623355 0.027794733388592775 0 -0.00076741789130217112 0.02775224516527856 0 -0.0011742181840110424 0.027711258692640534 0 -0.00080442219229265668 0.027859548900829336 0 -0.00092626858208259171 0.02915612597370025 0 -0.0020318294194359714 0.029273110410445956 0 -0.00077592263858623355 0.027794733388592775 0 -0.00092626858208259171 0.02915612597370025 0 -0.0020318294194359714 0.029273110410445956 0 -0.0013775398269163534 0.030212149246774799 0 -0.00092626858208259171 0.02915612597370025 0 -0.0013775398269163534 0.030212149246774799 0 -0.0004962326806499691 0.029888941021248054 0 -0.00036546346216670801 0.026786937788311944 0 -0.00015554528455071553 0.026832406944523914 0 -7.6935135046635842e-05 0.02654313312087303 0 -0.0011742181840110424 0.027711258692640534 0 -0.0010716169748403559 0.030813946799371102 0 -0.00026739344923534727 0.027034057902043458 0 -0.00012905100466043611 0.026923323321014433 0 -0.00015554528455071553 0.026832406944523914 0 -0.00036546346216670801 0.026786937788311944 0 -0.00026739344923534727 0.027034057902043458 0 -0.00015554528455071553 0.026832406944523914 0 -0.00024763896004400529 0.02683684398282413 0 -0.00026739344923534727 0.027034057902043458 0 -0.00012905100466043611 0.026923323321014433 0 0.00017578032360558433 0.026975863998944197 0 -0.00012905100466043611 0.026923323321014433 0 5.8190219236198081e-05 0.026808467453456036 0 -0.00012905100466043611 0.026923323321014433 0 5.8190219236198081e-05 0.026808467453456036 0 -0.00015554528455071553 0.026832406944523914 0 0.00032602250639232914 0.026872011174535245 0 0.00017578032360558433 0.026975863998944197 0 5.8190219236198081e-05 0.026808467453456036 0 0.00032602250639232914 0.026872011174535245 0 5.8190219236198081e-05 0.026808467453456036 0 0.00021645433195971228 0.026638909817770919 0 5.8190219236198081e-05 0.026808467453456036 0 0.00021645433195971228 0.026638909817770919 0 -7.6935135046635842e-05 0.02654313312087303 0 5.8190219236198081e-05 0.026808467453456036 0 -0.00015554528455071553 0.026832406944523914 0 -7.6935135046635842e-05 0.02654313312087303 0 -0.00016763678638212205 0.02973085879392991 0 -0.0010716169748403559 0.030813946799371102 0 -0.00074401754943581816 0.032930251446419027 0 -0.00069334295205977325 0.032946712619429275 0 -0.00077391200670618983 0.033022816731938201 0 -0.0010716169748403559 0.030813946799371102 0 -0.00087066771966002579 0.033527074072612767 0 -0.0009524226642347015 0.032507874231690936 0 -0.00077391200670618983 0.033022816731938201 0 -0.00090495137715839087 0.032588882338114439 0 -0.0009524226642347015 0.032507874231690936 0 -0.0012996184205225801 0.031640006773002972 0 -0.00090495137715839087 0.032588882338114439 0 -0.0012996184205225801 0.031640006773002972 0 -0.00080317295499092087 0.030735098458096164 0 -0.00062201201751105491 0.031147893809940572 0 -0.0012996184205225801 0.031640006773002972 0 -0.00062201201751105491 0.031147893809940572 0 -0.00093219806285273785 0.031899774110402582 0 -0.0013775398269163534 0.030212149246774799 0 -0.00080317295499092087 0.030735098458096164 0 -0.0004962326806499691 0.029888941021248054 0 -0.0012996184205225801 0.031640006773002972 0 -0.0013775398269163534 0.030212149246774799 0 -0.00080317295499092087 0.030735098458096164 0 -0.0020318294194359714 0.029273110410445956 0 -0.0034961222810941401 0.030586936440986732 0 -0.0013775398269163534 0.030212149246774799 0 -0.0010716169748403559 0.030813946799371102 0 -0.001722606256534129 0.031807860955332105 0 -0.0034961222810941401 0.030586936440986732 0 -0.0012996184205225801 0.031640006773002972 0 -0.0013775398269163534 0.030212149246774799 0 -0.00018419966869296365 0.029299323109320166 0 -0.00030598393419404223 0.030306394717432621 0 0.00034197988020804546 0.03008106686092377 0 -0.0002498794267726759 0.030523476221166797 0 -0.00035322077179744888 0.030437281053365555 0 0.00034197988020804546 0.03008106686092377 0 -0.0002498794267726759 0.030523476221166797 0 -0.0004962326806499691 0.029888941021248054 0 -0.00080317295499092087 0.030735098458096164 0 -0.0002498794267726759 0.030523476221166797 0 -0.0004962326806499691 0.029888941021248054 0 -0.00080317295499092087 0.030735098458096164 0 -0.0002498794267726759 0.030523476221166797 0 -0.00062201201751105491 0.031147893809940572 0 -0.0002498794267726759 0.030523476221166797 0 -0.00062201201751105491 0.031147893809940572 0 -0.00035322077179744888 0.030437281053365555 0 -0.00062201201751105491 0.031147893809940572 0 -0.00035322077179744888 0.030437281053365555 0 -0.00056744969855161839 0.031492122095432687 0 -0.00035322077179744888 0.030437281053365555 0 9.8038633643283255e-05 0.029615052890852311 0 0.00017246729482806326 0.030604625329028072 0 -0.00068295008949862475 0.02865481559774426 0 -0.00035322077179744888 0.030437281053365555 0 9.8038633643283255e-05 0.029615052890852311 0 9.8038633643283255e-05 0.029615052890852311 0 0.0012844262383406716 0.029617176314982892 0 0.00017246729482806326 0.030604625329028072 0 9.8038633643283255e-05 0.029615052890852311 0 0.0012844262383406716 0.029617176314982892 0 0.001791940389600706 0.02779520427554023 0 0.0012844262383406716 0.029617176314982892 0 0.0030199093607034782 0.029751394077232592 0 0.001479274163391227 0.030948819471140004 0 0.0012844262383406716 0.029617176314982892 0 0.001791940389600706 0.02779520427554023 0 0.0030199093607034782 0.029751394077232592 0 9.8038633643283255e-05 0.029615052890852311 0 0.001791940389600706 0.02779520427554023 0 0.00014986186868004439 0.024277109993389622 0 0.001791940389600706 0.02779520427554023 0 0.00014986186868004439 0.024277109993389622 0 0.0031457574715773166 0.025007398295018718 0 5.1120620985049554e-05 0.02928101119964046 0 0.00060470996589401423 0.026200147071929466 0 -0.00068295008949862475 0.02865481559774426 0 9.8038633643283255e-05 0.029615052890852311 0 0.00091371569663734531 0.028129658216760344 0 -0.00068295008949862475 0.02865481559774426 0 -1.6490830978873582e-05 0.027710091600217718 0 0.00091371569663734531 0.028129658216760344 0 -1.6490830978873582e-05 0.027710091600217718 0 0.00091371569663734531 0.028129658216760344 0 0.00049391502456360326 0.026881674981444597 0 0.00014986186868004439 0.024277109993389622 0 0.001727035083726712 0.021230910662772974 0 0.0031457574715773166 0.025007398295018718 0 0.00014986186868004439 0.024277109993389622 0 0.0013073362191262181 0.019839415793140532 0 0.001727035083726712 0.021230910662772974 0 0.00049391502456360326 0.026881674981444597 0 0.00095212447197413604 0.025976069265216995 0 0.0017563518757474103 0.026355270481606147 0 0.00091371569663734531 0.028129658216760344 0 0.00049391502456360326 0.026881674981444597 0 0.0017563518757474103 0.026355270481606147 0 0.00060470996589401423 0.026200147071929466 0 0.001608932036082943 0.023115123739592909 0 0.00049391502456360326 0.026881674981444597 0 -0.00080226571248020659 0.027136873774297372 0 0.0001366049800160909 0.026078198061872542 0 -1.6490830978873582e-05 0.027710091600217718 0 0.00049391502456360326 0.026881674981444597 0 -0.00080226571248020659 0.027136873774297372 0 0.00049391502456360326 0.026881674981444597 0 0.0001366049800160909 0.026078198061872542 0 0.00095212447197413604 0.025976069265216995 0 0.00012069055855066735 0.028082735740989101 0 0.00062508157723625011 0.028539613087454497 0 0.000560702966104068 0.027191261418478996 0 -0.00011523160625028203 0.027949499067808813 0 2.8964934016743487e-05 0.025829542776194987 0 -0.00080226571248020659 0.027136873774297372 0 -0.00084643325109347745 0.025592904245765727 0 0.0001366049800160909 0.026078198061872542 0 0.00012069055855066735 0.028082735740989101 0 0.00062508157723625011 0.028539613087454497 0 -0.0002051322277689808 0.028759920274455005 0 0.00034197988020804546 0.03008106686092377 0 0.00062508157723625011 0.028539613087454497 0 -0.0002051322277689808 0.028759920274455005 0 -0.00068295008949862475 0.02865481559774426 0 -1.6490830978873582e-05 0.027710091600217718 0 -0.00080226571248020659 0.027136873774297372 0 -0.00018419966869296365 0.029299323109320166 0 -0.00011523160625028203 0.027949499067808813 0 0.00034197988020804546 0.03008106686092377 0 -0.0004962326806499691 0.029888941021248054 0 -0.0002051322277689808 0.028759920274455005 0 -0.00092626858208259171 0.02915612597370025 0 -0.0004962326806499691 0.029888941021248054 0 -0.0002051322277689808 0.028759920274455005 0 -0.00092626858208259171 0.02915612597370025 0 -0.0002051322277689808 0.028759920274455005 0 -0.00077592263858623355 0.027794733388592775 0 -0.0002051322277689808 0.028759920274455005 0 -0.00031335044853064643 0.02789031708174447 0 -0.00077592263858623355 0.027794733388592775 0 0.00012069055855066735 0.028082735740989101 0 -0.0002051322277689808 0.028759920274455005 0 -0.00031335044853064643 0.02789031708174447 0 -0.00031335044853064643 0.02789031708174447 0 -0.00077592263858623355 0.027794733388592775 0 -0.00076741789130217112 0.02775224516527856 0 -0.00043726577300181641 0.027163144020851241 0 2.8964934016743487e-05 0.025829542776194987 0 -0.00024797113750794084 0.02646622440603015 0 -0.00015117373688459739 0.02594828746382238 0 0.00032052678875642119 0.025923179027268092 0 -0.00031335044853064643 0.02789031708174447 0 -0.00076741789130217112 0.02775224516527856 0 0.000560702966104068 0.027191261418478996 0 -0.00026383179622255242 0.026298772765232854 0 -0.00024797113750794084 0.02646622440603015 0 -0.00015117373688459739 0.02594828746382238 0 0.00012069055855066735 0.028082735740989101 0 -0.00031335044853064643 0.02789031708174447 0 0.000560702966104068 0.027191261418478996 0 7.1782928970186947e-05 0.024092714119277558 0 0.00015110657867543887 0.024644337520696797 0 -0.00011280625076089819 0.02379641957345115 0 0.00032052678875642119 0.025923179027268092 0 0.00015110657867543887 0.024644337520696797 0 -9.7052428173653344e-05 0.025351979130679839 0 0.00015110657867543887 0.024644337520696797 0 -9.7052428173653344e-05 0.025351979130679839 0 -9.6151936969187982e-05 0.025240358244832114 0 -0.00015117373688459739 0.02594828746382238 0 0.00032052678875642119 0.025923179027268092 0 -9.7052428173653344e-05 0.025351979130679839 0 2.8964934016743487e-05 0.025829542776194987 0 0.00015697101773047795 0.024447315303940214 0 -9.7052428173653344e-05 0.025351979130679839 0 -0.00021936694851549835 0.025849477126109952 0 -9.6151936969187982e-05 0.025240358244832114 0 -0.00026383179622255242 0.026298772765232854 0 -0.00015117373688459739 0.02594828746382238 0 -0.00021936694851549835 0.025849477126109952 0 -0.00015117373688459739 0.02594828746382238 0 -9.7052428173653344e-05 0.025351979130679839 0 -0.00021936694851549835 0.025849477126109952 0 -0.00019873055859174642 0.02638376239364814 0 -0.00021936694851549835 0.025849477126109952 0 -9.6151936969187982e-05 0.025240358244832114 0 0.00015110657867543887 0.024644337520696797 0 -9.6151936969187982e-05 0.025240358244832114 0 -5.3165302071632705e-05 0.023920889740907589 0 -9.6151936969187982e-05 0.025240358244832114 0 -1.5374773660335068e-07 0.024635938213204162 0 -5.3165302071632705e-05 0.023920889740907589 0 -2.4579989586664381e-07 0.026517822748478092 0 -9.6151936969187982e-05 0.025240358244832114 0 -1.5374773660335068e-07 0.024635938213204162 0 -2.4579989586664381e-07 0.026517822748478092 0 -0.00019873055859174642 0.02638376239364814 0 -9.6151936969187982e-05 0.025240358244832114 0 -1.8354870947263433e-07 0.022753362614630013 0 -7.1911348862170512e-05 0.022727371026960003 0 -4.5191180677100026e-06 0.021493617665059556 0 -1.8354870947263433e-07 0.022753362614630013 0 -5.3165302071632705e-05 0.023920889740907589 0 -7.1911348862170512e-05 0.022727371026960003 0 -1.5374773660335068e-07 0.024635938213204162 0 -1.8354870947263433e-07 0.022753362614630013 0 -5.3165302071632705e-05 0.023920889740907589 0 -5.3165302071632705e-05 0.023920889740907589 0 -7.1911348862170512e-05 0.022727371026960003 0 -0.00011280625076089819 0.02379641957345115 0 0.00015110657867543887 0.024644337520696797 0 -5.3165302071632705e-05 0.023920889740907589 0 -0.00011280625076089819 0.02379641957345115 0 -7.1911348862170512e-05 0.022727371026960003 0 -9.8966478264807194e-05 0.022835869969253339 0 -0.00011280625076089819 0.02379641957345115 0 -7.1911348862170512e-05 0.022727371026960003 0 -9.8966478264807194e-05 0.022835869969253339 0 -3.3276685870197061e-05 0.022143865112877033 0 0.00020255737036563797 0.02423254114570093 0 0.0013200838389986925 0.02240909454038318 0 -9.8966478264807194e-05 0.022835869969253339 0 -0.00015645287062398562 0.023467078729339359 0 5.8565653585922138e-05 0.022189227623508622 0 0.00084687319762186076 0.025036276762254322 0 0.001522029455066055 0.025478919210424424 0 0.0025347122876818928 0.024547003865114544 0 -9.8966478264807194e-05 0.022835869969253339 0 -0.00015645287062398562 0.023467078729339359 0 -0.00011280625076089819 0.02379641957345115 0 7.1782928970186947e-05 0.024092714119277558 0 -0.00015645287062398562 0.023467078729339359 0 -0.00011280625076089819 0.02379641957345115 0 -0.00084643325109347745 0.025592904245765727 0 0.00084687319762186076 0.025036276762254322 0 0.0001366049800160909 0.026078198061872542 0 2.8964934016743487e-05 0.025829542776194987 0 0.00020255737036563797 0.02423254114570093 0 0.00084687319762186076 0.025036276762254322 0 0.001522029455066055 0.025478919210424424 0 0.00095212447197413604 0.025976069265216995 0 0.00084687319762186076 0.025036276762254322 0 0.0001366049800160909 0.026078198061872542 0 0.00095212447197413604 0.025976069265216995 0 0.001522029455066055 0.025478919210424424 0 0.00095212447197413604 0.025976069265216995 0 0.0017563518757474103 0.026355270481606147 0 0.0011676412055173083 0.020002628018788556 0 0.0011613451144903743 0.020181801256713424 0 0.0013073362191262181 0.019839415793140532 0 0.0013200838389986925 0.02240909454038318 0 0.001608932036082943 0.023115123739592909 0 0.0012646196769064959 0.019996575697528187 0 0.0011676412055173083 0.020002628018788556 0 0.0013073362191262181 0.019839415793140532 0 0.001522029455066055 0.025478919210424424 0 0.0025347122876818928 0.024547003865114544 0 0.0017563518757474103 0.026355270481606147 0 0.0012646196769064959 0.019996575697528187 0 0.0011276525100806392 0.01997040046703755 0 0.0014564395046811182 0.020268486447020898 0 0.0012646196769064959 0.019996575697528187 0 0.0011676412055173083 0.020002628018788556 0 0.0011276525100806392 0.01997040046703755 0 0.0010426185294248576 0.019996469803208589 0 0.00079375489479067236 0.019905518886471064 0 0.00069042723697593374 0.01984059475587846 0 0.0010426185294248576 0.019996469803208589 0 0.0011276525100806392 0.01997040046703755 0 0.00079375489479067236 0.019905518886471064 0 0.0010426185294248576 0.019996469803208589 0 0.0011276525100806392 0.01997040046703755 0 0.0014564395046811182 0.020268486447020898 0 0.0011676412055173083 0.020002628018788556 0 0.0011276525100806392 0.01997040046703755 0 0.0009441671700996557 0.019982124019288876 0 0.0011676412055173083 0.020002628018788556 0 0.0009441671700996557 0.019982124019288876 0 0.0010772231311496337 0.020100295180892559 0 0.0011276525100806392 0.01997040046703755 0 0.0009441671700996557 0.019982124019288876 0 0.00079375489479067236 0.019905518886471064 0 0.0009441671700996557 0.019982124019288876 0 0.00079375489479067236 0.019905518886471064 0 0.00064334596752199853 0.019936805435720177 0 5.8565653585922138e-05 0.022189227623508622 0 7.9275696596781806e-05 0.021274184097552287 0 0.00024141845950592799 0.020065982409624438 0 0.0013200838389986925 0.02240909454038318 0 -2.7192625640687724e-06 0.020029019220532854 0 0.00081185456820335707 0.020046828075109886 0 0.0011613451144903743 0.020181801256713424 0 0.00024141845950592799 0.020065982409624438 0 0.0009441671700996557 0.019982124019288876 0 0.00064334596752199853 0.019936805435720177 0 0.00081185456820335707 0.020046828075109886 0 0.0009441671700996557 0.019982124019288876 0 0.00081185456820335707 0.020046828075109886 0 0.0010772231311496337 0.020100295180892559 0 0.00081185456820335707 0.020046828075109886 0 0.0010772231311496337 0.020100295180892559 0 0.0011613451144903743 0.020181801256713424 0 0.00064334596752199853 0.019936805435720177 0 0.00081185456820335707 0.020046828075109886 0 0.00024141845950592799 0.020065982409624438 0 -9.8966478264807194e-05 0.022835869969253339 0 5.8565653585922138e-05 0.022189227623508622 0 -3.3276685870197061e-05 0.022143865112877033 0 0.0011676412055173083 0.020002628018788556 0 0.0010772231311496337 0.020100295180892559 0 0.0011613451144903743 0.020181801256713424 0 5.8565653585922138e-05 0.022189227623508622 0 -3.3276685870197061e-05 0.022143865112877033 0 7.9275696596781806e-05 0.021274184097552287 0 -7.1911348862170512e-05 0.022727371026960003 0 -3.3276685870197061e-05 0.022143865112877033 0 -4.5191180677100026e-06 0.021493617665059556 0 -3.3276685870197061e-05 0.022143865112877033 0 -4.5191180677100026e-06 0.021493617665059556 0 7.9275696596781806e-05 0.021274184097552287 0 7.9275696596781806e-05 0.021274184097552287 0 8.5596644005212139e-05 0.020273649066846141 0 0.00024141845950592799 0.020065982409624438 0 -4.5191180677100026e-06 0.021493617665059556 0 7.9275696596781806e-05 0.021274184097552287 0 8.5596644005212139e-05 0.020273649066846141 0 8.5596644005212139e-05 0.020273649066846141 0 6.0538700632355551e-08 0.020870919982362873 0 4.459155098636611e-08 0.018988442027109049 0 -4.5191180677100026e-06 0.021493617665059556 0 8.5596644005212139e-05 0.020273649066846141 0 6.0538700632355551e-08 0.020870919982362873 0 -1.8354870947263433e-07 0.022753362614630013 0 -4.5191180677100026e-06 0.021493617665059556 0 6.0538700632355551e-08 0.020870919982362873 0 -1.2613332622769495e-07 0.017106224481184793 0 4.459155098636611e-08 0.018988442027109049 0 1.5084077378757895e-05 0.019039544697520977 0 8.5596644005212139e-05 0.020273649066846141 0 4.459155098636611e-08 0.018988442027109049 0 1.5084077378757895e-05 0.019039544697520977 0 8.5596644005212139e-05 0.020273649066846141 0 0.00024141845950592799 0.020065982409624438 0 1.5084077378757895e-05 0.019039544697520977 0 0.00024141845950592799 0.020065982409624438 0 1.5084077378757895e-05 0.019039544697520977 0 0.00012591972725316985 0.019435130564645541 0 0.00011826766828175898 0.018852448877750377 0 1.5084077378757895e-05 0.019039544697520977 0 0.00012591972725316985 0.019435130564645541 0 0.00024141845950592799 0.020065982409624438 0 0.00012591972725316985 0.019435130564645541 0 0.00038851721288766074 0.019729383695137152 0 0.00064334596752199853 0.019936805435720177 0 0.00024141845950592799 0.020065982409624438 0 0.00038851721288766074 0.019729383695137152 0 0.00079375489479067236 0.019905518886471064 0 0.00038851721288766074 0.019729383695137152 0 0.00069042723697593374 0.01984059475587846 0 0.00079375489479067236 0.019905518886471064 0 0.00064334596752199853 0.019936805435720177 0 0.00038851721288766074 0.019729383695137152 0 0.00038851721288766074 0.019729383695137152 0 0.00046604208141006555 0.01973183447875524 0 0.00029965961308213359 0.019619639095415305 0 0.00046604208141006555 0.01973183447875524 0 0.00029965961308213359 0.019619639095415305 0 0.00054254995640148625 0.019726108161480623 0 0.00046604208141006555 0.01973183447875524 0 0.00069042723697593374 0.01984059475587846 0 0.00054254995640148625 0.019726108161480623 0 0.00038851721288766074 0.019729383695137152 0 0.00046604208141006555 0.01973183447875524 0 0.00069042723697593374 0.01984059475587846 0 0.00012591972725316985 0.019435130564645541 0 0.00038851721288766074 0.019729383695137152 0 0.00029965961308213359 0.019619639095415305 0 0.00020770839452680304 0.01937720533877892 0 0.00012591972725316985 0.019435130564645541 0 0.00029965961308213359 0.019619639095415305 0 0.00020770839452680304 0.01937720533877892 0 0.00029965961308213359 0.019619639095415305 0 0.00027221309410841924 0.019558163664977146 0 0.00029965961308213359 0.019619639095415305 0 0.00027221309410841924 0.019558163664977146 0 0.00036178223085746845 0.019623426466581589 0 0.00031234058624657937 0.019583143841193626 0 0.00027221309410841924 0.019558163664977146 0 0.00036178223085746845 0.019623426466581589 0 0.00029965961308213359 0.019619639095415305 0 0.00036178223085746845 0.019623426466581589 0 0.00054254995640148625 0.019726108161480623 0 0.00036178223085746845 0.019623426466581589 0 0.00045164346296603655 0.019580662195673417 0 0.00054254995640148625 0.019726108161480623 0 0.00036178223085746845 0.019623426466581589 0 0.00035988677247871155 0.019552843713346008 0 0.00045164346296603655 0.019580662195673417 0 0.00031234058624657937 0.019583143841193626 0 0.00036178223085746845 0.019623426466581589 0 0.00035988677247871155 0.019552843713346008 0 0.00030024923189599177 0.019551946737332015 0 0.00035988677247871155 0.019552843713346008 0 0.00036802765059882627 0.01945846753010869 0 0.00035988677247871155 0.019552843713346008 0 0.00045164346296603655 0.019580662195673417 0 0.00043017543307064714 0.01950023832760369 0 0.00043017543307064714 0.01950023832760369 0 0.00036802765059882627 0.01945846753010869 0 0.00044705417854942173 0.019429702829500031 0 0.00035988677247871155 0.019552843713346008 0 0.00043017543307064714 0.01950023832760369 0 0.00036802765059882627 0.01945846753010869 0 0.00063267723356160571 0.019331567940697493 0 0.00072652408656819444 0.01966583151358945 0 0.0011709452535013218 0.019708120921922766 0 0.00043017543307064714 0.01950023832760369 0 0.00053909638618613274 0.019475026331480353 0 0.00044705417854942173 0.019429702829500031 0 0.0008811733889688302 0.019655062001833031 0 0.0033266484331331858 0.021635550611910741 0 0.00045164346296603655 0.019580662195673417 0 0.00043017543307064714 0.01950023832760369 0 0.00053909638618613274 0.019475026331480353 0 0.00045164346296603655 0.019580662195673417 0 0.00063267723356160571 0.019331567940697493 0 0.00072652408656819444 0.01966583151358945 0 0.00072652408656819444 0.01966583151358945 0 0.00054254995640148625 0.019726108161480623 0 0.0009115411474715238 0.019878173105278625 0 0.00045164346296603655 0.019580662195673417 0 0.00072652408656819444 0.01966583151358945 0 0.00054254995640148625 0.019726108161480623 0 0.00069042723697593374 0.01984059475587846 0 0.00054254995640148625 0.019726108161480623 0 0.0009115411474715238 0.019878173105278625 0 0.0010426185294248576 0.019996469803208589 0 0.00069042723697593374 0.01984059475587846 0 0.0009115411474715238 0.019878173105278625 0 0.0009115411474715238 0.019878173105278625 0 0.0014564395046811182 0.020268486447020898 0 0.0011709452535013218 0.019708120921922766 0 0.0010426185294248576 0.019996469803208589 0 0.0009115411474715238 0.019878173105278625 0 0.0014564395046811182 0.020268486447020898 0 0.00072652408656819444 0.01966583151358945 0 0.0009115411474715238 0.019878173105278625 0 0.0011709452535013218 0.019708120921922766 0 0.0014564395046811182 0.020268486447020898 0 0.001727035083726712 0.021230910662772974 0 0.0011709452535013218 0.019708120921922766 0 0.0013073362191262181 0.019839415793140532 0 0.0014564395046811182 0.020268486447020898 0 0.001727035083726712 0.021230910662772974 0 0.0012646196769064959 0.019996575697528187 0 0.0013073362191262181 0.019839415793140532 0 0.0014564395046811182 0.020268486447020898 0 0.0017329127892086482 0.021068872146360978 0 0.0036986555120090111 0.021624981959335005 0 0.001727035083726712 0.021230910662772974 0 0.0031457574715773166 0.025007398295018718 0 0.0057975529697877563 0.023202836830735814 0 0.0033266484331331858 0.021635550611910741 0 0.0036986555120090111 0.021624981959335005 0 0.009209916342298367 0.024884926627941482 0 0.0057975529697877563 0.023202836830735814 0 0.0059767779524824323 0.025632241638306349 0 0.0031457574715773166 0.025007398295018718 0 0.0057975529697877563 0.023202836830735814 0 0.0059767779524824323 0.025632241638306349 0 0.0059767779524824323 0.025632241638306349 0 0.0042574351152149022 0.027829615740420643 0 0.0082134315792196603 0.026536115097418909 0 0.0051217105357532237 0.028267938087199535 0 0.0051365123316902215 0.022691899113064927 0 0.001791940389600706 0.02779520427554023 0 0.0031457574715773166 0.025007398295018718 0 0.0042574351152149022 0.027829615740420643 0 0.0031457574715773166 0.025007398295018718 0 0.0059767779524824323 0.025632241638306349 0 0.0042574351152149022 0.027829615740420643 0 0.001791940389600706 0.02779520427554023 0 0.0042574351152149022 0.027829615740420643 0 0.0030199093607034782 0.029751394077232592 0 0.0042574351152149022 0.027829615740420643 0 0.0030199093607034782 0.029751394077232592 0 0.0053928596736939026 0.029486821197995818 0 0.0019170324007488383 0.016541271193679687 0 0.0018327253501152772 0.016536167788652675 0 0.0018656323250547857 0.016683495168088126 0 0.0042574351152149022 0.027829615740420643 0 0.0053928596736939026 0.029486821197995818 0 0.0069686669025803213 0.026906010030150276 0 0.0036601932119894325 0.02281284601459414 0 0.0051365123316902215 0.022691899113064927 0 0.0018327253501152772 0.016536167788652675 0 0.0017395513853596908 0.016461135434402155 0 0.0017695405705527405 0.016611146331210757 0 0.0017395513853596908 0.016461135434402155 0 0.001625406393629663 0.016427823215902294 0 0.0016747869271090037 0.016346095411824395 0 0.0017395513853596908 0.016461135434402155 0 0.001625406393629663 0.016427823215902294 0 0.0016451032246556064 0.016531365402013352 0 0.001517252955757132 0.016454900288093308 0 0.001625406393629663 0.016427823215902294 0 0.0016451032246556064 0.016531365402013352 0 0.0017395513853596908 0.016461135434402155 0 0.0016451032246556064 0.016531365402013352 0 0.0017695405705527405 0.016611146331210757 0 0.0014036994885878163 0.016532566921012331 0 0.0016451032246556064 0.016531365402013352 0 0.0016869895015854991 0.016691136906063136 0 0.0010117645977101772 0.017092703887867485 0 0.0018259978513896742 0.016495515248164311 0 0.0016451032246556064 0.016531365402013352 0 0.0016869895015854991 0.016691136906063136 0 0.0017695405705527405 0.016611146331210757 0 0.00041644259878904363 0.016101924572373468 0 0.00037060635469699193 0.016093990778447424 0 0.00035105345807137482 0.016114589964894236 0 0.00033388126645378239 0.017472118068985541 0 0.0010117645977101772 0.017092703887867485 0 0.00033388126645378239 0.017472118068985541 0 0.0013220302545376083 0.018682467438114955 0 0.00084835462920116388 0.017979279170159391 0 0.00090675828880142919 0.017926349823159528 0 0.00095336243647326966 0.017949692233133654 0 0.0016605067765052954 0.016719485441160947 0 0.001708403646064573 0.01674144115617477 0 0.0017695405705527405 0.016611146331210757 0 0.0010117645977101772 0.017092703887867485 0 0.0013220302545376083 0.018682467438114955 0 0.003348470786426009 0.021403739044399451 0 0.0024715498830159281 0.020979775941419684 0 0.0038833075079192651 0.020551188027921424 0 0.009209916342298367 0.024884926627941482 0 0.0059767779524824323 0.025632241638306349 0 0.0082134315792196603 0.026536115097418909 0 0.0013220302545376083 0.018682467438114955 0 0.0051365123316902215 0.022691899113064927 0 0.0033266484331331858 0.021635550611910741 0 0.0013220302545376083 0.018682467438114955 0 0.0033266484331331858 0.021635550611910741 0 0.0051365123316902215 0.022691899113064927 0 0.0018327253501152772 0.016536167788652675 0 0.0018656323250547857 0.016683495168088126 0 0.0017695405705527405 0.016611146331210757 0 0.001708403646064573 0.01674144115617477 0 0.0018656323250547857 0.016683495168088126 0 0.0017695405705527405 0.016611146331210757 0 0.0018157283912609069 0.016383316827107825 0 0.0018962488260829077 0.016306124491412475 0 0.0017291044493457446 0.016226568665216934 0 0.0017107109298816305 0.016309388200337817 0 0.0018157283912609069 0.016383316827107825 0 0.0017291044493457446 0.016226568665216934 0 0.0016445312506660611 0.016270940004403329 0 0.0017107109298816305 0.016309388200337817 0 0.0016747869271090037 0.016346095411824395 0 0.0016445312506660611 0.016270940004403329 0 0.0017107109298816305 0.016309388200337817 0 0.0017291044493457446 0.016226568665216934 0 0.0017107109298816305 0.016309388200337817 0 0.0016747869271090037 0.016346095411824395 0 0.0018157283912609069 0.016383316827107825 0 0.0017395513853596908 0.016461135434402155 0 0.0016747869271090037 0.016346095411824395 0 0.0018157283912609069 0.016383316827107825 0 0.0018327253501152772 0.016536167788652675 0 0.0017395513853596908 0.016461135434402155 0 0.0018157283912609069 0.016383316827107825 0 0.0019170324007488383 0.016541271193679687 0 0.0018327253501152772 0.016536167788652675 0 0.0018157283912609069 0.016383316827107825 0 0.0036601932119894325 0.02281284601459414 0 0.0026056593455443919 0.024497923038163796 0 0.0019170324007488383 0.016541271193679687 0 0.0018157283912609069 0.016383316827107825 0 0.0019719093507759018 0.016467804300693403 0 0.0030199093607034782 0.029751394077232592 0 0.0036714833484894267 0.031775371449013205 0 0.001479274163391227 0.030948819471140004 0 0.0030199093607034782 0.029751394077232592 0 0.0053928596736939026 0.029486821197995818 0 0.0036714833484894267 0.031775371449013205 0 0.0019719093507759018 0.016467804300693403 0 0.0018962488260829077 0.016306124491412475 0 0.0020420685338322646 0.016412645148869535 0 0.0026056593455443919 0.024497923038163796 0 0.003316990767455326 0.023152667115883402 0 0.0036714833484894267 0.031775371449013205 0 0.0023311392554116574 0.033572228914283582 0 0.0018190214545260896 0.032422396499133969 0 0.0018157283912609069 0.016383316827107825 0 0.0019719093507759018 0.016467804300693403 0 0.0018962488260829077 0.016306124491412475 0 0.0057113265577488316 0.017835702761386275 0 0.0059206112708470107 0.017282549456244262 0 0.0051580956946255738 0.017393828863831923 0 0.0057113265577488316 0.017835702761386275 0 0.0059206112708470107 0.017282549456244262 0 0.0067099387431220417 0.017995785953415232 0 0.0039761985558633113 0.016333020799648858 0 0.003316990767455326 0.023152667115883402 0 0.0059206112708470107 0.017282549456244262 0 0.0067099387431220417 0.017995785953415232 0 0.0068018254564751737 0.017848291505750385 0 0.0066639003507501706 0.016535486789401248 0 0.0045670279338991026 0.023558013706615779 0 0.0078211291781206081 0.016778482339757317 0 0.0067133271497590947 0.017278283810475619 0 0.0066613483652450158 0.016134749541285003 0 0.0078211291781206081 0.016778482339757317 0 0.0067133271497590947 0.017278283810475619 0 0.0081277361974740562 0.017925436083017113 0 0.0067133271497590947 0.017278283810475619 0 0.0048843588532096775 0.016538670286354168 0 0.0066613483652450158 0.016134749541285003 0 0.0059206112708470107 0.017282549456244262 0 0.005167333316773221 0.017085385937429528 0 0.0051580956946255738 0.017393828863831923 0 0.0066639003507501706 0.016535486789401248 0 0.0048465032828866857 0.016754721766323765 0 0.0059206112708470107 0.017282549456244262 0 0.005167333316773221 0.017085385937429528 0 0.0048843588532096775 0.016538670286354168 0 0.005167333316773221 0.017085385937429528 0 0.0046488502415449389 0.017149274467346189 0 0.0048843588532096775 0.016538670286354168 0 0.005167333316773221 0.017085385937429528 0 0.0051580956946255738 0.017393828863831923 0 0.0046488502415449389 0.017149274467346189 0 0.0057113265577488316 0.017835702761386275 0 0.0051580956946255738 0.017393828863831923 0 0.0044007051612023835 0.01779163769272785 0 0.0039761985558633113 0.016333020799648858 0 0.0030237293043878437 0.017099129295333096 0 0.0051580956946255738 0.017393828863831923 0 0.0044007051612023835 0.01779163769272785 0 0.0046488502415449389 0.017149274467346189 0 0.0044007051612023835 0.01779163769272785 0 0.0046488502415449389 0.017149274467346189 0 0.0039990149869784837 0.016805075581429865 0 0.0046488502415449389 0.017149274467346189 0 0.0039990149869784837 0.016805075581429865 0 0.0048843588532096775 0.016538670286354168 0 0.0033210355983102741 0.016258977560343241 0 0.0051025840516370291 0.016240613561763168 0 0.0045439062928761074 0.015625385641957281 0 0.00321530158274505 0.016183326795062479 0 0.0049162530364872678 0.016179693603683681 0 0.0031128794594719221 0.016112164558767409 0 0.0039990149869784837 0.016805075581429865 0 0.0046889532602296061 0.016128620921429582 0 0.0039990149869784837 0.016805075581429865 0 0.0046889532602296061 0.016128620921429582 0 0.0048843588532096775 0.016538670286354168 0 0.0051025840516370291 0.016240613561763168 0 0.0045439062928761074 0.015625385641957281 0 0.005322500090540582 0.015507820666712045 0 0.0049162530364872678 0.016179693603683681 0 0.0065519881177288561 0.016141286530357388 0 0.0046889532602296061 0.016128620921429582 0 0.0048843588532096775 0.016538670286354168 0 0.0066613483652450158 0.016134749541285003 0 0.0051025840516370291 0.016240613561763168 0 0.0059550122298264174 0.015655513285897274 0 0.0066613483652450158 0.016134749541285003 0 0.0051025840516370291 0.016240613561763168 0 0.0059550122298264174 0.015655513285897274 0 0.005322500090540582 0.015507820666712045 0 0.0059550122298264174 0.015655513285897274 0 0.005322500090540582 0.015507820666712045 0 0.0058984501692333473 0.014936162395810741 0 0.005322500090540582 0.015507820666712045 0 0.0058984501692333473 0.014936162395810741 0 0.0049211325560313207 0.014971846295854787 0 0.0037984747845535155 0.015130701156985688 0 0.0049211325560313207 0.014971846295854787 0 0.0043500492188468234 0.014269765839517765 0 0.0037984747845535155 0.015130701156985688 0 0.0045439062928761074 0.015625385641957281 0 0.0049211325560313207 0.014971846295854787 0 0.0045439062928761074 0.015625385641957281 0 0.005322500090540582 0.015507820666712045 0 0.0049211325560313207 0.014971846295854787 0 0.0043500492188468234 0.014269765839517765 0 0.0052040782479607153 0.014020093207761288 0 0.0042362677423904739 0.012949620423154434 0 0.0049211325560313207 0.014971846295854787 0 0.0043500492188468234 0.014269765839517765 0 0.0052040782479607153 0.014020093207761288 0 0.0058984501692333473 0.014936162395810741 0 0.0049211325560313207 0.014971846295854787 0 0.0052040782479607153 0.014020093207761288 0 0.0058984501692333473 0.014936162395810741 0 0.0061520369893370971 0.01406034205546788 0 0.0052040782479607153 0.014020093207761288 0 0.0061520369893370971 0.01406034205546788 0 0.0052040782479607153 0.014020093207761288 0 0.0058584388796562433 0.013245735857514929 0 0.0052040782479607153 0.014020093207761288 0 0.0058584388796562433 0.013245735857514929 0 0.0042362677423904739 0.012949620423154434 0 0.0058584388796562433 0.013245735857514929 0 0.0042362677423904739 0.012949620423154434 0 0.0051812062712082293 0.012033848185210786 0 0.0078150062521442198 0.013904391948463274 0 0.0074509901990492513 0.013236374462430497 0 0.0069139080826654733 0.013520868498413002 0 0.0078150062521442198 0.013904391948463274 0 0.0069139080826654733 0.013520868498413002 0 0.0075084815731564182 0.014375829374101097 0 0.0078150062521442198 0.013904391948463274 0 0.0074509901990492513 0.013236374462430497 0 0.0079802557890316754 0.012920102162467011 0 0.0078150062521442198 0.013904391948463274 0 0.0084374840769699862 0.014013611429385078 0 0.0079802557890316754 0.012920102162467011 0 0.0074509901990492513 0.013236374462430497 0 0.0069139080826654733 0.013520868498413002 0 0.0069818436422670127 0.012434040583771885 0 0.0061520369893370971 0.01406034205546788 0 0.0058584388796562433 0.013245735857514929 0 0.0069139080826654733 0.013520868498413002 0 0.0058584388796562433 0.013245735857514929 0 0.0069139080826654733 0.013520868498413002 0 0.006124028778645315 0.012404587884176555 0 0.0069139080826654733 0.013520868498413002 0 0.0068473926723408348 0.014574992713155465 0 0.0075084815731564182 0.014375829374101097 0 0.0061520369893370971 0.01406034205546788 0 0.0069139080826654733 0.013520868498413002 0 0.0068473926723408348 0.014574992713155465 0 0.0058984501692333473 0.014936162395810741 0 0.0061520369893370971 0.01406034205546788 0 0.0068473926723408348 0.014574992713155465 0 0.0068473926723408348 0.014574992713155465 0 0.0075084815731564182 0.014375829374101097 0 0.0077511097606778635 0.015128384376712854 0 0.0078150062521442198 0.013904391948463274 0 0.0075084815731564182 0.014375829374101097 0 0.0081101324954608398 0.014670321881695777 0 0.0075084815731564182 0.014375829374101097 0 0.0081101324954608398 0.014670321881695777 0 0.0077511097606778635 0.015128384376712854 0 0.0077511097606778635 0.015128384376712854 0 0.0075265706640848294 0.015795836993624187 0 0.0085714107919619593 0.015661576413404925 0 0.0077511097606778635 0.015128384376712854 0 0.0067732749745741793 0.015334745836535697 0 0.0075265706640848294 0.015795836993624187 0 0.0068473926723408348 0.014574992713155465 0 0.0077511097606778635 0.015128384376712854 0 0.0067732749745741793 0.015334745836535697 0 0.0058984501692333473 0.014936162395810741 0 0.0068473926723408348 0.014574992713155465 0 0.0067732749745741793 0.015334745836535697 0 0.0059550122298264174 0.015655513285897274 0 0.0058984501692333473 0.014936162395810741 0 0.0067732749745741793 0.015334745836535697 0 0.0059550122298264174 0.015655513285897274 0 0.0067732749745741793 0.015334745836535697 0 0.0066613483652450158 0.016134749541285003 0 0.0067732749745741793 0.015334745836535697 0 0.0066613483652450158 0.016134749541285003 0 0.0075265706640848294 0.015795836993624187 0 0.0078211291781206081 0.016778482339757317 0 0.0066613483652450158 0.016134749541285003 0 0.0075265706640848294 0.015795836993624187 0 0.0078211291781206081 0.016778482339757317 0 0.0075265706640848294 0.015795836993624187 0 0.0085714107919619593 0.015661576413404925 0 0.0078211291781206081 0.016778482339757317 0 0.0085714107919619593 0.015661576413404925 0 0.0088261382143998545 0.01645424818700246 0 0.0085714107919619593 0.015661576413404925 0 0.0086189869511389336 0.015032457777755769 0 0.0088261382143998545 0.01645424818700246 0 -0.0005434223445769605 0.032185850875718819 0 -0.0006359796570958615 0.032185125875243331 0 -0.00032706672316458647 0.032063781105499872 0 0.0040305053332267008 0.023631508154997871 0 0.0040669439775951385 0.024532941756281006 0 0.0085714107919619593 0.015661576413404925 0 0.0086189869511389336 0.015032457777755769 0 0.0092006034890754207 0.015177827791594378 0 0.0077511097606778635 0.015128384376712854 0 0.0085714107919619593 0.015661576413404925 0 0.0085023290386859844 0.01508676814755389 0 0.0085714107919619593 0.015661576413404925 0 0.0092006034890754207 0.015177827791594378 0 0.0085023290386859844 0.01508676814755389 0 0.0081101324954608398 0.014670321881695777 0 0.0077511097606778635 0.015128384376712854 0 0.0085023290386859844 0.01508676814755389 0 0.0081101324954608398 0.014670321881695777 0 0.0085023290386859844 0.01508676814755389 0 0.0088021559397740423 0.014802614461369172 0 0.0078150062521442198 0.013904391948463274 0 0.0081101324954608398 0.014670321881695777 0 0.0084374840769699862 0.014013611429385078 0 0.0081101324954608398 0.014670321881695777 0 0.0088021559397740423 0.014802614461369172 0 0.0084374840769699862 0.014013611429385078 0 0.0092006034890754207 0.015177827791594378 0 0.0085023290386859844 0.01508676814755389 0 0.0088021559397740423 0.014802614461369172 0 0.0092926100084275657 0.015309707830296925 0 0.0088488396343271384 0.017455713663904866 0 0.0092006034890754207 0.015177827791594378 0 0.0096394348184195237 0.015136653232931447 0 0.0097386899549328689 0.015518120272162652 0 0.0092006034890754207 0.015177827791594378 0 0.0092109902108503498 0.014927647954550011 0 0.0096394348184195237 0.015136653232931447 0 0.0092006034890754207 0.015177827791594378 0 0.0088021559397740423 0.014802614461369172 0 0.0092109902108503498 0.014927647954550011 0 0.0088021559397740423 0.014802614461369172 0 0.0092109902108503498 0.014927647954550011 0 0.0090828239606897485 0.014261254963546535 0 0.0098150266966048564 0.015225815947530533 0 0.010260145756207165 0.015915166019281949 0 0.0096394348184195237 0.015136653232931447 0 0.0097386899549328689 0.015518120272162652 0 0.010910389271471217 0.019073875515609153 0 0.0092109902108503498 0.014927647954550011 0 0.0090828239606897485 0.014261254963546535 0 0.0096394348184195237 0.015136653232931447 0 0.0090828239606897485 0.014261254963546535 0 0.0096394348184195237 0.015136653232931447 0 0.0098843204635232964 0.012505505298071311 0 0.0090828239606897485 0.014261254963546535 0 0.0084374840769699862 0.014013611429385078 0 0.0088618139671043719 0.013190699380355322 0 0.0084374840769699862 0.014013611429385078 0 0.0088618139671043719 0.013190699380355322 0 0.0079802557890316754 0.012920102162467011 0 0.0088021559397740423 0.014802614461369172 0 0.0090828239606897485 0.014261254963546535 0 0.0084374840769699862 0.014013611429385078 0 0.0027640984071636045 0.024865088626615347 0 0.001218129983106573 0.026948272754471238 0 -0.00090166396833729569 0.032239748808309744 0 -0.00074086499210234899 0.03221872655252192 0 -0.00097045519830250013 0.032261789696306949 0 0.0081689022725020734 0.01932454343038929 0 0.0062801015565377028 0.017414243214267138 0 0.0033919956790528119 0.021654937016428507 0 0.0092006034890754207 0.015177827791594378 0 0.0081689022725020734 0.01932454343038929 0 0.0062801015565377028 0.017414243214267138 0 0.0040305053332267008 0.023631508154997871 0 0.0027640984071636045 0.024865088626615347 0 -0.00074086499210234899 0.03221872655252192 0 -0.00083239809182497518 0.0322249244589667 0 -0.00074033284283498639 0.032214322518938306 0 -0.00090166396833729569 0.032239748808309744 0 -0.00074086499210234899 0.03221872655252192 0 -0.00083239809182497518 0.0322249244589667 0 -0.00083239809182497518 0.0322249244589667 0 -0.00074033284283498639 0.032214322518938306 0 -0.00084753135846109056 0.032233434756315835 0 -0.0005434223445769605 0.032185850875718819 0 -0.00074033284283498639 0.032214322518938306 0 -0.0006359796570958615 0.032185125875243331 0 0.0086189869511389336 0.015032457777755769 0 0.0092006034890754207 0.015177827791594378 0 0.0062801015565377028 0.017414243214267138 0 -0.0005434223445769605 0.032185850875718819 0 -0.00074086499210234899 0.03221872655252192 0 -0.00074033284283498639 0.032214322518938306 0 -0.0006359796570958615 0.032185125875243331 0 -0.00071382804279818189 0.032213651824338253 0 -0.00074683849394003481 0.032320839671386825 0 -0.00074033284283498639 0.032214322518938306 0 -0.0006359796570958615 0.032185125875243331 0 -0.00074683849394003481 0.032320839671386825 0 -0.00071382804279818189 0.032213651824338253 0 -0.00065316306860845421 0.032069518294066839 0 -0.0005601589723184888 0.032063206718034809 0 -0.0006359796570958615 0.032185125875243331 0 -0.00071382804279818189 0.032213651824338253 0 -0.0005601589723184888 0.032063206718034809 0 -0.00052968337257695884 0.03264237181948005 0 -0.00026811034948554137 0.032822489556468278 0 -0.00065316306860845421 0.032069518294066839 0 -0.0006270454413729935 0.031913007102021516 0 -0.00077118572430637385 0.032157928033079881 0 -0.00071382804279818189 0.032213651824338253 0 -0.00065316306860845421 0.032069518294066839 0 -0.00077118572430637385 0.032157928033079881 0 -0.00065316306860845421 0.032069518294066839 0 -0.00056170887418725639 0.03197205338735773 0 -0.0006270454413729935 0.031913007102021516 0 -0.00046972554445223074 0.031939409411272185 0 -0.0005601589723184888 0.032063206718034809 0 -0.00037748064260909926 0.031945406787656262 0 -0.00046585261414433499 0.031850611345271972 0 -0.00056170887418725639 0.03197205338735773 0 -0.0006270454413729935 0.031913007102021516 0 -0.00046585261414433499 0.031850611345271972 0 -0.00056170887418725639 0.03197205338735773 0 -0.00046972554445223074 0.031939409411272185 0 -0.00065316306860845421 0.032069518294066839 0 -0.00056170887418725639 0.03197205338735773 0 -0.0005601589723184888 0.032063206718034809 0 -0.00056170887418725639 0.03197205338735773 0 -0.00046972554445223074 0.031939409411272185 0 -0.0005601589723184888 0.032063206718034809 0 -0.0006359796570958615 0.032185125875243331 0 -0.0005601589723184888 0.032063206718034809 0 -0.00032706672316458647 0.032063781105499872 0 -0.0005601589723184888 0.032063206718034809 0 -0.00032706672316458647 0.032063781105499872 0 -0.00037748064260909926 0.031945406787656262 0 0.0040669439775951385 0.024532941756281006 0 0.0045670279338991026 0.023558013706615779 0 0.0078211291781206081 0.016778482339757317 0 0.0088261382143998545 0.01645424818700246 0 0.0081277361974740562 0.017925436083017113 0 -0.00032706672316458647 0.032063781105499872 0 -0.00010631053543821065 0.031808522519964036 0 -0.00037748064260909926 0.031945406787656262 0 -0.00025362972562507604 0.031783511160553592 0 -0.00010631053543821065 0.031808522519964036 0 -0.00037748064260909926 0.031945406787656262 0 0.0012266409425900518 0.030326532156996065 0 0.0045670279338991026 0.023558013706615779 0 0.0012266409425900518 0.030326532156996065 0 0.003316990767455326 0.023152667115883402 0 0.0024189845226789556 0.026088491206193894 0 0.0033821878731508247 0.026148606325869159 0 0.0032033283011869162 0.026442149078543205 0 0.003316990767455326 0.023152667115883402 0 0.0045670279338991026 0.023558013706615779 0 -0.0007215500697969106 0.032445523215018084 0 0.0012266409425900518 0.030326532156996065 0 -0.00046585261414433499 0.031850611345271972 0 -0.00025362972562507604 0.031783511160553592 0 -0.00039297490705566228 0.031880541807904679 0 -0.00046972554445223074 0.031939409411272185 0 -0.00037748064260909926 0.031945406787656262 0 -0.00039297490705566228 0.031880541807904679 0 -0.00025362972562507604 0.031783511160553592 0 -0.00037748064260909926 0.031945406787656262 0 -0.00039297490705566228 0.031880541807904679 0 -0.00046585261414433499 0.031850611345271972 0 -0.00046972554445223074 0.031939409411272185 0 -0.00039297490705566228 0.031880541807904679 0 -0.00049686421540090986 0.033073885168539555 0 0.00077880344748128456 0.033151298802754831 0 -0.00037049275143177091 0.032628123678006105 0 0.0012266409425900518 0.030326532156996065 0 7.3500305683054686e-05 0.032887177194572258 0 0.0010389774188190421 0.033415732664571776 0 -0.00037049275143177091 0.032628123678006105 0 0.00071145044573168482 0.032318871309011565 0 0.00071145044573168482 0.032318871309011565 0 -0.00028216722796523664 0.032072650642727317 0 0.001479274163391227 0.030948819471140004 0 -0.00037049275143177091 0.032628123678006105 0 0.00071145044573168482 0.032318871309011565 0 -0.00028216722796523664 0.032072650642727317 0 0.0010389774188190421 0.033415732664571776 0 0.0023311392554116574 0.033572228914283582 0 0.0018190214545260896 0.032422396499133969 0 0.0010389774188190421 0.033415732664571776 0 0.00071145044573168482 0.032318871309011565 0 0.0018190214545260896 0.032422396499133969 0 0.00071145044573168482 0.032318871309011565 0 0.0018190214545260896 0.032422396499133969 0 0.001479274163391227 0.030948819471140004 0 0.0036714833484894267 0.031775371449013205 0 0.0018190214545260896 0.032422396499133969 0 0.001479274163391227 0.030948819471140004 0 0.0012844262383406716 0.029617176314982892 0 0.001479274163391227 0.030948819471140004 0 0.00017246729482806326 0.030604625329028072 0 -0.00024221430429030027 0.03189093359676623 0 0.001414178501139564 0.030995559013608037 0 -5.4421741558310871e-05 0.031699929078987714 0 0.001479274163391227 0.030948819471140004 0 0.00026582907662560406 0.031100889731809717 0 -5.4421741558310871e-05 0.031699929078987714 0 0.00026582907662560406 0.031100889731809717 0 -0.00022482334368051186 0.031216386002694885 0 0.001479274163391227 0.030948819471140004 0 0.00026582907662560406 0.031100889731809717 0 0.00017246729482806326 0.030604625329028072 0 0.00026582907662560406 0.031100889731809717 0 0.00017246729482806326 0.030604625329028072 0 -0.00022482334368051186 0.031216386002694885 0 -0.00035322077179744888 0.030437281053365555 0 0.00017246729482806326 0.030604625329028072 0 -0.00022482334368051186 0.031216386002694885 0 -5.4421741558310871e-05 0.031699929078987714 0 -0.00056744969855161839 0.031492122095432687 0 -0.00022482334368051186 0.031216386002694885 0 -0.00035322077179744888 0.030437281053365555 0 -0.00056744969855161839 0.031492122095432687 0 -0.00022482334368051186 0.031216386002694885 0 -0.00056744969855161839 0.031492122095432687 0 -0.00080193506582328686 0.031953847119591323 0 -0.00093219806285273785 0.031899774110402582 0 -0.00062201201751105491 0.031147893809940572 0 -0.00056744969855161839 0.031492122095432687 0 -0.00093219806285273785 0.031899774110402582 0 -0.00052968337257695884 0.03264237181948005 0 -0.00043273171770971973 0.032772414893309364 0 -0.00056744969855161839 0.031492122095432687 0 -0.00080193506582328686 0.031953847119591323 0 -0.0006149727940179963 0.032122937668879123 0 -0.00080193506582328686 0.031953847119591323 0 -0.0006149727940179963 0.032122937668879123 0 -0.00097567156892920345 0.032264502113934709 0 -0.00037049275143177091 0.032628123678006105 0 -0.00028216722796523664 0.032072650642727317 0 -0.0018071225821920259 0.032963960791609188 0 -0.0007215500697969106 0.032445523215018084 0 -0.00052968337257695884 0.03264237181948005 0 -5.4421741558310871e-05 0.031699929078987714 0 -0.00056744969855161839 0.031492122095432687 0 -0.0006149727940179963 0.032122937668879123 0 -0.00024221430429030027 0.03189093359676623 0 -0.00052968337257695884 0.03264237181948005 0 -0.00049686421540090986 0.033073885168539555 0 -0.00037049275143177091 0.032628123678006105 0 -0.0018071225821920259 0.032963960791609188 0 -0.00043273171770971973 0.032772414893309364 0 -0.00084367899766728369 0.032978744942619771 0 -0.00097567156892920345 0.032264502113934709 0 -0.00095658688519833493 0.032378930722826681 0 -0.00076687608733250158 0.033056279057195416 0 -6.176809171516199e-05 0.033199959252138492 0 -0.00076687608733250158 0.033056279057195416 0 -0.00041829637726021631 0.033487292385565949 0 -0.00097567156892920345 0.032264502113934709 0 -0.00093219806285273785 0.031899774110402582 0 -0.00095658688519833493 0.032378930722826681 0 -0.00080193506582328686 0.031953847119591323 0 -0.00097567156892920345 0.032264502113934709 0 -0.00093219806285273785 0.031899774110402582 0 -0.0012996184205225801 0.031640006773002972 0 -0.00093219806285273785 0.031899774110402582 0 -0.00095658688519833493 0.032378930722826681 0 -0.0012996184205225801 0.031640006773002972 0 -0.00095658688519833493 0.032378930722826681 0 -0.00090495137715839087 0.032588882338114439 0 -0.00095658688519833493 0.032378930722826681 0 -0.00090495137715839087 0.032588882338114439 0 -0.00076687608733250158 0.033056279057195416 0 -0.00077391200670618983 0.033022816731938201 0 -0.00090495137715839087 0.032588882338114439 0 -0.00080575194582427876 0.033556315747966428 0 -0.00090495137715839087 0.032588882338114439 0 -0.00076687608733250158 0.033056279057195416 0 -0.00080575194582427876 0.033556315747966428 0 -0.00076687608733250158 0.033056279057195416 0 -0.00080655076053483591 0.033721613808891 0 -0.00080575194582427876 0.033556315747966428 0 -0.00076687608733250158 0.033056279057195416 0 -0.00080655076053483591 0.033721613808891 0 -0.00041829637726021631 0.033487292385565949 0 -0.00080655076053483591 0.033721613808891 0 -0.00048443085403435175 0.033840981002101526 0 -0.00041829637726021631 0.033487292385565949 0 -0.00080655076053483591 0.033721613808891 0 -0.00081364388169543895 0.034027667407680158 0 -0.00083558969126340218 0.034040762464883419 0 -0.00080655076053483591 0.033721613808891 0 -0.00048443085403435175 0.033840981002101526 0 -0.00081364388169543895 0.034027667407680158 0 -0.00067659558180246525 0.033193864023422982 0 -0.00087032217835562213 0.03356106100117142 0 -0.00067659558180246525 0.033193864023422982 0 -0.00026811034948554137 0.032822489556468278 0 -6.176809171516199e-05 0.033199959252138492 0 -0.00041829637726021631 0.033487292385565949 0 2.8629002793335875e-05 0.033546849851713252 0 -0.00048443085403435175 0.033840981002101526 0 -0.00041829637726021631 0.033487292385565949 0 2.8629002793335875e-05 0.033546849851713252 0 0.00050213454366885527 0.033257585993308553 0 -6.176809171516199e-05 0.033199959252138492 0 2.8629002793335875e-05 0.033546849851713252 0 -0.00071382804279818189 0.032213651824338253 0 -0.00086318794340515918 0.032535838678350991 0 -0.00074683849394003481 0.032320839671386825 0 -0.00071382804279818189 0.032213651824338253 0 -0.00086318794340515918 0.032535838678350991 0 -0.00077118572430637385 0.032157928033079881 0 -0.00078497660714513533 0.032365573249459476 0 -0.00093695855586846128 0.032560908699876649 0 -0.00086318794340515918 0.032535838678350991 0 -0.00074683849394003481 0.032320839671386825 0 -0.00082881971958717734 0.032928284140773117 0 -0.00098543188011188609 0.032169768400235707 0 -0.00084753135846109056 0.032233434756315835 0 -0.0010415506405807506 0.032237876626098005 0 -0.00074033284283498639 0.032214322518938306 0 -0.00074683849394003481 0.032320839671386825 0 -0.00084753135846109056 0.032233434756315835 0 -0.00074683849394003481 0.032320839671386825 0 -0.00098543188011188609 0.032169768400235707 0 -0.00084753135846109056 0.032233434756315835 0 -0.00083239809182497518 0.0322249244589667 0 -0.00084753135846109056 0.032233434756315835 0 -0.00094571743976859025 0.032243229100903936 0 -0.00090166396833729569 0.032239748808309744 0 -0.00083239809182497518 0.0322249244589667 0 -0.00094571743976859025 0.032243229100903936 0 -0.00084753135846109056 0.032233434756315835 0 -0.00094571743976859025 0.032243229100903936 0 -0.0010415506405807506 0.032237876626098005 0 -0.00094571743976859025 0.032243229100903936 0 -0.0010415506405807506 0.032237876626098005 0 -0.0011220669043630095 0.032282819661359478 0 -0.00102604245497172 0.03225743787901484 0 -0.0011220669043630095 0.032282819661359478 0 -0.0011371851117443555 0.032271645253365872 0 -0.00094571743976859025 0.032243229100903936 0 -0.00102604245497172 0.03225743787901484 0 -0.0011220669043630095 0.032282819661359478 0 -0.00090166396833729569 0.032239748808309744 0 -0.00102604245497172 0.03225743787901484 0 -0.00097045519830250013 0.032261789696306949 0 -0.00090166396833729569 0.032239748808309744 0 -0.00094571743976859025 0.032243229100903936 0 -0.00102604245497172 0.03225743787901484 0 -0.0012245508197322927 0.032291102710473599 0 -0.0011553144411365469 0.03225761003266335 0 -0.0012143663259549255 0.032253644521698412 0 -0.0012245508197322927 0.032291102710473599 0 -0.0011220669043630095 0.032282819661359478 0 -0.0011553144411365469 0.03225761003266335 0 -0.0010415506405807506 0.032237876626098005 0 -0.0011220669043630095 0.032282819661359478 0 -0.0011553144411365469 0.03225761003266335 0 -0.0010415506405807506 0.032237876626098005 0 -0.0011553144411365469 0.03225761003266335 0 -0.0011657497278590714 0.032191517895057954 0 -0.0011553144411365469 0.03225761003266335 0 -0.0011657497278590714 0.032191517895057954 0 -0.0012143663259549255 0.032253644521698412 0 -0.00098543188011188609 0.032169768400235707 0 -0.0010415506405807506 0.032237876626098005 0 -0.0011657497278590714 0.032191517895057954 0 -0.00093695855586846128 0.032560908699876649 0 -0.0010861609266200622 0.03285538422340499 0 -0.00082881971958717734 0.032928284140773117 0 -0.00099482141769409471 0.033494706270108338 0 -0.0010187881696308452 0.033119270413184743 0 -0.00086318794340515918 0.032535838678350991 0 -0.00082881971958717734 0.032928284140773117 0 -0.0010187881696308452 0.033119270413184743 0 -0.00099482141769409471 0.033494706270108338 0 -0.0010187881696308452 0.033119270413184743 0 -0.00087439993732279587 0.033869911745791709 0 -0.00087032217835562213 0.03356106100117142 0 -0.00085787628183641926 0.03379525138776629 0 -0.00081364388169543895 0.034027667407680158 0 -0.00087439993732279587 0.033869911745791709 0 -0.00083558969126340218 0.034040762464883419 0 -0.00087439993732279587 0.033869911745791709 0 -0.00071440095023214928 0.03417405569752293 0 -0.00083558969126340218 0.034040762464883419 0 -0.00067516204040582223 0.034088902794717803 0 -0.00087439993732279587 0.033869911745791709 0 -0.00071440095023214928 0.03417405569752293 0 -0.00067516204040582223 0.034088902794717803 0 -0.00052087590292012535 0.034090006338312974 0 -0.00047961194858604984 0.034383194609379782 0 -0.00067516204040582223 0.034088902794717803 0 -0.00047961194858604984 0.034383194609379782 0 -0.00071440095023214928 0.03417405569752293 0 -0.00067516204040582223 0.034088902794717803 0 -0.00084224399414553012 0.033766246012369272 0 -0.00052087590292012535 0.034090006338312974 0 -0.00067516204040582223 0.034088902794717803 0 -0.00087439993732279587 0.033869911745791709 0 -0.00084224399414553012 0.033766246012369272 0 -0.0010861609266200622 0.03285538422340499 0 -0.0011156675118418654 0.032890452736283278 0 -0.00099482141769409471 0.033494706270108338 0 -0.00087439993732279587 0.033869911745791709 0 -0.00084224399414553012 0.033766246012369272 0 -0.0011657497278590714 0.032191517895057954 0 -0.0012143663259549255 0.032253644521698412 0 -0.0012561623282174657 0.03224206697599924 0 -0.0012143663259549255 0.032253644521698412 0 -0.0012561623282174657 0.03224206697599924 0 -0.0012768996675225918 0.032280530616245105 0 -0.0012561623282174657 0.03224206697599924 0 -0.0012768996675225918 0.032280530616245105 0 -0.0013014375134131836 0.032285041145936291 0 -0.0011156675118418654 0.032890452736283278 0 -0.00042121539882249419 0.033962076541166231 0 -0.00084224399414553012 0.033766246012369272 0 -0.00043018297911559522 0.033715628158908446 0 -0.00052087590292012535 0.034090006338312974 0 -0.0012768996675225918 0.032280530616245105 0 -0.0012841682224607866 0.032314343923478629 0 -0.0013014375134131836 0.032285041145936291 0 -0.0012245508197322927 0.032291102710473599 0 -0.0012768996675225918 0.032280530616245105 0 -0.0012841682224607866 0.032314343923478629 0 -0.0012245508197322927 0.032291102710473599 0 -0.0012143663259549255 0.032253644521698412 0 -0.0012768996675225918 0.032280530616245105 0 9.6407904227337364e-08 0.035000522642370233 0 -0.00042121539882249419 0.033962076541166231 0 1.2786034960606989e-07 0.035000168738199243 0 -7.6406388881813633e-05 0.034920399664650242 0 -0.00013391482245497598 0.035114272311574352 0 1.2786034960606989e-07 0.035000168738199243 0 -7.6406388881813633e-05 0.034920399664650242 0 3.4016296183185373e-05 0.034877827701569962 0 -0.00045333365439739504 0.03486438971295696 0 -7.6406388881813633e-05 0.034920399664650242 0 -0.00013391482245497598 0.035114272311574352 0 -0.00092339018895387615 0.033514090758195489 0 -0.00042121539882249419 0.033962076541166231 0 -0.00043018297911559522 0.033715628158908446 0 -0.00019132329868430323 0.034064212390471374 0 -0.00052087590292012535 0.034090006338312974 0 -0.00042121539882249419 0.033962076541166231 0 -6.0193746021494103e-05 0.034612922618639012 0 2.3138400035728771e-09 0.035000187229653409 0 7.3420995512078307e-06 0.034994536334465219 0 1.4486144141055448e-05 0.035000893440810803 0 2.3138400035728771e-09 0.035000187229653409 0 2.5012427545501741e-08 0.034999634514632338 0 1.4486144141055448e-05 0.035000893440810803 0 -0.00019132329868430323 0.034064212390471374 0 -0.00028149330142577313 0.034490199007009961 0 1.494265615115315e-06 0.034925517302905544 0 -6.0193746021494103e-05 0.034612922618639012 0 -1.9016275562626071e-05 0.03480992939763803 0 2.5012427545501741e-08 0.034999634514632338 0 1.4486144141055448e-05 0.035000893440810803 0 1.494265615115315e-06 0.034925517302905544 0 -0.00019132329868430323 0.034064212390471374 0 -0.00052087590292012535 0.034090006338312974 0 -0.00028149330142577313 0.034490199007009961 0 -0.00052087590292012535 0.034090006338312974 0 -0.00028149330142577313 0.034490199007009961 0 -0.00047961194858604984 0.034383194609379782 0 -0.00028149330142577313 0.034490199007009961 0 -0.00047961194858604984 0.034383194609379782 0 -0.00021803175484144712 0.034699285150853125 0 1.494265615115315e-06 0.034925517302905544 0 -0.00021803175484144712 0.034699285150853125 0 -1.7020439184299426e-07 0.034999210168882175 0 2.5012427545501741e-08 0.034999634514632338 0 1.494265615115315e-06 0.034925517302905544 0 -1.7020439184299426e-07 0.034999210168882175 0 -0.00028149330142577313 0.034490199007009961 0 1.494265615115315e-06 0.034925517302905544 0 -0.00021803175484144712 0.034699285150853125 0 -0.00021803175484144712 0.034699285150853125 0 -1.7020439184299426e-07 0.034999210168882175 0 -0.00016705779522209824 0.034796877836637652 0 -0.00021803175484144712 0.034699285150853125 0 -0.00016705779522209824 0.034796877836637652 0 -0.00042236739933148253 0.034531632192853295 0 -1.7020439184299426e-07 0.034999210168882175 0 -0.00016705779522209824 0.034796877836637652 0 -3.0341236197748844e-07 0.034999441862966899 0 -3.0341236197748844e-07 0.034999441862966899 0 -0.00042236739933148253 0.034531632192853295 0 -0.00032184262188194939 0.034602653752466926 0 -0.00016705779522209824 0.034796877836637652 0 -3.0341236197748844e-07 0.034999441862966899 0 -0.00042236739933148253 0.034531632192853295 0 -0.00042236739933148253 0.034531632192853295 0 -0.00067136546765493165 0.034248705422543477 0 -0.00032184262188194939 0.034602653752466926 0 -0.00047961194858604984 0.034383194609379782 0 -0.00021803175484144712 0.034699285150853125 0 -0.00042236739933148253 0.034531632192853295 0 -0.00042236739933148253 0.034531632192853295 0 -0.00071440095023214928 0.03417405569752293 0 -0.00077623056462771593 0.034098750970898428 0 -0.00047961194858604984 0.034383194609379782 0 -0.00042236739933148253 0.034531632192853295 0 -0.00071440095023214928 0.03417405569752293 0 -0.00080655076053483591 0.033721613808891 0 -0.00083558969126340218 0.034040762464883419 0 -0.00077623056462771593 0.034098750970898428 0 -0.00071440095023214928 0.03417405569752293 0 -0.00083558969126340218 0.034040762464883419 0 -0.00077623056462771593 0.034098750970898428 0 -0.00080655076053483591 0.033721613808891 0 -0.00077623056462771593 0.034098750970898428 0 -0.00080575194582427876 0.033556315747966428 0 -0.00077623056462771593 0.034098750970898428 0 -0.00067136546765493165 0.034248705422543477 0 -0.00080575194582427876 0.033556315747966428 0 -0.00042236739933148253 0.034531632192853295 0 -0.00077623056462771593 0.034098750970898428 0 -0.00067136546765493165 0.034248705422543477 0 -0.00067136546765493165 0.034248705422543477 0 -0.00080575194582427876 0.033556315747966428 0 -0.00075200352933797114 0.034196456512745999 0 -0.00080575194582427876 0.033556315747966428 0 -0.00077393445981092782 0.033464117993240838 0 -0.00075200352933797114 0.034196456512745999 0 -0.00077391200670618983 0.033022816731938201 0 -0.00080575194582427876 0.033556315747966428 0 -0.00077393445981092782 0.033464117993240838 0 -0.0010947151302120534 0.033303809375614946 0 -0.00077393445981092782 0.033464117993240838 0 -0.00075200352933797114 0.034196456512745999 0 -0.00074803644771839176 0.034025077320454879 0 -0.00075303400231052121 0.034195582869390444 0 -0.00075200352933797114 0.034196456512745999 0 -0.00026124254096175289 0.034761814566475466 0 -0.00032184262188194939 0.034602653752466926 0 -0.00041033432709809621 0.03495557551548617 0 -0.00075200352933797114 0.034196456512745999 0 -0.00026124254096175289 0.034761814566475466 0 -0.00026124254096175289 0.034761814566475466 0 -3.7468062717105473e-08 0.03499964073449046 0 -0.00032184262188194939 0.034602653752466926 0 -3.0341236197748844e-07 0.034999441862966899 0 -3.7468062717105473e-08 0.03499964073449046 0 -0.00032184262188194939 0.034602653752466926 0 -0.00067136546765493165 0.034248705422543477 0 -0.00075200352933797114 0.034196456512745999 0 -0.00032184262188194939 0.034602653752466926 0 -7.7291088487309361e-05 0.034938488478212085 0 3.5660735005236863e-08 0.034999871545814146 0 -5.8003331206837957e-05 0.034987847014448022 0 -6.623245299157036e-05 0.034999562160211509 0 -6.2811681705690288e-09 0.035000033097425942 0 -3.5876631730203386e-05 0.034988812527132679 0 -8.7008679253525474e-05 0.034942714949182725 0 -3.0879917396676187e-09 0.035000005369786459 0 -6.2811681705690288e-09 0.035000033097425942 0 -3.5876631730203386e-05 0.034988812527132679 0 -7.7160972568813213e-08 0.034999993139938394 0 -3.5876631730203386e-05 0.034988812527132679 0 -7.3136454636556821e-05 0.034967668547497083 0 -5.0629515171862065e-05 0.034977095770254221 0 -6.623245299157036e-05 0.034999562160211509 0 -3.5876631730203386e-05 0.034988812527132679 0 -7.3136454636556821e-05 0.034967668547497083 0 -6.623245299157036e-05 0.034999562160211509 0 -7.3136454636556821e-05 0.034967668547497083 0 -0.0001034178253132708 0.034951752923469817 0 -0.0001034178253132708 0.034951752923469817 0 -0.00011246736324906549 0.034968666732595612 0 -0.00012948345559800353 0.034944175950393584 0 -8.7008679253525474e-05 0.034942714949182725 0 -0.00012292937819165248 0.035123015816036246 0 -6.623245299157036e-05 0.034999562160211509 0 -0.0001034178253132708 0.034951752923469817 0 -0.00011246736324906549 0.034968666732595612 0 -7.7291088487309361e-05 0.034938488478212085 0 -0.00018788348691643782 0.034994411501203998 0 -5.8003331206837957e-05 0.034987847014448022 0 -7.7291088487309361e-05 0.034938488478212085 0 -0.00025359932601572838 0.034899613006663388 0 -0.00018788348691643782 0.034994411501203998 0 2.890806979257783e-05 0.035143932152495075 0 -2.9474836876808123e-05 0.034974654412833622 0 -0.00025359932601572838 0.034899613006663388 0 -0.00018788348691643782 0.034994411501203998 0 -0.00036322119355544229 0.035005919509000401 0 2.890806979257783e-05 0.035143932152495075 0 -0.0007775093354042324 0.033323898949836457 0 4.7755582327492534e-05 0.034965139711587559 0 5.0866470806657763e-05 0.034964155743589111 0 1.9957225423195961e-05 0.034943209671941811 0 4.7755582327492534e-05 0.034965139711587559 0 5.3740292181372315e-05 0.03497776480308027 0 5.0866470806657763e-05 0.034964155743589111 0 4.7755582327492534e-05 0.034965139711587559 0 3.6784878276531843e-05 0.034994048267674625 0 5.3740292181372315e-05 0.03497776480308027 0 3.6784878276531843e-05 0.034994048267674625 0 4.548105030570837e-08 0.034999957221018521 0 5.3740292181372315e-05 0.03497776480308027 0 3.5660735005236863e-08 0.034999871545814146 0 -5.8003331206837957e-05 0.034987847014448022 0 -4.2564090798282236e-08 0.035000096399027805 0 3.6784878276531843e-05 0.034994048267674625 0 1.4310749385798262e-09 0.035000040966334002 0 4.548105030570837e-08 0.034999957221018521 0 -2.9474836876808123e-05 0.034974654412833622 0 2.6671331816958874e-08 0.034999999653054635 0 4.548105030570837e-08 0.034999957221018521 0 5.3740292181372315e-05 0.03497776480308027 0 -5.5001895690856518e-08 0.035000039901109323 0 5.3740292181372315e-05 0.03497776480308027 0 6.7095772474581812e-05 0.034917579796182673 0 8.9024815630303104e-05 0.034946886242627699 0 5.3740292181372315e-05 0.03497776480308027 0 6.7095772474581812e-05 0.034917579796182673 0 -5.5001895690856518e-08 0.035000039901109323 0 6.7095772474581812e-05 0.034917579796182673 0 -5.5001895690856518e-08 0.035000039901109323 0 9.1951401037411193e-05 0.034752248974891778 0 -5.5001895690856518e-08 0.035000039901109323 0 9.1951401037411193e-05 0.034752248974891778 0 1.2338714044487562e-07 0.03499931781265412 0 6.7095772474581812e-05 0.034917579796182673 0 9.1951401037411193e-05 0.034752248974891778 0 8.9024815630303104e-05 0.034946886242627699 0 8.6085514300006825e-05 0.034649062751250112 0 -9.214609821687915e-05 0.034050475828641596 0 9.1951401037411193e-05 0.034752248974891778 0 -0.00017387873151102027 0.034520003878472316 0 -0.00018354341441532979 0.033158792876005989 0 9.1951401037411193e-05 0.034752248974891778 0 -0.00017387873151102027 0.034520003878472316 0 3.4016296183185373e-05 0.034877827701569962 0 -7.6406388881813633e-05 0.034920399664650242 0 -0.00017387873151102027 0.034520003878472316 0 3.4016296183185373e-05 0.034877827701569962 0 -0.00045333365439739504 0.03486438971295696 0 -7.6406388881813633e-05 0.034920399664650242 0 -0.00017387873151102027 0.034520003878472316 0 1.2786034960606989e-07 0.035000168738199243 0 3.4016296183185373e-05 0.034877827701569962 0 1.2338714044487562e-07 0.03499931781265412 0 9.1951401037411193e-05 0.034752248974891778 0 3.4016296183185373e-05 0.034877827701569962 0 1.2338714044487562e-07 0.03499931781265412 0 -0.0012245508197322927 0.032291102710473599 0 -0.0012841682224607866 0.032314343923478629 0 -0.001298369644073328 0.032353725376355641 0 -0.00092339018895387615 0.033514090758195489 0 -0.0010932438183522103 0.033158457008566566 0 -0.00045333365439739504 0.03486438971295696 0 -0.00017387873151102027 0.034520003878472316 0 -0.00096340229157788665 0.033935524905945508 0 -0.00017387873151102027 0.034520003878472316 0 -0.00096340229157788665 0.033935524905945508 0 -0.00018354341441532979 0.033158792876005989 0 -0.0010932438183522103 0.033158457008566566 0 -0.0013117143230346321 0.032618554048274281 0 -0.00096340229157788665 0.033935524905945508 0 -0.00018354341441532979 0.033158792876005989 0 -0.0013160705645417082 0.032529731294227184 0 -0.00018354341441532979 0.033158792876005989 0 -0.00086215563932885491 0.032045178410932712 0 -0.0013160705645417082 0.032529731294227184 0 5.3740292181372315e-05 0.03497776480308027 0 8.9024815630303104e-05 0.034946886242627699 0 5.0866470806657763e-05 0.034964155743589111 0 -9.214609821687915e-05 0.034050475828641596 0 -0.00038311004465944155 0.033517431284896246 0 -0.00086215563932885491 0.032045178410932712 0 -0.0012510598225202098 0.03210325891230615 0 -0.0013160705645417082 0.032529731294227184 0 -0.0012510598225202098 0.03210325891230615 0 -0.0013814826188095588 0.032035828928983684 0 -0.0013160705645417082 0.032529731294227184 0 -0.0015169824877621287 0.031861875864091206 0 -0.0014081646767823107 0.031908176903533134 0 -0.0013814826188095588 0.032035828928983684 0 -0.0012510598225202098 0.03210325891230615 0 -0.0014081646767823107 0.031908176903533134 0 -0.0013814826188095588 0.032035828928983684 0 -0.0015169824877621287 0.031861875864091206 0 -0.0013814826188095588 0.032035828928983684 0 -0.0015934514637789021 0.031816297676386024 0 -0.0013814826188095588 0.032035828928983684 0 -0.0013873312338446434 0.031885400525806545 0 -0.0015934514637789021 0.031816297676386024 0 -0.0013814826188095588 0.032035828928983684 0 -0.0012731198841230151 0.032188399870627583 0 -0.0013160705645417082 0.032529731294227184 0 -0.0013814826188095588 0.032035828928983684 0 -0.0013873312338446434 0.031885400525806545 0 -0.0012731198841230151 0.032188399870627583 0 -0.0013873312338446434 0.031885400525806545 0 -0.0012731198841230151 0.032188399870627583 0 -0.0012735005681356029 0.032061738386996642 0 -0.001298369644073328 0.032353725376355641 0 -0.0013160705645417082 0.032529731294227184 0 -0.0012027540647607225 0.032301835328646299 0 -0.0012731198841230151 0.032188399870627583 0 -0.0013160705645417082 0.032529731294227184 0 -0.0012027540647607225 0.032301835328646299 0 -0.0012731198841230151 0.032188399870627583 0 -0.0012027540647607225 0.032301835328646299 0 -0.0012051907627776731 0.032247481526091783 0 -0.0012731198841230151 0.032188399870627583 0 -0.0012051907627776731 0.032247481526091783 0 -0.0012735005681356029 0.032061738386996642 0 -0.0011220669043630095 0.032282819661359478 0 -0.0012027540647607225 0.032301835328646299 0 -0.0012051907627776731 0.032247481526091783 0 -0.0012245508197322927 0.032291102710473599 0 -0.001298369644073328 0.032353725376355641 0 -0.0012027540647607225 0.032301835328646299 0 -0.0012245508197322927 0.032291102710473599 0 -0.0011220669043630095 0.032282819661359478 0 -0.0012027540647607225 0.032301835328646299 0 -0.00028139636017442609 0.029244772445979401 0 0.001218129983106573 0.026948272754471238 0 -0.0011371851117443555 0.032271645253365872 0 -0.0013059608520422155 0.03224011733472832 0 -0.00097045519830250013 0.032261789696306949 0 -0.00102604245497172 0.03225743787901484 0 -0.0011371851117443555 0.032271645253365872 0 -0.00097045519830250013 0.032261789696306949 0 -0.0011220669043630095 0.032282819661359478 0 -0.0011371851117443555 0.032271645253365872 0 -0.0012051907627776731 0.032247481526091783 0 -0.0012051907627776731 0.032247481526091783 0 -0.0013059608520422155 0.03224011733472832 0 -0.0012735005681356029 0.032061738386996642 0 -0.0011371851117443555 0.032271645253365872 0 -0.0012051907627776731 0.032247481526091783 0 -0.0013059608520422155 0.03224011733472832 0 0.00065204516193783735 0.026241987118847617 0 0.0025313015685814572 0.027630262128071924 0 0.00094428709588912946 0.029529649422546808 0 0.00065204516193783735 0.026241987118847617 0 0.00094428709588912946 0.029529649422546808 0 -0.0013918169777167742 0.03148821144701866 0 0.00094428709588912946 0.029529649422546808 0 0.0016184833394714048 0.031322035495670128 0 0.0032597910386687988 0.029610107398009913 0 0.0025313015685814572 0.027630262128071924 0 0.00094428709588912946 0.029529649422546808 0 0.0032597910386687988 0.029610107398009913 0 -0.00028139636017442609 0.029244772445979401 0 -0.0013268377054942017 0.031272606225208978 0 -0.0013059608520422155 0.03224011733472832 0 -0.0012735005681356029 0.032061738386996642 0 -0.0013918169777167742 0.03148821144701866 0 0.00094428709588912946 0.029529649422546808 0 -0.0013918169777167742 0.03148821144701866 0 -7.593562421397414e-05 0.031558985069366073 0 -0.0013873312338446434 0.031885400525806545 0 -0.0012735005681356029 0.032061738386996642 0 -0.0013918169777167742 0.03148821144701866 0 -0.0017790530059492112 0.031720355870836756 0 0.00049553739810568817 0.032434226440154097 0 -0.0015934514637789021 0.031816297676386024 0 -0.0015646917842820666 0.031837639126383981 0 -0.0015414657837667742 0.03184369746550577 0 -0.0015934514637789021 0.031816297676386024 0 -7.593562421397414e-05 0.031558985069366073 0 0.0004840790741302223 0.032939527602199134 0 -0.0013873312338446434 0.031885400525806545 0 -0.0015934514637789021 0.031816297676386024 0 -0.0013918169777167742 0.03148821144701866 0 -0.0015934514637789021 0.031816297676386024 0 -0.0013918169777167742 0.03148821144701866 0 -7.593562421397414e-05 0.031558985069366073 0 -0.0015646917842820666 0.031837639126383981 0 -0.0015414657837667742 0.03184369746550577 0 -0.0015553664838226114 0.031833498957746044 0 -0.0015169824877621287 0.031861875864091206 0 -0.0015934514637789021 0.031816297676386024 0 -0.0015646917842820666 0.031837639126383981 0 -0.0015169824877621287 0.031861875864091206 0 -0.0015646917842820666 0.031837639126383981 0 -0.0015553664838226114 0.031833498957746044 0 4.4553124043333722e-05 0.033604118734557015 0 0.004344026015813093 0.033161030221489578 0 0.00329066044238385 0.031568009556524917 0 0.00094428709588912946 0.029529649422546808 0 0.0016184833394714048 0.031322035495670128 0 -7.593562421397414e-05 0.031558985069366073 0 0.0016184833394714048 0.031322035495670128 0 -7.593562421397414e-05 0.031558985069366073 0 0.0004840790741302223 0.032939527602199134 0 0.0011705961678376512 0.031808207524101233 0 0.00049553739810568817 0.032434226440154097 0 0.0016184833394714048 0.031322035495670128 0 4.4553124043333722e-05 0.033604118734557015 0 0.00329066044238385 0.031568009556524917 0 0.00083203280795403627 0.030477752391479065 0 0.00097072914060731966 0.030977726685966399 0 0.00046698360397983823 0.031041843136510167 0 0.00083203280795403627 0.030477752391479065 0 0.00097072914060731966 0.030977726685966399 0 0.0016509964069168228 0.03093125533057688 0 0.00097072914060731966 0.030977726685966399 0 0.00091522293851527617 0.031477124751395795 0 0.0016509964069168228 0.03093125533057688 0 0.00097072914060731966 0.030977726685966399 0 0.00091522293851527617 0.031477124751395795 0 0.00046698360397983823 0.031041843136510167 0 0.00044865074481434229 0.031575520855454814 0 0.00046698360397983823 0.031041843136510167 0 0.0001042022561162492 0.031605951742691589 0 -0.00049848500064718576 0.031189126670942223 0 -0.00022842194328708269 0.032600197741998252 0 0.00091522293851527617 0.031477124751395795 0 0.00044865074481434229 0.031575520855454814 0 0.00046698360397983823 0.031041843136510167 0 -0.0015559657398745153 0.031788099610448997 0 -0.001486078178906869 0.031756539406569549 0 -0.0014912903616277288 0.031704121685000516 0 0.00042166961094584833 0.03196838615260144 0 -0.00022842194328708269 0.032600197741998252 0 -0.0015328074155962477 0.031788925864583803 0 -0.0015559657398745153 0.031788099610448997 0 -0.001486078178906869 0.031756539406569549 0 0.00049553739810568817 0.032434226440154097 0 -0.00049848500064718576 0.031189126670942223 0 -0.0015414657837667742 0.03184369746550577 0 -0.0015559657398745153 0.031788099610448997 0 -0.0015505670923005325 0.031815409474876391 0 -0.0015328074155962477 0.031788925864583803 0 -0.0015505670923005325 0.031815409474876391 0 -0.0014970242635737056 0.031826816975918534 0 -0.0015328074155962477 0.031788925864583803 0 -0.0015559657398745153 0.031788099610448997 0 -0.0015505670923005325 0.031815409474876391 0 -0.0015414657837667742 0.03184369746550577 0 -0.0015553664838226114 0.031833498957746044 0 -0.0015505670923005325 0.031815409474876391 0 -0.0015169824877621287 0.031861875864091206 0 -0.0015553664838226114 0.031833498957746044 0 -0.0014970242635737056 0.031826816975918534 0 -0.0015553664838226114 0.031833498957746044 0 -0.0015505670923005325 0.031815409474876391 0 -0.0014970242635737056 0.031826816975918534 0 -0.0015328074155962477 0.031788925864583803 0 -0.0014970242635737056 0.031826816975918534 0 -0.0012901259942294848 0.031677044008515773 0 -0.0015169824877621287 0.031861875864091206 0 -0.0014081646767823107 0.031908176903533134 0 -0.0014970242635737056 0.031826816975918534 0 -0.0016862714578800234 0.031476378062089715 0 -0.0007775093354042324 0.033323898949836457 0 -0.0014081646767823107 0.031908176903533134 0 -0.0014970242635737056 0.031826816975918534 0 -0.0012901259942294848 0.031677044008515773 0 -0.0012510598225202098 0.03210325891230615 0 -0.0014081646767823107 0.031908176903533134 0 -0.0012901259942294848 0.031677044008515773 0 -0.00086215563932885491 0.032045178410932712 0 -0.0012510598225202098 0.03210325891230615 0 -0.0012901259942294848 0.031677044008515773 0 -0.00038311004465944155 0.033517431284896246 0 -0.0007775093354042324 0.033323898949836457 0 -0.00025359932601572838 0.034899613006663388 0 -0.00036322119355544229 0.035005919509000401 0 -0.0004758089507606238 0.03488508702728943 0 -0.0013671031269445531 0.031804284343206798 0 -0.001486078178906869 0.031756539406569549 0 -0.0014632549071290613 0.031701423848455514 0 -0.0015328074155962477 0.031788925864583803 0 -0.0013671031269445531 0.031804284343206798 0 -0.001486078178906869 0.031756539406569549 0 -0.0007775093354042324 0.033323898949836457 0 -0.00061258180193735274 0.033581424242276108 0 -0.001486078178906869 0.031756539406569549 0 -0.0014912903616277288 0.031704121685000516 0 -0.0014632549071290613 0.031701423848455514 0 0.00010974099685603444 0.031604543077850648 0 4.0503128711094268e-05 0.031713931946191654 0 0.00010016331820561845 0.031772957211730561 0 4.2350132464353071e-05 0.031716595725703067 0 -0.00046747137377611657 0.03248090485567677 0 0.00019935065072490649 0.03199502481679125 0 4.2350132464353071e-05 0.031716595725703067 0 0.00010016331820561845 0.031772957211730561 0 0.00019935065072490649 0.03199502481679125 0 -0.00022842194328708269 0.032600197741998252 0 -0.00035628336572418731 0.033505359478751988 0 -0.00059735856671820078 0.033231333373914991 0 -0.0005126418949059744 0.033098729064390264 0 -0.00039618386500558971 0.033217225045966497 0 -0.00014827593536690777 0.03493728701837602 0 -0.0001462297394058678 0.034940898291210346 0 -0.00012948345559800353 0.034944175950393584 0 -0.00022842194328708269 0.032600197741998252 0 -0.00061258180193735274 0.033581424242276108 0 -0.00014827593536690777 0.03493728701837602 0 -0.00012948345559800353 0.034944175950393584 0 -0.00012939532008589925 0.034922852113826619 0 -0.00035628336572418731 0.033505359478751988 0 -0.00043424119176947257 0.033289555199367257 0 -0.00035628336572418731 0.033505359478751988 0 -0.00061258180193735274 0.033581424242276108 0 -0.00012292937819165248 0.035123015816036246 0 -0.00061258180193735274 0.033581424242276108 0 -0.00011246736324906549 0.034968666732595612 0 -0.0001462297394058678 0.034940898291210346 0 -0.00012948345559800353 0.034944175950393584 0 -0.0001034178253132708 0.034951752923469817 0 -0.00012948345559800353 0.034944175950393584 0 -0.00012939532008589925 0.034922852113826619 0 -0.00035628336572418731 0.033505359478751988 0 -0.00079699025175020328 0.031864216479025397 0 -0.00079699025175020328 0.031864216479025397 0 -1.5074718407112377e-05 0.030187333070853764 0 -0.0012769748643698426 0.029398755766495952 0 -0.0006918032250195264 0.02945607710252959 0 -0.00037439569364084449 0.02864519391812078 0 -0.0006918032250195264 0.02945607710252959 0 0.00061721457549103768 0.028921650122345394 0 -0.00037439569364084449 0.02864519391812078 0 -0.0006918032250195264 0.02945607710252959 0 0.00043079943876973121 0.028851047183851928 0 0.00053671944057786787 0.029565071809297239 0 -0.00061730705819801595 0.029293882055759227 0 0.00054161991530119575 0.029321959430092012 0 0.00043079943876973121 0.028851047183851928 0 0.0012799811697893626 0.029228468713696887 0 0.00053671944057786787 0.029565071809297239 0 0.00063956657501889366 0.027839957001758706 0 0.00061721457549103768 0.028921650122345394 0 0.0014342929200473785 0.027772753095729588 0 0.00063956657501889366 0.027839957001758706 0 0.00061721457549103768 0.028921650122345394 0 -0.00037439569364084449 0.02864519391812078 0 0.0005421857470264646 0.029556957586790333 0 -1.5074718407112377e-05 0.030187333070853764 0 0.00091522293851527617 0.031477124751395795 0 0.00044865074481434229 0.031575520855454814 0 0.00019935065072490649 0.03199502481679125 0 0.00044865074481434229 0.031575520855454814 0 0.00010974099685603444 0.031604543077850648 0 0.00010016331820561845 0.031772957211730561 0 0.00044865074481434229 0.031575520855454814 0 0.00010016331820561845 0.031772957211730561 0 0.00019935065072490649 0.03199502481679125 0 0.00053453675147012208 0.020626052620934671 0 -0.00032786401816637214 0.02054385279062718 0 0.00010576288840691312 0.021524923778513099 0 0.0007255075839465283 0.021226343085654294 0 0.00053453675147012208 0.020626052620934671 0 0.00010576288840691312 0.021524923778513099 0 0.0007255075839465283 0.021226343085654294 0 0.00053453675147012208 0.020626052620934671 0 0.0010969716272348998 0.020913314162730151 0 0.00053453675147012208 0.020626052620934671 0 0.00070731541093508406 0.020098941150571311 0 0.0010969716272348998 0.020913314162730151 0 0.0026311780306899463 0.023320602210475647 0 0.0015888553142778242 0.023786513332826081 0 0.0026389833396710028 0.023153674099057098 0 0.00053453675147012208 0.020626052620934671 0 0.00056556552946597841 0.020156763052231436 0 -0.00032786401816637214 0.02054385279062718 0 0.0013268182275201577 0.020450776379275171 0 0.0015985558534886949 0.020328807611757403 0 0.00053453675147012208 0.020626052620934671 0 0.0005745002368528361 0.020156250527031828 0 0.00070731541093508406 0.020098941150571311 0 0.0021192760009118776 0.019196382808489919 0 0.0016602698947706688 0.019397591705771083 0 0.0020985335690402963 0.019694456267191088 0 0.0015985558534886949 0.020328807611757403 0 0.0019736995624554587 0.020109832168556139 0 0.0019547339850836767 0.019487139174560054 0 0.0019736995624554587 0.020109832168556139 0 0.0015985558534886949 0.020328807611757403 0 0.0019547339850836767 0.019487139174560054 0 0.0015985558534886949 0.020328807611757403 0 0.001290261017652558 0.025470613451368782 0 0.00054161991530119575 0.029321959430092012 0 0.001290261017652558 0.025470613451368782 0 0.00061721457549103768 0.028921650122345394 0 0.0020083063246065808 0.028303854123881325 0 0.0014342929200473785 0.027772753095729588 0 0.00043079943876973121 0.028851047183851928 0 0.0016549943088503194 0.028236536774045928 0 0.0012799811697893626 0.029228468713696887 0 0.001290261017652558 0.025470613451368782 0 6.4293854750445474e-05 0.025635150034612371 0 -0.0010964151129061138 0.022339305298165739 0 -0.00013529271803990197 0.022362397633533072 0 0.00010576288840691312 0.021524923778513099 0 -0.00032786401816637214 0.02054385279062718 0 -0.0010964151129061138 0.022339305298165739 0 0.00010576288840691312 0.021524923778513099 0 -0.0010964151129061138 0.022339305298165739 0 -0.00013529271803990197 0.022362397633533072 0 -0.00025310274578285252 0.023036532553100189 0 0.00010576288840691312 0.021524923778513099 0 0.00060462941411270179 0.022223976352523121 0 0.00086941307031303055 0.021673678385584618 0 0.0007255075839465283 0.021226343085654294 0 0.00010576288840691312 0.021524923778513099 0 0.00086941307031303055 0.021673678385584618 0 0.00060462941411270179 0.022223976352523121 0 0.0011531389122516973 0.02283127416462355 0 0.00036235881094668374 0.022905575461301932 0 -0.00013529271803990197 0.022362397633533072 0 0.00010576288840691312 0.021524923778513099 0 0.00060462941411270179 0.022223976352523121 0 -0.00013529271803990197 0.022362397633533072 0 0.00060462941411270179 0.022223976352523121 0 0.00036235881094668374 0.022905575461301932 0 0.00060462941411270179 0.022223976352523121 0 0.0013186115886141023 0.021927381437971238 0 0.0011531389122516973 0.02283127416462355 0 0.0013186115886141023 0.021927381437971238 0 0.0021428564439498663 0.021911563171750598 0 0.0011531389122516973 0.02283127416462355 0 0.0017467377387395113 0.021607268082859989 0 0.0013027625015009938 0.021398297219046583 0 0.0021798782114423156 0.02121481043138182 0 0.0017467377387395113 0.021607268082859989 0 0.0013186115886141023 0.021927381437971238 0 0.0021428564439498663 0.021911563171750598 0 0.0017467377387395113 0.021607268082859989 0 0.0021428564439498663 0.021911563171750598 0 0.0021798782114423156 0.02121481043138182 0 0.00060462941411270179 0.022223976352523121 0 0.00086941307031303055 0.021673678385584618 0 0.0013186115886141023 0.021927381437971238 0 0.0007255075839465283 0.021226343085654294 0 0.0013027625015009938 0.021398297219046583 0 0.00086941307031303055 0.021673678385584618 0 0.0013027625015009938 0.021398297219046583 0 0.00086941307031303055 0.021673678385584618 0 0.0013186115886141023 0.021927381437971238 0 0.0017467377387395113 0.021607268082859989 0 0.0013027625015009938 0.021398297219046583 0 0.0013186115886141023 0.021927381437971238 0 0.0024802403638115663 0.022103518643185494 0 0.0021798782114423156 0.02121481043138182 0 0.0030558574890584894 0.021884274186365602 0 0.0028402326985314161 0.018841706200178752 0 0.003212570289991805 0.018215928555792179 0 0.0034925715631477128 0.016513085555175437 0 0.0038354477118610476 0.016411613320607015 0 0.0038890604537562866 0.016773430967507622 0 0.0024802403638115663 0.022103518643185494 0 0.0021428564439498663 0.021911563171750598 0 0.0021798782114423156 0.02121481043138182 0 0.0024802403638115663 0.022103518643185494 0 0.0030558574890584894 0.021884274186365602 0 0.002872282670276899 0.022133990794592415 0 0.0034925715631477128 0.016513085555175437 0 0.0036312576716769737 0.016268600660840925 0 0.0038354477118610476 0.016411613320607015 0 0.0034925715631477128 0.016513085555175437 0 0.0036312576716769737 0.016268600660840925 0 0.0033964146943920625 0.016312300975238996 0 0.0036312576716769737 0.016268600660840925 0 0.0033964146943920625 0.016312300975238996 0 0.0033727306641519036 0.016199485176127893 0 0.0036312576716769737 0.016268600660840925 0 0.0038671822572947084 0.016140418024758109 0 0.0038354477118610476 0.016411613320607015 0 0.0030861514587740483 0.016269229242679786 0 0.0034925715631477128 0.016513085555175437 0 0.0033964146943920625 0.016312300975238996 0 0.0019547339850836767 0.019487139174560054 0 0.0028402326985314161 0.018841706200178752 0 0.00070731541093508406 0.020098941150571311 0 0.0021798782114423156 0.02121481043138182 0 0.0010969716272348998 0.020913314162730151 0 0.0007255075839465283 0.021226343085654294 0 0.0013027625015009938 0.021398297219046583 0 0.0010969716272348998 0.020913314162730151 0 0.0013027625015009938 0.021398297219046583 0 0.0021798782114423156 0.02121481043138182 0 0.0010969716272348998 0.020913314162730151 0 0.0030861514587740483 0.016269229242679786 0 0.0033964146943920625 0.016312300975238996 0 0.0033727306641519036 0.016199485176127893 0 0.0030861514587740483 0.016269229242679786 0 0.0033727306641519036 0.016199485176127893 0 0.0032987896820823128 0.016163389622379908 0 0.0019547339850836767 0.019487139174560054 0 0.0037049007622651804 0.017968859058947288 0 0.0028547699901836474 0.019454497744413143 0 0.0029539607719174859 0.019407699094201421 0 0.0028481191135629664 0.019354855281727541 0 0.0037049007622651804 0.017968859058947288 0 0.0031105149095916407 0.020700428529257651 0 0.0033598121890318286 0.017559229621057604 0 0.0037049007622651804 0.017968859058947288 0 0.0048534097774651551 0.017876687371732411 0 0.0050125485007544964 0.017133368698024575 0 0.0043269333960011787 0.017583300813266416 0 0.0036312576716769737 0.016268600660840925 0 0.0038048227953055474 0.015917064036008552 0 0.0038671822572947084 0.016140418024758109 0 0.0048534097774651551 0.017876687371732411 0 0.0059995336197638588 0.017343578235129824 0 0.0050125485007544964 0.017133368698024575 0 0.0036312576716769737 0.016268600660840925 0 0.0033727306641519036 0.016199485176127893 0 0.0038048227953055474 0.015917064036008552 0 0.0037049007622651804 0.017968859058947288 0 0.0049696953707848617 0.01451864527517166 0 0.0033727306641519036 0.016199485176127893 0 0.0032998287974559198 0.016159010398553112 0 0.0038048227953055474 0.015917064036008552 0 0.0059995336197638588 0.017343578235129824 0 0.0055681467246102689 0.016561826322488347 0 0.0050125485007544964 0.017133368698024575 0 0.005567396701069394 0.011889162846496437 0 0.0057366260460249121 0.012135076846999009 0 0.0054938267267102738 0.011917235608789666 0 0.0049696953707848617 0.01451864527517166 0 0.0056763940845347234 0.014414150560453568 0 0.0050125485007544964 0.017133368698024575 0 0.0043804501206082397 0.016795263105433424 0 0.0043269333960011787 0.017583300813266416 0 0.0055681467246102689 0.016561826322488347 0 0.0050125485007544964 0.017133368698024575 0 0.0049378991722312639 0.016597843854570773 0 0.0049378991722312639 0.016597843854570773 0 0.0043804501206082397 0.016795263105433424 0 0.0046281820185949578 0.016160224214436861 0 0.0050716210381989554 0.02100465232884717 0 0.0073944007780931895 0.01754307659805017 0 0.0050125485007544964 0.017133368698024575 0 0.0049378991722312639 0.016597843854570773 0 0.0043804501206082397 0.016795263105433424 0 0.0032936239856294859 0.0303172312043824 0 0.0064923946314959504 0.023822307994856618 0 0.0054010766655681851 0.025045320761238121 0 0.0031841974709145306 0.025729763104029604 0 0.0054706356937177496 0.023959727307379407 0 0.0054010766655681851 0.025045320761238121 0 0.004778196033572121 0.026636116330376613 0 0.0031841974709145306 0.025729763104029604 0 0.005503463234279784 0.036921294999992756 0 0.010400428954172409 0.033473383761047706 0 0.0070979340575700331 0.032683098454144036 0 0.0050716210381989554 0.02100465232884717 0 0.0064923946314959504 0.023822307994856618 0 0.0050716210381989554 0.02100465232884717 0 0.0033442457398753693 0.024374858268232276 0 0.0050716210381989554 0.02100465232884717 0 0.0031105149095916407 0.020700428529257651 0 0.0044143382650266129 0.02116306152186645 0 0.0043011002444722484 0.022800467113154702 0 0.0038665707444849014 0.022548800152926304 0 0.0015888553142778242 0.023786513332826081 0 0.0022894040067967733 0.021994484067582854 0 0.0026389833396710028 0.023153674099057098 0 0.001290261017652558 0.025470613451368782 0 0.0033442457398753693 0.024374858268232276 0 0.0020083063246065808 0.028303854123881325 0 0.0023665914224108866 0.027395471117000421 0 0.0014342929200473785 0.027772753095729588 0 0.0031105149095916407 0.020700428529257651 0 0.0033442457398753693 0.024374858268232276 0 0.0033442457398753693 0.024374858268232276 0 0.0032936239856294859 0.0303172312043824 0 0.0028547699901836474 0.019454497744413143 0 0.0028481191135629664 0.019354855281727541 0 0.0028400838949768879 0.019445339665846779 0 0.0031105149095916407 0.020700428529257651 0 0.0019736995624554587 0.020109832168556139 0 0.0027014340080535018 0.022231374724071568 0 0.0022894040067967733 0.021994484067582854 0 0.0026389833396710028 0.023153674099057098 0 0.00063956657501889366 0.027839957001758706 0 0.0014342929200473785 0.027772753095729588 0 0.0017004096734253794 0.027026359173087711 0 0.0023665914224108866 0.027395471117000421 0 0.0014342929200473785 0.027772753095729588 0 0.0017004096734253794 0.027026359173087711 0 0.0005421857470264646 0.029556957586790333 0 0.0032936239856294859 0.0303172312043824 0 0.005503463234279784 0.036921294999992756 0 0.004344026015813093 0.033161030221489578 0 0.0070979340575700331 0.032683098454144036 0 0.00049553739810568817 0.032434226440154097 0 0.0032936239856294859 0.0303172312043824 0 4.4553124043333722e-05 0.033604118734557015 0 0.005503463234279784 0.036921294999992756 0 0.004344026015813093 0.033161030221489578 0 0.004344026015813093 0.033161030221489578 0 0.0053215614682432999 0.030998759536030731 0 0.0070979340575700331 0.032683098454144036 0 0.004344026015813093 0.033161030221489578 0 0.0053215614682432999 0.030998759536030731 0 0.00329066044238385 0.031568009556524917 0 0.0016184833394714048 0.031322035495670128 0 0.00329066044238385 0.031568009556524917 0 0.0032597910386687988 0.029610107398009913 0 0.0053215614682432999 0.030998759536030731 0 0.00329066044238385 0.031568009556524917 0 0.0032597910386687988 0.029610107398009913 0 0.010400428954172409 0.033473383761047706 0 0.0092512999049276876 0.02983086065588899 0 0.011096762739808867 0.026509248407832312 0 0.010400428954172409 0.033473383761047706 0 0.0070979340575700331 0.032683098454144036 0 0.0086786397451205609 0.031417315359464779 0 0.0053215614682432999 0.030998759536030731 0 0.0070979340575700331 0.032683098454144036 0 0.0077053098560621106 0.030077145101516479 0 0.0070979340575700331 0.032683098454144036 0 0.0077053098560621106 0.030077145101516479 0 0.0086786397451205609 0.031417315359464779 0 0.0077053098560621106 0.030077145101516479 0 0.0086786397451205609 0.031417315359464779 0 0.0092512999049276876 0.02983086065588899 0 0.010400428954172409 0.033473383761047706 0 0.0086786397451205609 0.031417315359464779 0 0.0092512999049276876 0.02983086065588899 0 0.0092512999049276876 0.02983086065588899 0 0.0083670164674733757 0.027644287299710676 0 0.011096762739808867 0.026509248407832312 0 0.0077053098560621106 0.030077145101516479 0 0.0083670164674733757 0.027644287299710676 0 0.0063383718669078421 0.028840035386452391 0 0.0077053098560621106 0.030077145101516479 0 0.0092512999049276876 0.02983086065588899 0 0.0083670164674733757 0.027644287299710676 0 0.007048361471324655 0.025848553627491683 0 0.0083670164674733757 0.027644287299710676 0 0.0063383718669078421 0.028840035386452391 0 0.007048361471324655 0.025848553627491683 0 0.0083670164674733757 0.027644287299710676 0 0.0088588235589221551 0.025907822966178322 0 0.0083670164674733757 0.027644287299710676 0 0.0088588235589221551 0.025907822966178322 0 0.011096762739808867 0.026509248407832312 0 0.0088588235589221551 0.025907822966178322 0 0.0089903259878932069 0.023623006289551298 0 0.011096762739808867 0.026509248407832312 0 0.007048361471324655 0.025848553627491683 0 0.0032597910386687988 0.029610107398009913 0 0.0066233578878299336 0.021320302228884428 0 0.0025313015685814572 0.027630262128071924 0 0.0032597910386687988 0.029610107398009913 0 0.0058584899855508915 0.024641179760314883 0 0.0053215614682432999 0.030998759536030731 0 0.0032597910386687988 0.029610107398009913 0 0.0063383718669078421 0.028840035386452391 0 0.0053215614682432999 0.030998759536030731 0 0.0077053098560621106 0.030077145101516479 0 0.0063383718669078421 0.028840035386452391 0 0.007048361471324655 0.025848553627491683 0 0.0032597910386687988 0.029610107398009913 0 0.0063383718669078421 0.028840035386452391 0 0.00065204516193783735 0.026241987118847617 0 0.0025313015685814572 0.027630262128071924 0 0.0058584899855508915 0.024641179760314883 0 0.00065204516193783735 0.026241987118847617 0 0.0058584899855508915 0.024641179760314883 0 0.0033919956790528119 0.021654937016428507 0 0.0033864307569875861 0.029227255687366401 0 0.0062365572972452772 0.023071845017941239 0 0.0089903259878932069 0.023623006289551298 0 0.0066233578878299336 0.021320302228884428 0 0.010910389271471217 0.019073875515609153 0 0.0089903259878932069 0.023623006289551298 0 0.010910389271471217 0.019073875515609153 0 0.011096762739808867 0.026509248407832312 0 0.007048361471324655 0.025848553627491683 0 0.0089903259878932069 0.023623006289551298 0 0.0066233578878299336 0.021320302228884428 0 0.007048361471324655 0.025848553627491683 0 0.0088588235589221551 0.025907822966178322 0 0.0089903259878932069 0.023623006289551298 0 0.0097386899549328689 0.015518120272162652 0 0.0066233578878299336 0.021320302228884428 0 0.010910389271471217 0.019073875515609153 0 0.0081689022725020734 0.01932454343038929 0 0.0058584899855508915 0.024641179760314883 0 0.0033919956790528119 0.021654937016428507 0 0.0088488396343271384 0.017455713663904866 0 0.0062365572972452772 0.023071845017941239 0 0.0090680072392095717 0.012082414652024434 0 0.0078734484516278114 0.011675725048913519 0 0.0079802557890316754 0.012920102162467011 0 0.0088618139671043719 0.013190699380355322 0 0.0090680072392095717 0.012082414652024434 0 0.0079802557890316754 0.012920102162467011 0 0.0090828239606897485 0.014261254963546535 0 0.0088618139671043719 0.013190699380355322 0 0.0098843204635232964 0.012505505298071311 0 0.0088618139671043719 0.013190699380355322 0 0.0098843204635232964 0.012505505298071311 0 0.0090680072392095717 0.012082414652024434 0 0.0094778601964555596 0.012134920748581145 0 0.0090680072392095717 0.012082414652024434 0 0.0095728435344217683 0.012081498992112536 0 0.0098843204635232964 0.012505505298071311 0 0.0094778601964555596 0.012134920748581145 0 0.0090680072392095717 0.012082414652024434 0 0.010260145756207165 0.015915166019281949 0 0.010503381807621429 0.01940342712468282 0 0.0093320481080804655 0.011705325396939043 0 0.0090782654874553299 0.011827098227427899 0 0.0098843204635232964 0.012505505298071311 0 0.0094778601964555596 0.012134920748581145 0 0.0092843387481985583 0.012015748889778848 0 0.0090680072392095717 0.012082414652024434 0 0.0087182486291048147 0.010751422395186921 0 0.0098516774817740769 0.01002025020356208 0 0.0090680072392095717 0.012082414652024434 0 0.0087182486291048147 0.010751422395186921 0 0.0078734484516278114 0.011675725048913519 0 0.0087182486291048147 0.010751422395186921 0 0.0090164164970244452 0.0098937742827658048 0 0.0077626251477137141 0.01074685129958715 0 0.0079617592202435739 0.010589767964884568 0 0.0083023066934608172 0.010355592315712883 0 0.0087182486291048147 0.010751422395186921 0 0.009148745983429336 0.0099216680081376015 0 0.0098516774817740769 0.01002025020356208 0 0.0087182486291048147 0.010751422395186921 0 0.009148745983429336 0.0099216680081376015 0 0.0090164164970244452 0.0098937742827658048 0 0.009148745983429336 0.0099216680081376015 0 0.0090164313463247971 0.0098835271278962106 0 0.0095266341541039735 0.0094949106043504261 0 0.0080755929483642859 0.010590859700686257 0 0.0079617592202435739 0.010589767964884568 0 0.0090680072392095717 0.012082414652024434 0 0.0095728435344217683 0.012081498992112536 0 0.0095675811400531934 0.012025479217183721 0 0.0092843387481985583 0.012015748889778848 0 0.01009596679283865 0.012856028162360731 0 0.0093854421138469726 0.014730112720885626 0 0.0092843387481985583 0.012015748889778848 0 0.0095728435344217683 0.012081498992112536 0 0.01009596679283865 0.012856028162360731 0 0.0094778601964555596 0.012134920748581145 0 0.0092843387481985583 0.012015748889778848 0 0.0095728435344217683 0.012081498992112536 0 0.0094813506903247378 0.01225944120468804 0 0.0090782654874553299 0.011827098227427899 0 0.009148745983429336 0.0099216680081376015 0 0.0098516774817740769 0.01002025020356208 0 0.0095266341541039735 0.0094949106043504261 0 0.0090782654874553299 0.011827098227427899 0 0.0072078546360585492 0.013226843634652824 0 0.0055681467246102689 0.016561826322488347 0 0.0049378991722312639 0.016597843854570773 0 0.0051410593403730161 0.015758665432589834 0 0.0064923946314959504 0.023822307994856618 0 0.010503381807621429 0.01940342712468282 0 0.0088455201284222962 0.015139392973370981 0 0.0092843387481985583 0.012015748889778848 0 0.0093854421138469726 0.014730112720885626 0 0.0049378991722312639 0.016597843854570773 0 0.0051410593403730161 0.015758665432589834 0 0.0046281820185949578 0.016160224214436861 0 0.0090782654874553299 0.011827098227427899 0 0.0073944007780931895 0.01754307659805017 0 0.0072078546360585492 0.013226843634652824 0 0.0073944007780931895 0.01754307659805017 0 0.0083193174455532797 0.01258034367567938 0 0.009292105129932178 0.014321512137544776 0 0.0069550711319559351 0.016122844464689746 0 0.0055369632661676086 0.021686309260019673 0 0.0056353410947797876 0.02030346500452249 0 0.0062864836484865429 0.01980924456605964 0 0.0064923946314959504 0.023822307994856618 0 0.0073944007780931895 0.01754307659805017 0 0.0057366260460249121 0.012135076846999009 0 0.0057887967993025136 0.012477342293957578 0 0.005904715728204224 0.012394771181025027 0 0.0057366260460249121 0.012135076846999009 0 0.0057887967993025136 0.012477342293957578 0 0.0053469018692423207 0.012335285033298721 0 0.0079617592202435739 0.010589767964884568 0 0.0072078546360585492 0.013226843634652824 0 0.0056763940845347234 0.014414150560453568 0 0.0072078546360585492 0.013226843634652824 0 0.0079617592202435739 0.010589767964884568 0 0.006271007175442227 0.010775991483303748 0 0.0057366260460249121 0.012135076846999009 0 0.0053469018692423207 0.012335285033298721 0 0.0054293171541760117 0.012122164451475818 0 0.0053469018692423207 0.012335285033298721 0 0.005226776238735532 0.012092241686224968 0 0.0054293171541760117 0.012122164451475818 0 0.006271007175442227 0.010775991483303748 0 0.0051006451770278655 0.0099275115233346967 0 0.0053469018692423207 0.012335285033298721 0 0.0049374988767486964 0.012188133589555014 0 0.005226776238735532 0.012092241686224968 0 0.007270410828663326 0.0090262731845500242 0 0.0060853256571399492 0.0091089714499834936 0 0.0056117083084520451 0.0084259556189091936 0 0.007270410828663326 0.0090262731845500242 0 0.0062689630082486125 0.0099992177066548227 0 0.0060853256571399492 0.0091089714499834936 0 0.007270410828663326 0.0090262731845500242 0 0.0062689630082486125 0.0099992177066548227 0 0.0077626251477137141 0.01074685129958715 0 0.0091965727607914993 0.0096511915688485776 0 0.007270410828663326 0.0090262731845500242 0 0.0077626251477137141 0.01074685129958715 0 0.0087182486291048147 0.010751422395186921 0 0.0077626251477137141 0.01074685129958715 0 0.0078734484516278114 0.011675725048913519 0 0.0078734484516278114 0.011675725048913519 0 0.0068419607788997965 0.011030958066123382 0 0.0069818436422670127 0.012434040583771885 0 0.0077626251477137141 0.01074685129958715 0 0.0078734484516278114 0.011675725048913519 0 0.0068419607788997965 0.011030958066123382 0 0.0068419607788997965 0.011030958066123382 0 0.0069818436422670127 0.012434040583771885 0 0.0059159283010473997 0.011310629723195825 0 0.0062689630082486125 0.0099992177066548227 0 0.0077626251477137141 0.01074685129958715 0 0.0068419607788997965 0.011030958066123382 0 0.0062689630082486125 0.0099992177066548227 0 0.0068419607788997965 0.011030958066123382 0 0.0059159283010473997 0.011310629723195825 0 0.0069139080826654733 0.013520868498413002 0 0.0069818436422670127 0.012434040583771885 0 0.006124028778645315 0.012404587884176555 0 0.0069818436422670127 0.012434040583771885 0 0.006124028778645315 0.012404587884176555 0 0.0059159283010473997 0.011310629723195825 0 0.0078734484516278114 0.011675725048913519 0 0.0069818436422670127 0.012434040583771885 0 0.0079802557890316754 0.012920102162467011 0 0.0074509901990492513 0.013236374462430497 0 0.0069818436422670127 0.012434040583771885 0 0.0079802557890316754 0.012920102162467011 0 0.0042362677423904739 0.012949620423154434 0 0.0051812062712082293 0.012033848185210786 0 0.0040255456334477562 0.011146973209180996 0 0.0051812062712082293 0.012033848185210786 0 0.0049330846890832739 0.01113983453468584 0 0.0040255456334477562 0.011146973209180996 0 0.0058584388796562433 0.013245735857514929 0 0.0051812062712082293 0.012033848185210786 0 0.006124028778645315 0.012404587884176555 0 0.0051812062712082293 0.012033848185210786 0 0.006124028778645315 0.012404587884176555 0 0.0059159283010473997 0.011310629723195825 0 0.0051812062712082293 0.012033848185210786 0 0.0059159283010473997 0.011310629723195825 0 0.0049330846890832739 0.01113983453468584 0 0.0062689630082486125 0.0099992177066548227 0 0.0059159283010473997 0.011310629723195825 0 0.0049625570261672683 0.010183638980817655 0 0.0059159283010473997 0.011310629723195825 0 0.0049330846890832739 0.01113983453468584 0 0.0049625570261672683 0.010183638980817655 0 0.0049625570261672683 0.010183638980817655 0 0.0035692232162813017 0.010233582662548911 0 0.0040255456334477562 0.011146973209180996 0 0.0049330846890832739 0.01113983453468584 0 0.0049625570261672683 0.010183638980817655 0 0.0040255456334477562 0.011146973209180996 0 0.0049625570261672683 0.010183638980817655 0 0.0046180586791060444 0.0093620928783365257 0 0.003925291043352824 0.0094468853093380035 0 0.0049625570261672683 0.010183638980817655 0 0.0035692232162813017 0.010233582662548911 0 0.003925291043352824 0.0094468853093380035 0 0.0049625570261672683 0.010183638980817655 0 0.0046180586791060444 0.0093620928783365257 0 0.0052353457019420589 0.0089863754126236484 0 0.0046180586791060444 0.0093620928783365257 0 0.0052353457019420589 0.0089863754126236484 0 0.0042417282006809009 0.0087489299659188665 0 0.0046180586791060444 0.0093620928783365257 0 0.0042417282006809009 0.0087489299659188665 0 0.003925291043352824 0.0094468853093380035 0 0.0062689630082486125 0.0099992177066548227 0 0.0049625570261672683 0.010183638980817655 0 0.0052353457019420589 0.0089863754126236484 0 0.0062689630082486125 0.0099992177066548227 0 0.0060853256571399492 0.0091089714499834936 0 0.0052353457019420589 0.0089863754126236484 0 0.0060853256571399492 0.0091089714499834936 0 0.0052353457019420589 0.0089863754126236484 0 0.0056117083084520451 0.0084259556189091936 0 0.0055661246874490027 0.0086133919980970995 0 0.0051006451770278655 0.0099275115233346967 0 0.0051006451770278655 0.0099275115233346967 0 0.0032626135963762233 0.0080051365988738944 0 0.0052353457019420589 0.0089863754126236484 0 0.0057069803978490102 0.0081944687283709156 0 0.0044959999317571251 0.0077799200232964612 0 0.0052353457019420589 0.0089863754126236484 0 0.0042417282006809009 0.0087489299659188665 0 0.0044959999317571251 0.0077799200232964612 0 0.0017855937357576478 0.0073612757965010678 0 0.0018368306568519359 0.0075337652943901325 0 0.0016599055675773345 0.0075820716472668461 0 0.0018368306568519359 0.0075337652943901325 0 0.0017874905979849874 0.0076915915995826945 0 0.0016599055675773345 0.0075820716472668461 0 0.0017874905979849874 0.0076915915995826945 0 0.0016599055675773345 0.0075820716472668461 0 0.0016478726593265839 0.0077477925465492857 0 0.0024977661095750979 0.0091394324802747794 0 0.0010029271359383166 0.0076300799101355239 0 0.0016599055675773345 0.0075820716472668461 0 0.0014421148702195965 0.0076178636053522803 0 0.0016478726593265839 0.0077477925465492857 0 0.0016599055675773345 0.0075820716472668461 0 0.0014836468977252348 0.0075425139159641871 0 0.0014421148702195965 0.0076178636053522803 0 0.0032626135963762233 0.0080051365988738944 0 0.00314707335506799 0.0098691691189275229 0 0.0017855937357576478 0.0073612757965010678 0 0.0016599055675773345 0.0075820716472668461 0 0.0014836468977252348 0.0075425139159641871 0 0.0036781028696192901 0.0090747067795239732 0 0.0039560507391387147 0.009149864534425782 0 0.0034982953225061561 0.0093816173872740289 0 0.0051006451770278655 0.0099275115233346967 0 0.00314707335506799 0.0098691691189275229 0 0.0049374988767486964 0.012188133589555014 0 0.005226776238735532 0.012092241686224968 0 0.0051024474412663234 0.011916550227244454 0 0.005226776238735532 0.012092241686224968 0 0.0052422012938103928 0.011961560786330207 0 0.0053297012002990404 0.012019043843574372 0 0.005226776238735532 0.012092241686224968 0 0.0052422012938103928 0.011961560786330207 0 0.0051024474412663234 0.011916550227244454 0 0.0052422012938103928 0.011961560786330207 0 0.0051024474412663234 0.011916550227244454 0 0.0052383093560975647 0.011858819343674365 0 0.0052422012938103928 0.011961560786330207 0 0.0053297012002990404 0.012019043843574372 0 0.0053170270880791952 0.011915597403907168 0 0.0052422012938103928 0.011961560786330207 0 0.0053170270880791952 0.011915597403907168 0 0.0052383093560975647 0.011858819343674365 0 0.0057366260460249121 0.012135076846999009 0 0.0054326080595332301 0.012006474141276516 0 0.0054938267267102738 0.011917235608789666 0 0.0057366260460249121 0.012135076846999009 0 0.0054293171541760117 0.012122164451475818 0 0.0054326080595332301 0.012006474141276516 0 0.005226776238735532 0.012092241686224968 0 0.0054293171541760117 0.012122164451475818 0 0.0053297012002990404 0.012019043843574372 0 0.0054293171541760117 0.012122164451475818 0 0.0053297012002990404 0.012019043843574372 0 0.0054326080595332301 0.012006474141276516 0 0.0053297012002990404 0.012019043843574372 0 0.0053170270880791952 0.011915597403907168 0 0.0054326080595332301 0.012006474141276516 0 0.0053170270880791952 0.011915597403907168 0 0.0054326080595332301 0.012006474141276516 0 0.0054023465944327128 0.011912613015728742 0 0.0054326080595332301 0.012006474141276516 0 0.0054938267267102738 0.011917235608789666 0 0.0054023465944327128 0.011912613015728742 0 0.0053679255081869291 0.011814001877551952 0 0.0051389381503627162 0.011823519289444537 0 0.0053535409883127957 0.011586637312638594 0 0.0038048227953055474 0.015917064036008552 0 0.0038671822572947084 0.016140418024758109 0 0.0040339175545506274 0.016332554272002128 0 0.0049696953707848617 0.01451864527517166 0 0.0041563839732631312 0.014233935943116021 0 0.0055566340662057201 0.01189594353839398 0 0.0053679255081869291 0.011814001877551952 0 0.0053535409883127957 0.011586637312638594 0 0.0055566340662057201 0.01189594353839398 0 0.0054938267267102738 0.011917235608789666 0 0.0053679255081869291 0.011814001877551952 0 0.0049696953707848617 0.01451864527517166 0 0.0055903797663925609 0.013790678758136611 0 0.0051512796820389842 0.011433288006715139 0 0.0047069652411146539 0.010885017393068495 0 0.0053170270880791952 0.011915597403907168 0 0.0053679255081869291 0.011814001877551952 0 0.0052486587025430331 0.01187011333694207 0 0.0054938267267102738 0.011917235608789666 0 0.0053679255081869291 0.011814001877551952 0 0.0054023465944327128 0.011912613015728742 0 0.0053170270880791952 0.011915597403907168 0 0.0053679255081869291 0.011814001877551952 0 0.0054023465944327128 0.011912613015728742 0 0.0034048857099323411 0.010130201417452822 0 0.0033412324930047993 0.010240800106647284 0 0.0032731475920622618 0.01019737259967682 0 0.00314707335506799 0.0098691691189275229 0 0.0047069652411146539 0.010885017393068495 0 0.00314707335506799 0.0098691691189275229 0 0.0024977661095750979 0.0091394324802747794 0 0.0053679255081869291 0.011814001877551952 0 0.0051389381503627162 0.011823519289444537 0 0.0052134300794337996 0.011872773388085248 0 0.0052571032033113885 0.011419447108908631 0 0.0047069652411146539 0.010885017393068495 0 0.0024977661095750979 0.0091394324802747794 0 0.0047069652411146539 0.010885017393068495 0 0.0051389381503627162 0.011823519289444537 0 0.0053535409883127957 0.011586637312638594 0 0.0053203342496557851 0.011534495065850003 0 0.0024977661095750979 0.0091394324802747794 0 0.0029892702698255808 0.011988326447351906 0 0.0007454720868974936 0.0079280476292301113 0 0.00078403586392628228 0.0081483897750797389 0 0.00061261008336618546 0.008176368688357423 0 0.00078403586392628228 0.0081483897750797389 0 0.00061261008336618546 0.008176368688357423 0 0.000747539678312285 0.0083320909874489979 0 0.004089873427721445 0.01642366652317389 0 0.0038354477118610476 0.016411613320607015 0 0.0038890604537562866 0.016773430967507622 0 0.0038671822572947084 0.016140418024758109 0 0.0040475043542337113 0.01634901793786547 0 0.0038354477118610476 0.016411613320607015 0 0.004366298108111376 0.016207844982594012 0 0.0041563839732631312 0.014233935943116021 0 0.0040475043542337113 0.01634901793786547 0 0.004089873427721445 0.01642366652317389 0 0.0038354477118610476 0.016411613320607015 0 0.0041563839732631312 0.014233935943116021 0 0.0029892702698255808 0.011988326447351906 0 0.0022306736377721739 0.013522671186031371 0 0.0021972626979241301 0.014141995132267066 0 0.0019643905655955 0.013989378565681556 0 0.0022306736377721739 0.013522671186031371 0 0.0021972626979241301 0.014141995132267066 0 0.0024930732578035716 0.01400465187388941 0 0.0029892702698255808 0.011988326447351906 0 0.003212570289991805 0.018215928555792179 0 0.0011736025920731682 0.014365564854433585 0 0.003212570289991805 0.018215928555792179 0 0.0033802066464807784 0.022077610525765609 0 0.0030202161898112661 0.021845410766642346 0 0.002872282670276899 0.022133990794592415 0 0.003212570289991805 0.018215928555792179 0 0.0023125084395617329 0.020851271777623068 0 0.0029892702698255808 0.011988326447351906 0 0.0013134103192254322 0.011329104509895006 0 0.0027762889630454039 0.011975172610567271 0 0.0016495630121831422 0.0099822413659173981 0 0.0011280390201243262 0.010199350339138548 0 0.00078403586392628228 0.0081483897750797389 0 0.000747539678312285 0.0083320909874489979 0 0.00084749709602292183 0.0082831406812198995 0 0.0029892702698255808 0.011988326447351906 0 0.00074204235823980885 0.0093155592290886241 0 0.0011736025920731682 0.014365564854433585 0 0.0013134103192254322 0.011329104509895006 0 0.0013134103192254322 0.011329104509895006 0 0.00074204235823980885 0.0093155592290886241 0 0.00060090587925383803 0.0083798525945573479 0 0.00084506050318209291 0.0084742844226083757 0 0.00084749709602292183 0.0082831406812198995 0 0.00074204235823980885 0.0093155592290886241 0 0.0009613852023216084 0.0085411538202276559 0 0.00084749709602292183 0.0082831406812198995 0 0.0010792029672085362 0.0084636815549772124 0 0.0010870236902775054 0.0082245392213209229 0 0.00084506050318209291 0.0084742844226083757 0 0.00084749709602292183 0.0082831406812198995 0 0.0010792029672085362 0.0084636815549772124 0 0.0010792029672085362 0.0084636815549772124 0 0.0013734279897738122 0.0086561813748432248 0 0.0014570769469747105 0.0081471693754926328 0 0.0010792029672085362 0.0084636815549772124 0 0.0010870236902775054 0.0082245392213209229 0 0.0014570769469747105 0.0081471693754926328 0 0.0010870236902775054 0.0082245392213209229 0 0.00099869887302536046 0.0080225358091914594 0 0.0014570769469747105 0.0081471693754926328 0 0.0017874905979849874 0.0076915915995826945 0 0.0016478726593265839 0.0077477925465492857 0 0.0018121273131280133 0.007923163768874579 0 0.0010029271359383166 0.0076300799101355239 0 0.0017285232512238935 0.0081085515372209486 0 0.00078403586392628228 0.0081483897750797389 0 0.00084749709602292183 0.0082831406812198995 0 0.00099869887302536046 0.0080225358091914594 0 0.0007454720868974936 0.0079280476292301113 0 0.00078403586392628228 0.0081483897750797389 0 0.00099869887302536046 0.0080225358091914594 0 0.00084749709602292183 0.0082831406812198995 0 0.0010870236902775054 0.0082245392213209229 0 0.00099869887302536046 0.0080225358091914594 0 0.00080975362510223904 0.0093960009929716995 0 0.00062066111853417108 0.0097001895397987922 0 0.00086399545903479173 0.0097687057462742845 0 0.00080975362510223904 0.0093960009929716995 0 0.0011839666829496145 0.0093478943801027867 0 0.00086399545903479173 0.0097687057462742845 0 0.00080975362510223904 0.0093960009929716995 0 0.0011839666829496145 0.0093478943801027867 0 0.00086965973588624393 0.0092504509033517028 0 0.00080975362510223904 0.0093960009929716995 0 0.00076216605330618162 0.0092653671181224823 0 0.00060736087048787431 0.0094718340916969367 0 0.00050440447127616834 0.0095201195787615028 0 4.2919474939527275e-05 0.0093783056446954983 0 0.0011880097732882874 0.0093698675515306116 0 0.00083035910317013576 0.0089364296113761173 0 0.0011839666829496145 0.0093478943801027867 0 0.0013734279897738122 0.0086561813748432248 0 0.00084758963337768498 0.0087759286342286944 0 0.0010792029672085362 0.0084636815549772124 0 0.0013734279897738122 0.0086561813748432248 0 0.00084758963337768498 0.0087759286342286944 0 0.00060090587925383803 0.0083798525945573479 0 0.00084506050318209291 0.0084742844226083757 0 0.00084758963337768498 0.0087759286342286944 0 0.00074204235823980885 0.0093155592290886241 0 0.00083035910317013576 0.0089364296113761173 0 0.00072431115142881876 0.0091275162933446771 0 0.00086965973588624393 0.0092504509033517028 0 0.00077392217462780659 0.0092898957224539901 0 0.00084506050318209291 0.0084742844226083757 0 0.0010792029672085362 0.0084636815549772124 0 0.00084758963337768498 0.0087759286342286944 0 0.00080975362510223904 0.0093960009929716995 0 0.00086965973588624393 0.0092504509033517028 0 0.00077392217462780659 0.0092898957224539901 0 0.00023469326733740358 0.0087329499578251788 0 0.00076216605330618162 0.0092653671181224823 0 0.00041082464809224091 0.0092914503551031861 0 0.0011736025920731682 0.014365564854433585 0 4.2919474939527275e-05 0.0093783056446954983 0 0.0013134103192254322 0.011329104509895006 0 4.2919474939527275e-05 0.0093783056446954983 0 0.00068861658304748992 0.0091457056943726901 0 0.00072431115142881876 0.0091275162933446771 0 0.00077392217462780659 0.0092898957224539901 0 0.0019000540984938721 0.012092062875670736 0 0.00076092998857249083 0.012562917920999509 0 -0.00036695077994603744 0.010536071441312638 0 0.00023469326733740358 0.0087329499578251788 0 2.7534280902024014e-05 0.0093069540070730428 0 -0.00056165443578855354 0.0088199645622669132 0 0.0011736025920731682 0.014365564854433585 0 0.0011485174400817288 0.015626669840746704 0 0.0033802066464807784 0.022077610525765609 0 0.002872282670276899 0.022133990794592415 0 0.0026680659454715121 0.022422260123747723 0 0.00023469326733740358 0.0087329499578251788 0 0.00041082464809224091 0.0092914503551031861 0 2.7534280902024014e-05 0.0093069540070730428 0 0.00041082464809224091 0.0092914503551031861 0 2.7534280902024014e-05 0.0093069540070730428 0 0.00034931200494425665 0.0096681890119425483 0 2.7534280902024014e-05 0.0093069540070730428 0 -5.1253076185551505e-05 0.0099833169049543553 0 0.00034931200494425665 0.0096681890119425483 0 0.00076216605330618162 0.0092653671181224823 0 0.00041082464809224091 0.0092914503551031861 0 0.00060736087048787431 0.0094718340916969367 0 0.00041082464809224091 0.0092914503551031861 0 0.00060736087048787431 0.0094718340916969367 0 0.00034931200494425665 0.0096681890119425483 0 0.00060736087048787431 0.0094718340916969367 0 0.00034931200494425665 0.0096681890119425483 0 0.00062066111853417108 0.0097001895397987922 0 0.00080975362510223904 0.0093960009929716995 0 0.00060736087048787431 0.0094718340916969367 0 0.00062066111853417108 0.0097001895397987922 0 0.00034931200494425665 0.0096681890119425483 0 0.00062066111853417108 0.0097001895397987922 0 0.00016490556150766783 0.010051629017527432 0 0.00062066111853417108 0.0097001895397987922 0 0.00016490556150766783 0.010051629017527432 0 0.00052466321208801954 0.010114140528704272 0 -5.1253076185551505e-05 0.0099833169049543553 0 0.00016490556150766783 0.010051629017527432 0 -0.00029726702946771493 0.010236873802480711 0 -5.1253076185551505e-05 0.0099833169049543553 0 0.00034931200494425665 0.0096681890119425483 0 0.00016490556150766783 0.010051629017527432 0 0.00016490556150766783 0.010051629017527432 0 0.00011046486429114829 0.0103998818780669 0 -0.00029726702946771493 0.010236873802480711 0 0.00011046486429114829 0.0103998818780669 0 0.00052466321208801954 0.010114140528704272 0 0.00049646673806789379 0.010643251129924125 0 0.00016490556150766783 0.010051629017527432 0 0.00011046486429114829 0.0103998818780669 0 0.00052466321208801954 0.010114140528704272 0 0.00052466321208801954 0.010114140528704272 0 0.00098377092650223119 0.010233157033012089 0 0.00049646673806789379 0.010643251129924125 0 0.00052466321208801954 0.010114140528704272 0 0.00098377092650223119 0.010233157033012089 0 0.00086399545903479173 0.0097687057462742845 0 0.00062066111853417108 0.0097001895397987922 0 0.00052466321208801954 0.010114140528704272 0 0.00086399545903479173 0.0097687057462742845 0 0.0011839666829496145 0.0093478943801027867 0 0.0012342262275873183 0.0098388378471921823 0 0.0016865096394983574 0.0096325889521314632 0 0.0011839666829496145 0.0093478943801027867 0 0.00086399545903479173 0.0097687057462742845 0 0.0012342262275873183 0.0098388378471921823 0 0.00098377092650223119 0.010233157033012089 0 0.00086399545903479173 0.0097687057462742845 0 0.0012342262275873183 0.0098388378471921823 0 0.00098377092650223119 0.010233157033012089 0 0.0012342262275873183 0.0098388378471921823 0 0.0014676372315347616 0.010195516488691261 0 0.00098377092650223119 0.010233157033012089 0 0.00086604062691979981 0.01092440641170528 0 0.0013816188848523208 0.010741753297353478 0 0.00098377092650223119 0.010233157033012089 0 0.0013816188848523208 0.010741753297353478 0 0.0014676372315347616 0.010195516488691261 0 0.00098377092650223119 0.010233157033012089 0 0.00086604062691979981 0.01092440641170528 0 0.00049646673806789379 0.010643251129924125 0 0.00086604062691979981 0.01092440641170528 0 0.0013816188848523208 0.010741753297353478 0 0.0011585837939171648 0.011372002674140392 0 0.0013816188848523208 0.010741753297353478 0 0.0011585837939171648 0.011372002674140392 0 0.0017410926163919467 0.011134303804170338 0 0.00086604062691979981 0.01092440641170528 0 0.0011585837939171648 0.011372002674140392 0 0.00023879729847086967 0.011615503967493132 0 0.0011585837939171648 0.011372002674140392 0 0.00090956973005862135 0.011888750570762155 0 0.00023879729847086967 0.011615503967493132 0 0.0011585837939171648 0.011372002674140392 0 0.00090956973005862135 0.011888750570762155 0 0.0016997914229456704 0.011633999442268731 0 0.00090956973005862135 0.011888750570762155 0 0.0016997914229456704 0.011633999442268731 0 0.0016346122219289849 0.012298285573674739 0 -9.6585753955187302e-05 0.012185354593872976 0 0.00023879729847086967 0.011615503967493132 0 0.00041844417003148604 0.012403190192921411 0 -9.6585753955187302e-05 0.012185354593872976 0 0.00023879729847086967 0.011615503967493132 0 -0.00025079795399605731 0.011674321464016766 0 0.00093910218981018529 0.012079398019792967 0 0.00023879729847086967 0.011615503967493132 0 0.00041844417003148604 0.012403190192921411 0 0.0009151085810873219 0.011977318744611463 0 0.00026496209652987946 0.011627663902996365 0 0.00023879729847086967 0.011615503967493132 0 -0.00027485562223539424 0.011163925705227975 0 -0.00025079795399605731 0.011674321464016766 0 0.00023879729847086967 0.011615503967493132 0 4.2235279123388443e-05 0.010792691690614335 0 -0.00027485562223539424 0.011163925705227975 0 0.00086604062691979981 0.01092440641170528 0 0.00023879729847086967 0.011615503967493132 0 0.00049646673806789379 0.010643251129924125 0 4.2235279123388443e-05 0.010792691690614335 0 -0.0002410331287699258 0.010678916147295516 0 -0.00027485562223539424 0.011163925705227975 0 0.00023879729847086967 0.011615503967493132 0 0.00049646673806789379 0.010643251129924125 0 4.2235279123388443e-05 0.010792691690614335 0 0.00011046486429114829 0.0103998818780669 0 0.00049646673806789379 0.010643251129924125 0 4.2235279123388443e-05 0.010792691690614335 0 0.00011046486429114829 0.0103998818780669 0 -0.0002410331287699258 0.010678916147295516 0 -0.00029726702946771493 0.010236873802480711 0 0.00011046486429114829 0.0103998818780669 0 4.2235279123388443e-05 0.010792691690614335 0 -0.0002410331287699258 0.010678916147295516 0 -0.0002410331287699258 0.010678916147295516 0 -0.00075894326458479091 0.010932037027793823 0 -0.00029726702946771493 0.010236873802480711 0 -0.0012892396672762553 0.013921448092933473 0 -0.00049651206448160751 0.011674577069606847 0 -0.0017897753305460287 0.016733826113247158 0 -0.0037558987571949306 0.017088454178293737 0 -0.0031305447192968767 0.013967068404286921 0 -0.0017897753305460287 0.016733826113247158 0 -0.0031305447192968767 0.013967068404286921 0 -0.00065399632168140537 0.013123590370028236 0 -0.0017897753305460287 0.016733826113247158 0 -0.0031015609342540207 0.020369440050157776 0 -0.0037558987571949306 0.017088454178293737 0 -0.0002410331287699258 0.010678916147295516 0 -0.00075894326458479091 0.010932037027793823 0 -0.00027485562223539424 0.011163925705227975 0 -0.00075894326458479091 0.010932037027793823 0 -0.00027485562223539424 0.011163925705227975 0 -0.00064052463074285764 0.011460009193721074 0 -0.00027485562223539424 0.011163925705227975 0 -0.00025079795399605731 0.011674321464016766 0 -0.00064052463074285764 0.011460009193721074 0 -0.00025079795399605731 0.011674321464016766 0 -0.00064052463074285764 0.011460009193721074 0 -0.00050319420144920681 0.01197681286561207 0 -0.00064052463074285764 0.011460009193721074 0 -0.00082239943375589613 0.011794697937414843 0 -0.00050319420144920681 0.01197681286561207 0 -0.0012892396672762553 0.013921448092933473 0 -0.0021928241779979154 0.015719730838535586 0 -0.00064052463074285764 0.011460009193721074 0 -0.0012332455978566316 0.011734505141850706 0 -0.00082239943375589613 0.011794697937414843 0 -0.00075894326458479091 0.010932037027793823 0 -0.00064052463074285764 0.011460009193721074 0 -0.0012332455978566316 0.011734505141850706 0 -0.00082239943375589613 0.011794697937414843 0 -0.001097107762139079 0.01205730205350714 0 -0.00088869769869871057 0.012251316982526458 0 -0.0012332455978566316 0.011734505141850706 0 -0.001097107762139079 0.01205730205350714 0 -0.0015262101266652951 0.012517338845359043 0 -0.00082239943375589613 0.011794697937414843 0 -0.00088869769869871057 0.012251316982526458 0 -0.00050319420144920681 0.01197681286561207 0 -0.0012332455978566316 0.011734505141850706 0 -0.00082239943375589613 0.011794697937414843 0 -0.001097107762139079 0.01205730205350714 0 -0.001097107762139079 0.01205730205350714 0 -0.00088869769869871057 0.012251316982526458 0 -0.0015262101266652951 0.012517338845359043 0 -0.00088869769869871057 0.012251316982526458 0 -0.00050319420144920681 0.01197681286561207 0 -0.00048292094509405371 0.012509961530622992 0 -9.6585753955187302e-05 0.012185354593872976 0 -0.00050319420144920681 0.01197681286561207 0 -0.00048292094509405371 0.012509961530622992 0 -9.6585753955187302e-05 0.012185354593872976 0 -0.00025079795399605731 0.011674321464016766 0 -0.00050319420144920681 0.01197681286561207 0 -0.0013404237983054886 0.033233457186955938 0 -0.0015136716718436257 0.027789980122300266 0 -0.0025154694256348639 0.02662077032894155 0 -0.0015136716718436257 0.027789980122300266 0 -0.0031015609342540207 0.020369440050157776 0 -0.0043362672627801635 0.020225827548618749 0 -0.0049311585971477112 0.023279944303456597 0 -0.0021928241779979154 0.015719730838535586 0 -0.0028575780381324151 0.020104434558565726 0 -0.0012332455978566316 0.011734505141850706 0 -0.0020691996275447292 0.01302145903478757 0 -0.0015262101266652951 0.012517338845359043 0 -0.00089216669849694747 0.032948855330211267 0 -0.00042849430982206944 0.032787013599645233 0 -0.00059352373407436704 0.03321638388150961 0 -0.0025154694256348639 0.02662077032894155 0 -0.0019011161860845649 0.024546800865569787 0 -0.0031015609342540207 0.020369440050157776 0 -0.0043362672627801635 0.020225827548618749 0 -0.0037558987571949306 0.017088454178293737 0 -0.00042849430982206944 0.032787013599645233 0 -0.00075540500537309857 0.032564370686664568 0 -9.5678221639251089e-05 0.032130752353140696 0 -0.00089216669849694747 0.032948855330211267 0 -0.00075540500537309857 0.032564370686664568 0 -0.0013910306871880833 0.032602932886805568 0 -0.00089216669849694747 0.032948855330211267 0 -0.00042849430982206944 0.032787013599645233 0 -0.00075540500537309857 0.032564370686664568 0 -0.00075540500537309857 0.032564370686664568 0 -0.00091479351492030703 0.032117521679190179 0 -0.0013910306871880833 0.032602932886805568 0 -0.00075540500537309857 0.032564370686664568 0 -0.00091479351492030703 0.032117521679190179 0 -9.5678221639251089e-05 0.032130752353140696 0 -9.5678221639251089e-05 0.032130752353140696 0 -0.0004869201802096565 0.031519616894702757 0 0.00032076446439805904 0.031184618671404998 0 -0.00091479351492030703 0.032117521679190179 0 -9.5678221639251089e-05 0.032130752353140696 0 -0.0004869201802096565 0.031519616894702757 0 -0.0019011161860845649 0.024546800865569787 0 -0.0013934163204252178 0.022654426708617857 0 -0.0004869201802096565 0.031519616894702757 0 -0.00083762945725204428 0.031176654806985105 0 -0.0012270759468117043 0.031596516664362417 0 -0.00091479351492030703 0.032117521679190179 0 -0.0004869201802096565 0.031519616894702757 0 -0.0012270759468117043 0.031596516664362417 0 -0.0004869201802096565 0.031519616894702757 0 -0.00083762945725204428 0.031176654806985105 0 -0.00054857317128991152 0.03068461784792699 0 -0.00083762945725204428 0.031176654806985105 0 -0.0011966670613326115 0.03114271735319521 0 -0.0012270759468117043 0.031596516664362417 0 -0.00083762945725204428 0.031176654806985105 0 -0.00054857317128991152 0.03068461784792699 0 -0.00099316412181954831 0.030776048058099741 0 -0.00083762945725204428 0.031176654806985105 0 -0.00099316412181954831 0.030776048058099741 0 -0.0011966670613326115 0.03114271735319521 0 -0.00086575148903661871 0.026415306843095458 0 -0.0014953090575376127 0.029266156875811192 0 -0.00078994594318642741 0.02991290450555318 0 -0.00065534555557485673 0.029514207596689174 0 -0.0014304719726467021 0.030271975760636984 0 -0.00099316412181954831 0.030776048058099741 0 -0.00089666495281433473 0.030293350724745923 0 -0.0012374107203664982 0.030553357105384014 0 -0.00054857317128991152 0.03068461784792699 0 -0.00099316412181954831 0.030776048058099741 0 -0.00089666495281433473 0.030293350724745923 0 -0.00054857317128991152 0.03068461784792699 0 -0.00089666495281433473 0.030293350724745923 0 -0.00044080635040087755 0.030036472751477583 0 -0.00089666495281433473 0.030293350724745923 0 -0.00078994594318642741 0.02991290450555318 0 -0.00044080635040087755 0.030036472751477583 0 -0.00078994594318642741 0.02991290450555318 0 -0.00044080635040087755 0.030036472751477583 0 -0.00054971220891905984 0.029736019038937658 0 -0.00089666495281433473 0.030293350724745923 0 -0.00078994594318642741 0.02991290450555318 0 -0.0014304719726467021 0.030271975760636984 0 3.2581657272207857e-05 0.029918564765599936 0 0.00075734069191418741 0.029987517665090575 0 0.0001838865531126732 0.029634045117638085 0 3.2581657272207857e-05 0.029918564765599936 0 -0.00044080635040087755 0.030036472751477583 0 -0.00019835658904612444 0.029621416087552872 0 -0.00044080635040087755 0.030036472751477583 0 -0.00054971220891905984 0.029736019038937658 0 -0.00019835658904612444 0.029621416087552872 0 3.2581657272207857e-05 0.029918564765599936 0 -0.00044080635040087755 0.030036472751477583 0 6.5043180815997504e-05 0.030584948678895878 0 -0.00054857317128991152 0.03068461784792699 0 -0.00044080635040087755 0.030036472751477583 0 6.5043180815997504e-05 0.030584948678895878 0 3.2581657272207857e-05 0.029918564765599936 0 6.5043180815997504e-05 0.030584948678895878 0 0.00075734069191418741 0.029987517665090575 0 -0.0004869201802096565 0.031519616894702757 0 6.5043180815997504e-05 0.030584948678895878 0 0.00032076446439805904 0.031184618671404998 0 -0.0004869201802096565 0.031519616894702757 0 -0.00054857317128991152 0.03068461784792699 0 6.5043180815997504e-05 0.030584948678895878 0 -0.0031305447192968767 0.013967068404286921 0 -0.00065399632168140537 0.013123590370028236 0 -0.0024289075856417709 0.011161758363762056 0 6.5043180815997504e-05 0.030584948678895878 0 0.00032076446439805904 0.031184618671404998 0 0.00075734069191418741 0.029987517665090575 0 -0.0013934163204252178 0.022654426708617857 0 -0.00099427893550641617 0.020185550781201066 0 -5.1253076185551505e-05 0.0099833169049543553 0 -0.00065399632168140537 0.013123590370028236 0 -0.0012723604802827575 0.01013443326893705 0 -0.00065399632168140537 0.013123590370028236 0 -0.0024289075856417709 0.011161758363762056 0 -0.0012723604802827575 0.01013443326893705 0 -5.7063231366966559e-05 0.010104709894639638 0 -0.00049651206448160751 0.011674577069606847 0 0.00075734069191418741 0.029987517665090575 0 0.0011164667773531241 0.028526048985285365 0 0.00016399800735432949 0.029011129539242491 0 0.00075734069191418741 0.029987517665090575 0 0.0001838865531126732 0.029634045117638085 0 0.00016399800735432949 0.029011129539242491 0 -0.00099427893550641617 0.020185550781201066 0 0.0016864166658250217 0.020980543361471128 0 -0.0024289075856417709 0.011161758363762056 0 -0.0012723604802827575 0.01013443326893705 0 -0.0017312368359077126 0.0091496432674745762 0 0.0016864166658250217 0.020980543361471128 0 -6.9909258889324621e-05 0.026889594734967208 0 2.7534280902024014e-05 0.0093069540070730428 0 -5.1253076185551505e-05 0.0099833169049543553 0 -0.0012723604802827575 0.01013443326893705 0 2.7534280902024014e-05 0.0093069540070730428 0 -0.0012723604802827575 0.01013443326893705 0 -0.00056165443578855354 0.0088199645622669132 0 0.0024802403638115663 0.022103518643185494 0 0.0021428564439498663 0.021911563171750598 0 0.002014925694742529 0.022687585046882459 0 -0.0012723604802827575 0.01013443326893705 0 -0.00056165443578855354 0.0088199645622669132 0 -0.0017312368359077126 0.0091496432674745762 0 0.0011485174400817288 0.015626669840746704 0 0.0016864166658250217 0.020980543361471128 0 0.0024802403638115663 0.022103518643185494 0 0.0026680659454715121 0.022422260123747723 0 0.002014925694742529 0.022687585046882459 0 0.0024802403638115663 0.022103518643185494 0 0.002872282670276899 0.022133990794592415 0 0.0026680659454715121 0.022422260123747723 0 0.0018862530012944034 0.02380724454109092 0 0.0004307299206738279 0.02376969705128671 0 0.00045657526539129675 0.024473989862610512 0 0.0018862530012944034 0.02380724454109092 0 0.0011531389122516973 0.02283127416462355 0 0.0004307299206738279 0.02376969705128671 0 0.0020408445607143872 0.022839412143044385 0 0.0016864166658250217 0.020980543361471128 0 0.0021428564439498663 0.021911563171750598 0 0.0018862530012944034 0.02380724454109092 0 0.0011531389122516973 0.02283127416462355 0 0.0011531389122516973 0.02283127416462355 0 0.00036235881094668374 0.022905575461301932 0 0.0004307299206738279 0.02376969705128671 0 0.00036235881094668374 0.022905575461301932 0 0.0004307299206738279 0.02376969705128671 0 -0.00025310274578285252 0.023036532553100189 0 0.0004307299206738279 0.02376969705128671 0 -0.00025310274578285252 0.023036532553100189 0 -0.00074822174270764515 0.023855134599489819 0 -0.00013529271803990197 0.022362397633533072 0 0.00036235881094668374 0.022905575461301932 0 -0.00025310274578285252 0.023036532553100189 0 6.4293854750445474e-05 0.025635150034612371 0 -0.00044808929029142581 0.027145508681734966 0 -0.0010964151129061138 0.022339305298165739 0 -0.00025310274578285252 0.023036532553100189 0 -0.00074822174270764515 0.023855134599489819 0 0.0012799811697893626 0.029228468713696887 0 0.00089618658040388477 0.030160396893359264 0 0.00053671944057786787 0.029565071809297239 0 -0.0010964151129061138 0.022339305298165739 0 -0.00074822174270764515 0.023855134599489819 0 -0.0019110917069924175 0.024300697840859472 0 -0.00074822174270764515 0.023855134599489819 0 -0.0019110917069924175 0.024300697840859472 0 -0.00096379985102791057 0.025192350989093705 0 -0.0019110917069924175 0.024300697840859472 0 -0.00096379985102791057 0.025192350989093705 0 -0.0027110860883679277 0.026409584744785945 0 -0.00078994594318642741 0.02991290450555318 0 -0.00065534555557485673 0.029514207596689174 0 -0.00067762464148595847 0.029654541129858599 0 -0.00078994594318642741 0.02991290450555318 0 -0.00067762464148595847 0.029654541129858599 0 -0.00054971220891905984 0.029736019038937658 0 -0.00065534555557485673 0.029514207596689174 0 -0.00067762464148595847 0.029654541129858599 0 -0.00054971220891905984 0.029736019038937658 0 -0.00065534555557485673 0.029514207596689174 0 -0.00054971220891905984 0.029736019038937658 0 -0.00031185335160352311 0.029473579091565366 0 -0.00086575148903661871 0.026415306843095458 0 -6.9909258889324621e-05 0.026889594734967208 0 -0.00031185335160352311 0.029473579091565366 0 -0.00019835658904612444 0.029621416087552872 0 0.00016399800735432949 0.029011129539242491 0 0.0004307299206738279 0.02376969705128671 0 -0.0010437616921284303 0.025126959070810469 0 0.00045657526539129675 0.024473989862610512 0 -0.00065534555557485673 0.029514207596689174 0 -0.00031185335160352311 0.029473579091565366 0 0.00016399800735432949 0.029011129539242491 0 -0.00054971220891905984 0.029736019038937658 0 -0.00031185335160352311 0.029473579091565366 0 -0.00019835658904612444 0.029621416087552872 0 -0.00019835658904612444 0.029621416087552872 0 0.0001838865531126732 0.029634045117638085 0 0.00016399800735432949 0.029011129539242491 0 3.2581657272207857e-05 0.029918564765599936 0 -0.00019835658904612444 0.029621416087552872 0 0.0001838865531126732 0.029634045117638085 0 0.0004307299206738279 0.02376969705128671 0 -0.00074822174270764515 0.023855134599489819 0 -0.00096379985102791057 0.025192350989093705 0 0.00044754116830086259 0.023610435828633737 0 -0.00086575148903661871 0.026415306843095458 0 -1.1524353407217958e-05 0.030014328070793801 0 -0.00076627397029554361 0.030507302948800132 0 -0.00010235667181100373 0.030810054263289761 0 0.00039336431290601826 0.030492952115243849 0 -1.1524353407217958e-05 0.030014328070793801 0 -0.00010235667181100373 0.030810054263289761 0 -1.1524353407217958e-05 0.030014328070793801 0 -0.00060615753977646871 0.030003267768428748 0 -0.00076627397029554361 0.030507302948800132 0 -0.00044808929029142581 0.027145508681734966 0 -0.0014953090575376127 0.029266156875811192 0 0.00089618658040388477 0.030160396893359264 0 0.00039336431290601826 0.030492952115243849 0 0.00053002392708508428 0.031054082827481684 0 0.00039336431290601826 0.030492952115243849 0 0.00053671944057786787 0.029565071809297239 0 -1.1524353407217958e-05 0.030014328070793801 0 0.00089618658040388477 0.030160396893359264 0 0.00039336431290601826 0.030492952115243849 0 0.00053671944057786787 0.029565071809297239 0 -0.0006918032250195264 0.02945607710252959 0 0.00053671944057786787 0.029565071809297239 0 -1.1524353407217958e-05 0.030014328070793801 0 -0.0006918032250195264 0.02945607710252959 0 -1.1524353407217958e-05 0.030014328070793801 0 -0.00060615753977646871 0.030003267768428748 0 -0.0006918032250195264 0.02945607710252959 0 -0.00095443051780970455 0.030030013282086376 0 -0.00060615753977646871 0.030003267768428748 0 -0.0012769748643698426 0.029398755766495952 0 -0.0006918032250195264 0.02945607710252959 0 -0.00095443051780970455 0.030030013282086376 0 -0.00079699025175020328 0.031864216479025397 0 -0.0011393707272092754 0.032489196099209257 0 -0.0012743532710748561 0.029462435981069054 0 -0.0015126107039842094 0.029837345606929511 0 -0.0020638853522908502 0.030098715555785725 0 -0.0015126107039842094 0.029837345606929511 0 -0.0013462222129883743 0.030220133170643614 0 -0.0020638853522908502 0.030098715555785725 0 -0.0012769748643698426 0.029398755766495952 0 -0.00095443051780970455 0.030030013282086376 0 -0.0015126107039842094 0.029837345606929511 0 -0.00079699025175020328 0.031864216479025397 0 -0.00088204351910362922 0.029736668299480604 0 -0.00095443051780970455 0.030030013282086376 0 -0.0015126107039842094 0.029837345606929511 0 -0.0013462222129883743 0.030220133170643614 0 -0.0014898261938233993 0.030673331579034038 0 -0.0013462222129883743 0.030220133170643614 0 -0.0020638853522908502 0.030098715555785725 0 -0.0014898261938233993 0.030673331579034038 0 -0.0013462222129883743 0.030220133170643614 0 -0.00076627397029554361 0.030507302948800132 0 -0.0014898261938233993 0.030673331579034038 0 -0.00076627397029554361 0.030507302948800132 0 -0.0010643785921375603 0.030979329085721208 0 -0.00095443051780970455 0.030030013282086376 0 -0.00060615753977646871 0.030003267768428748 0 -0.00076627397029554361 0.030507302948800132 0 -0.00095443051780970455 0.030030013282086376 0 -0.0013462222129883743 0.030220133170643614 0 -0.00076627397029554361 0.030507302948800132 0 -0.00076627397029554361 0.030507302948800132 0 -0.00064388364253185003 0.031239407042098523 0 -0.0010643785921375603 0.030979329085721208 0 -0.00064388364253185003 0.031239407042098523 0 -0.0010643785921375603 0.030979329085721208 0 -0.0013525928553064673 0.031494905862746059 0 -0.0014898261938233993 0.030673331579034038 0 -0.0013525928553064673 0.031494905862746059 0 -0.002107872618404491 0.031108409522286926 0 -0.0014898261938233993 0.030673331579034038 0 -0.0010643785921375603 0.030979329085721208 0 -0.0013525928553064673 0.031494905862746059 0 -0.0018080363296877231 0.032869890744740171 0 -0.0019532273961885204 0.032809183652778073 0 -0.0023341777449834922 0.034138190352750689 0 -0.0022386671446559679 0.03266515205717653 0 -0.0017578107086402312 0.033628652401024473 0 -0.0023341777449834922 0.034138190352750689 0 -0.0034275792291096922 0.03354176536409325 0 -0.0022386671446559679 0.03266515205717653 0 -0.00064388364253185003 0.031239407042098523 0 -0.0013525928553064673 0.031494905862746059 0 -0.00056836938148612187 0.031897137532987396 0 -0.0018080363296877231 0.032869890744740171 0 -0.0019099549180315752 0.032341738864565095 0 -0.0023683324597212857 0.031586181746159625 0 -0.002162030133142096 0.031686279762461397 0 -0.0018904207391246188 0.030911858912470482 0 -0.00064388364253185003 0.031239407042098523 0 -0.00056836938148612187 0.031897137532987396 0 -2.3841819169194084e-05 0.031480822988380168 0 -0.0019099549180315752 0.032341738864565095 0 -0.0021457383599438004 0.032122826573427021 0 -0.002162030133142096 0.031686279762461397 0 -0.0018600801513639301 0.031453993497908922 0 -0.0018904207391246188 0.030911858912470482 0 -0.002162030133142096 0.031686279762461397 0 -0.0018600801513639301 0.031453993497908922 0 -0.0019517722189128929 0.031715830329367381 0 -0.0018600801513639301 0.031453993497908922 0 -0.0018904207391246188 0.030911858912470482 0 -0.0015346139297457463 0.031274149536159 0 -0.0019099549180315752 0.032341738864565095 0 -0.00086391140995433218 0.031105311695256474 0 -0.00076627397029554361 0.030507302948800132 0 -0.00064388364253185003 0.031239407042098523 0 -0.00010235667181100373 0.030810054263289761 0 -2.3841819169194084e-05 0.031480822988380168 0 -0.00010235667181100373 0.030810054263289761 0 0.00053002392708508428 0.031054082827481684 0 -0.00064388364253185003 0.031239407042098523 0 -2.3841819169194084e-05 0.031480822988380168 0 -0.00010235667181100373 0.030810054263289761 0 0.00039336431290601826 0.030492952115243849 0 -0.00010235667181100373 0.030810054263289761 0 0.00053002392708508428 0.031054082827481684 0 -0.0018904207391246188 0.030911858912470482 0 -0.0014770145661735772 0.030546933433095766 0 -0.0013821238539047497 0.030852839343279297 0 -0.00086391140995433218 0.031105311695256474 0 -0.0014953090575376127 0.029266156875811192 0 -0.0018904207391246188 0.030911858912470482 0 -0.001419808680670778 0.030311717049757894 0 -0.0014770145661735772 0.030546933433095766 0 -0.00089666495281433473 0.030293350724745923 0 -0.0014304719726467021 0.030271975760636984 0 -0.0012374107203664982 0.030553357105384014 0 -0.0014770145661735772 0.030546933433095766 0 -0.0012374107203664982 0.030553357105384014 0 -0.0013821238539047497 0.030852839343279297 0 -0.0014304719726467021 0.030271975760636984 0 -0.0014770145661735772 0.030546933433095766 0 -0.0012374107203664982 0.030553357105384014 0 -0.0014953090575376127 0.029266156875811192 0 -0.0016394386579706981 0.029914892989784184 0 -0.00099316412181954831 0.030776048058099741 0 -0.0013821238539047497 0.030852839343279297 0 -0.0011966670613326115 0.03114271735319521 0 -0.00099316412181954831 0.030776048058099741 0 -0.0012374107203664982 0.030553357105384014 0 -0.0013821238539047497 0.030852839343279297 0 -0.0013821238539047497 0.030852839343279297 0 -0.0015346139297457463 0.031274149536159 0 -0.0011966670613326115 0.03114271735319521 0 -0.0018904207391246188 0.030911858912470482 0 -0.0013821238539047497 0.030852839343279297 0 -0.0015346139297457463 0.031274149536159 0 -0.0018600801513639301 0.031453993497908922 0 -0.0015346139297457463 0.031274149536159 0 -0.0017414223212574059 0.031748491232242257 0 -0.0015346139297457463 0.031274149536159 0 -0.0011966670613326115 0.03114271735319521 0 -0.0012270759468117043 0.031596516664362417 0 -0.0015346139297457463 0.031274149536159 0 -0.0012270759468117043 0.031596516664362417 0 -0.0017414223212574059 0.031748491232242257 0 -0.0012270759468117043 0.031596516664362417 0 -0.0014621896759714913 0.032066063498403657 0 -0.0017414223212574059 0.031748491232242257 0 -0.00091479351492030703 0.032117521679190179 0 -0.0012270759468117043 0.031596516664362417 0 -0.0014621896759714913 0.032066063498403657 0 -0.002162030133142096 0.031686279762461397 0 -0.0020337739295290783 0.031968560318293045 0 -0.0019517722189128929 0.031715830329367381 0 -0.002162030133142096 0.031686279762461397 0 -0.0020337739295290783 0.031968560318293045 0 -0.0021797958031486817 0.032239480743302261 0 -0.0020337739295290783 0.031968560318293045 0 -0.0017414223212574059 0.031748491232242257 0 -0.0019517722189128929 0.031715830329367381 0 -0.0018600801513639301 0.031453993497908922 0 -0.0017414223212574059 0.031748491232242257 0 -0.0019517722189128929 0.031715830329367381 0 -0.0020337739295290783 0.031968560318293045 0 -0.0017414223212574059 0.031748491232242257 0 -0.0020461600529201227 0.032198618188228646 0 -0.0014621896759714913 0.032066063498403657 0 -0.0017414223212574059 0.031748491232242257 0 -0.0020461600529201227 0.032198618188228646 0 -0.0020337739295290783 0.031968560318293045 0 -0.0020461600529201227 0.032198618188228646 0 -0.0021797958031486817 0.032239480743302261 0 -0.0020461600529201227 0.032198618188228646 0 -0.0021918661113473105 0.032191482848765801 0 -0.0021311664307994407 0.032168641774693661 0 -0.0019922935973699244 0.032242455082544655 0 -0.0018966514298456414 0.032239539198609536 0 -0.0020461600529201227 0.032198618188228646 0 -0.0021311664307994407 0.032168641774693661 0 -0.0021352318757146996 0.032231017955116376 0 -0.00091479351492030703 0.032117521679190179 0 -0.0014621896759714913 0.032066063498403657 0 -0.0013910306871880833 0.032602932886805568 0 -0.0014621896759714913 0.032066063498403657 0 -0.0020461600529201227 0.032198618188228646 0 -0.0013910306871880833 0.032602932886805568 0 -0.0021918661113473105 0.032191482848765801 0 -0.0021311664307994407 0.032168641774693661 0 -0.0021963976480347839 0.032071469669245969 0 -0.0013404237983054886 0.033233457186955938 0 -0.0018966514298456414 0.032239539198609536 0 -0.0023546727205415821 0.032052396302128687 0 -0.0021918661113473105 0.032191482848765801 0 -0.0021963976480347839 0.032071469669245969 0 -0.0021311664307994407 0.032168641774693661 0 -0.0020847264411241375 0.031986978732884606 0 -0.0021352318757146996 0.032231017955116376 0 -0.0021311664307994407 0.032168641774693661 0 -0.0020847264411241375 0.031986978732884606 0 -0.0021963976480347839 0.032071469669245969 0 -0.0020847264411241375 0.031986978732884606 0 -0.0021963976480347839 0.032071469669245969 0 -0.0022647284107757972 0.031821192085523989 0 -0.0023546727205415821 0.032052396302128687 0 -0.0021963976480347839 0.032071469669245969 0 -0.0022647284107757972 0.031821192085523989 0 -0.0020750940847718484 0.031984176384977969 0 -0.0017683892413347085 0.032076523952550166 0 -0.0020847264411241375 0.031986978732884606 0 -0.0019415085051591155 0.031930321358527219 0 -0.0021352318757146996 0.032231017955116376 0 -0.0019415085051591155 0.031930321358527219 0 -0.0021352318757146996 0.032231017955116376 0 -0.0017517617559414682 0.032336541883840608 0 -0.0021352318757146996 0.032231017955116376 0 -0.0022386671446559679 0.03266515205717653 0 -0.0017517617559414682 0.032336541883840608 0 -0.0021352318757146996 0.032231017955116376 0 -0.0021797958031486817 0.032239480743302261 0 -0.0022386671446559679 0.03266515205717653 0 -0.0020461600529201227 0.032198618188228646 0 -0.0021352318757146996 0.032231017955116376 0 -0.0021797958031486817 0.032239480743302261 0 -0.002238120352206207 0.031720246181621274 0 -0.0021797958031486817 0.032239480743302261 0 -0.0022386671446559679 0.03266515205717653 0 -0.0019099549180315752 0.032341738864565095 0 -0.0026021666993481436 0.032763222159502621 0 -0.002238120352206207 0.031720246181621274 0 -0.002162030133142096 0.031686279762461397 0 -0.0021797958031486817 0.032239480743302261 0 -0.0022386671446559679 0.03266515205717653 0 -0.0013439294547030415 0.03311159105039943 0 -0.0017578107086402312 0.033628652401024473 0 -0.0013439294547030415 0.03311159105039943 0 -0.00073421321354255002 0.03384143239931877 0 -0.0012223176360386956 0.033927879452954036 0 -0.0013439294547030415 0.03311159105039943 0 -0.00050905686807628937 0.033188645853592776 0 -0.00073421321354255002 0.03384143239931877 0 -0.0013439294547030415 0.03311159105039943 0 -0.00098087057156839765 0.032555303590998064 0 -0.00050905686807628937 0.033188645853592776 0 -0.0022386671446559679 0.03266515205717653 0 -0.0013439294547030415 0.03311159105039943 0 -0.0017517617559414682 0.032336541883840608 0 -0.0013439294547030415 0.03311159105039943 0 -0.00098087057156839765 0.032555303590998064 0 -0.0017517617559414682 0.032336541883840608 0 -0.00098087057156839765 0.032555303590998064 0 -0.0017517617559414682 0.032336541883840608 0 -0.0012214788505524848 0.031872509415743253 0 -0.0019415085051591155 0.031930321358527219 0 -0.0017517617559414682 0.032336541883840608 0 -0.0012214788505524848 0.031872509415743253 0 -0.00098087057156839765 0.032555303590998064 0 -0.0012214788505524848 0.031872509415743253 0 -0.00067622017594538668 0.032268847100718916 0 -0.0011789469554412031 0.032349777634375715 0 -0.00068595236582180003 0.032221339481310611 0 -0.0010214587114967383 0.031922339261869936 0 -0.0011789469554412031 0.032349777634375715 0 -0.00136951044872288 0.032012286535696641 0 -0.0010214587114967383 0.031922339261869936 0 -0.0016533617304603657 0.032176179136893412 0 -0.0011789469554412031 0.032349777634375715 0 -0.00136951044872288 0.032012286535696641 0 -0.0017683892413347085 0.032076523952550166 0 -0.0012287979761376679 0.031940651955984833 0 -1.0556289680196307e-08 0.034999917594352073 0 -2.158352845101178e-06 0.034994005858876215 0 -9.0443484780163692e-07 0.034992109752096275 0 -1.0556289680196307e-08 0.034999917594352073 0 -2.158352845101178e-06 0.034994005858876215 0 -3.0366849281417116e-10 0.035000013068643719 0 -6.4139761242950353e-05 0.034916562874614039 0 -4.8181815982081713e-05 0.034998479172590941 0 -9.0443484780163692e-07 0.034992109752096275 0 -0.00046959258030935749 0.033951564537614935 0 0.00024029812897082448 0.035185355488727303 0 -0.0011789469554412031 0.032349777634375715 0 -0.00068595236582180003 0.032221339481310611 0 -0.00065200453571450886 0.032511526982415134 0 -0.00046959258030935749 0.033951564537614935 0 -0.00028780468794022997 0.033514492595400847 0 -0.0012214788505524848 0.031872509415743253 0 -0.00067622017594538668 0.032268847100718916 0 -7.0163191888639919e-05 0.032032103267691653 0 -0.0012287979761376679 0.031940651955984833 0 -0.00028780468794022997 0.033514492595400847 0 -0.00067622017594538668 0.032268847100718916 0 -7.0163191888639919e-05 0.032032103267691653 0 -0.00040118828143790843 0.032631329990482252 0 -1.0556289680196307e-08 0.034999917594352073 0 -9.1315919031528253e-08 0.034997889553036905 0 2.4243327747219921e-08 0.035000186903960374 0 -0.00028780468794022997 0.033514492595400847 0 0.00018919356428953859 0.034606806410567945 0 -4.8181815982081713e-05 0.034998479172590941 0 -9.0443484780163692e-07 0.034992109752096275 0 -9.1315919031528253e-08 0.034997889553036905 0 -1.0556289680196307e-08 0.034999917594352073 0 -9.0443484780163692e-07 0.034992109752096275 0 -9.1315919031528253e-08 0.034997889553036905 0 -9.1315919031528253e-08 0.034997889553036905 0 2.4243327747219921e-08 0.035000186903960374 0 1.8642951398828421e-05 0.035021042447446672 0 -0.00028780468794022997 0.033514492595400847 0 0.00010672852227350737 0.03410236755099242 0 -1.0216381265122033e-05 0.034988321195131698 0 -9.1315919031528253e-08 0.034997889553036905 0 1.8642951398828421e-05 0.035021042447446672 0 -7.0163191888639919e-05 0.032032103267691653 0 -0.00040118828143790843 0.032631329990482252 0 0.00015816663053909769 0.03316302759541892 0 -0.00098087057156839765 0.032555303590998064 0 -0.00067622017594538668 0.032268847100718916 0 -0.00040118828143790843 0.032631329990482252 0 -0.00040118828143790843 0.032631329990482252 0 -0.00050905686807628937 0.033188645853592776 0 0.00015816663053909769 0.03316302759541892 0 -0.00098087057156839765 0.032555303590998064 0 -0.00040118828143790843 0.032631329990482252 0 -0.00050905686807628937 0.033188645853592776 0 -0.00050905686807628937 0.033188645853592776 0 0.00015816663053909769 0.03316302759541892 0 -0.00027372763505102883 0.03389071113792666 0 -0.00050905686807628937 0.033188645853592776 0 -0.00027372763505102883 0.03389071113792666 0 -0.00073421321354255002 0.03384143239931877 0 2.4243327747219921e-08 0.035000186903960374 0 1.8642951398828421e-05 0.035021042447446672 0 7.1036999918526066e-09 0.034999506756374067 0 0.00010672852227350737 0.03410236755099242 0 8.8879563252134699e-05 0.034738898499621584 0 1.8642951398828421e-05 0.035021042447446672 0 7.1036999918526066e-09 0.034999506756374067 0 8.6628861555532901e-05 0.034800979839439188 0 0.00015816663053909769 0.03316302759541892 0 8.6628861555532901e-05 0.034800979839439188 0 -0.00027372763505102883 0.03389071113792666 0 8.6628861555532901e-05 0.034800979839439188 0 -0.00013301964792289926 0.034871157869691249 0 1.0383813928856578e-07 0.034999834344345358 0 7.1036999918526066e-09 0.034999506756374067 0 8.6628861555532901e-05 0.034800979839439188 0 1.0383813928856578e-07 0.034999834344345358 0 -0.00013301964792289926 0.034871157869691249 0 -0.00074628572978189438 0.034486636939992238 0 -0.00068445475238313792 0.035192630131772797 0 -0.00033465556985854149 0.034918882879113274 0 -0.0010045126342935965 0.033438305600877925 0 8.6628861555532901e-05 0.034800979839439188 0 -0.00013301964792289926 0.034871157869691249 0 -0.00031122986051538578 0.034405098965098579 0 -0.00013301964792289926 0.034871157869691249 0 -0.00031122986051538578 0.034405098965098579 0 -0.00074628572978189438 0.034486636939992238 0 -0.00031122986051538578 0.034405098965098579 0 -0.00073421321354255002 0.03384143239931877 0 -0.00074628572978189438 0.034486636939992238 0 8.6628861555532901e-05 0.034800979839439188 0 -0.00031122986051538578 0.034405098965098579 0 -0.00027372763505102883 0.03389071113792666 0 -0.00031122986051538578 0.034405098965098579 0 -0.00027372763505102883 0.03389071113792666 0 -0.00073421321354255002 0.03384143239931877 0 -0.00073421321354255002 0.03384143239931877 0 -0.0012223176360386956 0.033927879452954036 0 -0.00074628572978189438 0.034486636939992238 0 -0.0023341777449834922 0.034138190352750689 0 -0.0017578107086402312 0.033628652401024473 0 -0.0014878512185253112 0.034682686606188742 0 -0.0013439294547030415 0.03311159105039943 0 -0.0012223176360386956 0.033927879452954036 0 -0.0017578107086402312 0.033628652401024473 0 -0.0012223176360386956 0.033927879452954036 0 -0.0017578107086402312 0.033628652401024473 0 -0.0014878512185253112 0.034682686606188742 0 -0.0019532273961885204 0.032809183652778073 0 -0.0010045126342935965 0.033438305600877925 0 -0.0012223176360386956 0.033927879452954036 0 -0.0014878512185253112 0.034682686606188742 0 -0.00074628572978189438 0.034486636939992238 0 -0.0014878512185253112 0.034682686606188742 0 -0.00074628572978189438 0.034486636939992238 0 -0.00068445475238313792 0.035192630131772797 0 -0.00010497243937709014 0.034932939217623714 0 -0.00010933668892592272 0.034928250498048249 0 -9.6198677920118292e-05 0.034943060364654513 0 -0.0010045126342935965 0.033438305600877925 0 -0.0011393707272092754 0.032489196099209257 0 -0.00010497243937709014 0.034932939217623714 0 -9.6198677920118292e-05 0.034943060364654513 0 -0.00011052998509465573 0.034935957577634687 0 -0.002107872618404491 0.031108409522286926 0 -0.0028445471498982564 0.030749065727651747 0 -0.0020638853522908502 0.030098715555785725 0 -0.0014898261938233993 0.030673331579034038 0 -0.002107872618404491 0.031108409522286926 0 -0.0020638853522908502 0.030098715555785725 0 -0.0001034178253132708 0.034951752923469817 0 -0.00010933668892592272 0.034928250498048249 0 -9.6198677920118292e-05 0.034943060364654513 0 -0.0001034178253132708 0.034951752923469817 0 -0.00012939532008589925 0.034922852113826619 0 -0.00010933668892592272 0.034928250498048249 0 -7.3136454636556821e-05 0.034967668547497083 0 -0.0001034178253132708 0.034951752923469817 0 -9.6198677920118292e-05 0.034943060364654513 0 -7.3136454636556821e-05 0.034967668547497083 0 -8.0376166528024447e-05 0.03495972906805786 0 -5.0629515171862065e-05 0.034977095770254221 0 -7.3136454636556821e-05 0.034967668547497083 0 -9.6198677920118292e-05 0.034943060364654513 0 -8.0376166528024447e-05 0.03495972906805786 0 -8.0376166528024447e-05 0.03495972906805786 0 -5.0629515171862065e-05 0.034977095770254221 0 -5.7615070765829865e-05 0.034972281751082801 0 -3.5876631730203386e-05 0.034988812527132679 0 -5.0629515171862065e-05 0.034977095770254221 0 -7.7160972568813213e-08 0.034999993139938394 0 -5.0629515171862065e-05 0.034977095770254221 0 -7.7160972568813213e-08 0.034999993139938394 0 -5.7615070765829865e-05 0.034972281751082801 0 -7.7160972568813213e-08 0.034999993139938394 0 -5.7615070765829865e-05 0.034972281751082801 0 1.0383813928856578e-07 0.034999834344345358 0 -0.00013301964792289926 0.034871157869691249 0 -5.7615070765829865e-05 0.034972281751082801 0 1.0383813928856578e-07 0.034999834344345358 0 -0.00013301964792289926 0.034871157869691249 0 -5.7615070765829865e-05 0.034972281751082801 0 -0.00011052998509465573 0.034935957577634687 0 -0.00013301964792289926 0.034871157869691249 0 -0.00013425531143111764 0.034921626153003121 0 -0.00011052998509465573 0.034935957577634687 0 -0.0010045126342935965 0.033438305600877925 0 -6.5315991501528592e-05 0.034280487600652547 0 -9.6198677920118292e-05 0.034943060364654513 0 -8.0376166528024447e-05 0.03495972906805786 0 -0.00011052998509465573 0.034935957577634687 0 -8.0376166528024447e-05 0.03495972906805786 0 -5.7615070765829865e-05 0.034972281751082801 0 -0.00011052998509465573 0.034935957577634687 0 0.0032016801072272589 0.0056591913583760806 0 0.0032484886482769017 0.0061088226300909437 0 0.0032322239172678058 0.0056624182173020798 0 0.0032016801072272589 0.0056591913583760806 0 0.0031982190756145307 0.005676706612940707 0 0.0032982881632656661 0.0054150229667343334 0 0.0032016801072272589 0.0056591913583760806 0 0.0032484886482769017 0.0061088226300909437 0 0.0031982190756145307 0.005676706612940707 0 0.0032484886482769017 0.0061088226300909437 0 0.0030144951891564408 0.0060593673365060908 0 0.0031030083834953748 0.0057575482780938807 0 0.0032484886482769017 0.0061088226300909437 0 0.0031982190756145307 0.005676706612940707 0 0.0031030083834953748 0.0057575482780938807 0 0.0028860131292700484 0.0064198234316605752 0 0.0032484886482769017 0.0061088226300909437 0 0.0030144951891564408 0.0060593673365060908 0 0.0028860131292700484 0.0064198234316605752 0 0.0027911794080038395 0.0062247061372027006 0 0.0030144951891564408 0.0060593673365060908 0 0.0028860131292700484 0.0064198234316605752 0 0.0029231385953037811 0.006864113556069063 0 0.0032484886482769017 0.0061088226300909437 0 0.003261660341484222 0.0061233736804630267 0 0.003298138869282818 0.006416647270922826 0 0.0029231385953037811 0.006864113556069063 0 0.0032484886482769017 0.0061088226300909437 0 0.0033840349439371738 0.0071194272735110838 0 0.0029231385953037811 0.006864113556069063 0 0.0033840349439371738 0.0071194272735110838 0 0.0030215556873856822 0.0073502146009250396 0 0.0032322239172678058 0.0056624182173020798 0 0.0032039794532081494 0.0055956885771733956 0 0.0030983574012852459 0.0056615096400695446 0 0.003298138869282818 0.006416647270922826 0 0.0031697903866537707 0.0064965080898843159 0 0.0033840349439371738 0.0071194272735110838 0 0.0030215556873856822 0.0073502146009250396 0 0.0033371210813371555 0.0075467356973208423 0 0.0032016801072272589 0.0056591913583760806 0 0.0032322239172678058 0.0056624182173020798 0 0.0032039794532081494 0.0055956885771733956 0 0.0032016801072272589 0.0056591913583760806 0 0.0032039794532081494 0.0055956885771733956 0 0.0033221937343470152 0.0054650321519862646 0 0.0032039794532081494 0.0055956885771733956 0 0.0033221937343470152 0.0054650321519862646 0 0.0032699682195273323 0.005628661548535762 0 0.0033221937343470152 0.0054650321519862646 0 0.003482482901369668 0.0053223881241727172 0 0.0034059819923730889 0.0055196388225064105 0 0.0033221937343470152 0.0054650321519862646 0 0.003482482901369668 0.0053223881241727172 0 0.0034809573451799595 0.0052459386044058833 0 0.0036373170392941362 0.0051961693847825232 0 0.003482482901369668 0.0053223881241727172 0 0.0036049383485335274 0.0053850417241422576 0 0.003482482901369668 0.0053223881241727172 0 0.0036252548949805325 0.0050455942709774935 0 0.0034809573451799595 0.0052459386044058833 0 0.0037909533121189246 0.0049962667116383508 0 0.0036373170392941362 0.0051961693847825232 0 0.0036252548949805325 0.0050455942709774935 0 0.0036373170392941362 0.0051961693847825232 0 0.003482482901369668 0.0053223881241727172 0 0.0036252548949805325 0.0050455942709774935 0 0.0036252548949805325 0.0050455942709774935 0 0.00362631430922896 0.0050276448057520982 0 0.0034809573451799595 0.0052459386044058833 0 0.0037328784556287212 0.004780547056571563 0 0.0037587212584745638 0.0048277908830683591 0 0.00362631430922896 0.0050276448057520982 0 0.0037328784556287212 0.004780547056571563 0 0.0036252548949805325 0.0050455942709774935 0 0.00362631430922896 0.0050276448057520982 0 0.0033221937343470152 0.0054650321519862646 0 0.0034809573451799595 0.0052459386044058833 0 0.003390515848079291 0.0053409429527940585 0 0.0032016801072272589 0.0056591913583760806 0 0.0033221937343470152 0.0054650321519862646 0 0.003390515848079291 0.0053409429527940585 0 0.00362631430922896 0.0050276448057520982 0 0.0034809573451799595 0.0052459386044058833 0 0.003390515848079291 0.0053409429527940585 0 0.0032016801072272589 0.0056591913583760806 0 0.003390515848079291 0.0053409429527940585 0 0.0032982881632656661 0.0054150229667343334 0 0.00362631430922896 0.0050276448057520982 0 0.003390515848079291 0.0053409429527940585 0 0.0034360116286548327 0.0050879024717161219 0 0.003390515848079291 0.0053409429527940585 0 0.0034360116286548327 0.0050879024717161219 0 0.0032982881632656661 0.0054150229667343334 0 0.0037587212584745638 0.0048277908830683591 0 0.00362631430922896 0.0050276448057520982 0 0.0037625358771271634 0.0048108322243034024 0 0.00362631430922896 0.0050276448057520982 0 0.0034360116286548327 0.0050879024717161219 0 0.0037625358771271634 0.0048108322243034024 0 0.0037430093216055125 0.0044531369894225221 0 0.0037069263607583413 0.0044324744005727395 0 0.0038517959056891871 0.0038265818668403329 0 0.0036894021448277236 0.0040702930275438266 0 0.0037609924865067042 0.0039977526811521731 0 0.0037069263607583413 0.0044324744005727395 0 0.0036068854658954843 0.0043851199063056961 0 0.0036894021448277236 0.0040702930275438266 0 0.0037609924865067042 0.0039977526811521731 0 0.0036108040291516399 0.0044066081636507989 0 0.0036678878460352248 0.0040011710591513908 0 0.0037609924865067042 0.0039977526811521731 0 0.0036108040291516399 0.0044066081636507989 0 0.0034360116286548327 0.0050879024717161219 0 0.0037625358771271634 0.0048108322243034024 0 0.0036108040291516399 0.0044066081636507989 0 0.0034360116286548327 0.0050879024717161219 0 0.0033427605245307315 0.0047530106280892484 0 0.003097779726388159 0.0052464258652429336 0 0.0034360116286548327 0.0050879024717161219 0 0.0033427605245307315 0.0047530106280892484 0 0.0036108040291516399 0.0044066081636507989 0 0.0034304266172424823 0.0042624355172332469 0 0.0033427605245307315 0.0047530106280892484 0 0.0036108040291516399 0.0044066081636507989 0 0.0034304266172424823 0.0042624355172332469 0 0.0036678878460352248 0.0040011710591513908 0 0.0036108040291516399 0.0044066081636507989 0 0.0034304266172424823 0.0042624355172332469 0 0.0033427605245307315 0.0047530106280892484 0 0.0030672257897415133 0.0045132969584353996 0 0.0030672257897415133 0.0045132969584353996 0 0.003097779726388159 0.0052464258652429336 0 0.0026605343220093992 0.0048995924686836591 0 0.0025973807182870443 0.0044135644159178896 0 0.0030672257897415133 0.0045132969584353996 0 0.0026605343220093992 0.0048995924686836591 0 0.003097779726388159 0.0052464258652429336 0 0.0025836228952050874 0.0053314548611668672 0 0.0026605343220093992 0.0048995924686836591 0 0.0033427605245307315 0.0047530106280892484 0 0.0030672257897415133 0.0045132969584353996 0 0.003097779726388159 0.0052464258652429336 0 0.0034360116286548327 0.0050879024717161219 0 0.003097779726388159 0.0052464258652429336 0 0.0032982881632656661 0.0054150229667343334 0 0.0030916195423161771 0.0053121850129986799 0 0.0027792976987969223 0.0056400720656020406 0 0.003097779726388159 0.0052464258652429336 0 0.0031030083834953748 0.0057575482780938807 0 0.0030463011441606829 0.0056185359764716804 0 0.003097779726388159 0.0052464258652429336 0 0.0031982190756145307 0.005676706612940707 0 0.0031030083834953748 0.0057575482780938807 0 0.003097779726388159 0.0052464258652429336 0 0.0031982190756145307 0.005676706612940707 0 0.0032982881632656661 0.0054150229667343334 0 0.0029550514060236424 0.0059248109081772842 0 0.0027911794080038395 0.0062247061372027006 0 0.0027254016429000675 0.0059686706280644855 0 0.0029550514060236424 0.0059248109081772842 0 0.0027911794080038395 0.0062247061372027006 0 0.0030144951891564408 0.0060593673365060908 0 0.0029550514060236424 0.0059248109081772842 0 0.0030144951891564408 0.0060593673365060908 0 0.0031030083834953748 0.0057575482780938807 0 0.003097779726388159 0.0052464258652429336 0 0.0025034002794037634 0.0056853941912457023 0 0.0025836228952050874 0.0053314548611668672 0 0.0029550514060236424 0.0059248109081772842 0 0.0031030083834953748 0.0057575482780938807 0 0.0030463011441606829 0.0056185359764716804 0 0.0025034002794037634 0.0056853941912457023 0 0.0023799123730586626 0.0057060901453601523 0 0.0025836228952050874 0.0053314548611668672 0 0.0025034002794037634 0.0056853941912457023 0 0.0023799123730586626 0.0057060901453601523 0 0.0022663896383479927 0.0061219469662779028 0 0.0029550514060236424 0.0059248109081772842 0 0.0030463011441606829 0.0056185359764716804 0 0.0027254016429000675 0.0059686706280644855 0 0.0023799123730586626 0.0057060901453601523 0 0.0022920899456859052 0.0058971801761922666 0 0.0022663896383479927 0.0061219469662779028 0 0.0027792976987969223 0.0056400720656020406 0 0.0024897969866887891 0.0060804227335748027 0 0.0023799123730586626 0.0057060901453601523 0 0.00226019404225532 0.0050829867236194606 0 0.0018443415803199087 0.0051650658493126557 0 0.0023865053282551081 0.0057387326744765439 0 0.0020655550996452571 0.0054343558582763511 0 0.0023799123730586626 0.0057060901453601523 0 0.00226019404225532 0.0050829867236194606 0 0.0025836228952050874 0.0053314548611668672 0 0.00226019404225532 0.0050829867236194606 0 0.0025836228952050874 0.0053314548611668672 0 0.0026605343220093992 0.0048995924686836591 0 0.0025973807182870443 0.0044135644159178896 0 0.0026605343220093992 0.0048995924686836591 0 0.0022860687051765162 0.0046815628837258705 0 0.00226019404225532 0.0050829867236194606 0 0.0026605343220093992 0.0048995924686836591 0 0.0022860687051765162 0.0046815628837258705 0 0.0019836127915382399 0.004589401614328241 0 0.0022860687051765162 0.0046815628837258705 0 0.0019194819422584956 0.0048211176836247633 0 0.00226019404225532 0.0050829867236194606 0 0.0019194819422584956 0.0048211176836247633 0 0.0018443415803199087 0.0051650658493126557 0 0.00226019404225532 0.0050829867236194606 0 0.0022860687051765162 0.0046815628837258705 0 0.0019194819422584956 0.0048211176836247633 0 0.0020655550996452571 0.0054343558582763511 0 0.0015443116929547383 0.0061449120719382425 0 0.0017369861949600011 0.0046041099425281453 0 0.0019194819422584956 0.0048211176836247633 0 0.0014938926072706079 0.0048444393821925986 0 0.0019194819422584956 0.0048211176836247633 0 0.0018443415803199087 0.0051650658493126557 0 0.0014938926072706079 0.0048444393821925986 0 0.0022920899456859052 0.0058971801761922666 0 0.0020132787912920539 0.0059948000815588046 0 0.0022042433651801837 0.0061422411065266986 0 0.0022920899456859052 0.0058971801761922666 0 0.0020132787912920539 0.0059948000815588046 0 0.0020246691208954818 0.0057136064291403565 0 0.0020068145098353623 0.0071434695260428702 0 0.002015601580358033 0.0072806228711425128 0 0.002148645853718799 0.0071946058892783903 0 0.002044023582588208 0.0066302789554996853 0 0.0015443116929547383 0.0061449120719382425 0 0.00061253062126409 0.010132618656558248 0 0.0015443116929547383 0.0061449120719382425 0 0.00061253062126409 0.010132618656558248 0 0.00086796304749855232 0.0090973785228144165 0 0.0021065846885193673 0.0073390273638789388 0 0.002015601580358033 0.0072806228711425128 0 0.002148645853718799 0.0071946058892783903 0 0.0021065846885193673 0.0073390273638789388 0 0.002173910444799176 0.0072176566531850306 0 0.002148645853718799 0.0071946058892783903 0 0.002173910444799176 0.0072176566531850306 0 0.0021641889205845249 0.0072351075653567781 0 0.0020425500220738304 0.007332205186876683 0 0.00086796304749855232 0.0090973785228144165 0 0.0012425495834208612 0.0086603954000941362 0 0.002173910444799176 0.0072176566531850306 0 0.0021641889205845249 0.0072351075653567781 0 0.002148645853718799 0.0071946058892783903 0 0.002148645853718799 0.0071946058892783903 0 0.0021628088269118567 0.0070201277507535758 0 0.0021904166327188705 0.0071135933711981014 0 0.0021641889205845249 0.0072351075653567781 0 0.002148645853718799 0.0071946058892783903 0 0.0021904166327188705 0.0071135933711981014 0 0.0020068145098353623 0.0071434695260428702 0 0.002148645853718799 0.0071946058892783903 0 0.0021628088269118567 0.0070201277507535758 0 0.0021628088269118567 0.0070201277507535758 0 0.0021904166327188705 0.0071135933711981014 0 0.0021855003487735408 0.0068980664673636101 0 0.0021904166327188705 0.0071135933711981014 0 0.0021855003487735408 0.0068980664673636101 0 0.0021799659572823197 0.0070700429616305065 0 0.0021628088269118567 0.0070201277507535758 0 0.0021855003487735408 0.0068980664673636101 0 0.0021254797042572211 0.0065976584889149061 0 0.0021641889205845249 0.0072351075653567781 0 0.0021572560783821243 0.0073060809238059098 0 0.0020425500220738304 0.007332205186876683 0 0.0021641889205845249 0.0072351075653567781 0 0.0021904166327188705 0.0071135933711981014 0 0.0021572560783821243 0.0073060809238059098 0 0.0021904166327188705 0.0071135933711981014 0 0.0021572560783821243 0.0073060809238059098 0 0.0021799659572823197 0.0070700429616305065 0 0.0021219732537370774 0.0073274568620648479 0 0.0021043724398944513 0.0073927588947413653 0 0.002172957628326607 0.0071318221081223395 0 0.0021219732537370774 0.0073274568620648479 0 0.0021799659572823197 0.0070700429616305065 0 0.002172957628326607 0.0071318221081223395 0 0.0021572560783821243 0.0073060809238059098 0 0.0021219732537370774 0.0073274568620648479 0 0.0020266222297170627 0.007629123256724068 0 0.0021572560783821243 0.0073060809238059098 0 0.0021219732537370774 0.0073274568620648479 0 0.0021799659572823197 0.0070700429616305065 0 0.0021799659572823197 0.0070700429616305065 0 0.0022027904720095365 0.0068938087924758926 0 0.002172957628326607 0.0071318221081223395 0 0.0021855003487735408 0.0068980664673636101 0 0.0021873294517964267 0.0068795133161707808 0 0.0021799659572823197 0.0070700429616305065 0 0.0021873294517964267 0.0068795133161707808 0 0.0021799659572823197 0.0070700429616305065 0 0.0022027904720095365 0.0068938087924758926 0 0.0021873294517964267 0.0068795133161707808 0 0.0022027904720095365 0.0068938087924758926 0 0.0021540882172988193 0.0066716186854148011 0 0.0021855003487735408 0.0068980664673636101 0 0.0021873294517964267 0.0068795133161707808 0 0.0021540882172988193 0.0066716186854148011 0 0.0022027904720095365 0.0068938087924758926 0 0.0023354145441153678 0.0067519320714413168 0 0.0022498623285949859 0.0069670600137905631 0 0.0023053336151252217 0.0066450763066957094 0 0.0022476308840564218 0.0067334972649100702 0 0.0023354145441153678 0.0067519320714413168 0 0.0022027904720095365 0.0068938087924758926 0 0.0022476308840564218 0.0067334972649100702 0 0.0023354145441153678 0.0067519320714413168 0 0.0022027904720095365 0.0068938087924758926 0 0.0022476308840564218 0.0067334972649100702 0 0.0021540882172988193 0.0066716186854148011 0 0.0023053336151252217 0.0066450763066957094 0 0.0022476308840564218 0.0067334972649100702 0 0.0021540882172988193 0.0066716186854148011 0 0.0023053336151252217 0.0066450763066957094 0 0.0021540882172988193 0.0066716186854148011 0 0.0024884823680264099 0.0064186522724129337 0 0.0023053336151252217 0.0066450763066957094 0 0.0024884823680264099 0.0064186522724129337 0 0.0023354145441153678 0.0067519320714413168 0 0.0024884823680264099 0.0064186522724129337 0 0.0025667547552708013 0.0066043701384230951 0 0.0023354145441153678 0.0067519320714413168 0 0.0021540882172988193 0.0066716186854148011 0 0.0024884823680264099 0.0064186522724129337 0 0.0027254016429000675 0.0059686706280644855 0 0.0027911794080038395 0.0062247061372027006 0 0.0024884823680264099 0.0064186522724129337 0 0.0025667547552708013 0.0066043701384230951 0 0.0027911794080038395 0.0062247061372027006 0 0.0024884823680264099 0.0064186522724129337 0 0.0027254016429000675 0.0059686706280644855 0 0.0022042433651801837 0.0061422411065266986 0 0.0022663896383479927 0.0061219469662779028 0 0.0021254797042572211 0.0065976584889149061 0 0.0022920899456859052 0.0058971801761922666 0 0.0022042433651801837 0.0061422411065266986 0 0.0022663896383479927 0.0061219469662779028 0 0.0021540882172988193 0.0066716186854148011 0 0.0022663896383479927 0.0061219469662779028 0 0.0021254797042572211 0.0065976584889149061 0 0.002044023582588208 0.0066302789554996853 0 0.0020911313655526749 0.006567407516363837 0 0.0020132787912920539 0.0059948000815588046 0 0.0022042433651801837 0.0061422411065266986 0 0.0021254797042572211 0.0065976584889149061 0 0.0021635517352118832 0.0065594177013651393 0 0.0024897969866887891 0.0060804227335748027 0 0.0020068145098353623 0.0071434695260428702 0 0.0021628088269118567 0.0070201277507535758 0 0.0021254797042572211 0.0065976584889149061 0 0.0021855003487735408 0.0068980664673636101 0 0.0021540882172988193 0.0066716186854148011 0 0.0021254797042572211 0.0065976584889149061 0 0.0035692232162813017 0.010233582662548911 0 0.0040255456334477562 0.011146973209180996 0 0.0028835284570307941 0.011418648886620099 0 0.0042362677423904739 0.012949620423154434 0 0.0040255456334477562 0.011146973209180996 0 0.0028835284570307941 0.011418648886620099 0 0.0026491315575933759 0.013051060174396832 0 0.0028835284570307941 0.011418648886620099 0 0.0015871891558256509 0.011924520978437561 0 0.0028835284570307941 0.011418648886620099 0 0.0014892283256104804 0.010632176400579282 0 0.0015871891558256509 0.011924520978437561 0 0.0035692232162813017 0.010233582662548911 0 0.0028835284570307941 0.011418648886620099 0 0.0025726994662439041 0.010015315829327701 0 0.0028835284570307941 0.011418648886620099 0 0.0025726994662439041 0.010015315829327701 0 0.0014892283256104804 0.010632176400579282 0 0.0035692232162813017 0.010233582662548911 0 0.0025726994662439041 0.010015315829327701 0 0.0030223855353676992 0.0092274654752596691 0 0.0014892283256104804 0.010632176400579282 0 0.00033848163607237111 0.0099726301577890229 0 0.0018115013607136758 0.0082726347862720796 0 0.0025726994662439041 0.010015315829327701 0 0.0014892283256104804 0.010632176400579282 0 0.0018115013607136758 0.0082726347862720796 0 0.0014892283256104804 0.010632176400579282 0 0.0015871891558256509 0.011924520978437561 0 0.00054405347812957973 0.011510294401347104 0 3.1234466944675254e-05 0.012086119756684133 0 -0.00045187822241798742 0.011139687631020502 0 0.00054405347812957973 0.011510294401347104 0 -0.00045187822241798742 0.011139687631020502 0 0.00054405347812957973 0.011510294401347104 0 0.00033848163607237111 0.0099726301577890229 0 0.0014892283256104804 0.010632176400579282 0 0.00054405347812957973 0.011510294401347104 0 0.00033848163607237111 0.0099726301577890229 0 0.0021572560783821243 0.0073060809238059098 0 0.0020425500220738304 0.007332205186876683 0 0.0020266222297170627 0.007629123256724068 0 0.0020425500220738304 0.007332205186876683 0 0.0020266222297170627 0.007629123256724068 0 0.0018115013607136758 0.0082726347862720796 0 0.0020266222297170627 0.007629123256724068 0 0.0020329509265807288 0.0076089027810209578 0 0.0021043724398944513 0.0073927588947413653 0 0.0021219732537370774 0.0073274568620648479 0 0.0020266222297170627 0.007629123256724068 0 0.0021043724398944513 0.0073927588947413653 0 0.0020266222297170627 0.007629123256724068 0 0.0018115013607136758 0.0082726347862720796 0 0.0020329509265807288 0.0076089027810209578 0 0.0021547522157321602 0.0077430809709307657 0 0.0018115013607136758 0.0082726347862720796 0 0.0020329509265807288 0.0076089027810209578 0 0.0012425495834208612 0.0086603954000941362 0 0.0017850307484626273 0.0082450218144583167 0 0.0025726994662439041 0.010015315829327701 0 0.0018115013607136758 0.0082726347862720796 0 0.0030223855353676992 0.0092274654752596691 0 0.0018115013607136758 0.0082726347862720796 0 0.0030223855353676992 0.0092274654752596691 0 0.0026816357460714758 0.0082551845244042254 0 0.0021547522157321602 0.0077430809709307657 0 0.0018115013607136758 0.0082726347862720796 0 0.0026816357460714758 0.0082551845244042254 0 0.0021547522157321602 0.0077430809709307657 0 0.0026816357460714758 0.0082551845244042254 0 0.0022805185262854814 0.0074668634075879241 0 0.0034935139220587602 0.0077877235237913314 0 0.0026816357460714758 0.0082551845244042254 0 0.0029936279895244489 0.0076433915587324633 0 0.0042417282006809009 0.0087489299659188665 0 0.0044959999317571251 0.0077799200232964612 0 0.0026816357460714758 0.0082551845244042254 0 0.0032626135963762233 0.0080051365988738944 0 0.003031646838484179 0.0081464283172201953 0 0.0042417282006809009 0.0087489299659188665 0 0.0026816357460714758 0.0082551845244042254 0 0.003925291043352824 0.0094468853093380035 0 0.0030223855353676992 0.0092274654752596691 0 0.0026816357460714758 0.0082551845244042254 0 0.003925291043352824 0.0094468853093380035 0 0.0035692232162813017 0.010233582662548911 0 0.0030223855353676992 0.0092274654752596691 0 0.003925291043352824 0.0094468853093380035 0 0.0018368306568519359 0.0075337652943901325 0 0.0019915811740526968 0.007639617109868325 0 0.0019853213941550844 0.007391307315112422 0 0.0018368306568519359 0.0075337652943901325 0 0.0017874905979849874 0.0076915915995826945 0 0.0019915811740526968 0.007639617109868325 0 0.0019915811740526968 0.007639617109868325 0 0.0019853213941550844 0.007391307315112422 0 0.0022805185262854814 0.0074668634075879241 0 0.0017855937357576478 0.0073612757965010678 0 0.0018368306568519359 0.0075337652943901325 0 0.0019853213941550844 0.007391307315112422 0 0.0032626135963762233 0.0080051365988738944 0 0.0023712717751714881 0.0074944830008431594 0 0.0023712717751714881 0.0074944830008431594 0 0.0023475959318024478 0.0074832141691680799 0 0.0026816357460714758 0.0082551845244042254 0 0.0029936279895244489 0.0076433915587324633 0 0.0022805185262854814 0.0074668634075879241 0 0.0019915811740526968 0.007639617109868325 0 0.0022805185262854814 0.0074668634075879241 0 0.0021834497826535792 0.0075969641350488388 0 0.0022805185262854814 0.0074668634075879241 0 0.0021834497826535792 0.0075969641350488388 0 0.0021758763878489875 0.0074889496402958684 0 0.0021834497826535792 0.0075969641350488388 0 0.0021758763878489875 0.0074889496402958684 0 0.0023174832028473396 0.0075543943984601892 0 0.0021547522157321602 0.0077430809709307657 0 0.0021758763878489875 0.0074889496402958684 0 0.0020329509265807288 0.0076089027810209578 0 0.0021547522157321602 0.0077430809709307657 0 0.0022805185262854814 0.0074668634075879241 0 0.0021758763878489875 0.0074889496402958684 0 0.0021758763878489875 0.0074889496402958684 0 0.0020329509265807288 0.0076089027810209578 0 0.0021706499362657439 0.0074313329340698333 0 0.0020329509265807288 0.0076089027810209578 0 0.0021043724398944513 0.0073927588947413653 0 0.0021706499362657439 0.0074313329340698333 0 0.0021758763878489875 0.0074889496402958684 0 0.0021706499362657439 0.0074313329340698333 0 0.0023174832028473396 0.0075543943984601892 0 0.0023174832028473396 0.0075543943984601892 0 0.0021693899552744735 0.0074372201066866634 0 0.002076015214198161 0.0075593457316201675 0 0.0023638690097534561 0.0076147213162130467 0 0.0024404354820786781 0.0078206200580880746 0 0.0021706499362657439 0.0074313329340698333 0 0.0023174832028473396 0.0075543943984601892 0 0.0021693899552744735 0.0074372201066866634 0 0.0023626752139554179 0.0079741182606317528 0 0.0029385516658678628 0.0081624283405574791 0 0.0025562774872185277 0.0085139921965726815 0 0.0023174832028473396 0.0075543943984601892 0 0.0023626752139554179 0.0079741182606317528 0 0.0029385516658678628 0.0081624283405574791 0 0.0023626752139554179 0.0079741182606317528 0 0.0020195761265610506 0.0083056951649777312 0 0.0025562774872185277 0.0085139921965726815 0 0.0021834497826535792 0.0075969641350488388 0 0.0023174832028473396 0.0075543943984601892 0 0.0023626752139554179 0.0079741182606317528 0 0.0021834497826535792 0.0075969641350488388 0 0.0023626752139554179 0.0079741182606317528 0 0.0020095892466198196 0.0078439109342918999 0 0.0019915811740526968 0.007639617109868325 0 0.0021834497826535792 0.0075969641350488388 0 0.0020095892466198196 0.0078439109342918999 0 0.0023626752139554179 0.0079741182606317528 0 0.0020095892466198196 0.0078439109342918999 0 0.0020195761265610506 0.0083056951649777312 0 0.0013734279897738122 0.0086561813748432248 0 0.0020195761265610506 0.0083056951649777312 0 0.0014570769469747105 0.0081471693754926328 0 0.0020095892466198196 0.0078439109342918999 0 0.0020195761265610506 0.0083056951649777312 0 0.0018121273131280133 0.007923163768874579 0 0.001981499272876731 0.008274079285298528 0 0.0017285232512238935 0.0081085515372209486 0 0.0019915811740526968 0.007639617109868325 0 0.0020095892466198196 0.0078439109342918999 0 0.0018121273131280133 0.007923163768874579 0 0.0017874905979849874 0.0076915915995826945 0 0.0019915811740526968 0.007639617109868325 0 0.0018121273131280133 0.007923163768874579 0 0.002380485683173175 0.0071160294133442827 0 0.0026085177633868133 0.0068613418107673196 0 0.0026622716864216048 0.0071952039513214269 0 0.002380485683173175 0.0071160294133442827 0 0.0026085177633868133 0.0068613418107673196 0 0.0023803678360159956 0.006903381352818031 0 0.0028860131292700484 0.0064198234316605752 0 0.0029231385953037811 0.006864113556069063 0 0.0026085177633868133 0.0068613418107673196 0 0.0029231385953037811 0.006864113556069063 0 0.0026085177633868133 0.0068613418107673196 0 0.0026622716864216048 0.0071952039513214269 0 0.0028860131292700484 0.0064198234316605752 0 0.0026085177633868133 0.0068613418107673196 0 0.0025667547552708013 0.0066043701384230951 0 0.0028860131292700484 0.0064198234316605752 0 0.0027911794080038395 0.0062247061372027006 0 0.0025667547552708013 0.0066043701384230951 0 0.0026085177633868133 0.0068613418107673196 0 0.0025667547552708013 0.0066043701384230951 0 0.0023803678360159956 0.006903381352818031 0 0.0025667547552708013 0.0066043701384230951 0 0.0023803678360159956 0.006903381352818031 0 0.0023354145441153678 0.0067519320714413168 0 0.0023803678360159956 0.006903381352818031 0 0.0023354145441153678 0.0067519320714413168 0 0.0022498623285949859 0.0069670600137905631 0 0.0022027904720095365 0.0068938087924758926 0 0.0022498623285949859 0.0069670600137905631 0 0.002172957628326607 0.0071318221081223395 0 0.002172957628326607 0.0071318221081223395 0 0.0022581163279881801 0.0070869949871475981 0 0.0021884051811136181 0.0072532250697623819 0 0.0022498623285949859 0.0069670600137905631 0 0.002172957628326607 0.0071318221081223395 0 0.0022581163279881801 0.0070869949871475981 0 0.0023803678360159956 0.006903381352818031 0 0.0022498623285949859 0.0069670600137905631 0 0.0022581163279881801 0.0070869949871475981 0 0.0021043724398944513 0.0073927588947413653 0 0.0021706499362657439 0.0074313329340698333 0 0.0021884051811136181 0.0072532250697623819 0 0.0021043724398944513 0.0073927588947413653 0 0.002172957628326607 0.0071318221081223395 0 0.0021884051811136181 0.0072532250697623819 0 0.0021706499362657439 0.0074313329340698333 0 0.0021884051811136181 0.0072532250697623819 0 0.0021693899552744735 0.0074372201066866634 0 0.002380485683173175 0.0071160294133442827 0 0.0022581163279881801 0.0070869949871475981 0 0.0021884051811136181 0.0072532250697623819 0 0.002380485683173175 0.0071160294133442827 0 0.0023803678360159956 0.006903381352818031 0 0.0022581163279881801 0.0070869949871475981 0 0.002380485683173175 0.0071160294133442827 0 0.0021884051811136181 0.0072532250697623819 0 0.0023463758312929988 0.0073885981160068479 0 0.0021884051811136181 0.0072532250697623819 0 0.0023463758312929988 0.0073885981160068479 0 0.0021693899552744735 0.0074372201066866634 0 0.0023463758312929988 0.0073885981160068479 0 0.0021693899552744735 0.0074372201066866634 0 0.0022179811711878538 0.007616185634919264 0 0.0021693899552744735 0.0074372201066866634 0 0.002076015214198161 0.0075593457316201675 0 0.0022179811711878538 0.007616185634919264 0 0.0023463758312929988 0.0073885981160068479 0 0.0022179811711878538 0.007616185634919264 0 0.0025089010083013648 0.0078559891600440291 0 0.0023463758312929988 0.0073885981160068479 0 0.002896077155327611 0.0074849655091768939 0 0.0025089010083013648 0.0078559891600440291 0 0.0023463758312929988 0.0073885981160068479 0 0.002896077155327611 0.0074849655091768939 0 0.0026622716864216048 0.0071952039513214269 0 0.002380485683173175 0.0071160294133442827 0 0.0023463758312929988 0.0073885981160068479 0 0.0026622716864216048 0.0071952039513214269 0 0.0029231385953037811 0.006864113556069063 0 0.0030215556873856822 0.0073502146009250396 0 0.0026622716864216048 0.0071952039513214269 0 0.0030215556873856822 0.0073502146009250396 0 0.002896077155327611 0.0074849655091768939 0 0.0030564532516202877 0.0076451382353745385 0 0.0030215556873856822 0.0073502146009250396 0 0.002896077155327611 0.0074849655091768939 0 0.0026622716864216048 0.0071952039513214269 0 0.0028973177708429055 0.0074290348373669442 0 0.0038050414212765326 0.0082020970607498984 0 0.002896077155327611 0.0074849655091768939 0 0.0032449081881292139 0.0082466179798011702 0 0.0042904651060110318 0.0083253763836265669 0 0.0032449081881292139 0.0082466179798011702 0 0.0039641331386778096 0.0091067766301494157 0 0.0042904651060110318 0.0083253763836265669 0 0.0032449081881292139 0.0082466179798011702 0 0.0039641331386778096 0.0091067766301494157 0 0.0027020803508520813 0.008590299895986156 0 0.0039419540950198515 0.0090909213265388741 0 0.0032405769141218826 0.0088504109020011764 0 0.0039641331386778096 0.0091067766301494157 0 0.003817701267372387 0.0091393375370686959 0 0.0039517823964666946 0.0093731141229325843 0 0.002896077155327611 0.0074849655091768939 0 0.0032449081881292139 0.0082466179798011702 0 0.0025089010083013648 0.0078559891600440291 0 0.0032449081881292139 0.0082466179798011702 0 0.0027020803508520813 0.008590299895986156 0 0.0025089010083013648 0.0078559891600440291 0 0.0027020803508520813 0.008590299895986156 0 0.0025089010083013648 0.0078559891600440291 0 0.0021148320690371077 0.0081428211303111332 0 0.0022179811711878538 0.007616185634919264 0 0.0025089010083013648 0.0078559891600440291 0 0.0021148320690371077 0.0081428211303111332 0 0.003079578923912672 0.0086466320143339 0 0.0030631111661049829 0.0086313728524430935 0 0.002076015214198161 0.0075593457316201675 0 0.0022179811711878538 0.007616185634919264 0 0.0021148320690371077 0.0081428211303111332 0 0.0029385516658678628 0.0081624283405574791 0 0.0032901190263284279 0.0086890926216137039 0 0.0029032767498298356 0.0085823017925332461 0 0.0024404354820786781 0.0078206200580880746 0 0.003079578923912672 0.0086466320143339 0 0.0036015834238246787 0.0087762413346817135 0 0.0033603823740181332 0.0092669648675644724 0 0.0031246312203681331 0.0086430104387507662 0 0.003079578923912672 0.0086466320143339 0 0.003944772722658264 0.0094409843299901458 0 0.0032405769141218826 0.0088504109020011764 0 0.003079578923912672 0.0086466320143339 0 0.0036015834238246787 0.0087762413346817135 0 0.0039879464595768089 0.0093774929665021295 0 0.0033603823740181332 0.0092669648675644724 0 0.003817701267372387 0.0091393375370686959 0 0.0034907158563746549 0.0090428480578438157 0 0.0037156419196154771 0.0093693561147488724 0 0.0039879464595768089 0.0093774929665021295 0 0.0033603823740181332 0.0092669648675644724 0 0.0037170964539539031 0.0096744043175627965 0 0.0033603823740181332 0.0092669648675644724 0 0.0037170964539539031 0.0096744043175627965 0 0.0029004024717309853 0.0099146747236538834 0 0.0037170964539539031 0.0096744043175627965 0 0.0030707355435380026 0.0097742371740793307 0 0.0035345444182143205 0.010135313797035271 0 0.0036702362600950496 0.009695106368701056 0 0.0029926775854352897 0.0098397948708647542 0 0.0037170964539539031 0.0096744043175627965 0 0.0039776614688698409 0.0097886706296855079 0 0.0035345444182143205 0.010135313797035271 0 0.0039879464595768089 0.0093774929665021295 0 0.0037170964539539031 0.0096744043175627965 0 0.0039776614688698409 0.0097886706296855079 0 0.0039879464595768089 0.0093774929665021295 0 0.0039776614688698409 0.0097886706296855079 0 0.0042010452201821048 0.0097095238018100761 0 0.003944772722658264 0.0094409843299901458 0 0.0041299044682497179 0.0096537180802633207 0 0.0042010452201821048 0.0097095238018100761 0 0.0041525904978432183 0.0096094858400876497 0 0.00420992332590636 0.0096725451580755295 0 0.0042010452201821048 0.0097095238018100761 0 0.0041525904978432183 0.0096094858400876497 0 0.0039517823964666946 0.0093731141229325843 0 0.0039641331386778096 0.0091067766301494157 0 0.0041525904978432183 0.0096094858400876497 0 0.0039517823964666946 0.0093731141229325843 0 0.0039641331386778096 0.0091067766301494157 0 0.0041525904978432183 0.0096094858400876497 0 0.0044000852363331585 0.0093255506427083763 0 0.003817701267372387 0.0091393375370686959 0 0.0037156419196154771 0.0093693561147488724 0 0.0039517823964666946 0.0093731141229325843 0 0.0037156419196154771 0.0093693561147488724 0 0.0042010452201821048 0.0097095238018100761 0 0.0039517823964666946 0.0093731141229325843 0 0.0011839666829496145 0.0093478943801027867 0 0.0013734279897738122 0.0086561813748432248 0 0.0017231595247041277 0.0090138656008795625 0 0.0011839666829496145 0.0093478943801027867 0 0.0017231595247041277 0.0090138656008795625 0 0.0016865096394983574 0.0096325889521314632 0 0.0013734279897738122 0.0086561813748432248 0 0.0020195761265610506 0.0083056951649777312 0 0.0017231595247041277 0.0090138656008795625 0 0.0020195761265610506 0.0083056951649777312 0 0.0017231595247041277 0.0090138656008795625 0 0.0022023466854620313 0.0087387586251811179 0 0.0017231595247041277 0.0090138656008795625 0 0.0020617402626302134 0.009223117956336015 0 0.0016865096394983574 0.0096325889521314632 0 0.0017231595247041277 0.0090138656008795625 0 0.0022023466854620313 0.0087387586251811179 0 0.0020617402626302134 0.009223117956336015 0 0.0022023466854620313 0.0087387586251811179 0 0.0025562774872185277 0.0085139921965726815 0 0.0026855261684254552 0.0091925283073976388 0 0.0022023466854620313 0.0087387586251811179 0 0.0020617402626302134 0.009223117956336015 0 0.0026855261684254552 0.0091925283073976388 0 0.0020195761265610506 0.0083056951649777312 0 0.0022023466854620313 0.0087387586251811179 0 0.0025562774872185277 0.0085139921965726815 0 0.0025971463828130524 0.00851559567185977 0 0.0030631111661049829 0.0086313728524430935 0 0.0029385516658678628 0.0081624283405574791 0 0.0025562774872185277 0.0085139921965726815 0 0.0029032767498298356 0.0085823017925332461 0 0.0033603823740181332 0.0092669648675644724 0 0.0031246312203681331 0.0086430104387507662 0 0.0026855261684254552 0.0091925283073976388 0 0.0025562774872185277 0.0085139921965726815 0 0.0031246312203681331 0.0086430104387507662 0 0.0026855261684254552 0.0091925283073976388 0 0.0033603823740181332 0.0092669648675644724 0 0.0026855261684254552 0.0091925283073976388 0 0.0029004024717309853 0.0099146747236538834 0 0.0029926775854352897 0.0098397948708647542 0 0.0022022203927062473 0.010011328174908461 0 0.0029004024717309853 0.0099146747236538834 0 0.0023576931909539004 0.0096028507408817947 0 0.0021279065004783469 0.010061534716589488 0 0.0020617402626302134 0.009223117956336015 0 0.0026855261684254552 0.0091925283073976388 0 0.0023576931909539004 0.0096028507408817947 0 0.0026855261684254552 0.0091925283073976388 0 0.0029004024717309853 0.0099146747236538834 0 0.0023576931909539004 0.0096028507408817947 0 0.0020617402626302134 0.009223117956336015 0 0.0023576931909539004 0.0096028507408817947 0 0.0016865096394983574 0.0096325889521314632 0 0.0023576931909539004 0.0096028507408817947 0 0.0021279065004783469 0.010061534716589488 0 0.0016865096394983574 0.0096325889521314632 0 0.0012342262275873183 0.0098388378471921823 0 0.0014676372315347616 0.010195516488691261 0 0.0016865096394983574 0.0096325889521314632 0 0.0022022203927062473 0.010011328174908461 0 0.0015125960421434026 0.010171161467986857 0 0.0021279065004783469 0.010061534716589488 0 0.0014676372315347616 0.010195516488691261 0 0.0016865096394983574 0.0096325889521314632 0 0.0013816188848523208 0.010741753297353478 0 0.0019984885650137 0.01058963647321445 0 0.0017410926163919467 0.011134303804170338 0 0.0022888500572855277 0.0099481465076575841 0 0.0014676372315347616 0.010195516488691261 0 0.0019984885650137 0.01058963647321445 0 0.0013816188848523208 0.010741753297353478 0 0.0014676372315347616 0.010195516488691261 0 0.0019984885650137 0.01058963647321445 0 0.0022888500572855277 0.0099481465076575841 0 0.0019984885650137 0.01058963647321445 0 0.0027917104802919939 0.010480357391793583 0 0.0019984885650137 0.01058963647321445 0 0.0027917104802919939 0.010480357391793583 0 0.002326207264259444 0.011183705707328906 0 0.0019984885650137 0.01058963647321445 0 0.002326207264259444 0.011183705707328906 0 0.0017410926163919467 0.011134303804170338 0 0.0030707355435380026 0.0097742371740793307 0 0.0022888500572855277 0.0099481465076575841 0 0.0027917104802919939 0.010480357391793583 0 0.0030707355435380026 0.0097742371740793307 0 0.0027917104802919939 0.010480357391793583 0 0.0035345444182143205 0.010135313797035271 0 0.0027917104802919939 0.010480357391793583 0 0.0032939896646863517 0.010750465751767826 0 0.0029866280032835968 0.011259930600280688 0 0.0027917104802919939 0.010480357391793583 0 0.0032939896646863517 0.010750465751767826 0 0.0035345444182143205 0.010135313797035271 0 0.0032939896646863517 0.010750465751767826 0 0.0029866280032835968 0.011259930600280688 0 0.0035881171410194527 0.011363395672722187 0 0.0029866280032835968 0.011259930600280688 0 0.0025460459749556781 0.011947280210904208 0 0.0033660729866753772 0.012045775610177632 0 0.0029866280032835968 0.011259930600280688 0 0.0035881171410194527 0.011363395672722187 0 0.0033660729866753772 0.012045775610177632 0 0.0029866280032835968 0.011259930600280688 0 0.0025460459749556781 0.011947280210904208 0 0.002326207264259444 0.011183705707328906 0 0.0027917104802919939 0.010480357391793583 0 0.0029866280032835968 0.011259930600280688 0 0.002326207264259444 0.011183705707328906 0 0.0025460459749556781 0.011947280210904208 0 0.002326207264259444 0.011183705707328906 0 0.0016997914229456704 0.011633999442268731 0 0.0025460459749556781 0.011947280210904208 0 0.0016997914229456704 0.011633999442268731 0 0.0016346122219289849 0.012298285573674739 0 0.0011585837939171648 0.011372002674140392 0 0.0016997914229456704 0.011633999442268731 0 0.0017410926163919467 0.011134303804170338 0 0.002326207264259444 0.011183705707328906 0 0.0016997914229456704 0.011633999442268731 0 0.0017410926163919467 0.011134303804170338 0 0.0041751390201530247 0.010248729958385832 0 0.0046356717256272779 0.010484422055916907 0 0.0041052376455281946 0.010870017051865282 0 0.0041751390201530247 0.010248729958385832 0 0.0046356717256272779 0.010484422055916907 0 0.004533911222294882 0.0097016114549341725 0 0.0045788093542815794 0.0096696070383384992 0 0.0047664325112331592 0.0096904625886933236 0 0.004533911222294882 0.0097016114549341725 0 0.0041321691889651367 0.008898357838249835 0 0.0040490650815966948 0.0092901303229718322 0 0.0046356717256272779 0.010484422055916907 0 0.004533911222294882 0.0097016114549341725 0 0.0052411318615086851 0.010958764910450025 0 0.004533911222294882 0.0097016114549341725 0 0.0042564692184935329 0.0084676624961753724 0 0.0041321691889651367 0.008898357838249835 0 0.004533911222294882 0.0097016114549341725 0 0.0043490184216853287 0.0083584014915658589 0 0.0042564692184935329 0.0084676624961753724 0 0.0042010452201821048 0.0097095238018100761 0 0.004533911222294882 0.0097016114549341725 0 0.00420992332590636 0.0096725451580755295 0 0.004533911222294882 0.0097016114549341725 0 0.00420992332590636 0.0096725451580755295 0 0.0040490650815966948 0.0092901303229718322 0 0.0039776614688698409 0.0097886706296855079 0 0.0042010452201821048 0.0097095238018100761 0 0.0041912352132720881 0.0098561723889071962 0 0.0042010452201821048 0.0097095238018100761 0 0.004533911222294882 0.0097016114549341725 0 0.0041912352132720881 0.0098561723889071962 0 0.0041751390201530247 0.010248729958385832 0 0.004533911222294882 0.0097016114549341725 0 0.0041912352132720881 0.0098561723889071962 0 0.0041751390201530247 0.010248729958385832 0 0.0041912352132720881 0.0098561723889071962 0 0.0039348989975262023 0.010106565212695871 0 0.0039776614688698409 0.0097886706296855079 0 0.0039348989975262023 0.010106565212695871 0 0.0035345444182143205 0.010135313797035271 0 0.0039348989975262023 0.010106565212695871 0 0.0035345444182143205 0.010135313797035271 0 0.0037651462988636457 0.01055269159474974 0 0.0039776614688698409 0.0097886706296855079 0 0.0041912352132720881 0.0098561723889071962 0 0.0039348989975262023 0.010106565212695871 0 0.0032939896646863517 0.010750465751767826 0 0.0035345444182143205 0.010135313797035271 0 0.0037651462988636457 0.01055269159474974 0 0.0041751390201530247 0.010248729958385832 0 0.0039348989975262023 0.010106565212695871 0 0.0037651462988636457 0.01055269159474974 0 0.0041751390201530247 0.010248729958385832 0 0.0037651462988636457 0.01055269159474974 0 0.0041052376455281946 0.010870017051865282 0 0.0041052376455281946 0.010870017051865282 0 0.0040322772708274272 0.011413944968369748 0 0.0046048612207663922 0.011106785960327851 0 0.0037651462988636457 0.01055269159474974 0 0.0041052376455281946 0.010870017051865282 0 0.0035881171410194527 0.011363395672722187 0 0.0041052376455281946 0.010870017051865282 0 0.0035881171410194527 0.011363395672722187 0 0.0040322772708274272 0.011413944968369748 0 0.0032939896646863517 0.010750465751767826 0 0.0037651462988636457 0.01055269159474974 0 0.0035881171410194527 0.011363395672722187 0 0.0035881171410194527 0.011363395672722187 0 0.0039492189452065528 0.012004837026313636 0 0.0033660729866753772 0.012045775610177632 0 0.0040322772708274272 0.011413944968369748 0 0.0044546176893513261 0.011665313104478313 0 0.0039492189452065528 0.012004837026313636 0 0.0035881171410194527 0.011363395672722187 0 0.0040322772708274272 0.011413944968369748 0 0.0039492189452065528 0.012004837026313636 0 0.0044546176893513261 0.011665313104478313 0 0.0047836175130869926 0.011460659661450273 0 0.0046048612207663922 0.011106785960327851 0 0.0044546176893513261 0.011665313104478313 0 0.0047836175130869926 0.011460659661450273 0 0.0050533860361981686 0.011960216648588274 0 0.0040322772708274272 0.011413944968369748 0 0.0044546176893513261 0.011665313104478313 0 0.0046048612207663922 0.011106785960327851 0 0.0046356717256272779 0.010484422055916907 0 0.0041052376455281946 0.010870017051865282 0 0.0046048612207663922 0.011106785960327851 0 0.0047836175130869926 0.011460659661450273 0 0.0046048612207663922 0.011106785960327851 0 0.0049043264481190944 0.011186253277284723 0 0.0046356717256272779 0.010484422055916907 0 0.0046048612207663922 0.011106785960327851 0 0.0048426447699704061 0.01091456097016889 0 0.0052411318615086851 0.010958764910450025 0 0.0049043264481190944 0.011186253277284723 0 0.0050861356767114597 0.011503215466711092 0 0.0046356717256272779 0.010484422055916907 0 0.0052411318615086851 0.010958764910450025 0 0.0048426447699704061 0.01091456097016889 0 0.0052411318615086851 0.010958764910450025 0 0.0048426447699704061 0.01091456097016889 0 0.0049043264481190944 0.011186253277284723 0 0.0046048612207663922 0.011106785960327851 0 0.0048426447699704061 0.01091456097016889 0 0.0049043264481190944 0.011186253277284723 0 0.0052411318615086851 0.010958764910450025 0 0.0050861356767114597 0.011503215466711092 0 0.0053928629029401697 0.011795615153917369 0 0.0047836175130869926 0.011460659661450273 0 0.0050861356767114597 0.011503215466711092 0 0.0050533860361981686 0.011960216648588274 0 0.0047836175130869926 0.011460659661450273 0 0.0049043264481190944 0.011186253277284723 0 0.0050861356767114597 0.011503215466711092 0 0.0050861356767114597 0.011503215466711092 0 0.0051920260811659088 0.011767514440299734 0 0.0050533860361981686 0.011960216648588274 0 0.0050861356767114597 0.011503215466711092 0 0.0053928629029401697 0.011795615153917369 0 0.0051920260811659088 0.011767514440299734 0 0.0043490184216853287 0.0083584014915658589 0 0.0043047195089441449 0.0083424192133230018 0 0.0042934646812277976 0.0083730084186478624 0 0.0047664325112331592 0.0096904625886933236 0 0.004819372775911223 0.010017670516354511 0 0.0037670110822312993 0.0078276075196848094 0 0.0036248464790257437 0.0079283170208630169 0 0.0037596847301003566 0.0080291984306720514 0 0.0036480591221004113 0.0078370319854784588 0 0.0035973477817321125 0.0078793828848206082 0 0.0036248464790257437 0.0079283170208630169 0 0.0037670110822312993 0.0078276075196848094 0 0.0036480591221004113 0.0078370319854784588 0 0.0036248464790257437 0.0079283170208630169 0 0.0035973477817321125 0.0078793828848206082 0 0.0035636876420063277 0.0079306575629438242 0 0.0035565717204964903 0.0078005941347583591 0 0.0035973477817321125 0.0078793828848206082 0 0.0035636876420063277 0.0079306575629438242 0 0.0035690174756213273 0.0079302349574743598 0 0.0035636876420063277 0.0079306575629438242 0 0.0035690174756213273 0.0079302349574743598 0 0.0034910107709331933 0.0079803573094382983 0 0.0035690174756213273 0.0079302349574743598 0 0.0036248464790257437 0.0079283170208630169 0 0.0034910107709331933 0.0079803573094382983 0 0.0035973477817321125 0.0078793828848206082 0 0.0035690174756213273 0.0079302349574743598 0 0.0036248464790257437 0.0079283170208630169 0 0.0036248464790257437 0.0079283170208630169 0 0.0035873983212738529 0.0080230584922094568 0 0.0037596847301003566 0.0080291984306720514 0 0.0035873983212738529 0.0080230584922094568 0 0.0034212882587495662 0.0080267452505057742 0 0.0037974779977892779 0.0081871027593403752 0 0.0036248464790257437 0.0079283170208630169 0 0.0035873983212738529 0.0080230584922094568 0 0.0034910107709331933 0.0079803573094382983 0 0.0035873983212738529 0.0080230584922094568 0 0.0034910107709331933 0.0079803573094382983 0 0.0034212882587495662 0.0080267452505057742 0 0.0034212882587495662 0.0080267452505057742 0 0.0037974779977892779 0.0081871027593403752 0 0.0038268607532644695 0.0086309028090348263 0 0.0039949883496711875 0.0085408353954797307 0 0.0037974779977892779 0.0081871027593403752 0 0.0038268607532644695 0.0086309028090348263 0 0.0043490184216853287 0.0083584014915658589 0 0.0042564692184935329 0.0084676624961753724 0 0.0043047195089441449 0.0083424192133230018 0 0.0042564692184935329 0.0084676624961753724 0 0.0037670110822312993 0.0078276075196848094 0 0.0037596847301003566 0.0080291984306720514 0 0.0042893471359857493 0.0085402662224463854 0 0.0039326380493063286 0.0078887028537157327 0 0.0042564692184935329 0.0084676624961753724 0 0.0039949883496711875 0.0085408353954797307 0 0.0037974779977892779 0.0081871027593403752 0 0.0042564692184935329 0.0084676624961753724 0 0.0037596847301003566 0.0080291984306720514 0 0.0037974779977892779 0.0081871027593403752 0 0.0035873983212738529 0.0080230584922094568 0 0.0037596847301003566 0.0080291984306720514 0 0.0037974779977892779 0.0081871027593403752 0 0.0037268508495125539 0.0073242826511595895 0 0.0037680919498369716 0.007274288492735044 0 0.0037515799629628064 0.0072704947908850404 0 0.0038308501436968879 0.00729983121678236 0 0.0037268508495125539 0.0073242826511595895 0 0.0037515799629628064 0.0072704947908850404 0 0.0035636876420063277 0.0079306575629438242 0 0.0035782395957262327 0.0079883555788639489 0 0.0035565717204964903 0.0078005941347583591 0 0.0037253526068644336 0.0076638960731579215 0 0.0037959211449857936 0.0077543424514817721 0 0.0037253526068644336 0.0076638960731579215 0 0.0042126173584490475 0.0083553611347550478 0 0.0035636876420063277 0.0079306575629438242 0 0.0034910107709331933 0.0079803573094382983 0 0.0035782395957262327 0.0079883555788639489 0 0.0034910107709331933 0.0079803573094382983 0 0.0035782395957262327 0.0079883555788639489 0 0.0037477645078582305 0.0075324876253460224 0 0.0038308501436968879 0.00729983121678236 0 0.0037268508495125539 0.0073242826511595895 0 0.0037477645078582305 0.0075324876253460224 0 0.0034910107709331933 0.0079803573094382983 0 0.0034212882587495662 0.0080267452505057742 0 0.0037477645078582305 0.0075324876253460224 0 0.0037253526068644336 0.0076638960731579215 0 0.0037419744552607062 0.0075303734187608532 0 0.0037268508495125539 0.0073242826511595895 0 0.0037477645078582305 0.0075324876253460224 0 0.003732977453231469 0.0071110622774417653 0 0.0033242546942656558 0.0068370569294464636 0 0.00380831544795379 0.0071975631337109535 0 0.0037477645078582305 0.0075324876253460224 0 0.0037411997858210386 0.0073529841590053244 0 0.003732977453231469 0.0071110622774417653 0 0.0037477645078582305 0.0075324876253460224 0 0.0037411997858210386 0.0073529841590053244 0 0.0034420749847431866 0.007470400944245531 0 0.0033242546942656558 0.0068370569294464636 0 0.0036282559322824343 0.0081784673192742408 0 0.0032015430934198346 0.0067617534425459336 0 0.0028423659423673204 0.0065249854263012422 0 0.0030462465238854453 0.0064571562502983406 0 0.0037411997858210386 0.0073529841590053244 0 0.0034420749847431866 0.007470400944245531 0 0.0034425156726946341 0.0072441695638953028 0 0.0038268607532644695 0.0086309028090348263 0 0.0034015956500375011 0.0091257085198598025 0 0.0040490650815966948 0.0092901303229718322 0 0.0041321691889651367 0.008898357838249835 0 0.0038268607532644695 0.0086309028090348263 0 0.0040490650815966948 0.0092901303229718322 0 0.0042564692184935329 0.0084676624961753724 0 0.0039949883496711875 0.0085408353954797307 0 0.0041321691889651367 0.008898357838249835 0 0.0039949883496711875 0.0085408353954797307 0 0.0041321691889651367 0.008898357838249835 0 0.0038268607532644695 0.0086309028090348263 0 0.0034208961078189657 0.0080422410844212845 0 0.0034281671984126923 0.0083391193804257281 0 0.0034212882587495662 0.0080267452505057742 0 0.0038268607532644695 0.0086309028090348263 0 0.0034015956500375011 0.0091257085198598025 0 0.0034212882587495662 0.0080267452505057742 0 0.0037477645078582305 0.0075324876253460224 0 0.0034420749847431866 0.007470400944245531 0 0.0034015956500375011 0.0091257085198598025 0 0.0038641944668479241 0.0095411008531813887 0 0.0035352961952114358 0.0097005602684723333 0 0.0034281671984126923 0.0083391193804257281 0 0.0036282559322824343 0.0081784673192742408 0 0.0034015956500375011 0.0091257085198598025 0 0.0038641944668479241 0.0095411008531813887 0 0.0040490650815966948 0.0092901303229718322 0 0.00420992332590636 0.0096725451580755295 0 0.0038641944668479241 0.0095411008531813887 0 0.0040490650815966948 0.0092901303229718322 0 0.00420992332590636 0.0096725451580755295 0 0.0038641944668479241 0.0095411008531813887 0 0.0039887941802134721 0.0097739611430502412 0 0.0041525904978432183 0.0096094858400876497 0 0.00420992332590636 0.0096725451580755295 0 0.0039887941802134721 0.0097739611430502412 0 0.0038641944668479241 0.0095411008531813887 0 0.0039887941802134721 0.0097739611430502412 0 0.0035352961952114358 0.0097005602684723333 0 0.0040928153077864687 0.00962701524745606 0 0.00442930487871085 0.0098099406778951112 0 0.0045193374072311039 0.0098110305423907244 0 0.0044000852363331585 0.0093255506427083763 0 0.0049892692116884534 0.0091272061894263068 0 0.0044000852363331585 0.0093255506427083763 0 0.0044155014223107771 0.0089786683625768526 0 0.0049892692116884534 0.0091272061894263068 0 0.0041525904978432183 0.0096094858400876497 0 0.0045193374072311039 0.0098110305423907244 0 0.0044000852363331585 0.0093255506427083763 0 0.0028423659423673204 0.0065249854263012422 0 0.0030172975371798947 0.0062615475873806104 0 0.0028653578038262137 0.0061316919058796221 0 0.0036282559322824343 0.0081784673192742408 0 0.0036268869158963876 0.0074512253905686162 0 0.002876070043393551 0.0060556147610358064 0 0.0036268869158963876 0.0074512253905686162 0 0.0045193374072311039 0.0098110305423907244 0 0.0049313669160445835 0.0099988658789496466 0 0.0049892692116884534 0.0091272061894263068 0 0.00442930487871085 0.0098099406778951112 0 0.0036282559322824343 0.0081784673192742408 0 0.0032015430934198346 0.0067617534425459336 0 0.0030462465238854453 0.0064571562502983406 0 0.0032094865745105859 0.006370781815432127 0 0.0028423659423673204 0.0065249854263012422 0 0.0030462465238854453 0.0064571562502983406 0 0.0030172975371798947 0.0062615475873806104 0 0.0030462465238854453 0.0064571562502983406 0 0.0032094865745105859 0.006370781815432127 0 0.0030172975371798947 0.0062615475873806104 0 0.0032015430934198346 0.0067617534425459336 0 0.0032094865745105859 0.006370781815432127 0 0.0035484773302582816 0.0065692245574443531 0 0.0032094865745105859 0.006370781815432127 0 0.0034623197238216707 0.0062471240992714883 0 0.0035484773302582816 0.0065692245574443531 0 0.0032521264755111644 0.0061107061031724953 0 0.0033868360866676508 0.0059545803356268554 0 0.0034623197238216707 0.0062471240992714883 0 0.0032521264755111644 0.0061107061031724953 0 0.0031712847578733144 0.0058866980639985782 0 0.0033868360866676508 0.0059545803356268554 0 0.0032094865745105859 0.006370781815432127 0 0.0032521264755111644 0.0061107061031724953 0 0.0034623197238216707 0.0062471240992714883 0 0.0032521264755111644 0.0061107061031724953 0 0.0030861454156164625 0.0061230055005860274 0 0.0031712847578733144 0.0058866980639985782 0 0.0030861454156164625 0.0061230055005860274 0 0.0031712847578733144 0.0058866980639985782 0 0.0029811927900094811 0.0059485881131036448 0 0.0032094865745105859 0.006370781815432127 0 0.0032521264755111644 0.0061107061031724953 0 0.0030861454156164625 0.0061230055005860274 0 0.0032565111423143492 0.0063994690422115967 0 0.002876070043393551 0.0060556147610358064 0 0.0031712847578733144 0.0058866980639985782 0 0.0033932806836015541 0.005653425419997294 0 0.003113194216017392 0.0057165170230727216 0 0.0031712847578733144 0.0058866980639985782 0 0.003113194216017392 0.0057165170230727216 0 0.003080632560411176 0.005811288311921777 0 0.0031712847578733144 0.0058866980639985782 0 0.0033868360866676508 0.0059545803356268554 0 0.0033932806836015541 0.005653425419997294 0 0.0033300226639758862 0.0056396491160004758 0 0.0031213787342271614 0.0057061726418936812 0 0.0032039794532081494 0.0055956885771733956 0 0.0030983574012852459 0.0056615096400695446 0 0.003113194216017392 0.0057165170230727216 0 0.0032039794532081494 0.0055956885771733956 0 0.0032699682195273323 0.005628661548535762 0 0.003113194216017392 0.0057165170230727216 0 0.0030983574012852459 0.0056615096400695446 0 0.003113194216017392 0.0057165170230727216 0 0.003080632560411176 0.005811288311921777 0 0.0030215556873856822 0.0073502146009250396 0 0.0033371210813371555 0.0075467356973208423 0 0.0030564532516202877 0.0076451382353745385 0 0.0042904651060110318 0.0083253763836265669 0 0.0044155014223107771 0.0089786683625768526 0 0.0049892692116884534 0.0091272061894263068 0 0.0038050414212765326 0.0082020970607498984 0 0.0036268869158963876 0.0074512253905686162 0 0.0039641331386778096 0.0091067766301494157 0 0.0042904651060110318 0.0083253763836265669 0 0.0044155014223107771 0.0089786683625768526 0 0.0039641331386778096 0.0091067766301494157 0 0.0044000852363331585 0.0093255506427083763 0 0.0044155014223107771 0.0089786683625768526 0 0.0031697903866537707 0.0064965080898843159 0 0.0036268869158963876 0.0074512253905686162 0 0.0033371210813371555 0.0075467356973208423 0 0.0030564532516202877 0.0076451382353745385 0 0.0033373262242050476 0.0078871945322281437 0 0.0030983574012852459 0.0056615096400695446 0 0.0029811927900094811 0.0059485881131036448 0 0.003080632560411176 0.005811288311921777 0 0.0031712847578733144 0.0058866980639985782 0 0.0029811927900094811 0.0059485881131036448 0 0.003080632560411176 0.005811288311921777 0 0.0040853978012433696 0.0058927675948288148 0 0.0043684754713869131 0.0053583209113623543 0 0.0038379541518608973 0.0055268473080879931 0 0.0046682034357760239 0.0057109291935139436 0 0.0040853978012433696 0.0058927675948288148 0 0.0043684754713869131 0.0053583209113623543 0 0.003482482901369668 0.0053223881241727172 0 0.0036049383485335274 0.0053850417241422576 0 0.0034059819923730889 0.0055196388225064105 0 0.0039887463715370403 0.0053716850852000026 0 0.0036242174491511263 0.0055209295995405508 0 0.0033221937343470152 0.0054650321519862646 0 0.0032699682195273323 0.005628661548535762 0 0.0034059819923730889 0.0055196388225064105 0 0.0033300226639758862 0.0056396491160004758 0 0.0036242174491511263 0.0055209295995405508 0 0.0033932806836015541 0.005653425419997294 0 0.0038379541518608973 0.0055268473080879931 0 0.0036860035486458711 0.0059127764353548717 0 0.0033868360866676508 0.0059545803356268554 0 0.0033932806836015541 0.005653425419997294 0 0.0036860035486458711 0.0059127764353548717 0 0.0040853978012433696 0.0058927675948288148 0 0.0038379541518608973 0.0055268473080879931 0 0.0036860035486458711 0.0059127764353548717 0 0.0040853978012433696 0.0058927675948288148 0 0.0036860035486458711 0.0059127764353548717 0 0.0037808545080258763 0.0062823611542965375 0 0.0036860035486458711 0.0059127764353548717 0 0.0034623197238216707 0.0062471240992714883 0 0.0037808545080258763 0.0062823611542965375 0 0.0033868360866676508 0.0059545803356268554 0 0.0036860035486458711 0.0059127764353548717 0 0.0034623197238216707 0.0062471240992714883 0 0.0034623197238216707 0.0062471240992714883 0 0.0035484773302582816 0.0065692245574443531 0 0.0037808545080258763 0.0062823611542965375 0 0.0037808545080258763 0.0062823611542965375 0 0.0040756221810410278 0.0064036926367731714 0 0.0038918899512668374 0.0067090193066802542 0 0.0035484773302582816 0.0065692245574443531 0 0.0037808545080258763 0.0062823611542965375 0 0.0038918899512668374 0.0067090193066802542 0 0.0047182150388454048 0.0066090255650618239 0 0.0040756221810410278 0.0064036926367731714 0 0.0043756089638612673 0.0061069646846952643 0 0.0040853978012433696 0.0058927675948288148 0 0.0037808545080258763 0.0062823611542965375 0 0.0040756221810410278 0.0064036926367731714 0 0.0040853978012433696 0.0058927675948288148 0 0.0040756221810410278 0.0064036926367731714 0 0.0043756089638612673 0.0061069646846952643 0 0.0046682034357760239 0.0057109291935139436 0 0.0040853978012433696 0.0058927675948288148 0 0.0043756089638612673 0.0061069646846952643 0 0.0044108004757443765 0.0067392334972568224 0 0.0041535617469077267 0.0068625960228129715 0 0.0040864693218643717 0.0069010463775009568 0 0.0040856939348341984 0.0069081962069729753 0 0.0041473578415144414 0.0068643564548114865 0 0.0047182150388454048 0.0066090255650618239 0 0.0040756221810410278 0.0064036926367731714 0 0.0041473578415144414 0.0068643564548114865 0 0.0040756221810410278 0.0064036926367731714 0 0.0041473578415144414 0.0068643564548114865 0 0.0038918899512668374 0.0067090193066802542 0 0.0041473578415144414 0.0068643564548114865 0 0.0038918899512668374 0.0067090193066802542 0 0.0039195108980289691 0.0070059839825626349 0 0.0041473578415144414 0.0068643564548114865 0 0.0040508718011924988 0.0069813250800426887 0 0.003987915735050483 0.0070385863385431487 0 0.0041473578415144414 0.0068643564548114865 0 0.0039195108980289691 0.0070059839825626349 0 0.003987915735050483 0.0070385863385431487 0 0.0040856939348341984 0.0069081962069729753 0 0.0041473578415144414 0.0068643564548114865 0 0.0040508718011924988 0.0069813250800426887 0 0.0032015430934198346 0.0067617534425459336 0 0.0035484773302582816 0.0065692245574443531 0 0.003732977453231469 0.0071110622774417653 0 0.0035484773302582816 0.0065692245574443531 0 0.0038918899512668374 0.0067090193066802542 0 0.003732977453231469 0.0071110622774417653 0 0.0039195108980289691 0.0070059839825626349 0 0.003732977453231469 0.0071110622774417653 0 0.003891935656332929 0.0071184151465292379 0 0.0038918899512668374 0.0067090193066802542 0 0.0039195108980289691 0.0070059839825626349 0 0.003732977453231469 0.0071110622774417653 0 0.0037268508495125539 0.0073242826511595895 0 0.003732977453231469 0.0071110622774417653 0 0.0037949310122777566 0.007204040786849393 0 0.0037949310122777566 0.007204040786849393 0 0.003891935656332929 0.0071184151465292379 0 0.0039018614175809268 0.0071595889576171199 0 0.003732977453231469 0.0071110622774417653 0 0.0037949310122777566 0.007204040786849393 0 0.003891935656332929 0.0071184151465292379 0 0.0039195108980289691 0.0070059839825626349 0 0.003891935656332929 0.0071184151465292379 0 0.003987915735050483 0.0070385863385431487 0 0.003891935656332929 0.0071184151465292379 0 0.0039018614175809268 0.0071595889576171199 0 0.003956890776992808 0.007087199546170749 0 0.0039018614175809268 0.0071595889576171199 0 0.0039570625321929667 0.0071319165462853237 0 0.0039240254688684677 0.0070961857414989851 0 0.0039018614175809268 0.0071595889576171199 0 0.003956890776992808 0.007087199546170749 0 0.0039240254688684677 0.0070961857414989851 0 0.0037268508495125539 0.0073242826511595895 0 0.0037949310122777566 0.007204040786849393 0 0.0037680919498369716 0.007274288492735044 0 0.0037949310122777566 0.007204040786849393 0 0.0039018614175809268 0.0071595889576171199 0 0.0037680919498369716 0.007274288492735044 0 0.00388000233212512 0.0071796087390191771 0 0.0039072092763031471 0.0072012254962344766 0 0.0039072092763031471 0.0072012254962344766 0 0.0037959211449857936 0.0077543424514817721 0 0.0040508718011924988 0.0069813250800426887 0 0.003956890776992808 0.007087199546170749 0 0.004018749398264845 0.0070049564298465608 0 0.003891935656332929 0.0071184151465292379 0 0.003987915735050483 0.0070385863385431487 0 0.003956890776992808 0.007087199546170749 0 0.0040508718011924988 0.0069813250800426887 0 0.003987915735050483 0.0070385863385431487 0 0.003956890776992808 0.007087199546170749 0 0.003956890776992808 0.007087199546170749 0 0.0039534633791508235 0.0070597850369376811 0 0.0039240254688684677 0.0070961857414989851 0 0.003956890776992808 0.007087199546170749 0 0.004018749398264845 0.0070049564298465608 0 0.0039534633791508235 0.0070597850369376811 0 0.0039534633791508235 0.0070597850369376811 0 0.0039558768224443371 0.0070410160782291469 0 0.0039986610666549087 0.0070084885721790457 0 0.004018749398264845 0.0070049564298465608 0 0.0039534633791508235 0.0070597850369376811 0 0.0039986610666549087 0.0070084885721790457 0 0.0039534633791508235 0.0070597850369376811 0 0.0039240254688684677 0.0070961857414989851 0 0.0039274305056305895 0.0070650157026869373 0 0.0039558768224443371 0.0070410160782291469 0 0.0039274305056305895 0.0070650157026869373 0 0.0039327071537395173 0.0070478891594870788 0 0.0039534633791508235 0.0070597850369376811 0 0.0039558768224443371 0.0070410160782291469 0 0.0039274305056305895 0.0070650157026869373 0 0.0039558768224443371 0.0070410160782291469 0 0.0039933912751531934 0.0070172093142895908 0 0.0039986610666549087 0.0070084885721790457 0 0.0039558768224443371 0.0070410160782291469 0 0.0039327071537395173 0.0070478891594870788 0 0.0039933912751531934 0.0070172093142895908 0 0.0013706286856045879 0.003529324949399081 0 0.0020180659913966153 0.003152296466884686 0 0.0039570625321929667 0.0071319165462853237 0 0.0039511783732659282 0.007089733855460246 0 0.0039240254688684677 0.0070961857414989851 0 0.0039570625321929667 0.0071319165462853237 0 0.0039511783732659282 0.007089733855460246 0 0.0039882980573771433 0.0071240749051363021 0 0.0033535862940953522 0.0076464301893754468 0 0.0037959211449857936 0.0077543424514817721 0 0.0039511783732659282 0.007089733855460246 0 0.0039240254688684677 0.0070961857414989851 0 0.0039274305056305895 0.0070650157026869373 0 0.0033535862940953522 0.0076464301893754468 0 0.003556014089780938 0.0079271203066826074 0 0.0029273793001939209 0.0083193729295914908 0 0.0029905498342529149 0.0074943040273416552 0 0.0036097567623525721 0.0078462197008353392 0 0.0029273793001939209 0.0083193729295914908 0 0.0022785760952149571 0.007849747815709086 0 0.0029905498342529149 0.0074943040273416552 0 0.0029905498342529149 0.0074943040273416552 0 0.0023784036464735607 0.0070368782571138527 0 0.00312325016407629 0.0067268361197294234 0 0.0029905498342529149 0.0074943040273416552 0 0.00312325016407629 0.0067268361197294234 0 0.0035916302690810536 0.0071629363973669527 0 0.0022785760952149571 0.007849747815709086 0 0.0023784036464735607 0.0070368782571138527 0 0.0016195330661948658 0.0073560368334915889 0 0.0022785760952149571 0.007849747815709086 0 0.0029905498342529149 0.0074943040273416552 0 0.0023784036464735607 0.0070368782571138527 0 -0.00039699159607816574 0.0004307014417110973 0 -0.00075069996679110731 0.000915645910656753 0 -0.00012148705652409516 0.00044272759287383457 0 -0.00075069996679110731 0.000915645910656753 0 -0.00012148705652409516 0.00044272759287383457 0 -0.00016568141105525796 0.0005403310698555917 0 -0.00039699159607816574 0.0004307014417110973 0 -0.00075069996679110731 0.000915645910656753 0 -0.0011912831381756619 0.00097086534603122831 0 -0.00075069996679110731 0.000915645910656753 0 -0.0011912831381756619 0.00097086534603122831 0 -0.00093621906313678623 0.0020979612247428235 0 0.00088732335624998825 0.0038211888313170812 0 0.00076909872492107387 0.0034985853163662542 0 -0.00051896855820182197 -0.00037432621743917639 0 -0.00025977279122499011 -0.00020147823984583465 0 -0.00011639474053556834 -0.00062816950669882345 0 0.0013706286856045879 0.003529324949399081 0 -0.00062333172107777147 -0.00050547905391904965 0 -0.00039699159607816574 0.0004307014417110973 0 -9.0877470175032023e-05 0.00026812200756668505 0 -0.00012148705652409516 0.00044272759287383457 0 0.00088732335624998825 0.0038211888313170812 0 0.0013706286856045879 0.003529324949399081 0 0.003556014089780938 0.0079271203066826074 0 0.0013706286856045879 0.003529324949399081 0 -9.0877470175032023e-05 0.00026812200756668505 0 -0.00012148705652409516 0.00044272759287383457 0 1.1969809965948043e-05 0.00028057306054690272 0 -0.00012148705652409516 0.00044272759287383457 0 1.1969809965948043e-05 0.00028057306054690272 0 -4.2653185766152298e-06 0.00030226837467988072 0 0.0005595509691742166 0.0032457559648799024 0 3.9303132733141413e-05 0.0023227931800543287 0 -0.00054138910023086384 0.0032302758798684085 0 -4.2653185766152298e-06 0.00030226837467988072 0 1.3792656252762384e-05 0.00032652127340766074 0 -0.00016568141105525796 0.0005403310698555917 0 0.00027624267338465143 0.0017943900955730671 0 -0.00011787762212462735 0.0013946569387842504 0 -0.00012148705652409516 0.00044272759287383457 0 -4.2653185766152298e-06 0.00030226837467988072 0 -0.00016568141105525796 0.0005403310698555917 0 -0.00075069996679110731 0.000915645910656753 0 3.9303132733141413e-05 0.0023227931800543287 0 -0.00093621906313678623 0.0020979612247428235 0 -0.00074780869910233189 0.00089889812538292656 0 -0.00011787762212462735 0.0013946569387842504 0 -0.00093621906313678623 0.0020979612247428235 0 -0.0015926213197581844 0.0030583138164676387 0 -0.0015254017351052222 0.0019841462511594058 0 -0.0011912831381756619 0.00097086534603122831 0 -0.00093621906313678623 0.0020979612247428235 0 -0.0015254017351052222 0.0019841462511594058 0 -0.00093621906313678623 0.0020979612247428235 0 -0.00054138910023086384 0.0032302758798684085 0 -0.0015926213197581844 0.0030583138164676387 0 3.9303132733141413e-05 0.0023227931800543287 0 -0.00093621906313678623 0.0020979612247428235 0 -0.00054138910023086384 0.0032302758798684085 0 -0.00054138910023086384 0.0032302758798684085 0 -0.00095094900497796648 0.0041172534835751283 0 -2.8248110929398613e-05 0.0041143860515848278 0 0.0011590417346569511 0.010050242239528159 0 0.00088299803026731303 0.010106779233288716 0 -0.00054138910023086384 0.0032302758798684085 0 -0.00095094900497796648 0.0041172534835751283 0 -0.0015926213197581844 0.0030583138164676387 0 0.003186447536749344 0.016019485363411669 0 0.00433680909618641 0.015603085098999058 0 0.0033979331969922733 0.014901065924494354 0 -0.00095094900497796648 0.0041172534835751283 0 -2.8248110929398613e-05 0.0041143860515848278 0 -0.000483681091780616 0.0048959067561245738 0 0.0005595509691742166 0.0032457559648799024 0 -0.00054138910023086384 0.0032302758798684085 0 -2.8248110929398613e-05 0.0041143860515848278 0 -2.8248110929398613e-05 0.0041143860515848278 0 0.00051208637562395298 0.0039605518922231978 0 0.00032074350764810418 0.0046509296356444354 0 0.00051208637562395298 0.0039605518922231978 0 0.00032074350764810418 0.0046509296356444354 0 0.00068804028949848606 0.0044182515637734617 0 0.0005595509691742166 0.0032457559648799024 0 -2.8248110929398613e-05 0.0041143860515848278 0 0.00051208637562395298 0.0039605518922231978 0 0.0005595509691742166 0.0032457559648799024 0 0.00051208637562395298 0.0039605518922231978 0 0.00097207025296418368 0.0039501902093876011 0 0.0054394828185625414 0.016378164979325007 0 0.0055804168502344162 0.016935305490125344 0 0.0049558930248915474 0.017156844424326329 0 0.0054394828185625414 0.016378164979325007 0 0.0057367795124425589 0.017016334885706429 0 0.0063185500899963594 0.016495890086554048 0 0.005422518573338907 0.016363987819542774 0 0.005769762521477647 0.017207693499732769 0 0.0057367795124425589 0.017016334885706429 0 0.0063320568799243851 0.016979436372920511 0 0.0063185500899963594 0.016495890086554048 0 0.0063320568799243851 0.016979436372920511 0 0.0063185500899963594 0.016495890086554048 0 0.0067941384053518674 0.016720451344560423 0 0.0063185500899963594 0.016495890086554048 0 0.0067468953707864859 0.016103265178675875 0 0.0062545226862138368 0.015734380201332415 0 0.0063185500899963594 0.016495890086554048 0 0.0059088662149209001 0.01599804055840693 0 0.0062545226862138368 0.015734380201332415 0 0.0054394828185625414 0.016378164979325007 0 0.0059088662149209001 0.01599804055840693 0 0.0055552347286545282 0.015702778460691496 0 0.0054394828185625414 0.016378164979325007 0 0.0063185500899963594 0.016495890086554048 0 0.0059088662149209001 0.01599804055840693 0 0.0054394828185625414 0.016378164979325007 0 0.0050221327230185317 0.015889393483916957 0 0.0055552347286545282 0.015702778460691496 0 0.0054394828185625414 0.016378164979325007 0 0.0050221327230185317 0.015889393483916957 0 0.0045671509694508138 0.016397690766348151 0 0.0050221327230185317 0.015889393483916957 0 0.00433680909618641 0.015603085098999058 0 0.0050875666292838151 0.015327191708263944 0 0.003186447536749344 0.016019485363411669 0 0.00433680909618641 0.015603085098999058 0 0.0045671509694508138 0.016397690766348151 0 0.0050221327230185317 0.015889393483916957 0 0.00433680909618641 0.015603085098999058 0 0.0045671509694508138 0.016397690766348151 0 0.0045671509694508138 0.016397690766348151 0 0.0049558930248915474 0.017156844424326329 0 0.0040530523649404708 0.017105109722722944 0 0.003186447536749344 0.016019485363411669 0 0.0045671509694508138 0.016397690766348151 0 0.0040530523649404708 0.017105109722722944 0 0.0054394828185625414 0.016378164979325007 0 0.0045671509694508138 0.016397690766348151 0 0.0049558930248915474 0.017156844424326329 0 0.0049558930248915474 0.017156844424326329 0 0.0052255173449603483 0.017742849887833589 0 0.0053898102579869678 0.017334598040403236 0 0.0049558930248915474 0.017156844424326329 0 0.0040530523649404708 0.017105109722722944 0 0.0046366272498322399 0.017977822884191249 0 0.00088299803026731303 0.010106779233288716 0 0.0034714213186457913 0.0092082431672248638 0 -0.0011912831381756619 0.00097086534603122831 0 -0.0015254017351052222 0.0019841462511594058 0 -0.0023594630796974028 0.001678012669510021 0 -0.0015926213197581844 0.0030583138164676387 0 -0.0015254017351052222 0.0019841462511594058 0 -0.0023594630796974028 0.001678012669510021 0 0.0057763628648467465 0.012284775090782267 0 0.0055520288641395989 0.012409180951758929 0 0.0055039303812935902 0.012203575646255335 0 0.0049558930248915474 0.017156844424326329 0 0.0046366272498322399 0.017977822884191249 0 0.0052255173449603483 0.017742849887833589 0 0.0034714213186457913 0.0092082431672248638 0 0.0052320790603685224 0.015051879162483945 0 0.0054224610018226444 0.012346478245661659 0 0.0053403843908980198 0.012497149461434338 0 0.0053068899792147062 0.01226916879081608 0 0.0055520288641395989 0.012409180951758929 0 0.0054224610018226444 0.012346478245661659 0 0.0055039303812935902 0.012203575646255335 0 0.0052320790603685224 0.015051879162483945 0 0.0058513666102432155 0.015760194209221871 0 0.0052255173449603483 0.017742849887833589 0 0.0053898102579869678 0.017334598040403236 0 0.005792368523340123 0.017493736118983173 0 0.0055520288641395989 0.012409180951758929 0 0.0054224610018226444 0.012346478245661659 0 0.0053403843908980198 0.012497149461434338 0 0.0055804168502344162 0.016935305490125344 0 0.0049558930248915474 0.017156844424326329 0 0.0053898102579869678 0.017334598040403236 0 0.0057367795124425589 0.017016334885706429 0 0.0063320568799243851 0.016979436372920511 0 0.0059876795423473746 0.017538245290045641 0 0.0055804168502344162 0.016935305490125344 0 0.0053898102579869678 0.017334598040403236 0 0.005792368523340123 0.017493736118983173 0 0.005769762521477647 0.017207693499732769 0 0.0058513666102432155 0.015760194209221871 0 0.0063320568799243851 0.016979436372920511 0 0.0059876795423473746 0.017538245290045641 0 0.0067487455303555186 0.017156526885191682 0 0.0058513666102432155 0.015760194209221871 0 0.0066683518377970066 0.016687918230392947 0 0.0070611100119358445 0.015847716208173056 0 0.0066881179270467774 0.015498864163381242 0 0.0063917223489466293 0.016029706291126895 0 0.0058513666102432155 0.015760194209221871 0 0.0058876782249657166 0.013077044161674723 0 0.0053403843908980198 0.012497149461434338 0 0.0052542984835892009 0.012213443187643011 0 0.0053068899792147062 0.01226916879081608 0 0.0070611100119358445 0.015847716208173056 0 0.0066881179270467774 0.015498864163381242 0 0.0065620362144916868 0.014553120823830425 0 0.0066881179270467774 0.015498864163381242 0 0.0065620362144916868 0.014553120823830425 0 0.0057952307026806092 0.014546009016687518 0 0.0053068899792147062 0.01226916879081608 0 0.0053563447319842127 0.012144548535824772 0 0.0052891775656850049 0.012164249246978572 0 0.0052542984835892009 0.012213443187643011 0 0.0053068899792147062 0.01226916879081608 0 0.0052891775656850049 0.012164249246978572 0 0.0054224610018226444 0.012346478245661659 0 0.0053068899792147062 0.01226916879081608 0 0.0055039303812935902 0.012203575646255335 0 0.0053068899792147062 0.01226916879081608 0 0.0055039303812935902 0.012203575646255335 0 0.0053562555745334597 0.011931970902299943 0 0.0053354024024860319 0.012153482693816341 0 0.005308716893766911 0.012287675974947947 0 0.0055039303812935902 0.012203575646255335 0 0.0053562555745334597 0.011931970902299943 0 0.0056366909111400937 0.011961676036456923 0 0.005308716893766911 0.012287675974947947 0 0.0049957616300544969 0.010266751845011414 0 0.0050886866745585915 0.0095774074897259226 0 0.0049957616300544969 0.010266751845011414 0 0.0053562555745334597 0.011931970902299943 0 0.0056366909111400937 0.011961676036456923 0 0.0054586248211007963 0.011584185568783611 0 0.0052542984835892009 0.012213443187643011 0 0.0052891775656850049 0.012164249246978572 0 0.0052270829842208611 0.012091961858091768 0 0.0058876782249657166 0.013077044161674723 0 0.0055079542383772986 0.012660793950380857 0 0.0053563447319842127 0.012144548535824772 0 0.0052945305783141522 0.012097528603627349 0 0.0053399848398012631 0.012035367981620783 0 0.0052945305783141522 0.012097528603627349 0 0.0052891775656850049 0.012164249246978572 0 0.0052270829842208611 0.012091961858091768 0 0.0053563447319842127 0.012144548535824772 0 0.0052945305783141522 0.012097528603627349 0 0.0052891775656850049 0.012164249246978572 0 0.00312325016407629 0.0067268361197294234 0 0.0038677342192527716 0.0064187008391108817 0 0.0035916302690810536 0.0071629363973669527 0 0.00076909872492107387 0.0034985853163662542 0 0.0034714213186457913 0.0092082431672248638 0 0.0038677342192527716 0.0064187008391108817 0 0.0042720908874352851 0.0071863260602275493 0 0.0035916302690810536 0.0071629363973669527 0 0.0057763628648467465 0.012284775090782267 0 0.0055039303812935902 0.012203575646255335 0 0.0056366909111400937 0.011961676036456923 0 0.0034714213186457913 0.0092082431672248638 0 0.0050886866745585915 0.0095774074897259226 0 0.0042720908874352851 0.0071863260602275493 0 0.0035916302690810536 0.0071629363973669527 0 0.0036097567623525721 0.0078462197008353392 0 0.0029905498342529149 0.0074943040273416552 0 0.0035916302690810536 0.0071629363973669527 0 0.0036097567623525721 0.0078462197008353392 0 0.0036097567623525721 0.0078462197008353392 0 0.0041205321349880048 0.0080445608083928467 0 0.0035670507482043071 0.0087728545489328402 0 0.0042720908874352851 0.0071863260602275493 0 0.0041205321349880048 0.0080445608083928467 0 0.0046656996343958004 0.0079542615441061185 0 0.0042720908874352851 0.0071863260602275493 0 0.0036097567623525721 0.0078462197008353392 0 0.0041205321349880048 0.0080445608083928467 0 0.0041205321349880048 0.0080445608083928467 0 0.0046656996343958004 0.0079542615441061185 0 0.0044851707287444798 0.0084636068138435397 0 0.0037959211449857936 0.0077543424514817721 0 0.0042126173584490475 0.0083553611347550478 0 0.003898947662477786 0.0079094534166887654 0 0.0039324925369250236 0.0079333113000952613 0 0.0038850259891011862 0.0079537656178931427 0 0.0041205321349880048 0.0080445608083928467 0 0.0035670507482043071 0.0087728545489328402 0 0.0044851707287444798 0.0084636068138435397 0 0.0029273793001939209 0.0083193729295914908 0 0.0036097567623525721 0.0078462197008353392 0 0.0035670507482043071 0.0087728545489328402 0 0.0053406930897421084 0.011983914531795007 0 0.0052553053029046233 0.011998363104987484 0 0.0053399848398012631 0.012035367981620783 0 0.0052785040008308188 0.011914893808959206 0 0.0053399848398012631 0.012035367981620783 0 0.0053536055987359991 0.01195774736405446 0 0.0046113455840853515 0.010756847433600497 0 0.0053072794189422479 0.01217152203404605 0 0.0052553053029046233 0.011998363104987484 0 0.00527815957607 0.012056158095936517 0 0.0053399848398012631 0.012035367981620783 0 0.0052553053029046233 0.011998363104987484 0 0.00527815957607 0.012056158095936517 0 0.0052270829842208611 0.012091961858091768 0 0.0052945305783141522 0.012097528603627349 0 0.00527815957607 0.012056158095936517 0 0.0052270829842208611 0.012091961858091768 0 0.0052945305783141522 0.012097528603627349 0 0.00527815957607 0.012056158095936517 0 0.0053399848398012631 0.012035367981620783 0 0.0053563447319842127 0.012144548535824772 0 0.0053399848398012631 0.012035367981620783 0 0.005425687079234384 0.012006475965098625 0 0.0049957616300544969 0.010266751845011414 0 0.0042126173584490475 0.0083553611347550478 0 0.0045659274437019996 0.0097020093007448276 0 0.0042703409549067926 0.0091291817471967126 0 0.0048243904021431274 0.0089337631177803592 0 0.0052785040008308188 0.011914893808959206 0 0.0053536055987359991 0.01195774736405446 0 0.0053803517996217484 0.011880047841190866 0 0.005425687079234384 0.012006475965098625 0 0.0053536055987359991 0.01195774736405446 0 0.0053803517996217484 0.011880047841190866 0 0.0053399848398012631 0.012035367981620783 0 0.005425687079234384 0.012006475965098625 0 0.0053536055987359991 0.01195774736405446 0 0.0049957616300544969 0.010266751845011414 0 0.0045226153445687587 0.0091591478834907088 0 0.0046113455840853515 0.010756847433600497 0 0.0045226153445687587 0.0091591478834907088 0 0.0037670110822312993 0.0078276075196848094 0 0.0036480591221004113 0.0078370319854784588 0 0.0036136761996322531 0.0077810987522112102 0 0.0045226153445687587 0.0091591478834907088 0 0.0042126173584490475 0.0083553611347550478 0 0.0036136761996322531 0.0077810987522112102 0 0.0035565717204964903 0.0078005941347583591 0 0.0036111355576099618 0.0078230604064293881 0 0.0035973477817321125 0.0078793828848206082 0 0.0035565717204964903 0.0078005941347583591 0 0.0036111355576099618 0.0078230604064293881 0 0.0036480591221004113 0.0078370319854784588 0 0.0036136761996322531 0.0077810987522112102 0 0.0036111355576099618 0.0078230604064293881 0 0.0036480591221004113 0.0078370319854784588 0 0.0035973477817321125 0.0078793828848206082 0 0.0036111355576099618 0.0078230604064293881 0 0.0039326380493063286 0.0078887028537157327 0 0.0045226153445687587 0.0091591478834907088 0 0.0043047195089441449 0.0083424192133230018 0 0.004388012210483308 0.0084665737906609445 0 0.0042934646812277976 0.0083730084186478624 0 0.0046113455840853515 0.010756847433600497 0 0.004819372775911223 0.010017670516354511 0 0.0043301959782864781 0.0084946793737384965 0 0.004388012210483308 0.0084665737906609445 0 0.0042934646812277976 0.0083730084186478624 0 0.0053406930897421084 0.011983914531795007 0 0.0052553053029046233 0.011998363104987484 0 0.0053928629029401697 0.011795615153917369 0 0.0052553053029046233 0.011998363104987484 0 0.0053928629029401697 0.011795615153917369 0 0.0052211533828480814 0.011888125854463746 0 0.0053928629029401697 0.011795615153917369 0 0.0052211533828480814 0.011888125854463746 0 0.0051920260811659088 0.011767514440299734 0 0.0052211533828480814 0.011888125854463746 0 0.0051920260811659088 0.011767514440299734 0 0.0050533860361981686 0.011960216648588274 0 0.0052553053029046233 0.011998363104987484 0 0.0052211533828480814 0.011888125854463746 0 0.0050533860361981686 0.011960216648588274 0 0.0050949367924919275 0.011962818158145967 0 0.0055079542383772986 0.012660793950380857 0 0.0052553053029046233 0.011998363104987484 0 0.0050533860361981686 0.011960216648588274 0 0.0052270829842208611 0.012091961858091768 0 0.0050533860361981686 0.011960216648588274 0 0.005780733509735422 0.013078802817046388 0 0.0046743753445435687 0.012847882409592809 0 0.005780733509735422 0.013078802817046388 0 0.0046743753445435687 0.012847882409592809 0 0.0051817645734620636 0.013412466362182657 0 0.0046743753445435687 0.012847882409592809 0 0.0044109235568817089 0.012191568640062822 0 0.0040842658523477533 0.012582988233266142 0 0.0050533860361981686 0.011960216648588274 0 0.0046743753445435687 0.012847882409592809 0 0.0044109235568817089 0.012191568640062822 0 0.0044546176893513261 0.011665313104478313 0 0.0050533860361981686 0.011960216648588274 0 0.0044109235568817089 0.012191568640062822 0 0.0044546176893513261 0.011665313104478313 0 0.0044109235568817089 0.012191568640062822 0 0.0039492189452065528 0.012004837026313636 0 0.0039492189452065528 0.012004837026313636 0 0.0033661463729276215 0.012720203183987474 0 0.0040842658523477533 0.012582988233266142 0 0.0044109235568817089 0.012191568640062822 0 0.0039492189452065528 0.012004837026313636 0 0.0040842658523477533 0.012582988233266142 0 0.0039186652164171411 0.012074947070813127 0 0.0035253221373615514 0.012693362243477151 0 0.0039492189452065528 0.012004837026313636 0 0.0037348008489035017 0.012639212843994481 0 0.0033660729866753772 0.012045775610177632 0 0.0035253221373615514 0.012693362243477151 0 0.0034405114571192568 0.013434619270214691 0 0.0037348008489035017 0.012639212843994481 0 0.0033660729866753772 0.012045775610177632 0 0.0033963033007483982 0.012769581720463797 0 0.0037348008489035017 0.012639212843994481 0 0.0033963033007483982 0.012769581720463797 0 0.0034801337574516477 0.013265672109952727 0 0.0033661463729276215 0.012720203183987474 0 0.0040251101685355711 0.013229136119082227 0 0.0035665003241366709 0.013369600871429419 0 0.0033661463729276215 0.012720203183987474 0 0.0040842658523477533 0.012582988233266142 0 0.0040251101685355711 0.013229136119082227 0 0.0046743753445435687 0.012847882409592809 0 0.0040842658523477533 0.012582988233266142 0 0.0040251101685355711 0.013229136119082227 0 0.0040251101685355711 0.013229136119082227 0 0.0040463125984807839 0.014047635015471025 0 0.004741517710741174 0.013910158439866729 0 0.0040251101685355711 0.013229136119082227 0 0.0035665003241366709 0.013369600871429419 0 0.0040463125984807839 0.014047635015471025 0 0.0033661463729276215 0.012720203183987474 0 0.0035665003241366709 0.013369600871429419 0 0.0028305661263329767 0.013495370993524047 0 0.0045696895790512358 0.014384279970474981 0 0.0034405114571192568 0.013434619270214691 0 0.0035665003241366709 0.013369600871429419 0 0.0040463125984807839 0.014047635015471025 0 0.0028305661263329767 0.013495370993524047 0 0.0047512517327474831 0.014729929212332101 0 0.0045696895790512358 0.014384279970474981 0 0.0050991282089577579 0.015134551753135926 0 0.0056689582134862365 0.015057644308700277 0 0.0053035302933823088 0.015631068691694869 0 0.0041464403323885632 0.014284474415486893 0 0.0045931771502639059 0.014174697867486961 0 0.0040148454787320639 0.013924120894795861 0 0.0037103397336410281 0.014303490015221947 0 0.0046536600864297735 0.014066166254835082 0 0.0051669270147947227 0.014934147185950536 0 0.0045696895790512358 0.014384279970474981 0 0.0057440073195287461 0.015183985648564276 0 0.0056689582134862365 0.015057644308700277 0 0.006220244521365664 0.0153592209915138 0 0.0057689332068004669 0.015715904143004802 0 0.0045696895790512358 0.014384279970474981 0 0.0046332217269137166 0.014020771636120822 0 0.0066881179270467774 0.015498864163381242 0 0.0051669270147947227 0.014934147185950536 0 0.0057952307026806092 0.014546009016687518 0 0.0046536600864297735 0.014066166254835082 0 0.0057952307026806092 0.014546009016687518 0 0.0055749161185582735 0.013815788049857367 0 0.0046536600864297735 0.014066166254835082 0 0.0051669270147947227 0.014934147185950536 0 0.0057952307026806092 0.014546009016687518 0 0.0065620362144916868 0.014553120823830425 0 0.0057952307026806092 0.014546009016687518 0 0.0055749161185582735 0.013815788049857367 0 0.0065620362144916868 0.014553120823830425 0 0.005780733509735422 0.013078802817046388 0 0.0055749161185582735 0.013815788049857367 0 0.004741517710741174 0.013910158439866729 0 0.0055749161185582735 0.013815788049857367 0 0.0051817645734620636 0.013412466362182657 0 0.005780733509735422 0.013078802817046388 0 0.0055749161185582735 0.013815788049857367 0 0.0051817645734620636 0.013412466362182657 0 0.0046743753445435687 0.012847882409592809 0 0.004741517710741174 0.013910158439866729 0 0.0051817645734620636 0.013412466362182657 0 0.0046743753445435687 0.012847882409592809 0 0.0040251101685355711 0.013229136119082227 0 0.004741517710741174 0.013910158439866729 0 0.0046332217269137166 0.014020771636120822 0 0.0054925004452041895 0.013819753483523777 0 0.0017261234518657395 0.012433356157828854 0 0.0025455069542618591 0.012807114798769495 0 0.0016743130836357866 0.013139339187602789 0 0.0025460459749556781 0.011947280210904208 0 0.0016346122219289849 0.012298285573674739 0 0.0025455069542618591 0.012807114798769495 0 0.0016979588591164311 0.012374766323370938 0 0.0025026148694588727 0.012790575049360181 0 0.0025455069542618591 0.012807114798769495 0 0.0030465654668687999 0.012899441305264606 0 0.0029976866972577852 0.012488335704693685 0 0.0025460459749556781 0.011947280210904208 0 0.0025455069542618591 0.012807114798769495 0 0.0029976866972577852 0.012488335704693685 0 0.0025460459749556781 0.011947280210904208 0 0.0029976866972577852 0.012488335704693685 0 0.0033660729866753772 0.012045775610177632 0 0.0029976866972577852 0.012488335704693685 0 0.0033660729866753772 0.012045775610177632 0 0.0033963033007483982 0.012769581720463797 0 0.0030465654668687999 0.012899441305264606 0 0.0029976866972577852 0.012488335704693685 0 0.0033963033007483982 0.012769581720463797 0 0.0030465654668687999 0.012899441305264606 0 0.0033963033007483982 0.012769581720463797 0 0.0033309298986595724 0.01320912865075881 0 0.0033309298986595724 0.01320912865075881 0 0.0035208949638811907 0.013290595137017644 0 0.0031670514700009905 0.014091717631773804 0 0.0033963033007483982 0.012769581720463797 0 0.0033309298986595724 0.01320912865075881 0 0.0034801337574516477 0.013265672109952727 0 0.0033707361274829184 0.013351194817267688 0 0.0034405114571192568 0.013434619270214691 0 0.0047512517327474831 0.014729929212332101 0 0.0038094885922864757 0.01445858963233392 0 0.0034405114571192568 0.013434619270214691 0 0.0038094885922864757 0.01445858963233392 0 0.0041464403323885632 0.014284474415486893 0 0.0040148454787320639 0.013924120894795861 0 0.0037000128285212958 0.01439580126446509 0 0.0031670514700009905 0.014091717631773804 0 0.0028554091449163343 0.01352248422717886 0 0.002746555330527649 0.014426867008142255 0 0.0033309298986595724 0.01320912865075881 0 0.0031670514700009905 0.014091717631773804 0 0.0028554091449163343 0.01352248422717886 0 0.0025455069542618591 0.012807114798769495 0 0.0030465654668687999 0.012899441305264606 0 0.0028554091449163343 0.01352248422717886 0 0.0030465654668687999 0.012899441305264606 0 0.0033309298986595724 0.01320912865075881 0 0.0028554091449163343 0.01352248422717886 0 0.0025455069542618591 0.012807114798769495 0 0.0028554091449163343 0.01352248422717886 0 0.0023155089231740051 0.013729218765167587 0 0.0025455069542618591 0.012807114798769495 0 0.0023155089231740051 0.013729218765167587 0 0.0016743130836357866 0.013139339187602789 0 0.0028554091449163343 0.01352248422717886 0 0.0023155089231740051 0.013729218765167587 0 0.002746555330527649 0.014426867008142255 0 0.0023155089231740051 0.013729218765167587 0 0.0021678582254884074 0.014391557817843209 0 0.002746555330527649 0.014426867008142255 0 0.0023155089231740051 0.013729218765167587 0 0.0021678582254884074 0.014391557817843209 0 0.0015955099891739254 0.01393496237154962 0 0.0023155089231740051 0.013729218765167587 0 0.0016743130836357866 0.013139339187602789 0 0.0015955099891739254 0.01393496237154962 0 0.0021843826069916097 0.015320531433011144 0 0.0016488009311053247 0.014720802294016056 0 0.0015589560135867264 0.015883865764693895 0 0.0021843826069916097 0.015320531433011144 0 0.002731829997112334 0.01513328649434602 0 0.0030790797127318217 0.016471835944931498 0 0.0021843826069916097 0.015320531433011144 0 0.0030790797127318217 0.016471835944931498 0 0.0015589560135867264 0.015883865764693895 0 0.0021843826069916097 0.015320531433011144 0 0.0021678582254884074 0.014391557817843209 0 0.002731829997112334 0.01513328649434602 0 0.0021678582254884074 0.014391557817843209 0 0.0015955099891739254 0.01393496237154962 0 0.0016488009311053247 0.014720802294016056 0 0.0021843826069916097 0.015320531433011144 0 0.0021678582254884074 0.014391557817843209 0 0.0016488009311053247 0.014720802294016056 0 0.0021678582254884074 0.014391557817843209 0 0.002746555330527649 0.014426867008142255 0 0.002731829997112334 0.01513328649434602 0 0.002746555330527649 0.014426867008142255 0 0.0033734833940067908 0.015292181608832219 0 0.002731829997112334 0.01513328649434602 0 0.0036759119400923937 0.015570726496821714 0 0.0030697933959168817 0.016438321838286203 0 0.0033734833940067908 0.015292181608832219 0 0.002731829997112334 0.01513328649434602 0 0.0030790797127318217 0.016471835944931498 0 0.0038893463251241634 0.015762148032067175 0 0.0043788359777161374 0.016438568455541602 0 0.0030790797127318217 0.016471835944931498 0 0.0038893463251241634 0.015762148032067175 0 0.0046448783586842124 0.015685731620490698 0 0.0043788359777161374 0.016438568455541602 0 0.0038094885922864757 0.01445858963233392 0 0.0036759119400923937 0.015570726496821714 0 0.0038094885922864757 0.01445858963233392 0 0.0027586644929219221 0.014335210635757437 0 0.0044331578290730308 0.01521192959253681 0 0.0038893463251241634 0.015762148032067175 0 0.0046448783586842124 0.015685731620490698 0 0.0041655290921952352 0.014067486938791406 0 0.002746555330527649 0.014426867008142255 0 0.0033734833940067908 0.015292181608832219 0 0.0050991282089577579 0.015134551753135926 0 0.0044331578290730308 0.01521192959253681 0 0.0046448783586842124 0.015685731620490698 0 0.0046448783586842124 0.015685731620490698 0 0.0049513628848987593 0.016089978340784277 0 0.0053035302933823088 0.015631068691694869 0 0.0046448783586842124 0.015685731620490698 0 0.0049513628848987593 0.016089978340784277 0 0.0043788359777161374 0.016438568455541602 0 0.0049513628848987593 0.016089978340784277 0 0.0049779779933027653 0.016613838183826314 0 0.0043788359777161374 0.016438568455541602 0 0.0049779779933027653 0.016613838183826314 0 0.0047936515528244367 0.01739877978006513 0 0.0043788359777161374 0.016438568455541602 0 0.005350935181291868 0.017261596636436383 0 0.0062408249038750736 0.016714777533994335 0 0.0049779779933027653 0.016613838183826314 0 0.0047936515528244367 0.01739877978006513 0 0.0054333460828541796 0.016789411052154819 0 0.0047936515528244367 0.01739877978006513 0 0.0038771213407334405 0.017173986232130085 0 0.0041113992792258577 0.018197440153074052 0 0.0047936515528244367 0.01739877978006513 0 0.0043788359777161374 0.016438568455541602 0 0.0038771213407334405 0.017173986232130085 0 0.0043788359777161374 0.016438568455541602 0 0.0030790797127318217 0.016471835944931498 0 0.0038771213407334405 0.017173986232130085 0 0.0030790797127318217 0.016471835944931498 0 0.0038771213407334405 0.017173986232130085 0 0.0024392917033221172 0.01729677055686285 0 0.0038771213407334405 0.017173986232130085 0 0.0024392917033221172 0.01729677055686285 0 0.0041113992792258577 0.018197440153074052 0 0.0030790797127318217 0.016471835944931498 0 0.0024392917033221172 0.01729677055686285 0 0.0015589560135867264 0.015883865764693895 0 0.0061028249334077155 0.015874483936571669 0 0.0063917223489466293 0.016029706291126895 0 0.0059632249740579606 0.016346799209123103 0 0.0061028249334077155 0.015874483936571669 0 0.0057689332068004669 0.015715904143004802 0 0.0059632249740579606 0.016346799209123103 0 0.0066881179270467774 0.015498864163381242 0 0.0063917223489466293 0.016029706291126895 0 0.0063568078232463824 0.01567069615207442 0 0.0061028249334077155 0.015874483936571669 0 0.0063917223489466293 0.016029706291126895 0 0.0063568078232463824 0.01567069615207442 0 0.006607199393944393 0.015474347100582259 0 0.0057440073195287461 0.015183985648564276 0 0.0066881179270467774 0.015498864163381242 0 0.006220244521365664 0.0153592209915138 0 0.0063568078232463824 0.01567069615207442 0 0.006220244521365664 0.0153592209915138 0 0.0061028249334077155 0.015874483936571669 0 0.0063568078232463824 0.01567069615207442 0 0.006220244521365664 0.0153592209915138 0 0.0061028249334077155 0.015874483936571669 0 0.0057689332068004669 0.015715904143004802 0 0.0056689582134862365 0.015057644308700277 0 0.0057689332068004669 0.015715904143004802 0 0.0053035302933823088 0.015631068691694869 0 0.0050991282089577579 0.015134551753135926 0 0.0046448783586842124 0.015685731620490698 0 0.0053035302933823088 0.015631068691694869 0 0.0049513628848987593 0.016089978340784277 0 0.0053035302933823088 0.015631068691694869 0 0.005424096722110471 0.016189594337419719 0 0.0057689332068004669 0.015715904143004802 0 0.005424096722110471 0.016189594337419719 0 0.0059632249740579606 0.016346799209123103 0 0.0057689332068004669 0.015715904143004802 0 0.0053035302933823088 0.015631068691694869 0 0.005424096722110471 0.016189594337419719 0 0.005424096722110471 0.016189594337419719 0 0.0054333460828541796 0.016789411052154819 0 0.0059632249740579606 0.016346799209123103 0 0.0070874845607141433 0.016593934017207091 0 0.0073607471863309107 0.016671074955512927 0 0.0073078349081592067 0.016780542718831809 0 0.0062408249038750736 0.016714777533994335 0 0.0065904392569786025 0.016563904692221403 0 0.0049779779933027653 0.016613838183826314 0 0.005424096722110471 0.016189594337419719 0 0.0054333460828541796 0.016789411052154819 0 0.0049513628848987593 0.016089978340784277 0 0.0049779779933027653 0.016613838183826314 0 0.005424096722110471 0.016189594337419719 0 0.00596964438514592 0.017026397083022001 0 0.0070874845607141433 0.016593934017207091 0 0.0070599424076582653 0.01724356762423707 0 0.0070874845607141433 0.016593934017207091 0 0.0073607471863309107 0.016671074955512927 0 0.0070599424076582653 0.01724356762423707 0 0.0073607471863309107 0.016671074955512927 0 0.0073078349081592067 0.016780542718831809 0 0.0070256704900690673 0.016509710026066292 0 0.0073607471863309107 0.016671074955512927 0 0.0070256704900690673 0.016509710026066292 0 0.0075223872927773069 0.016626706883308504 0 0.0066683518377970066 0.016687918230392947 0 0.0065904392569786025 0.016563904692221403 0 0.0073078349081592067 0.016780542718831809 0 0.0067941384053518674 0.016720451344560423 0 0.0070256704900690673 0.016509710026066292 0 0.0063320568799243851 0.016979436372920511 0 0.0067487455303555186 0.017156526885191682 0 0.0067941384053518674 0.016720451344560423 0 0.0067487455303555186 0.017156526885191682 0 0.0073078349081592067 0.016780542718831809 0 0.0067941384053518674 0.016720451344560423 0 0.0063185500899963594 0.016495890086554048 0 0.0067941384053518674 0.016720451344560423 0 0.0070256704900690673 0.016509710026066292 0 0.0063185500899963594 0.016495890086554048 0 0.0070256704900690673 0.016509710026066292 0 0.0067468953707864859 0.016103265178675875 0 0.0067468953707864859 0.016103265178675875 0 0.0068110117555412967 0.015724442316632326 0 0.0062545226862138368 0.015734380201332415 0 0.0068110117555412967 0.015724442316632326 0 0.0062545226862138368 0.015734380201332415 0 0.0063899423171056178 0.015343362262117386 0 0.0068110117555412967 0.015724442316632326 0 0.0066770492166084681 0.015248736840847389 0 0.0070611208634598129 0.015399161152081014 0 0.0068110117555412967 0.015724442316632326 0 0.0066770492166084681 0.015248736840847389 0 0.0063899423171056178 0.015343362262117386 0 0.0066770492166084681 0.015248736840847389 0 0.0063899423171056178 0.015343362262117386 0 0.0063491312430966791 0.015018725085458056 0 0.0068110117555412967 0.015724442316632326 0 0.0070611208634598129 0.015399161152081014 0 0.0074171153668726236 0.015788410344913292 0 0.0068110117555412967 0.015724442316632326 0 0.0074171153668726236 0.015788410344913292 0 0.0075223872927773069 0.016626706883308504 0 0.0070611208634598129 0.015399161152081014 0 0.0074171153668726236 0.015788410344913292 0 0.0075698412973567008 0.015140668928024912 0 0.0070256704900690673 0.016509710026066292 0 0.0067468953707864859 0.016103265178675875 0 0.0075223872927773069 0.016626706883308504 0 0.0067468953707864859 0.016103265178675875 0 0.0068110117555412967 0.015724442316632326 0 0.0075223872927773069 0.016626706883308504 0 0.0074352009428000189 0.016831625931096661 0 0.0080018424506586965 0.016849637292753405 0 0.0075223872927773069 0.016626706883308504 0 0.0070599424076582653 0.01724356762423707 0 0.0071601671197304359 0.018100461603402205 0 0.0073607471863309107 0.016671074955512927 0 0.0075223872927773069 0.016626706883308504 0 0.0070599424076582653 0.01724356762423707 0 0.0070599424076582653 0.01724356762423707 0 0.0071601671197304359 0.018100461603402205 0 0.0066153277233143995 0.01828579520353165 0 0.0070599424076582653 0.01724356762423707 0 0.0066153277233143995 0.01828579520353165 0 0.0063056938177042127 0.017818371089624984 0 0.0080018424506586965 0.016849637292753405 0 0.0066537182416413201 0.017999324246212416 0 0.0085031543916781454 0.015914638623831436 0 0.0086613626636000036 0.01527794744740776 0 0.0092900707968567187 0.01536498011718314 0 0.0071601671197304359 0.018100461603402205 0 0.0066153277233143995 0.01828579520353165 0 0.0063531553625001819 0.019176771368796683 0 0.0074171153668726236 0.015788410344913292 0 0.0085031543916781454 0.015914638623831436 0 0.0075698412973567008 0.015140668928024912 0 0.0074171153668726236 0.015788410344913292 0 0.0075223872927773069 0.016626706883308504 0 0.0085031543916781454 0.015914638623831436 0 0.0085031543916781454 0.015914638623831436 0 0.0086613626636000036 0.01527794744740776 0 0.0075698412973567008 0.015140668928024912 0 0.0084452386011509457 0.014656365436877284 0 0.0077014544575131644 0.014581908561299217 0 0.0075698412973567008 0.015140668928024912 0 0.0084452386011509457 0.014656365436877284 0 0.0086613626636000036 0.01527794744740776 0 0.0075698412973567008 0.015140668928024912 0 0.0076679403555349017 0.015472178554324289 0 0.0066537182416413201 0.017999324246212416 0 0.0065755385348012273 0.0162551953146692 0 0.0070226686768809299 0.016030718939013314 0 0.0076535778194381588 0.01716567330118865 0 0.006446686402036968 0.017717848445486857 0 0.0066537182416413201 0.017999324246212416 0 0.0084452386011509457 0.014656365436877284 0 0.0086613626636000036 0.01527794744740776 0 0.0092900707968567187 0.01536498011718314 0 0.0065755385348012273 0.0162551953146692 0 0.0070226686768809299 0.016030718939013314 0 0.0063830797476101073 0.01490912951129052 0 0.006446686402036968 0.017717848445486857 0 0.0047438895937496938 0.014931978528019661 0 0.0054676541616647837 0.018713810551018444 0 0.0050583857968204398 0.019210626015006064 0 0.0058387092473614847 0.019350559921099887 0 0.0084452386011509457 0.014656365436877284 0 0.0077014544575131644 0.014581908561299217 0 0.0076131521666065729 0.01400605941866904 0 0.0065755385348012273 0.0162551953146692 0 0.0055009413872742705 0.01535501470659094 0 0.0063830797476101073 0.01490912951129052 0 0.0076679403555349017 0.015472178554324289 0 0.0071905994265119436 0.013374339842534116 0 0.007289428267867157 0.013135005120768513 0 0.0076303602582578041 0.012962857227187086 0 0.0073945609111014179 0.013219633626875353 0 0.0071905994265119436 0.013374339842534116 0 0.0074053571976382404 0.011776427176589541 0 0.0077014544575131644 0.014581908561299217 0 0.0076131521666065729 0.01400605941866904 0 0.0072876678700621962 0.014190092021268242 0 0.0071905994265119436 0.013374339842534116 0 0.0074917497223450612 0.013065061646437103 0 0.0074917497223450612 0.013065061646437103 0 0.0074053571976382404 0.011776427176589541 0 0.0077014544575131644 0.014581908561299217 0 0.0072876678700621962 0.014190092021268242 0 0.0071903047585850999 0.014726737285746737 0 0.0081289209277348919 0.010611838672516466 0 0.0073700673990615079 0.010394140826010277 0 0.007094957975080197 0.011144020375583241 0 0.0072966433693097289 0.014214298137999759 0 0.0065550392623083742 0.014615900197540785 0 0.0066532990268964778 0.014920837635976861 0 0.0074917497223450612 0.013065061646437103 0 0.0069047279331831508 0.01280149665811548 0 0.0074917497223450612 0.013065061646437103 0 0.006511633572076304 0.015253413445954198 0 0.0073700673990615079 0.010394140826010277 0 0.007094957975080197 0.011144020375583241 0 0.0068168384731706862 0.01060048340307641 0 0.0073700673990615079 0.010394140826010277 0 0.0067957776984196123 0.0099076491185659081 0 0.0068168384731706862 0.01060048340307641 0 0.0066532990268964778 0.014920837635976861 0 0.0069890602813054608 0.01503601666757918 0 0.0071903047585850999 0.014726737285746737 0 0.0065550392623083742 0.014615900197540785 0 0.0066532990268964778 0.014920837635976861 0 0.0063491312430966791 0.015018725085458056 0 0.0066770492166084681 0.015248736840847389 0 0.0066532990268964778 0.014920837635976861 0 0.0063491312430966791 0.015018725085458056 0 0.0066770492166084681 0.015248736840847389 0 0.0066532990268964778 0.014920837635976861 0 0.0069890602813054608 0.01503601666757918 0 0.0066770492166084681 0.015248736840847389 0 0.0070611208634598129 0.015399161152081014 0 0.0069890602813054608 0.01503601666757918 0 0.0070611208634598129 0.015399161152081014 0 0.0069890602813054608 0.01503601666757918 0 0.0075698412973567008 0.015140668928024912 0 0.0072876678700621962 0.014190092021268242 0 0.0066532990268964778 0.014920837635976861 0 0.0071903047585850999 0.014726737285746737 0 0.0069890602813054608 0.01503601666757918 0 0.0075698412973567008 0.015140668928024912 0 0.0071903047585850999 0.014726737285746737 0 0.0077014544575131644 0.014581908561299217 0 0.0075698412973567008 0.015140668928024912 0 0.0071903047585850999 0.014726737285746737 0 0.0029117020793896181 0.019619559460815651 0 0.0021660080136449043 0.018591043047706545 0 0.0014561105153013043 0.020088801766252738 0 0.0029117020793896181 0.019619559460815651 0 0.0025309680973980776 0.021051108497786495 0 0.0014561105153013043 0.020088801766252738 0 0.0029117020793896181 0.019619559460815651 0 0.0038788332883888626 0.020484614479102072 0 0.0025309680973980776 0.021051108497786495 0 0.0024392917033221172 0.01729677055686285 0 0.0021660080136449043 0.018591043047706545 0 0.0041113992792258577 0.018197440153074052 0 0.0029117020793896181 0.019619559460815651 0 0.0021660080136449043 0.018591043047706545 0 0.0041113992792258577 0.018197440153074052 0 0.0038788332883888626 0.020484614479102072 0 0.005015704978124179 0.019966089054500324 0 0.0047364696593020679 0.019224162211640496 0 0.0029117020793896181 0.019619559460815651 0 0.0041113992792258577 0.018197440153074052 0 0.0038788332883888626 0.020484614479102072 0 0.0041113992792258577 0.018197440153074052 0 0.0038788332883888626 0.020484614479102072 0 0.0047364696593020679 0.019224162211640496 0 0.005015704978124179 0.019966089054500324 0 0.0054218305098810132 0.019111272884524525 0 0.0058777380428604769 0.019437208531239123 0 0.005015704978124179 0.019966089054500324 0 0.0054218305098810132 0.019111272884524525 0 0.0047364696593020679 0.019224162211640496 0 0.0054218305098810132 0.019111272884524525 0 0.0047364696593020679 0.019224162211640496 0 0.005468400433073701 0.018378377812621544 0 0.005350935181291868 0.017261596636436383 0 0.0041681253810345511 0.018086607812363112 0 0.0041113992792258577 0.018197440153074052 0 0.0047364696593020679 0.019224162211640496 0 0.005468400433073701 0.018378377812621544 0 0.00596964438514592 0.017026397083022001 0 0.0041113992792258577 0.018197440153074052 0 0.005468400433073701 0.018378377812621544 0 0.00596964438514592 0.017026397083022001 0 0.0070599424076582653 0.01724356762423707 0 0.0063056938177042127 0.017818371089624984 0 0.005468400433073701 0.018378377812621544 0 0.0063056938177042127 0.017818371089624984 0 0.006052847678561412 0.018859644862548597 0 0.00596964438514592 0.017026397083022001 0 0.005468400433073701 0.018378377812621544 0 0.0063056938177042127 0.017818371089624984 0 0.005015704978124179 0.019966089054500324 0 0.0058777380428604769 0.019437208531239123 0 0.006452365738638023 0.019967257801462485 0 0.0066153277233143995 0.01828579520353165 0 0.0063056938177042127 0.017818371089624984 0 0.006052847678561412 0.018859644862548597 0 0.0054218305098810132 0.019111272884524525 0 0.006052847678561412 0.018859644862548597 0 0.0058777380428604769 0.019437208531239123 0 0.0054218305098810132 0.019111272884524525 0 0.005468400433073701 0.018378377812621544 0 0.006052847678561412 0.018859644862548597 0 0.006052847678561412 0.018859644862548597 0 0.0058777380428604769 0.019437208531239123 0 0.0069421668900005694 0.020274269535005593 0 0.006598629377658931 0.01918986712418045 0 0.0066537182416413201 0.017999324246212416 0 0.0065395106069404182 0.01914807846499807 0 0.0066537182416413201 0.017999324246212416 0 0.0066153277233143995 0.01828579520353165 0 0.006052847678561412 0.018859644862548597 0 0.0063531553625001819 0.019176771368796683 0 0.0054676541616647837 0.018713810551018444 0 0.0050943872623326163 0.018044968626908246 0 0.0048273730173819564 0.018645243676486449 0 0.0050943872623326163 0.018044968626908246 0 0.0048273730173819564 0.018645243676486449 0 0.0041741440794155335 0.018544624825071968 0 0.0054676541616647837 0.018713810551018444 0 0.0048273730173819564 0.018645243676486449 0 0.0050583857968204398 0.019210626015006064 0 0.0048273730173819564 0.018645243676486449 0 0.0041884170996038562 0.019395056045567207 0 0.0050583857968204398 0.019210626015006064 0 0.0048273730173819564 0.018645243676486449 0 0.0041741440794155335 0.018544624825071968 0 0.0041884170996038562 0.019395056045567207 0 0.005015704978124179 0.019966089054500324 0 0.006452365738638023 0.019967257801462485 0 0.0046947531205716849 0.021028901922521367 0 0.0066537182416413201 0.017999324246212416 0 0.004200044668942012 0.019744623006808647 0 0.0038788332883888626 0.020484614479102072 0 0.0046947531205716849 0.021028901922521367 0 0.0036510532381972844 0.021672190708729562 0 0.0038788332883888626 0.020484614479102072 0 0.005015704978124179 0.019966089054500324 0 0.0046947531205716849 0.021028901922521367 0 0.0041741440794155335 0.018544624825071968 0 0.003268167689371263 0.019098599092201345 0 0.0041884170996038562 0.019395056045567207 0 0.004200044668942012 0.019744623006808647 0 0.0040026933817596116 0.022063415937587642 0 0.0028508244991447547 0.025331851541761465 0 0.003527433778202165 0.025415909638543743 0 0.0034048357726906907 0.024385816893835999 0 0.0044625587071069278 0.024994524315441947 0 0.003527433778202165 0.025415909638543743 0 0.0034048357726906907 0.024385816893835999 0 0.0034048357726906907 0.024385816893835999 0 0.0030362267431695905 0.023194723833226561 0 0.0018290417610897522 0.024330676644840614 0 0.0044625587071069278 0.024994524315441947 0 0.0034048357726906907 0.024385816893835999 0 0.0030362267431695905 0.023194723833226561 0 0.0038788332883888626 0.020484614479102072 0 0.0044625587071069278 0.024994524315441947 0 0.0030362267431695905 0.023194723833226561 0 0.0038788332883888626 0.020484614479102072 0 0.0030362267431695905 0.023194723833226561 0 0.0025309680973980776 0.021051108497786495 0 0.0039215368696202766 0.021258494262011242 0 0.0040026933817596116 0.022063415937587642 0 0.0035423524112769421 0.024354020451988593 0 0.0027180151113277312 0.027343793052454338 0 0.0030763847234146473 0.019932583387837214 0 0.0039258033950034269 0.02044600643757968 0 0.0028726149017245231 0.020792780392502395 0 0.0029627776351090888 0.030694843902193805 0 0.0040182451762476468 0.028994202810769774 0 0.0031341225433042354 0.032738750688108394 0 0.0044625587071069278 0.024994524315441947 0 0.0040182451762476468 0.028994202810769774 0 0.0035312951953101229 0.026920456677407115 0 0.0040182451762476468 0.028994202810769774 0 0.0035312951953101229 0.026920456677407115 0 0.0019298658319801603 0.027635396214693811 0 0.0040026933817596116 0.022063415937587642 0 0.0035423524112769421 0.024354020451988593 0 0.0028508244991447547 0.025331851541761465 0 0.003527433778202165 0.025415909638543743 0 0.0035312951953101229 0.026920456677407115 0 0.0044625587071069278 0.024994524315441947 0 0.003527433778202165 0.025415909638543743 0 0.0035312951953101229 0.026920456677407115 0 0.003268167689371263 0.019098599092201345 0 0.0030763847234146473 0.019932583387837214 0 0.0041884170996038562 0.019395056045567207 0 0.0030763847234146473 0.019932583387837214 0 0.0041884170996038562 0.019395056045567207 0 0.0039258033950034269 0.02044600643757968 0 0.0018365306839541612 0.010620179719850001 0 0.0019988381362614472 0.010342857636947905 0 0.0023672069173538484 0.010253730585562839 0 0.0031321064975605292 0.015423118370690263 0 0.0031524870335613931 0.014557267031491569 0 0.0041884170996038562 0.019395056045567207 0 0.0049006329558378857 0.019882287429130101 0 0.0039258033950034269 0.02044600643757968 0 0.0041884170996038562 0.019395056045567207 0 0.0050583857968204398 0.019210626015006064 0 0.0049006329558378857 0.019882287429130101 0 0.0018365306839541612 0.010620179719850001 0 0.0018116345369228459 0.010348479029595056 0 0.0016969022610278145 0.010435849193440249 0 0.0018365306839541612 0.010620179719850001 0 0.0018116345369228459 0.010348479029595056 0 0.0019988381362614472 0.010342857636947905 0 0.0018116345369228459 0.010348479029595056 0 0.0017220657177315327 0.010133328754515855 0 0.0016969022610278145 0.010435849193440249 0 0.003841331933604971 0.0091409621553289501 0 0.0051204430717245106 0.0093327330710095569 0 0.0018116345369228459 0.010348479029595056 0 0.0018998204325853321 0.010247704595334471 0 0.0019988381362614472 0.010342857636947905 0 0.0018998204325853321 0.010247704595334471 0 0.0017220657177315327 0.010133328754515855 0 0.0019511965172147763 0.010133271936043197 0 0.0018116345369228459 0.010348479029595056 0 0.0018998204325853321 0.010247704595334471 0 0.0017220657177315327 0.010133328754515855 0 0.0019167721762418978 0.008555785585319017 0 0.0018956442717416755 0.0085252063769822983 0 0.001992308399310483 0.0085008316404566863 0 0.00189881339837333 0.0086104062974944016 0 0.0018972629579748596 0.0085657851991904083 0 0.0018939718104955638 0.0086940569788578562 0 0.0018956442717416755 0.0085252063769822983 0 0.0018972629579748596 0.0085657851991904083 0 0.0018939718104955638 0.0086940569788578562 0 0.0019167721762418978 0.008555785585319017 0 0.00189881339837333 0.0086104062974944016 0 0.00189094947879398 0.008598075118587168 0 0.0019167721762418978 0.008555785585319017 0 0.00189881339837333 0.0086104062974944016 0 0.0018972629579748596 0.0085657851991904083 0 0.0019167721762418978 0.008555785585319017 0 0.0018956442717416755 0.0085252063769822983 0 0.0018972629579748596 0.0085657851991904083 0 0.0018956442717416755 0.0085252063769822983 0 0.0019077162740444157 0.0088314664846410387 0 0.0018939718104955638 0.0086940569788578562 0 0.0017220657177315327 0.010133328754515855 0 0.0020028310448596373 0.0097865472468112377 0 0.0019077162740444157 0.0088314664846410387 0 0.0018973387405392097 0.0098074501750081613 0 0.0022387826307453782 0.0089092929923437082 0 0.0020028310448596373 0.0097865472468112377 0 0.0021195916994698285 0.01017481091649731 0 0.0019511965172147763 0.010133271936043197 0 0.0017220657177315327 0.010133328754515855 0 0.0020028310448596373 0.0097865472468112377 0 0.0019511965172147763 0.010133271936043197 0 0.0020028310448596373 0.0097865472468112377 0 0.0022052591641910195 0.0097736567317683789 0 0.0022346297693916035 0.0095758028542100252 0 0.003841331933604971 0.0091409621553289501 0 0.00135189684634653 0.0091115108663137462 0 0.0020028310448596373 0.0097865472468112377 0 0.0022236961906711957 0.010068138925808106 0 0.0022052591641910195 0.0097736567317683789 0 0.0020028310448596373 0.0097865472468112377 0 0.0021195916994698285 0.01017481091649731 0 0.0022236961906711957 0.010068138925808106 0 0.0020683656548186849 0.01026911010731116 0 0.0019988381362614472 0.010342857636947905 0 0.0023672069173538484 0.010253730585562839 0 0.0021195916994698285 0.01017481091649731 0 0.0022186095542932344 0.010324247946576286 0 0.0021879049945805261 0.010289497743456159 0 0.0021195916994698285 0.01017481091649731 0 0.0020683656548186849 0.01026911010731116 0 0.0022186095542932344 0.010324247946576286 0 0.0021195916994698285 0.01017481091649731 0 0.0019511965172147763 0.010133271936043197 0 0.0020683656548186849 0.01026911010731116 0 0.0018998204325853321 0.010247704595334471 0 0.0019511965172147763 0.010133271936043197 0 0.0020683656548186849 0.01026911010731116 0 0.0018998204325853321 0.010247704595334471 0 0.0020683656548186849 0.01026911010731116 0 0.0019988381362614472 0.010342857636947905 0 0.0020683656548186849 0.01026911010731116 0 0.0023672069173538484 0.010253730585562839 0 0.0022186095542932344 0.010324247946576286 0 0.0023672069173538484 0.010253730585562839 0 0.0021540427027062952 0.010553766773049575 0 0.00084443731552878687 0.01096040384990494 0 0.0023672069173538484 0.010253730585562839 0 0.0021540427027062952 0.010553766773049575 0 0.0022186095542932344 0.010324247946576286 0 0.0021540427027062952 0.010553766773049575 0 0.0022186095542932344 0.010324247946576286 0 0.0021879049945805261 0.010289497743456159 0 0.0021540427027062952 0.010553766773049575 0 0.0021879049945805261 0.010289497743456159 0 0.0022236961906711957 0.010068138925808106 0 0.0021195916994698285 0.01017481091649731 0 0.0021879049945805261 0.010289497743456159 0 0.0022236961906711957 0.010068138925808106 0 0.0021540427027062952 0.010553766773049575 0 0.0022236961906711957 0.010068138925808106 0 0.0024424196924371813 0.0096965660648642878 0 0.0021540427027062952 0.010553766773049575 0 0.0016812404696382869 0.011454427643258904 0 0.0023359829744932403 0.01247137341555315 0 0.002214005464332142 0.010448797129381933 0 0.0023864712522545053 0.011444207365120945 0 0.0022236961906711957 0.010068138925808106 0 0.0022052591641910195 0.0097736567317683789 0 0.0024424196924371813 0.0096965660648642878 0 0.0016812404696382869 0.011454427643258904 0 0.0015063585028434931 0.012239192113115091 0 0.0023359829744932403 0.01247137341555315 0 0.0028369635672033018 0.021305090768254546 0 0.00084199957649852639 0.018728960496542321 0 0.0015063585028434931 0.012239192113115091 0 0.00084443731552878687 0.01096040384990494 0 0.00077146792366370397 0.012704294354704168 0 0.001020846702753087 0.025422133364761658 0 0.0011234389457546871 0.025366027543545465 0 0.001216045157873337 0.026293352264679434 0 0.0016812404696382869 0.011454427643258904 0 0.0015063585028434931 0.012239192113115091 0 0.00084443731552878687 0.01096040384990494 0 0.0031524870335613931 0.014557267031491569 0 0.0028369635672033018 0.021305090768254546 0 0.00095366457207463463 0.026852661532492904 0 0.0028369635672033018 0.021305090768254546 0 0.0035656878738208895 0.02346608522864959 0 0.0025987938997249346 0.023959998921527868 0 0.0028732927270759181 0.026674277749301565 0 0.0021540427027062952 0.010553766773049575 0 0.0016812404696382869 0.011454427643258904 0 0.00084443731552878687 0.01096040384990494 0 0.0039258033950034269 0.02044600643757968 0 0.0028953684313351748 0.021040544038709329 0 0.0028726149017245231 0.020792780392502395 0 0.0028369635672033018 0.021305090768254546 0 0.0027180151113277312 0.027343793052454338 0 0.00095366457207463463 0.026852661532492904 0 0.0027180151113277312 0.027343793052454338 0 0.0030463935549547463 0.03192038962253195 0 0.0027180151113277312 0.027343793052454338 0 0.0076461411510782883 0.0091030156732110363 0 0.0072031916436591185 0.008714806805450611 0 0.0077655265007820556 0.008438975103663815 0 0.0076461411510782883 0.0091030156732110363 0 0.0072031916436591185 0.008714806805450611 0 0.0072420882585296949 0.009307144619088964 0 0.0072031916436591185 0.008714806805450611 0 0.0072420882585296949 0.009307144619088964 0 0.006764795455233656 0.0089522480309525507 0 0.0072031916436591185 0.008714806805450611 0 0.0067478092990127803 0.0084243222816957793 0 0.006764795455233656 0.0089522480309525507 0 0.0073590537748513419 0.0093513360311445384 0 0.0068591974059151071 0.0090271483568129581 0 0.0076041066505484365 0.0096274590076754693 0 0.006764795455233656 0.0089522480309525507 0 0.0067957776984196123 0.0099076491185659081 0 0.0073700673990615079 0.010394140826010277 0 0.0076041066505484365 0.0096274590076754693 0 0.0067957776984196123 0.0099076491185659081 0 0.0081289209277348919 0.010611838672516466 0 0.0073700673990615079 0.010394140826010277 0 0.0076041066505484365 0.0096274590076754693 0 0.0076461411510782883 0.0091030156732110363 0 0.0072420882585296949 0.009307144619088964 0 0.0077654718187143076 0.0097663075661773759 0 0.0081289209277348919 0.010611838672516466 0 0.0076041066505484365 0.0096274590076754693 0 0.0084079650352104334 0.010303864793830293 0 0.0073590537748513419 0.0093513360311445384 0 0.0074053571976382404 0.011776427176589541 0 0.0071905994265119436 0.013374339842534116 0 0.0047438895937496938 0.014931978528019661 0 0.0076461411510782883 0.0091030156732110363 0 0.0077654718187143076 0.0097663075661773759 0 0.0082274643530884529 0.0092630613469983775 0 0.0065917805423475586 0.012268592263163423 0 0.0067088018511775897 0.012361463099196047 0 0.0060742749243489561 0.013044881391018531 0 0.0074053571976382404 0.011776427176589541 0 0.0061817551817050934 0.010336825558677607 0 0.0065917805423475586 0.012268592263163423 0 0.005840513675667903 0.012648283826355343 0 0.0060742749243489561 0.013044881391018531 0 0.0047438895937496938 0.014931978528019661 0 0.0061817551817050934 0.010336825558677607 0 0.0050583857968204398 0.019210626015006064 0 0.0049006329558378857 0.019882287429130101 0 0.0058387092473614847 0.019350559921099887 0 0.0031321064975605292 0.015423118370690263 0 0.0047438895937496938 0.014931978528019661 0 0.0018365306839541612 0.010620179719850001 0 0.0016403496717832592 0.010748931024909479 0 0.0016969022610278145 0.010435849193440249 0 0.0016403496717832592 0.010748931024909479 0 0.0015970350894064433 0.010657053740183593 0 0.0016969022610278145 0.010435849193440249 0 0.0080569408728916828 0.0089668426776219924 0 0.0081078732351382646 0.00857426048430226 0 0.0084835693406302305 0.0084791225696494148 0 0.0061817551817050934 0.010336825558677607 0 0.0051204430717245106 0.0093327330710095569 0 0.0076461411510782883 0.0091030156732110363 0 0.0082274643530884529 0.0092630613469983775 0 0.0077655265007820556 0.008438975103663815 0 0.0080569408728916828 0.0089668426776219924 0 0.0081078732351382646 0.00857426048430226 0 0.0077655265007820556 0.008438975103663815 0 0.0061817551817050934 0.010336825558677607 0 0.0081598568153406978 0.0082268792914677712 0 0.0081078732351382646 0.00857426048430226 0 0.0081239272312569263 0.0081620973642432849 0 0.0077655265007820556 0.008438975103663815 0 0.0081239272312569263 0.0081620973642432849 0 0.0076325025258091117 0.0078200770373484767 0 0.0077655265007820556 0.008438975103663815 0 0.008847147258308919 0.008002302774857353 0 0.0084835693406302305 0.0084791225696494148 0 0.0084354531181648675 0.0080650178612312728 0 0.0081078732351382646 0.00857426048430226 0 0.0081239272312569263 0.0081620973642432849 0 0.0084835693406302305 0.0084791225696494148 0 0.0081239272312569263 0.0081620973642432849 0 0.0084835693406302305 0.0084791225696494148 0 0.0084354531181648675 0.0080650178612312728 0 0.003841331933604971 0.0091409621553289501 0 0.0054184402793447184 0.0080135705569677508 0 0.0019167721762418978 0.008555785585319017 0 0.001992308399310483 0.0085008316404566863 0 0.0019326524677007542 0.0085360031425171685 0 0.0081239272312569263 0.0081620973642432849 0 0.0084354531181648675 0.0080650178612312728 0 0.0082943526736492263 0.007655134430947598 0 0.008847147258308919 0.008002302774857353 0 0.0084354531181648675 0.0080650178612312728 0 0.0082943526736492263 0.007655134430947598 0 0.0082943526736492263 0.007655134430947598 0 0.0076325025258091117 0.0078200770373484767 0 0.0076296392931538498 0.0071536701981310367 0 0.0081239272312569263 0.0081620973642432849 0 0.0082943526736492263 0.007655134430947598 0 0.0076325025258091117 0.0078200770373484767 0 0.0076325025258091117 0.0078200770373484767 0 0.0068885465059210513 0.0073348723178378247 0 0.0076296392931538498 0.0071536701981310367 0 0.0076325025258091117 0.0078200770373484767 0 0.0077655265007820556 0.008438975103663815 0 0.0070404734991282823 0.0079956920269137737 0 0.0072031916436591185 0.008714806805450611 0 0.0077655265007820556 0.008438975103663815 0 0.0070404734991282823 0.0079956920269137737 0 0.0072031916436591185 0.008714806805450611 0 0.0070404734991282823 0.0079956920269137737 0 0.0067478092990127803 0.0084243222816957793 0 0.0076325025258091117 0.0078200770373484767 0 0.0070404734991282823 0.0079956920269137737 0 0.0068885465059210513 0.0073348723178378247 0 0.0070404734991282823 0.0079956920269137737 0 0.0063324595077275296 0.007821046487609359 0 0.0068885465059210513 0.0073348723178378247 0 0.0063324595077275296 0.007821046487609359 0 0.0059614788610978763 0.0068359557382878383 0 0.0068885465059210513 0.0073348723178378247 0 0.0063324595077275296 0.007821046487609359 0 0.0054493110506197819 0.0075776020606677817 0 0.0056976581902496758 0.0082795267370038457 0 0.0063324595077275296 0.007821046487609359 0 0.0054493110506197819 0.0075776020606677817 0 0.0059614788610978763 0.0068359557382878383 0 0.0063324595077275296 0.007821046487609359 0 0.0056976581902496758 0.0082795267370038457 0 0.0062873745628785598 0.0085959084918097953 0 0.0056976581902496758 0.0082795267370038457 0 0.0062873745628785598 0.0085959084918097953 0 0.0057356152004039637 0.0090073344026062423 0 0.0056976581902496758 0.0082795267370038457 0 0.0057356152004039637 0.0090073344026062423 0 0.0051655042956374308 0.0086638417759076283 0 0.0070404734991282823 0.0079956920269137737 0 0.0063324595077275296 0.007821046487609359 0 0.0067478092990127803 0.0084243222816957793 0 0.0063324595077275296 0.007821046487609359 0 0.0062873745628785598 0.0085959084918097953 0 0.0067478092990127803 0.0084243222816957793 0 0.0062873745628785598 0.0085959084918097953 0 0.0067478092990127803 0.0084243222816957793 0 0.006764795455233656 0.0089522480309525507 0 0.0062873745628785598 0.0085959084918097953 0 0.006764795455233656 0.0089522480309525507 0 0.0057986225611046044 0.0096713370273521573 0 0.0057356152004039637 0.0090073344026062423 0 0.0062766408315105904 0.010033706239873071 0 0.0052257290330226958 0.0096185745229191103 0 0.0062873745628785598 0.0085959084918097953 0 0.0057356152004039637 0.0090073344026062423 0 0.0062766408315105904 0.010033706239873071 0 0.0062827295451349319 0.0087043862007628245 0 0.0060254701921486891 0.0098877680243528512 0 0.0062766408315105904 0.010033706239873071 0 0.0052381855782798852 0.010741842830546506 0 0.0060935187479176861 0.011668435519976152 0 0.006764795455233656 0.0089522480309525507 0 0.0057986225611046044 0.0096713370273521573 0 0.0067957776984196123 0.0099076491185659081 0 0.0057986225611046044 0.0096713370273521573 0 0.0067957776984196123 0.0099076491185659081 0 0.006271396956342103 0.010434587454573041 0 0.0044924580423953532 0.010152007985968605 0 0.0052381855782798852 0.010741842830546506 0 0.0040047449802581708 0.011337057435941265 0 0.0044924580423953532 0.010152007985968605 0 0.0035342451719891062 0.010268474503151964 0 0.0040047449802581708 0.011337057435941265 0 0.0044924580423953532 0.010152007985968605 0 0.0042140824707655967 0.0092963604735863143 0 0.0035342451719891062 0.010268474503151964 0 0.0044924580423953532 0.010152007985968605 0 0.0052381855782798852 0.010741842830546506 0 0.0052257290330226958 0.0096185745229191103 0 0.0062766408315105904 0.010033706239873071 0 0.0052381855782798852 0.010741842830546506 0 0.0052257290330226958 0.0096185745229191103 0 0.0057356152004039637 0.0090073344026062423 0 0.0052257290330226958 0.0096185745229191103 0 0.0051655042956374308 0.0086638417759076283 0 0.0044924580423953532 0.010152007985968605 0 0.0052257290330226958 0.0096185745229191103 0 0.0042140824707655967 0.0092963604735863143 0 0.0052257290330226958 0.0096185745229191103 0 0.0042140824707655967 0.0092963604735863143 0 0.0051655042956374308 0.0086638417759076283 0 0.0042140824707655967 0.0092963604735863143 0 0.0042685213581400427 0.0083222259646588172 0 0.0031764009622162722 0.0091925378496638451 0 0.0042140824707655967 0.0092963604735863143 0 0.0042685213581400427 0.0083222259646588172 0 0.0051655042956374308 0.0086638417759076283 0 0.0042685213581400427 0.0083222259646588172 0 0.0051655042956374308 0.0086638417759076283 0 0.0049193498313727614 0.007977975580571596 0 0.0056976581902496758 0.0082795267370038457 0 0.0051655042956374308 0.0086638417759076283 0 0.0049193498313727614 0.007977975580571596 0 0.0054493110506197819 0.0075776020606677817 0 0.0049193498313727614 0.007977975580571596 0 0.0044759677377983554 0.0073075420615263988 0 0.0054493110506197819 0.0075776020606677817 0 0.0044759677377983554 0.0073075420615263988 0 0.0052799308794606176 0.0068573169731609507 0 0.0054493110506197819 0.0075776020606677817 0 0.0056976581902496758 0.0082795267370038457 0 0.0049193498313727614 0.007977975580571596 0 0.0044759677377983554 0.0073075420615263988 0 0.0034390910213472742 0.0076691559893935285 0 0.0033624424100029849 0.0063865797339949229 0 0.0042685213581400427 0.0083222259646588172 0 0.0044759677377983554 0.0073075420615263988 0 0.0034390910213472742 0.0076691559893935285 0 0.0042685213581400427 0.0083222259646588172 0 0.0049193498313727614 0.007977975580571596 0 0.0044759677377983554 0.0073075420615263988 0 0.0034390910213472742 0.0076691559893935285 0 0.0027294450364454366 0.0070580693019936091 0 0.0024673555264463141 0.0079572324263395226 0 0.0027294450364454366 0.0070580693019936091 0 0.0020484971660614387 0.0072327999447013543 0 0.0024673555264463141 0.0079572324263395226 0 0.0020484971660614387 0.0072327999447013543 0 0.0024673555264463141 0.0079572324263395226 0 0.0017242137026907071 0.0076452211936014983 0 0.0024673555264463141 0.0079572324263395226 0 0.0017242137026907071 0.0076452211936014983 0 0.0017052748402359068 0.009263124216993884 0 0.0042685213581400427 0.0083222259646588172 0 0.0034390910213472742 0.0076691559893935285 0 0.0031764009622162722 0.0091925378496638451 0 0.0034390910213472742 0.0076691559893935285 0 0.0024673555264463141 0.0079572324263395226 0 0.0031764009622162722 0.0091925378496638451 0 0.00083282622990357735 0.0073988433905454861 0 0.00091305378682147401 0.0070340382068982349 0 0.00072056679280558546 0.006903834475212537 0 0.00091305378682147401 0.0070340382068982349 0 0.0011657498747602484 0.007348524739325883 0 0.0013955888988062665 0.0070436414362322541 0 0.00083282622990357735 0.0073988433905454861 0 0.00091305378682147401 0.0070340382068982349 0 0.0011657498747602484 0.007348524739325883 0 0.00083282622990357735 0.0073988433905454861 0 0.0011657498747602484 0.007348524739325883 0 0.0010595490248028058 0.007678484153305693 0 0.0011657498747602484 0.007348524739325883 0 0.0017242137026907071 0.0076452211936014983 0 0.0010595490248028058 0.007678484153305693 0 0.0011657498747602484 0.007348524739325883 0 0.0013955888988062665 0.0070436414362322541 0 0.0017242137026907071 0.0076452211936014983 0 0.0020484971660614387 0.0072327999447013543 0 0.0013955888988062665 0.0070436414362322541 0 0.0017242137026907071 0.0076452211936014983 0 0.0010595490248028058 0.007678484153305693 0 0.0010335617833014852 0.0085958259919707482 0 0.0017731983950331862 0.0089776782341546412 0 0.0010794014607816455 0.0077773736113828859 0 0.0017362140840526466 0.0091056183149953451 0 0.0017242137026907071 0.0076452211936014983 0 0.0010595490248028058 0.007678484153305693 0 0.0017052748402359068 0.009263124216993884 0 0.0010595490248028058 0.007678484153305693 0 0.00068372933373140883 0.0078579186789968745 0 0.0010335617833014852 0.0085958259919707482 0 0.00083282622990357735 0.0073988433905454861 0 0.0010595490248028058 0.007678484153305693 0 0.00068372933373140883 0.0078579186789968745 0 0.00068372933373140883 0.0078579186789968745 0 0.00031382663681635281 0.0085548435250552887 0 0.0010335617833014852 0.0085958259919707482 0 0.00031382663681635281 0.0085548435250552887 0 0.0010335617833014852 0.0085958259919707482 0 0.00068828733078654994 0.01033999839647815 0 0.0010335617833014852 0.0085958259919707482 0 0.0017731983950331862 0.0089776782341546412 0 0.00068828733078654994 0.01033999839647815 0 0.0017731983950331862 0.0089776782341546412 0 0.00068828733078654994 0.01033999839647815 0 0.0026248904075633589 0.010710982625770549 0 0.00031748608026474192 0.0075109697565480726 0 0.00040187743385034289 0.0081775382028617793 0 0.00024949405363763747 0.0064231259227040174 0 9.5772733530942819e-05 0.0059788034735118369 0 0.00041360955945544096 0.0060298727698049901 0 0.0042140824707655967 0.0092963604735863143 0 0.0031764009622162722 0.0091925378496638451 0 0.0035342451719891062 0.010268474503151964 0 0.0024673555264463141 0.0079572324263395226 0 0.0017052748402359068 0.009263124216993884 0 0.0031764009622162722 0.0091925378496638451 0 0.0017052748402359068 0.009263124216993884 0 0.0031764009622162722 0.0091925378496638451 0 0.0024875448909140044 0.010828253828527187 0 0.0017362140840526466 0.0091056183149953451 0 0.0025657915749288749 0.010793969840242598 0 0.0031764009622162722 0.0091925378496638451 0 0.0035342451719891062 0.010268474503151964 0 0.0024875448909140044 0.010828253828527187 0 0.0035342451719891062 0.010268474503151964 0 0.0024875448909140044 0.010828253828527187 0 0.0040047449802581708 0.011337057435941265 0 0.0025657915749288749 0.010793969840242598 0 0.0034437461762274698 0.012457108053559512 0 0.0024875448909140044 0.010828253828527187 0 0.0034767013964228971 0.012575134916666331 0 0.0040047449802581708 0.011337057435941265 0 0.0026248904075633589 0.010710982625770549 0 0.0034767013964228971 0.012575134916666331 0 0.0013276859116450614 0.012323850963741265 0 9.5772733530942819e-05 0.0059788034735118369 0 -0.00014218109210852221 0.0054829140484673597 0 0.00032613323686020478 0.0055879731791619175 0 9.5772733530942819e-05 0.0059788034735118369 0 0.00032613323686020478 0.0055879731791619175 0 0.00041360955945544096 0.0060298727698049901 0 0.00068828733078654994 0.01033999839647815 0 0.0026248904075633589 0.010710982625770549 0 0.0013276859116450614 0.012323850963741265 0 0.00040187743385034289 0.0081775382028617793 0 0.00060154397695011668 0.0089138067318234072 0 0.00032613323686020478 0.0055879731791619175 0 0.00021465775169003781 0.0051836897760805557 0 0.00055838675150034277 0.0053405218300367477 0 -0.00014218109210852221 0.0054829140484673597 0 0.00032613323686020478 0.0055879731791619175 0 0.00021465775169003781 0.0051836897760805557 0 0.00021465775169003781 0.0051836897760805557 0 0.00032074350764810418 0.0046509296356444354 0 0.00055233834424333412 0.0050464102953128431 0 0.00021465775169003781 0.0051836897760805557 0 0.00055233834424333412 0.0050464102953128431 0 0.00055838675150034277 0.0053405218300367477 0 0.00021465775169003781 0.0051836897760805557 0 0.00032074350764810418 0.0046509296356444354 0 -0.000483681091780616 0.0048959067561245738 0 -0.00014218109210852221 0.0054829140484673597 0 0.00021465775169003781 0.0051836897760805557 0 -0.000483681091780616 0.0048959067561245738 0 -2.8248110929398613e-05 0.0041143860515848278 0 0.00032074350764810418 0.0046509296356444354 0 -0.000483681091780616 0.0048959067561245738 0 0.0034767013964228971 0.012575134916666331 0 0.0013276859116450614 0.012323850963741265 0 0.0021349217812902731 0.014307870010307618 0 0.0034767013964228971 0.012575134916666331 0 0.0021349217812902731 0.014307870010307618 0 0.0033979331969922733 0.014901065924494354 0 0.0034767013964228971 0.012575134916666331 0 0.0033979331969922733 0.014901065924494354 0 0.0041462645425039985 0.013928363731478358 0 0.00060154397695011668 0.0089138067318234072 0 0.00082705471612236207 0.0095909670677454505 0 0.0011590417346569511 0.010050242239528159 0 0.00082705471612236207 0.0095909670677454505 0 0.003186447536749344 0.016019485363411669 0 0.0021349217812902731 0.014307870010307618 0 0.0033979331969922733 0.014901065924494354 0 0.0033979331969922733 0.014901065924494354 0 0.0044653744069651216 0.014804203869659612 0 0.0041462645425039985 0.013928363731478358 0 0.00433680909618641 0.015603085098999058 0 0.0033979331969922733 0.014901065924494354 0 0.0044653744069651216 0.014804203869659612 0 0.00433680909618641 0.015603085098999058 0 0.0044653744069651216 0.014804203869659612 0 0.0050875666292838151 0.015327191708263944 0 0.0034767013964228971 0.012575134916666331 0 0.0041462645425039985 0.013928363731478358 0 0.0045642298842061254 0.013153054677043193 0 0.0044653744069651216 0.014804203869659612 0 0.0041462645425039985 0.013928363731478358 0 0.0047909644938799872 0.014088477036076043 0 0.0041462645425039985 0.013928363731478358 0 0.0047909644938799872 0.014088477036076043 0 0.0045642298842061254 0.013153054677043193 0 0.0055302693644042793 0.01370642408944105 0 0.0058992722134007533 0.013524710603605663 0 0.0054281491973509691 0.014768616538759339 0 0.0055302693644042793 0.01370642408944105 0 0.0057685433687275573 0.013546302064135669 0 0.0052934104088473077 0.012932630624677428 0 0.0053822055525351757 0.013461797987471647 0 0.0053117712688143543 0.013461781631001916 0 0.0055302693644042793 0.01370642408944105 0 0.005043440164673894 0.013462171386134709 0 0.0047909644938799872 0.014088477036076043 0 0.0055302693644042793 0.01370642408944105 0 0.005043440164673894 0.013462171386134709 0 0.0052934104088473077 0.012932630624677428 0 0.005043440164673894 0.013462171386134709 0 0.0047909644938799872 0.014088477036076043 0 0.0045642298842061254 0.013153054677043193 0 0.0044653744069651216 0.014804203869659612 0 0.0047909644938799872 0.014088477036076043 0 0.0054281491973509691 0.014768616538759339 0 0.0055302693644042793 0.01370642408944105 0 0.0047909644938799872 0.014088477036076043 0 0.0054281491973509691 0.014768616538759339 0 0.0053117712688143543 0.013461781631001916 0 0.0053072719402961098 0.014673754667713758 0 0.0054281491973509691 0.014768616538759339 0 0.0055814662057066715 0.015227726743188359 0 0.0056263793082839599 0.01500801423488936 0 0.0055529371135150333 0.01492872093470643 0 0.0054281491973509691 0.014768616538759339 0 0.0056263793082839599 0.01500801423488936 0 0.0054281491973509691 0.014768616538759339 0 0.0050875666292838151 0.015327191708263944 0 0.0055814662057066715 0.015227726743188359 0 0.0044653744069651216 0.014804203869659612 0 0.0054281491973509691 0.014768616538759339 0 0.0050875666292838151 0.015327191708263944 0 0.0050221327230185317 0.015889393483916957 0 0.0050875666292838151 0.015327191708263944 0 0.0055552347286545282 0.015702778460691496 0 0.0050875666292838151 0.015327191708263944 0 0.0055552347286545282 0.015702778460691496 0 0.0055814662057066715 0.015227726743188359 0 0.0055552347286545282 0.015702778460691496 0 0.0058421173512466411 0.015557694402883505 0 0.0055814662057066715 0.015227726743188359 0 0.0059088662149209001 0.01599804055840693 0 0.0055552347286545282 0.015702778460691496 0 0.0058421173512466411 0.015557694402883505 0 0.0059088662149209001 0.01599804055840693 0 0.0058421173512466411 0.015557694402883505 0 0.0062545226862138368 0.015734380201332415 0 0.0058421173512466411 0.015557694402883505 0 0.0062545226862138368 0.015734380201332415 0 0.0058582905667161657 0.015255768868393284 0 0.0058421173512466411 0.015557694402883505 0 0.0055814662057066715 0.015227726743188359 0 0.0058582905667161657 0.015255768868393284 0 0.0062545226862138368 0.015734380201332415 0 0.0060567426929142984 0.015195463702655326 0 0.0063899423171056178 0.015343362262117386 0 0.0062545226862138368 0.015734380201332415 0 0.0060567426929142984 0.015195463702655326 0 0.0058582905667161657 0.015255768868393284 0 0.0060567426929142984 0.015195463702655326 0 0.0063899423171056178 0.015343362262117386 0 0.0063491312430966791 0.015018725085458056 0 0.0055529371135150333 0.01492872093470643 0 0.0057965685171574291 0.015047612349971422 0 0.0059777230820054093 0.014875424298888808 0 0.0055814662057066715 0.015227726743188359 0 0.0056263793082839599 0.01500801423488936 0 0.0058582905667161657 0.015255768868393284 0 0.0060567426929142984 0.015195463702655326 0 0.0058582905667161657 0.015255768868393284 0 0.0057965685171574291 0.015047612349971422 0 0.0056263793082839599 0.01500801423488936 0 0.0058582905667161657 0.015255768868393284 0 0.0057965685171574291 0.015047612349971422 0 0.0060567426929142984 0.015195463702655326 0 0.0057965685171574291 0.015047612349971422 0 0.0059777230820054093 0.014875424298888808 0 0.0055529371135150333 0.01492872093470643 0 0.0056263793082839599 0.01500801423488936 0 0.0057965685171574291 0.015047612349971422 0 0.0053117712688143543 0.013461781631001916 0 0.0057415225628170584 0.011226699820070836 0 0.0049531423522871489 0.012285929093142066 0 0.00604435970056933 0.011710340102082675 0 0.0053586485357966394 0.010965218090922603 0 0.0053117712688143543 0.013461781631001916 0 0.0059680409442380098 0.013316383305232535 0 0.00604435970056933 0.011710340102082675 0 0.0063820999493560508 0.011053143404554756 0 0.0053586485357966394 0.010965218090922603 0 0.0069047279331831508 0.01280149665811548 0 0.0059680409442380098 0.013316383305232535 0 0.0065550392623083742 0.014615900197540785 0 0.0063491312430966791 0.015018725085458056 0 0.0059777230820054093 0.014875424298888808 0 0.007094957975080197 0.011144020375583241 0 0.00604435970056933 0.011710340102082675 0 0.0063820999493560508 0.011053143404554756 0 0.0060567426929142984 0.015195463702655326 0 0.0063491312430966791 0.015018725085458056 0 0.0059777230820054093 0.014875424298888808 0 0.0063820999493560508 0.011053143404554756 0 0.006271396956342103 0.010434587454573041 0 0.0053586485357966394 0.010965218090922603 0 0.007094957975080197 0.011144020375583241 0 0.0063820999493560508 0.011053143404554756 0 0.0068168384731706862 0.01060048340307641 0 0.0067957776984196123 0.0099076491185659081 0 0.006271396956342103 0.010434587454573041 0 0.0068168384731706862 0.01060048340307641 0 0.0063820999493560508 0.011053143404554756 0 0.006271396956342103 0.010434587454573041 0 0.0068168384731706862 0.01060048340307641 0 0.0057986225611046044 0.0096713370273521573 0 0.006271396956342103 0.010434587454573041 0 0.0053586485357966394 0.010965218090922603 0 0.0060254701921486891 0.0098877680243528512 0 0.0057415225628170584 0.011226699820070836 0 0.0052381855782798852 0.010741842830546506 0 0.0060935187479176861 0.011668435519976152 0 0.0047885307992858138 0.012035763955846433 0 0.0052381855782798852 0.010741842830546506 0 0.0040047449802581708 0.011337057435941265 0 0.0047885307992858138 0.012035763955846433 0 0.0034767013964228971 0.012575134916666331 0 0.0040047449802581708 0.011337057435941265 0 0.0047885307992858138 0.012035763955846433 0 0.0034767013964228971 0.012575134916666331 0 0.0045642298842061254 0.013153054677043193 0 0.0047885307992858138 0.012035763955846433 0 0.0057685433687275573 0.013546302064135669 0 0.0060935187479176861 0.011668435519976152 0 0.0052934104088473077 0.012932630624677428 0 0.0045642298842061254 0.013153054677043193 0 0.0052934104088473077 0.012932630624677428 0 0.0047885307992858138 0.012035763955846433 0 0.0060935187479176861 0.011668435519976152 0 0.0052934104088473077 0.012932630624677428 0 0.0047885307992858138 0.012035763955846433 0 0.005043440164673894 0.013462171386134709 0 0.0045642298842061254 0.013153054677043193 0 0.0052934104088473077 0.012932630624677428 0 -5.7987564869954921e-05 0.0349596440256928 0 -3.0832685989321512e-05 0.034968444897004528 0 -8.3090098673943967e-05 0.034925952002913992 0 -5.7987564869954921e-05 0.0349596440256928 0 -1.8330442504121837e-08 0.034999954727435736 0 -3.0832685989321512e-05 0.034968444897004528 0 -1.8330442504121837e-08 0.034999954727435736 0 -3.0832685989321512e-05 0.034968444897004528 0 -2.216948791400473e-08 0.034999898105356066 0 -3.0832685989321512e-05 0.034968444897004528 0 -4.0600074888524151e-05 0.03495194794520784 0 -2.216948791400473e-08 0.034999898105356066 0 -3.0832685989321512e-05 0.034968444897004528 0 -8.3090098673943967e-05 0.034925952002913992 0 -4.0600074888524151e-05 0.03495194794520784 0 -8.3090098673943967e-05 0.034925952002913992 0 -9.4260035263626595e-05 0.034906775107425216 0 -4.0600074888524151e-05 0.03495194794520784 0 -0.00010104487761413141 0.034613199716163376 0 -0.00017079166872114681 0.034369626770924949 0 9.0528151833468973e-05 0.034445406657053833 0 -0.00015696656226894812 0.034749916515904013 0 3.1683049895809152e-05 0.034639239071132095 0 -8.3090098673943967e-05 0.034925952002913992 0 -0.00017591660169047105 0.034861680552206564 0 -9.4260035263626595e-05 0.034906775107425216 0 -0.00011660760366981673 0.034924334848745339 0 -0.00018154556961592506 0.034908485749731044 0 -0.00017591660169047105 0.034861680552206564 0 -8.3090098673943967e-05 0.034925952002913992 0 -0.00011660760366981673 0.034924334848745339 0 -0.00017591660169047105 0.034861680552206564 0 -5.7987564869954921e-05 0.0349596440256928 0 -8.3090098673943967e-05 0.034925952002913992 0 -0.00011660760366981673 0.034924334848745339 0 -5.7987564869954921e-05 0.0349596440256928 0 -0.00011660760366981673 0.034924334848745339 0 -0.00010712777118904315 0.034965884000918379 0 -0.00010712777118904315 0.034965884000918379 0 -7.9929670249694396e-05 0.035003445469853282 0 -4.4491372389755735e-05 0.034986628921562429 0 -0.00010712777118904315 0.034965884000918379 0 -0.00018154556961592506 0.034908485749731044 0 -0.00018054628493629907 0.034979835591913103 0 -0.00011660760366981673 0.034924334848745339 0 -0.00010712777118904315 0.034965884000918379 0 -0.00018154556961592506 0.034908485749731044 0 -0.00018054628493629907 0.034979835591913103 0 -0.00013019016884493098 0.035013939879794474 0 -0.00021311985052584615 0.035050276136906561 0 -0.00010712777118904315 0.034965884000918379 0 -0.00018054628493629907 0.034979835591913103 0 -0.00013019016884493098 0.035013939879794474 0 -0.00010712777118904315 0.034965884000918379 0 -7.9929670249694396e-05 0.035003445469853282 0 -0.00013019016884493098 0.035013939879794474 0 -7.9929670249694396e-05 0.035003445469853282 0 -0.00013019016884493098 0.035013939879794474 0 -8.7348023103810211e-05 0.03503466093989268 0 -8.7348023103810211e-05 0.03503466093989268 0 -4.7666295511950882e-05 0.035016031486854608 0 -5.3646730343683216e-05 0.035046057410351446 0 -7.9929670249694396e-05 0.035003445469853282 0 -8.7348023103810211e-05 0.03503466093989268 0 -4.7666295511950882e-05 0.035016031486854608 0 -4.7666295511950882e-05 0.035016031486854608 0 -4.4491372389755735e-05 0.034986628921562429 0 -1.9512303619143799e-05 0.034999405282699882 0 -7.9929670249694396e-05 0.035003445469853282 0 -4.7666295511950882e-05 0.035016031486854608 0 -4.4491372389755735e-05 0.034986628921562429 0 -5.7987564869954921e-05 0.0349596440256928 0 -0.00010712777118904315 0.034965884000918379 0 -4.4491372389755735e-05 0.034986628921562429 0 -5.7987564869954921e-05 0.0349596440256928 0 -1.8330442504121837e-08 0.034999954727435736 0 -4.4491372389755735e-05 0.034986628921562429 0 -1.8330442504121837e-08 0.034999954727435736 0 -4.4491372389755735e-05 0.034986628921562429 0 -1.9512303619143799e-05 0.034999405282699882 0 -1.8330442504121837e-08 0.034999954727435736 0 -1.9512303619143799e-05 0.034999405282699882 0 -1.445353314757478e-08 0.035000064971208292 0 -1.9512303619143799e-05 0.034999405282699882 0 -1.445353314757478e-08 0.035000064971208292 0 -2.1584639571723343e-05 0.03503637885065336 0 -4.7666295511950882e-05 0.035016031486854608 0 -1.9512303619143799e-05 0.034999405282699882 0 -2.1584639571723343e-05 0.03503637885065336 0 -1.1105776136746107e-08 0.035000011539744483 0 -1.5761295948689851e-05 0.035000085470223319 0 -1.0878706947624844e-06 0.034998985786020141 0 -2.6207512624505859e-06 0.034997539027308788 0 -3.1720846992084774e-09 0.034999990788662068 0 3.2633267443276862e-10 0.03500000152784738 0 -1.0878706947624844e-06 0.034998985786020141 0 -3.1720846992084774e-09 0.034999990788662068 0 -8.7348023103810211e-05 0.03503466093989268 0 -5.3646730343683216e-05 0.035046057410351446 0 -8.8215744649660857e-05 0.035065610380353197 0 -2.1584639571723343e-05 0.03503637885065336 0 -5.3646730343683216e-05 0.035046057410351446 0 -5.2166443165625096e-05 0.035066743397766088 0 -4.7666295511950882e-05 0.035016031486854608 0 -2.1584639571723343e-05 0.03503637885065336 0 -5.3646730343683216e-05 0.035046057410351446 0 -1.5761295948689851e-05 0.035000085470223319 0 -0.00029332551233719403 0.034819491139357783 0 -5.3646730343683216e-05 0.035046057410351446 0 -4.9105683885558303e-05 0.03508028074890248 0 -8.8215744649660857e-05 0.035065610380353197 0 -0.00016161376003200474 0.035064397092508692 0 -0.00029332551233719403 0.034819491139357783 0 -0.00070027156901826223 0.034263256888413092 0 -0.00073106177848319531 0.033945942687570806 0 -0.00056892517565305337 0.034017296624307226 0 -0.00029332551233719403 0.034819491139357783 0 -0.00036086573040025409 0.034511117719864301 0 -2.6207512624505859e-06 0.034997539027308788 0 -3.1720846992084774e-09 0.034999990788662068 0 -2.8211096383013633e-06 0.034995786883257538 0 -3.1720846992084774e-09 0.034999990788662068 0 -2.8211096383013633e-06 0.034995786883257538 0 -3.0366849281417116e-10 0.035000013068643719 0 -0.00073106177848319531 0.033945942687570806 0 -0.00057999515601248595 0.033812605590826141 0 -0.00056892517565305337 0.034017296624307226 0 -0.00046959258030935749 0.033951564537614935 0 -0.00091112981569995983 0.032677168959273223 0 -0.00046959258030935749 0.033951564537614935 0 -0.00036086573040025409 0.034511117719864301 0 -0.00075672800773212985 0.033653356770518894 0 -0.00073106177848319531 0.033945942687570806 0 -0.00057999515601248595 0.033812605590826141 0 -2.158352845101178e-06 0.034994005858876215 0 -2.8211096383013633e-06 0.034995786883257538 0 -3.0366849281417116e-10 0.035000013068643719 0 -0.00136951044872288 0.032012286535696641 0 -0.0010214587114967383 0.031922339261869936 0 -0.0013418629837087101 0.031664242338373012 0 -0.00136951044872288 0.032012286535696641 0 -0.0013418629837087101 0.031664242338373012 0 -0.0015489235951986315 0.031872532070387039 0 -0.00057999515601248595 0.033812605590826141 0 -0.00056892517565305337 0.034017296624307226 0 -0.00040112187112115665 0.033974552522820063 0 -0.00056892517565305337 0.034017296624307226 0 -0.00040112187112115665 0.033974552522820063 0 -0.00048627302246304402 0.034051961672701775 0 -0.00091112981569995983 0.032677168959273223 0 -0.00085627109671697712 0.033064827402571141 0 -0.00054319207698313792 0.034032165203605601 0 -0.00048718402411705865 0.034062212362546265 0 -0.00085627109671697712 0.033064827402571141 0 -0.00048718402411705865 0.034062212362546265 0 -0.0013418629837087101 0.031664242338373012 0 -0.0015874986386192581 0.031682437225394808 0 -0.0015489235951986315 0.031872532070387039 0 -0.00085627109671697712 0.033064827402571141 0 -0.0013715425603559746 0.032287130635654519 0 -0.0013418629837087101 0.031664242338373012 0 -0.0015593957438248384 0.031508854020024589 0 -0.0015874986386192581 0.031682437225394808 0 -0.00035908615762326378 0.034294434397170087 0 -0.00048718402411705865 0.034062212362546265 0 -0.0002043037540139598 0.035126797604945158 0 -0.00013125363111487584 0.035150022660909719 0 -0.0001207825943986474 0.0350993577361398 0 -0.0002043037540139598 0.035126797604945158 0 -0.0001207825943986474 0.0350993577361398 0 -0.0001337158009560213 0.035063019021499324 0 -0.00067992790562696826 0.033520077891089448 0 -0.00083525934032120024 0.033244186924456999 0 -0.00091419981955583669 0.033309199489287393 0 -0.00067992790562696826 0.033520077891089448 0 -0.00083525934032120024 0.033244186924456999 0 -0.00052444329214318582 0.033391269822918533 0 -4.9105683885558303e-05 0.03508028074890248 0 -0.00013125363111487584 0.035150022660909719 0 -0.0001207825943986474 0.0350993577361398 0 -0.00070027156901826223 0.034263256888413092 0 -0.00056892517565305337 0.034017296624307226 0 -0.00047488420675766553 0.034061252316096871 0 -0.00029332551233719403 0.034819491139357783 0 -0.00048718402411705865 0.034062212362546265 0 -4.9105683885558303e-05 0.03508028074890248 0 -0.0001207825943986474 0.0350993577361398 0 -8.8215744649660857e-05 0.035065610380353197 0 -0.0001207825943986474 0.0350993577361398 0 -8.8215744649660857e-05 0.035065610380353197 0 -0.0001337158009560213 0.035063019021499324 0 -0.00013019016884493098 0.035013939879794474 0 -8.7348023103810211e-05 0.03503466093989268 0 -0.0001337158009560213 0.035063019021499324 0 -8.7348023103810211e-05 0.03503466093989268 0 -8.8215744649660857e-05 0.035065610380353197 0 -0.0001337158009560213 0.035063019021499324 0 -0.0002043037540139598 0.035126797604945158 0 -0.0001337158009560213 0.035063019021499324 0 -0.00021311985052584615 0.035050276136906561 0 -0.00013019016884493098 0.035013939879794474 0 -0.0001337158009560213 0.035063019021499324 0 -0.00021311985052584615 0.035050276136906561 0 -0.0002043037540139598 0.035126797604945158 0 -0.00021311985052584615 0.035050276136906561 0 -0.00029616905531658144 0.03510324226742606 0 -0.00021311985052584615 0.035050276136906561 0 -0.00029616905531658144 0.03510324226742606 0 -0.00030795701434909372 0.035033531076531912 0 -0.0010802841972390772 0.032842448174050527 0 -0.00098269669588302278 0.033358315337940987 0 -0.0017457944538432177 0.031372831798504794 0 -0.0019518439136573884 0.031296694640834836 0 -0.0019771398668192147 0.031475956830183428 0 -0.00029616905531658144 0.03510324226742606 0 -0.00030795701434909372 0.035033531076531912 0 -0.00045637785850652807 0.035016057501639331 0 -0.0013230305737678238 0.031677178540559306 0 -0.0017576226888338614 0.031471270313501686 0 -0.0018870904545868672 0.031174747246515876 0 -0.0010802841972390772 0.032842448174050527 0 -0.0020061839482609146 0.03130204313465533 0 -0.0017457944538432177 0.031372831798504794 0 -0.0017923902869035142 0.031591041897280576 0 -0.0019771398668192147 0.031475956830183428 0 -0.00035908615762326378 0.034294434397170087 0 -0.0010802841972390772 0.032842448174050527 0 -0.0017457944538432177 0.031372831798504794 0 -0.0015593957438248384 0.031508854020024589 0 -0.0017923902869035142 0.031591041897280576 0 -0.00083525934032120024 0.033244186924456999 0 -0.0011520212968138632 0.03309597712600524 0 -0.00091419981955583669 0.033309199489287393 0 -0.0010802841972390772 0.032842448174050527 0 -0.0013715425603559746 0.032287130635654519 0 -0.0015593957438248384 0.031508854020024589 0 -0.0015874986386192581 0.031682437225394808 0 -0.0017923902869035142 0.031591041897280576 0 -0.0015874986386192581 0.031682437225394808 0 -0.0017923902869035142 0.031591041897280576 0 -0.0017633911110438397 0.031816185926870882 0 -0.0015874986386192581 0.031682437225394808 0 -0.0017633911110438397 0.031816185926870882 0 -0.0015489235951986315 0.031872532070387039 0 -0.0017923902869035142 0.031591041897280576 0 -0.0020258712464878001 0.03170626007256646 0 -0.0019771398668192147 0.031475956830183428 0 -0.0017923902869035142 0.031591041897280576 0 -0.0017633911110438397 0.031816185926870882 0 -0.0020258712464878001 0.03170626007256646 0 -0.0020847264411241375 0.031986978732884606 0 -0.0016533617304603657 0.032176179136893412 0 -0.0017633911110438397 0.031816185926870882 0 -0.0020847264411241375 0.031986978732884606 0 -0.0017633911110438397 0.031816185926870882 0 -0.0020258712464878001 0.03170626007256646 0 -0.0016533617304603657 0.032176179136893412 0 -0.0017633911110438397 0.031816185926870882 0 -0.0015489235951986315 0.031872532070387039 0 -0.0016533617304603657 0.032176179136893412 0 -0.00136951044872288 0.032012286535696641 0 -0.0015489235951986315 0.031872532070387039 0 -0.0020847264411241375 0.031986978732884606 0 -0.0022647284107757972 0.031821192085523989 0 -0.0020258712464878001 0.03170626007256646 0 -0.0022647284107757972 0.031821192085523989 0 -0.0020258712464878001 0.03170626007256646 0 -0.0021908464202738415 0.031545307172049071 0 -0.0022647284107757972 0.031821192085523989 0 -0.0021908464202738415 0.031545307172049071 0 -0.0024552879341957854 0.03150841049873699 0 -0.0021908464202738415 0.031545307172049071 0 -0.0021232641197262317 0.031366662217851803 0 -0.0022936752755600459 0.031379151751862261 0 -0.0020258712464878001 0.03170626007256646 0 -0.0021908464202738415 0.031545307172049071 0 -0.0019771398668192147 0.031475956830183428 0 -0.0021908464202738415 0.031545307172049071 0 -0.0019771398668192147 0.031475956830183428 0 -0.0021232641197262317 0.031366662217851803 0 -0.0020061839482609146 0.03130204313465533 0 -0.0020255172681817022 0.031283972636505529 0 -0.0017576226888338614 0.031471270313501686 0 -0.0021097313844188948 0.031234642351460305 0 -0.0018870904545868672 0.031174747246515876 0 -0.0019518439136573884 0.031296694640834836 0 -0.0021232641197262317 0.031366662217851803 0 -0.0021097313844188948 0.031234642351460305 0 -0.0019518439136573884 0.031296694640834836 0 -0.0019771398668192147 0.031475956830183428 0 -0.0021232641197262317 0.031366662217851803 0 -0.0021232641197262317 0.031366662217851803 0 -0.0022936752755600459 0.031379151751862261 0 -0.0022425065749972395 0.03126129127692448 0 -0.0021232641197262317 0.031366662217851803 0 -0.0022425065749972395 0.03126129127692448 0 -0.0021097313844188948 0.031234642351460305 0 -0.0022425065749972395 0.03126129127692448 0 -0.0022165154280861374 0.031198375561150557 0 -0.0021097313844188948 0.031234642351460305 0 -0.0022165154280861374 0.031198375561150557 0 -0.0021868757624096307 0.031110716981332959 0 -0.0023226803801508255 0.031186820984765169 0 -0.0019178828782282205 0.032063939116847268 0 -0.0022861326734625997 0.030769930233403377 0 -0.0022425065749972395 0.03126129127692448 0 -0.0022165154280861374 0.031198375561150557 0 -0.0023226803801508255 0.031186820984765169 0 -0.0021868757624096307 0.031110716981332959 0 -0.0022468253899302396 0.030904503354653137 0 -0.0023226803801508255 0.031186820984765169 0 -0.0021868757624096307 0.031110716981332959 0 -0.0022468253899302396 0.030904503354653137 0 -0.0018870904545868672 0.031174747246515876 0 -0.0022165154280861374 0.031198375561150557 0 -0.0021097313844188948 0.031234642351460305 0 -0.0021868757624096307 0.031110716981332959 0 -0.00066668733598647953 0.034860914239253325 0 -0.00047601438522985596 0.034857368605016502 0 -0.00062600001884517632 0.034716221705437873 0 -0.0032710144907749004 0.029721950903725904 0 -0.0036482588480125614 0.030850772752092387 0 -0.0028520908366325409 0.030222598491562048 0 -0.002238458850443277 0.030925802381514957 0 -0.0023253457786885658 0.030847132057590165 0 -0.0023226803801508255 0.031186820984765169 0 -0.0019178828782282205 0.032063939116847268 0 -0.00218203928662823 0.032915857859093227 0 -0.0032710144907749004 0.029721950903725904 0 -0.0028294673979853279 0.030116063709535255 0 -0.0028520908366325409 0.030222598491562048 0 -0.0019178828782282205 0.032063939116847268 0 -0.0027556872987639712 0.030336709396726492 0 -0.00066668733598647953 0.034860914239253325 0 -0.00047601438522985596 0.034857368605016502 0 -0.00045637785850652807 0.035016057501639331 0 -0.0021097313844188948 0.031234642351460305 0 -0.0021868757624096307 0.031110716981332959 0 -0.0018870904545868672 0.031174747246515876 0 -0.0019178828782282205 0.032063939116847268 0 -0.00098269669588302278 0.033358315337940987 0 -0.00047601438522985596 0.034857368605016502 0 -0.00045637785850652807 0.035016057501639331 0 -0.00028634432059132211 0.034961749656131413 0 -0.00030795701434909372 0.035033531076531912 0 -0.00045637785850652807 0.035016057501639331 0 -0.00028634432059132211 0.034961749656131413 0 -0.00021311985052584615 0.035050276136906561 0 -0.00030795701434909372 0.035033531076531912 0 -0.00028634432059132211 0.034961749656131413 0 -0.00018054628493629907 0.034979835591913103 0 -0.00021311985052584615 0.035050276136906561 0 -0.00028634432059132211 0.034961749656131413 0 -0.00018154556961592506 0.034908485749731044 0 -0.00028634432059132211 0.034961749656131413 0 -0.00031317909783194753 0.034811608143171621 0 -0.00018154556961592506 0.034908485749731044 0 -0.00018054628493629907 0.034979835591913103 0 -0.00028634432059132211 0.034961749656131413 0 -0.00047601438522985596 0.034857368605016502 0 -0.00028634432059132211 0.034961749656131413 0 -0.00031317909783194753 0.034811608143171621 0 -0.00031317909783194753 0.034811608143171621 0 -0.00041350369066641096 0.034611166425022773 0 -0.0004905915658646046 0.034725285156499884 0 -0.00018154556961592506 0.034908485749731044 0 -0.00031317909783194753 0.034811608143171621 0 -0.00017591660169047105 0.034861680552206564 0 -0.00029910667238205015 0.034814221379660046 0 -0.00015696656226894812 0.034749916515904013 0 -0.00010104487761413141 0.034613199716163376 0 -0.00028563914864046823 0.03452467098665752 0 -0.00017079166872114681 0.034369626770924949 0 -0.00031317909783194753 0.034811608143171621 0 -0.00010104487761413141 0.034613199716163376 0 -0.00028563914864046823 0.03452467098665752 0 -0.00031317909783194753 0.034811608143171621 0 -0.00041350369066641096 0.034611166425022773 0 -0.00028563914864046823 0.03452467098665752 0 -0.00041350369066641096 0.034611166425022773 0 -0.00028563914864046823 0.03452467098665752 0 -0.0004019889049651931 0.034416533928023747 0 -0.0016183773774286465 0.032815921269509177 0 -0.0003124516890652577 0.034623590621637695 0 -0.00041350369066641096 0.034611166425022773 0 -0.00058703180992748479 0.034545880807592834 0 -0.0004019889049651931 0.034416533928023747 0 -0.00041350369066641096 0.034611166425022773 0 -0.00058703180992748479 0.034545880807592834 0 -0.0004905915658646046 0.034725285156499884 0 -0.0016183773774286465 0.032815921269509177 0 -0.001921808936340489 0.030733843789669212 0 -0.0016183773774286465 0.032815921269509177 0 -0.00218203928662823 0.032915857859093227 0 -0.0013960729088667045 0.030816435530223292 0 -0.000995430334307591 0.031006175611434181 0 -0.00087487624900525361 0.030449111395839577 0 -0.0039968792272077908 0.031955446289316215 0 -0.0036482588480125614 0.030850772752092387 0 -0.0027857910794125665 0.031200385063740704 0 -0.0036482588480125614 0.030850772752092387 0 -0.0027857910794125665 0.031200385063740704 0 -0.0028520908366325409 0.030222598491562048 0 -0.00058703180992748479 0.034545880807592834 0 -0.00062600001884517632 0.034716221705437873 0 -0.0004905915658646046 0.034725285156499884 0 -0.00047601438522985596 0.034857368605016502 0 -0.00031317909783194753 0.034811608143171621 0 -0.0004905915658646046 0.034725285156499884 0 -0.00047601438522985596 0.034857368605016502 0 -0.00062600001884517632 0.034716221705437873 0 -0.0004905915658646046 0.034725285156499884 0 -0.00049229904932247305 0.030444348841174002 0 -0.00023139508312271354 0.03032849925670637 0 -0.00040631360565436487 0.030037459049013872 0 -0.00023139508312271354 0.03032849925670637 0 -0.00040631360565436487 0.030037459049013872 0 -2.4139149039496125e-05 0.030064074451286397 0 -0.00085752066754994812 0.030180364379614893 0 -0.001921808936340489 0.030733843789669212 0 -0.001371443960292781 0.030362679207874752 0 -0.0027857910794125665 0.031200385063740704 0 -0.0021214228043489789 0.030201649843800242 0 -0.00049229904932247305 0.030444348841174002 0 -0.00040631360565436487 0.030037459049013872 0 -0.00087487624900525361 0.030449111395839577 0 -0.0026141890923991854 0.0302938110129422 0 -0.0027857910794125665 0.031200385063740704 0 -0.0021214228043489789 0.030201649843800242 0 -0.0026141890923991854 0.0302938110129422 0 -0.0027857910794125665 0.031200385063740704 0 -0.0028520908366325409 0.030222598491562048 0 -0.000995430334307591 0.031006175611434181 0 -0.00087487624900525361 0.030449111395839577 0 -0.00061621614998458828 0.030795119852587267 0 -0.00049229904932247305 0.030444348841174002 0 -0.00087487624900525361 0.030449111395839577 0 -0.00061621614998458828 0.030795119852587267 0 -0.00026178737704479532 0.030664292238274035 0 0.00017266737100116907 0.030861921320533517 0 -0.00025935054491640159 0.031094349888781438 0 -0.00061621614998458828 0.030795119852587267 0 -0.00026178737704479532 0.030664292238274035 0 -0.00025935054491640159 0.031094349888781438 0 -0.00049229904932247305 0.030444348841174002 0 -0.00061621614998458828 0.030795119852587267 0 -0.00026178737704479532 0.030664292238274035 0 -0.00049229904932247305 0.030444348841174002 0 -0.00023139508312271354 0.03032849925670637 0 -0.00026178737704479532 0.030664292238274035 0 -0.00023139508312271354 0.03032849925670637 0 -0.00026178737704479532 0.030664292238274035 0 3.9160958044306957e-05 0.030456831447009843 0 0.00017266737100116907 0.030861921320533517 0 0.00035754601556905557 0.030509540531345771 0 0.00062912092111900057 0.030705713700634171 0 0.00017266737100116907 0.030861921320533517 0 0.00035754601556905557 0.030509540531345771 0 3.9160958044306957e-05 0.030456831447009843 0 -0.00026178737704479532 0.030664292238274035 0 0.00017266737100116907 0.030861921320533517 0 3.9160958044306957e-05 0.030456831447009843 0 0.00017266737100116907 0.030861921320533517 0 0.00062912092111900057 0.030705713700634171 0 0.00062518630223408543 0.031122830982190597 0 0.00062912092111900057 0.030705713700634171 0 0.0011634928929174803 0.030665847804625376 0 0.00062518630223408543 0.031122830982190597 0 0.00062912092111900057 0.030705713700634171 0 0.00068677590920441687 0.030286481409374174 0 0.0011634928929174803 0.030665847804625376 0 0.00035754601556905557 0.030509540531345771 0 0.00062912092111900057 0.030705713700634171 0 0.00068677590920441687 0.030286481409374174 0 0.00035754601556905557 0.030509540531345771 0 0.00068677590920441687 0.030286481409374174 0 0.00030330753472512318 0.030166139952990591 0 0.00068677590920441687 0.030286481409374174 0 0.00057839377821614654 0.029863519834170456 0 0.00030330753472512318 0.030166139952990591 0 0.00068677590920441687 0.030286481409374174 0 0.00057839377821614654 0.029863519834170456 0 0.0010395926301299753 0.029743341008962299 0 -0.00023139508312271354 0.03032849925670637 0 3.9160958044306957e-05 0.030456831447009843 0 -2.4139149039496125e-05 0.030064074451286397 0 3.9160958044306957e-05 0.030456831447009843 0 0.00030330753472512318 0.030166139952990591 0 -2.4139149039496125e-05 0.030064074451286397 0 0.00035754601556905557 0.030509540531345771 0 3.9160958044306957e-05 0.030456831447009843 0 0.00030330753472512318 0.030166139952990591 0 0.00057839377821614654 0.029863519834170456 0 0.00030330753472512318 0.030166139952990591 0 0.00025506751295785787 0.029834644686841955 0 0.00030330753472512318 0.030166139952990591 0 -2.4139149039496125e-05 0.030064074451286397 0 0.00025506751295785787 0.029834644686841955 0 -2.4139149039496125e-05 0.030064074451286397 0 0.00025506751295785787 0.029834644686841955 0 4.2286206305921743e-05 0.029509787007605232 0 0.00025506751295785787 0.029834644686841955 0 4.2286206305921743e-05 0.029509787007605232 0 0.00042297536131833243 0.029555400083082647 0 0.00032456040598959524 0.029207468951886938 0 4.2286206305921743e-05 0.029509787007605232 0 -0.00017165481583619079 0.028905557922302549 0 0.00032456040598959524 0.029207468951886938 0 4.2286206305921743e-05 0.029509787007605232 0 0.00042297536131833243 0.029555400083082647 0 0.00041254265191300861 0.02380956384492083 0 -0.00037374181249775877 0.024274874702938994 0 0.00067003158626411806 0.029236076718532462 0 0.00080400912418620326 0.028519110717044834 0 0.0010395926301299753 0.029743341008962299 0 0.00057839377821614654 0.029863519834170456 0 0.00067802402902893502 0.029602375058853988 0 0.0010395926301299753 0.029743341008962299 0 0.00067802402902893502 0.029602375058853988 0 0.00067003158626411806 0.029236076718532462 0 0.0010395926301299753 0.029743341008962299 0 0.00057839377821614654 0.029863519834170456 0 0.00025506751295785787 0.029834644686841955 0 0.00042297536131833243 0.029555400083082647 0 0.00057839377821614654 0.029863519834170456 0 0.00067802402902893502 0.029602375058853988 0 0.00042297536131833243 0.029555400083082647 0 0.00032456040598959524 0.029207468951886938 0 0.00042297536131833243 0.029555400083082647 0 0.00067003158626411806 0.029236076718532462 0 0.00032456040598959524 0.029207468951886938 0 0.00067003158626411806 0.029236076718532462 0 0.00041867946481312796 0.028973661314288687 0 0.00067802402902893502 0.029602375058853988 0 0.00042297536131833243 0.029555400083082647 0 0.00067003158626411806 0.029236076718532462 0 -0.0014666739887695692 0.019031528258587022 0 -0.0015167776819433629 0.019036791774227069 0 -0.0015684510803484434 0.018872279409507371 0 0.00067003158626411806 0.029236076718532462 0 0.00041867946481312796 0.028973661314288687 0 0.00080400912418620326 0.028519110717044834 0 0.0016901845766785178 0.027683926358080858 0 0.00051653665545815363 0.027735300759615493 0 0.0008477445754102379 0.027306351604971461 0 0.00041254265191300861 0.02380956384492083 0 -0.00026168133524158177 0.016710264966053073 0 0.0016901845766785178 0.027683926358080858 0 -2.329102575289631e-06 0.028570221596998339 0 0.00051653665545815363 0.027735300759615493 0 0.00041867946481312796 0.028973661314288687 0 0.00080400912418620326 0.028519110717044834 0 -0.00017165481583619079 0.028905557922302549 0 0.00041254265191300861 0.02380956384492083 0 -0.00021813965652724862 0.029128389922241399 0 0.00032456040598959524 0.029207468951886938 0 0.00041867946481312796 0.028973661314288687 0 -0.00017165481583619079 0.028905557922302549 0 0.00051653665545815363 0.027735300759615493 0 -0.00033016338127550511 0.027726436611426285 0 0.00031515641932379441 0.02709847152995801 0 -2.329102575289631e-06 0.028570221596998339 0 0.00051653665545815363 0.027735300759615493 0 -0.00033016338127550511 0.027726436611426285 0 -2.329102575289631e-06 0.028570221596998339 0 -0.0010487170087334248 0.028376819824553812 0 -0.0016618331114561921 0.029472680147253714 0 -0.00033016338127550511 0.027726436611426285 0 -0.0013239178609055443 0.027595891079981047 0 -0.0010487170087334248 0.028376819824553812 0 -0.0013239178609055443 0.027595891079981047 0 -0.0010487170087334248 0.028376819824553812 0 -0.0019050727450122013 0.028627425955147143 0 -0.0010487170087334248 0.028376819824553812 0 -0.0016618331114561921 0.029472680147253714 0 -0.0019050727450122013 0.028627425955147143 0 -2.329102575289631e-06 0.028570221596998339 0 -0.00033016338127550511 0.027726436611426285 0 -0.0010487170087334248 0.028376819824553812 0 -0.001371443960292781 0.030362679207874752 0 4.2286206305921743e-05 0.029509787007605232 0 -0.0016618331114561921 0.029472680147253714 0 4.2286206305921743e-05 0.029509787007605232 0 -0.00017165481583619079 0.028905557922302549 0 -0.0016618331114561921 0.029472680147253714 0 -0.00021813965652724862 0.029128389922241399 0 -0.0014762965330654459 0.029345582050323626 0 -0.00085752066754994812 0.030180364379614893 0 -1.4067622030850862e-05 0.02957301666771019 0 -0.00040631360565436487 0.030037459049013872 0 -2.4139149039496125e-05 0.030064074451286397 0 4.2286206305921743e-05 0.029509787007605232 0 -0.0016618331114561921 0.029472680147253714 0 -0.0029059233619398001 0.030061560309016147 0 -0.0019050727450122013 0.028627425955147143 0 -0.0026141890923991854 0.0302938110129422 0 -0.0029059233619398001 0.030061560309016147 0 -0.0021214228043489789 0.030201649843800242 0 -0.0026141890923991854 0.0302938110129422 0 -0.0028302473755479588 0.030117444865261696 0 -0.0028520908366325409 0.030222598491562048 0 -0.0027556872987639712 0.030336709396726492 0 -0.0027561147653040979 0.030323067523203923 0 -0.0027550880441443446 0.030309814901763665 0 -0.0027556872987639712 0.030336709396726492 0 -0.0016618331114561921 0.029472680147253714 0 -0.0029059233619398001 0.030061560309016147 0 -0.0021214228043489789 0.030201649843800242 0 -0.001371443960292781 0.030362679207874752 0 -0.0016618331114561921 0.029472680147253714 0 -0.0021214228043489789 0.030201649843800242 0 -0.0023253457786885658 0.030847132057590165 0 -0.0023892054150010771 0.031201461470865676 0 -0.0023226803801508255 0.031186820984765169 0 -0.0029059233619398001 0.030061560309016147 0 -0.0019050727450122013 0.028627425955147143 0 -0.002524286436845101 0.027589859340718954 0 -0.0027556872987639712 0.030336709396726492 0 -0.0024282240350055571 0.029436608039094717 0 -0.0013239178609055443 0.027595891079981047 0 -0.0019050727450122013 0.028627425955147143 0 -0.002524286436845101 0.027589859340718954 0 -0.0022936752755600459 0.031379151751862261 0 -0.0022425065749972395 0.03126129127692448 0 -0.0023892054150010771 0.031201461470865676 0 -0.0022936752755600459 0.031379151751862261 0 -0.0023892054150010771 0.031201461470865676 0 -0.0024552879341957854 0.03150841049873699 0 -0.0024282240350055571 0.029436608039094717 0 -0.002316408785378604 0.028159184643600267 0 -0.002524286436845101 0.027589859340718954 0 -0.0012998293166138887 0.026296201288546595 0 -0.0020487266353344429 0.025050376368955584 0 -0.0022425065749972395 0.03126129127692448 0 -0.0023892054150010771 0.031201461470865676 0 -0.0023226803801508255 0.031186820984765169 0 -0.0013239178609055443 0.027595891079981047 0 -0.00047015978134143111 0.026828005334353703 0 -0.0012998293166138887 0.026296201288546595 0 -0.00033016338127550511 0.027726436611426285 0 -0.0013239178609055443 0.027595891079981047 0 -0.00047015978134143111 0.026828005334353703 0 -0.0013239178609055443 0.027595891079981047 0 -0.002524286436845101 0.027589859340718954 0 -0.0012998293166138887 0.026296201288546595 0 -0.00047015978134143111 0.026828005334353703 0 -0.0012998293166138887 0.026296201288546595 0 -0.00039806808988478306 0.025838474702548502 0 -0.0012998293166138887 0.026296201288546595 0 -0.00094660635566961898 0.024962633179951923 0 -0.00039806808988478306 0.025838474702548502 0 -0.0012998293166138887 0.026296201288546595 0 -0.00094660635566961898 0.024962633179951923 0 -0.0020487266353344429 0.025050376368955584 0 -0.00094660635566961898 0.024962633179951923 0 -5.5210571670965349e-05 0.024388320043802793 0 -0.00026810756661614421 0.025216512534031892 0 -0.00094660635566961898 0.024962633179951923 0 -0.00026810756661614421 0.025216512534031892 0 -0.00039806808988478306 0.025838474702548502 0 -0.0021908464202738415 0.031545307172049071 0 -0.0022936752755600459 0.031379151751862261 0 -0.0024552879341957854 0.03150841049873699 0 -0.0022647284107757972 0.031821192085523989 0 -0.0024552879341957854 0.03150841049873699 0 -0.0025185057787944624 0.031830560862099185 0 -0.00094660635566961898 0.024962633179951923 0 -0.0020487266353344429 0.025050376368955584 0 -0.0016152427425271498 0.024059897738303863 0 -0.0028575780381324151 0.020104434558565726 0 -0.00052204003332562263 0.019499181086828136 0 -0.00094660635566961898 0.024962633179951923 0 -0.00095672807594464554 0.024095865593821209 0 -0.0016152427425271498 0.024059897738303863 0 -0.002316408785378604 0.028159184643600267 0 -0.0015136716718436257 0.027789980122300266 0 -0.0020691996275447292 0.01302145903478757 0 -0.0014447508133647994 0.013134097458389421 0 -0.0012288474858118182 0.014562740401637577 0 -0.0020487266353344429 0.025050376368955584 0 -0.0016152427425271498 0.024059897738303863 0 -0.0015492974211281547 0.022626810758395999 0 -0.00095672807594464554 0.024095865593821209 0 -0.0012071050535063512 0.022949794754272158 0 -5.5210571670965349e-05 0.024388320043802793 0 -0.00094660635566961898 0.024962633179951923 0 -0.00095672807594464554 0.024095865593821209 0 -5.5210571670965349e-05 0.024388320043802793 0 -0.00095672807594464554 0.024095865593821209 0 -0.0016152427425271498 0.024059897738303863 0 -0.0012071050535063512 0.022949794754272158 0 -0.0022258854677953644 0.024094725605855918 0 -0.0028575780381324151 0.020104434558565726 0 -0.0031015609342540207 0.020369440050157776 0 -0.0044310229130831357 0.023892902223305611 0 -0.0049311585971477112 0.023279944303456597 0 -0.0016152427425271498 0.024059897738303863 0 -0.0012201511096892798 0.023036067623122571 0 -0.0015492974211281547 0.022626810758395999 0 -0.0028575780381324151 0.020104434558565726 0 -0.0015136716718436257 0.027789980122300266 0 -0.0020691996275447292 0.01302145903478757 0 -0.0015262101266652951 0.012517338845359043 0 -0.0014447508133647994 0.013134097458389421 0 -0.0023546727205415821 0.032052396302128687 0 -0.0022647284107757972 0.031821192085523989 0 -0.0025185057787944624 0.031830560862099185 0 -0.00048292094509405371 0.012509961530622992 0 -0.00052573979242655461 0.012970417463015268 0 -3.7719279148667163e-05 0.012676750913437465 0 -0.00048292094509405371 0.012509961530622992 0 -0.00091492922359696037 0.012839246742796528 0 -0.00052573979242655461 0.012970417463015268 0 -0.00088869769869871057 0.012251316982526458 0 -0.00048292094509405371 0.012509961530622992 0 -0.00091492922359696037 0.012839246742796528 0 -0.00088869769869871057 0.012251316982526458 0 -0.0015262101266652951 0.012517338845359043 0 -0.00091492922359696037 0.012839246742796528 0 -0.0015262101266652951 0.012517338845359043 0 -0.0014447508133647994 0.013134097458389421 0 -0.00091492922359696037 0.012839246742796528 0 -0.00091492922359696037 0.012839246742796528 0 -0.0012288474858118182 0.014562740401637577 0 -0.00022495206792256004 0.015285065536850401 0 -0.00091492922359696037 0.012839246742796528 0 0.00045200906533944177 0.015448484998661836 0 -0.00022495206792256004 0.015285065536850401 0 -0.00090389503070476039 0.012897702127612041 0 0.00010582384900540062 0.014366188313813994 0 -0.0014447508133647994 0.013134097458389421 0 -0.00091492922359696037 0.012839246742796528 0 -0.0012288474858118182 0.014562740401637577 0 -0.00052573979242655461 0.012970417463015268 0 -0.00038490469594124548 0.013178030201996933 0 -0.00053664356617780554 0.013313470524561662 0 -0.00091492922359696037 0.012839246742796528 0 -0.00052573979242655461 0.012970417463015268 0 -0.00053664356617780554 0.013313470524561662 0 -0.00038490469594124548 0.013178030201996933 0 -0.00022654285832520487 0.013279838507899631 0 -0.00017301055182342547 0.013094620473860185 0 -0.00052573979242655461 0.012970417463015268 0 -0.00038490469594124548 0.013178030201996933 0 -0.00017301055182342547 0.013094620473860185 0 0.00045200906533944177 0.015448484998661836 0 5.1166013335402909e-05 0.016509872215153817 0 0.001206538128502565 0.018022804682327642 0 -0.00053664356617780554 0.013313470524561662 0 -0.00012340100380153486 0.013521773755127942 0 -0.00022654285832520487 0.013279838507899631 0 -0.00053664356617780554 0.013313470524561662 0 -0.00023572444793099637 0.014000527008705828 0 -0.00012340100380153486 0.013521773755127942 0 -0.00038490469594124548 0.013178030201996933 0 -0.00053664356617780554 0.013313470524561662 0 -0.00022654285832520487 0.013279838507899631 0 0.00045200906533944177 0.015448484998661836 0 5.1166013335402909e-05 0.016509872215153817 0 -0.00022495206792256004 0.015285065536850401 0 -0.00052204003332562263 0.019499181086828136 0 0.00066637468290853112 0.019394681412615172 0 -0.0012288474858118182 0.014562740401637577 0 7.8967721725655955e-05 0.016340472570080079 0 -0.00022495206792256004 0.015285065536850401 0 -5.5210571670965349e-05 0.024388320043802793 0 0.0010810290651250888 0.025787492164622037 0 0.00032375511277273631 0.025676540307061051 0 -5.5210571670965349e-05 0.024388320043802793 0 -0.00026810756661614421 0.025216512534031892 0 0.00032375511277273631 0.025676540307061051 0 0.00066637468290853112 0.019394681412615172 0 -0.00037902500564626651 0.015380375371186875 0 0.0010810290651250888 0.025787492164622037 0 0.00032375511277273631 0.025676540307061051 0 0.00083703820503912263 0.026561893072537601 0 -0.00026810756661614421 0.025216512534031892 0 0.00032375511277273631 0.025676540307061051 0 -0.00039806808988478306 0.025838474702548502 0 0.00032375511277273631 0.025676540307061051 0 -0.00039806808988478306 0.025838474702548502 0 0.00013165933359028946 0.026394386829275689 0 -0.00047015978134143111 0.026828005334353703 0 0.00013165933359028946 0.026394386829275689 0 0.00031515641932379441 0.02709847152995801 0 -0.00047015978134143111 0.026828005334353703 0 -0.00039806808988478306 0.025838474702548502 0 0.00013165933359028946 0.026394386829275689 0 0.00032375511277273631 0.025676540307061051 0 0.00013165933359028946 0.026394386829275689 0 0.00083703820503912263 0.026561893072537601 0 0.00013165933359028946 0.026394386829275689 0 0.00083703820503912263 0.026561893072537601 0 0.00031515641932379441 0.02709847152995801 0 0.00083703820503912263 0.026561893072537601 0 0.0008477445754102379 0.027306351604971461 0 0.00031515641932379441 0.02709847152995801 0 0.00051653665545815363 0.027735300759615493 0 0.0008477445754102379 0.027306351604971461 0 0.00031515641932379441 0.02709847152995801 0 -0.00033016338127550511 0.027726436611426285 0 -0.00047015978134143111 0.026828005334353703 0 0.00031515641932379441 0.02709847152995801 0 0.00045200906533944177 0.015448484998661836 0 0.001206538128502565 0.018022804682327642 0 0.002005732797127477 0.018876102624551895 0 0.00094193704828204091 0.019379937016377392 0 7.8829531149770705e-05 0.016605362226535469 0 0.001206538128502565 0.018022804682327642 0 0.0016901845766785178 0.027683926358080858 0 0.0010810290651250888 0.025787492164622037 0 0.00083703820503912263 0.026561893072537601 0 0.00041254265191300861 0.02380956384492083 0 0.00066637468290853112 0.019394681412615172 0 0.00010582384900540062 0.014366188313813994 0 -0.00026168133524158177 0.016710264966053073 0 0.00066637468290853112 0.019394681412615172 0 0.00046705679120839441 0.017363408827834593 0 0.0016901845766785178 0.027683926358080858 0 0.00083703820503912263 0.026561893072537601 0 0.0008477445754102379 0.027306351604971461 0 0.00094193704828204091 0.019379937016377392 0 0.001206538128502565 0.018022804682327642 0 0.002005732797127477 0.018876102624551895 0 -0.00026168133524158177 0.016710264966053073 0 -5.0811965333360386e-05 0.013508910139576188 0 -0.00023572444793099637 0.014000527008705828 0 0.00031374283486392961 0.01369981391537436 0 -0.00012340100380153486 0.013521773755127942 0 -0.0015946551399830574 0.01435950900028166 0 -0.00044683952889946815 0.013806679187399277 0 -0.00050063926609623141 0.014454711700660367 0 -0.00044683952889946815 0.013806679187399277 0 0.00063238112414882371 0.014359915256990348 0 -0.00050063926609623141 0.014454711700660367 0 0.00031374283486392961 0.01369981391537436 0 0.00010745613089568675 0.013281540598718975 0 0.00044825553065944081 0.012987774661564002 0 0.00031374283486392961 0.01369981391537436 0 0.00044825553065944081 0.012987774661564002 0 0.00081922716579380388 0.013389008211996642 0 0.00031374283486392961 0.01369981391537436 0 -0.00012340100380153486 0.013521773755127942 0 0.00010745613089568675 0.013281540598718975 0 -0.00012340100380153486 0.013521773755127942 0 0.00010745613089568675 0.013281540598718975 0 -0.00022654285832520487 0.013279838507899631 0 0.00010745613089568675 0.013281540598718975 0 -0.00022654285832520487 0.013279838507899631 0 -0.00017301055182342547 0.013094620473860185 0 0.00010745613089568675 0.013281540598718975 0 -0.00017301055182342547 0.013094620473860185 0 0.00044825553065944081 0.012987774661564002 0 -0.00017301055182342547 0.013094620473860185 0 0.00044825553065944081 0.012987774661564002 0 -3.7719279148667163e-05 0.012676750913437465 0 -0.00052573979242655461 0.012970417463015268 0 -0.00017301055182342547 0.013094620473860185 0 -3.7719279148667163e-05 0.012676750913437465 0 0.00044825553065944081 0.012987774661564002 0 0.00041844417003148604 0.012403190192921411 0 -3.7719279148667163e-05 0.012676750913437465 0 -9.6585753955187302e-05 0.012185354593872976 0 0.00041844417003148604 0.012403190192921411 0 -3.7719279148667163e-05 0.012676750913437465 0 -9.6585753955187302e-05 0.012185354593872976 0 -0.00048292094509405371 0.012509961530622992 0 -3.7719279148667163e-05 0.012676750913437465 0 0.0009151085810873219 0.011977318744611463 0 0.0016979588591164311 0.012374766323370938 0 0.00093910218981018529 0.012079398019792967 0 0.0017261234518657395 0.012433356157828854 0 0.00099622447782102969 0.012735249662881075 0 0.00093910218981018529 0.012079398019792967 0 0.00041844417003148604 0.012403190192921411 0 0.00099622447782102969 0.012735249662881075 0 0.00044825553065944081 0.012987774661564002 0 0.00041844417003148604 0.012403190192921411 0 0.00099622447782102969 0.012735249662881075 0 0.00044825553065944081 0.012987774661564002 0 0.00099622447782102969 0.012735249662881075 0 0.00081922716579380388 0.013389008211996642 0 0.0016743130836357866 0.013139339187602789 0 0.00099622447782102969 0.012735249662881075 0 0.00081922716579380388 0.013389008211996642 0 0.0017261234518657395 0.012433356157828854 0 0.0016743130836357866 0.013139339187602789 0 0.00099622447782102969 0.012735249662881075 0 0.0016743130836357866 0.013139339187602789 0 0.00081922716579380388 0.013389008211996642 0 0.0015955099891739254 0.01393496237154962 0 -5.0811965333360386e-05 0.013508910139576188 0 0.00071254259088931972 0.01346628335767463 0 -0.00044683952889946815 0.013806679187399277 0 0.00081922716579380388 0.013389008211996642 0 0.00063238112414882371 0.014359915256990348 0 0.00063238112414882371 0.014359915256990348 0 0.0015955099891739254 0.01393496237154962 0 0.0016488009311053247 0.014720802294016056 0 0.00081922716579380388 0.013389008211996642 0 0.00063238112414882371 0.014359915256990348 0 0.0015955099891739254 0.01393496237154962 0 0.00063238112414882371 0.014359915256990348 0 0.0016488009311053247 0.014720802294016056 0 0.0010088741048698828 0.015148915821953877 0 0.0016488009311053247 0.014720802294016056 0 0.0010088741048698828 0.015148915821953877 0 0.0015589560135867264 0.015883865764693895 0 0.0010088741048698828 0.015148915821953877 0 0.0015589560135867264 0.015883865764693895 0 0.00071906774681961114 0.01599931777119646 0 8.0396736263827474e-05 0.016088453825890837 0 0.00071906774681961114 0.01599931777119646 0 0.00033680584596120254 0.015348557160295104 0 8.0396736263827474e-05 0.016088453825890837 0 0.00033680584596120254 0.015348557160295104 0 -0.00032385438001737954 0.01564161991176484 0 0.0010088741048698828 0.015148915821953877 0 0.00071906774681961114 0.01599931777119646 0 0.00033680584596120254 0.015348557160295104 0 0.00063238112414882371 0.014359915256990348 0 0.00033680584596120254 0.015348557160295104 0 -0.00014608688442044868 0.014959012814292419 0 0.00063238112414882371 0.014359915256990348 0 0.0010088741048698828 0.015148915821953877 0 0.00033680584596120254 0.015348557160295104 0 0.00063238112414882371 0.014359915256990348 0 -0.00050063926609623141 0.014454711700660367 0 -0.00014608688442044868 0.014959012814292419 0 -0.00050063926609623141 0.014454711700660367 0 -0.00072954974629796062 0.015034053805736787 0 -0.00014608688442044868 0.014959012814292419 0 -0.00072954974629796062 0.015034053805736787 0 -0.00014608688442044868 0.014959012814292419 0 -0.00032385438001737954 0.01564161991176484 0 -0.0015946551399830574 0.01435950900028166 0 -0.00072954974629796062 0.015034053805736787 0 -0.001023032236181219 0.015771532432504037 0 -0.0015946551399830574 0.01435950900028166 0 -0.00050063926609623141 0.014454711700660367 0 -0.00072954974629796062 0.015034053805736787 0 -0.00026168133524158177 0.016710264966053073 0 -0.0015058469742427931 0.017265808681040967 0 -0.0015167776819433629 0.019036791774227069 0 -0.0015774907463069242 0.018836741174089115 0 -0.0015684510803484434 0.018872279409507371 0 0.00033680584596120254 0.015348557160295104 0 -0.00014608688442044868 0.014959012814292419 0 -0.00032385438001737954 0.01564161991176484 0 -0.00072954974629796062 0.015034053805736787 0 -0.001023032236181219 0.015771532432504037 0 -0.00032385438001737954 0.01564161991176484 0 -0.001023032236181219 0.015771532432504037 0 -0.00032385438001737954 0.01564161991176484 0 -0.00035432604150300326 0.016342499955199246 0 8.0396736263827474e-05 0.016088453825890837 0 -0.00032385438001737954 0.01564161991176484 0 -0.00035432604150300326 0.016342499955199246 0 -0.00035432604150300326 0.016342499955199246 0 -0.00066610381294438382 0.017382747421421287 0 0.00023402568437293575 0.016892999555265291 0 -0.001023032236181219 0.015771532432504037 0 -0.00035432604150300326 0.016342499955199246 0 -0.00066610381294438382 0.017382747421421287 0 -0.0015058469742427931 0.017265808681040967 0 -0.00092641958516520182 0.018216516820635183 0 -0.0015774907463069242 0.018836741174089115 0 -0.0016992878044362163 0.019007983835872058 0 -0.0013234300475878818 0.018866550934712307 0 0.00068677590920441687 0.030286481409374174 0 0.0010395926301299753 0.029743341008962299 0 0.0011634928929174803 0.030665847804625376 0 -0.0015774907463069242 0.018836741174089115 0 -0.0015684510803484434 0.018872279409507371 0 -0.0016992878044362163 0.019007983835872058 0 -0.00037374181249775877 0.024274874702938994 0 -0.00025437614248533869 0.024857915991329721 0 0.00064355685733584141 0.01803300855049509 0 0.0010856236065390228 0.016769279080383968 0 0.00023402568437293575 0.016892999555265291 0 -0.00066610381294438382 0.017382747421421287 0 0.00064355685733584141 0.01803300855049509 0 0.00023402568437293575 0.016892999555265291 0 0.0024392917033221172 0.01729677055686285 0 0.0021660080136449043 0.018591043047706545 0 0.00064355685733584141 0.01803300855049509 0 0.0024392917033221172 0.01729677055686285 0 0.00064355685733584141 0.01803300855049509 0 0.0010856236065390228 0.016769279080383968 0 0.0024392917033221172 0.01729677055686285 0 0.0015589560135867264 0.015883865764693895 0 0.0010856236065390228 0.016769279080383968 0 0.0015589560135867264 0.015883865764693895 0 0.00071906774681961114 0.01599931777119646 0 0.0010856236065390228 0.016769279080383968 0 8.0396736263827474e-05 0.016088453825890837 0 0.00071906774681961114 0.01599931777119646 0 0.00023402568437293575 0.016892999555265291 0 8.0396736263827474e-05 0.016088453825890837 0 -0.00035432604150300326 0.016342499955199246 0 0.00023402568437293575 0.016892999555265291 0 0.00071906774681961114 0.01599931777119646 0 0.0010856236065390228 0.016769279080383968 0 0.00023402568437293575 0.016892999555265291 0 -0.00028313713898056776 0.019821599236057429 0 -0.0018119610614652805 0.020046257067899587 0 -0.00031330830268013577 0.021332642130736643 0 -0.00028313713898056776 0.019821599236057429 0 0.0014561105153013043 0.020088801766252738 0 -0.00031330830268013577 0.021332642130736643 0 0.0014561105153013043 0.020088801766252738 0 -0.00031330830268013577 0.021332642130736643 0 0.001397030136180751 0.022170502451435349 0 0.0025309680973980776 0.021051108497786495 0 0.0014561105153013043 0.020088801766252738 0 0.001397030136180751 0.022170502451435349 0 0.0021660080136449043 0.018591043047706545 0 0.00064355685733584141 0.01803300855049509 0 0.0014561105153013043 0.020088801766252738 0 -0.00066610381294438382 0.017382747421421287 0 0.00064355685733584141 0.01803300855049509 0 -0.00028313713898056776 0.019821599236057429 0 0.00064355685733584141 0.01803300855049509 0 -0.00028313713898056776 0.019821599236057429 0 0.0014561105153013043 0.020088801766252738 0 -0.00092641958516520182 0.018216516820635183 0 -0.00030106509487181845 0.019774230216564891 0 -0.0013234300475878818 0.018866550934712307 0 -0.00028313713898056776 0.019821599236057429 0 -0.0018119610614652805 0.020046257067899587 0 -0.0016992878044362163 0.019007983835872058 0 -0.0013234300475878818 0.018866550934712307 0 -0.0018119610614652805 0.020046257067899587 0 0.0011634928929174803 0.030665847804625376 0 0.00083195761286749864 0.031549793847446037 0 0.0012895573096030431 0.031429727068482294 0 0.0011634928929174803 0.030665847804625376 0 0.00083195761286749864 0.031549793847446037 0 0.00062518630223408543 0.031122830982190597 0 -0.00025437614248533869 0.024857915991329721 0 -0.00027386766146321554 0.025783165125092735 0 0.00083195761286749864 0.031549793847446037 0 0.0012895573096030431 0.031429727068482294 0 0.00098058966429343409 0.031879639423104157 0 -0.00027386766146321554 0.025783165125092735 0 -0.00014284494657424766 0.027539447714497355 0 -0.0018119610614652805 0.020046257067899587 0 -0.0018463374150831655 0.022880730175692778 0 -0.00031330830268013577 0.021332642130736643 0 0.0012895573096030431 0.031429727068482294 0 0.0014252256707682444 0.032123386275855981 0 0.00098058966429343409 0.031879639423104157 0 0.0014252256707682444 0.032123386275855981 0 0.00098058966429343409 0.031879639423104157 0 0.00085781578929557567 0.032314788159604389 0 0.0014252256707682444 0.032123386275855981 0 0.00085781578929557567 0.032314788159604389 0 0.0011236276034294883 0.032753088800483214 0 -0.00014284494657424766 0.027539447714497355 0 -0.00014634670446036141 0.029865593623096875 0 0.0014252256707682444 0.032123386275855981 0 0.001590696427690267 0.032746705424248346 0 0.0011236276034294883 0.032753088800483214 0 -0.00012629258225042359 0.023644224337269603 0 -0.0012906580056513972 0.026826286537172891 0 0.00048746816436250561 0.025790674766210952 0 -0.0018463374150831655 0.022880730175692778 0 -0.00012629258225042359 0.023644224337269603 0 -0.0012906580056513972 0.026826286537172891 0 -0.00012629258225042359 0.023644224337269603 0 -0.00031330830268013577 0.021332642130736643 0 0.001397030136180751 0.022170502451435349 0 -0.0018463374150831655 0.022880730175692778 0 -0.00012629258225042359 0.023644224337269603 0 -0.00031330830268013577 0.021332642130736643 0 0.0030362267431695905 0.023194723833226561 0 0.0025309680973980776 0.021051108497786495 0 0.001397030136180751 0.022170502451435349 0 0.0030362267431695905 0.023194723833226561 0 0.001397030136180751 0.022170502451435349 0 0.0018290417610897522 0.024330676644840614 0 -0.00012629258225042359 0.023644224337269603 0 0.001397030136180751 0.022170502451435349 0 0.0018290417610897522 0.024330676644840614 0 0.0018290417610897522 0.024330676644840614 0 0.0019638153959193839 0.026001365831782534 0 0.00048746816436250561 0.025790674766210952 0 -0.00012629258225042359 0.023644224337269603 0 0.0018290417610897522 0.024330676644840614 0 0.00048746816436250561 0.025790674766210952 0 0.0028508244991447547 0.025331851541761465 0 0.0018290417610897522 0.024330676644840614 0 0.0019638153959193839 0.026001365831782534 0 0.0028508244991447547 0.025331851541761465 0 0.0034048357726906907 0.024385816893835999 0 0.0018290417610897522 0.024330676644840614 0 0.0019298658319801603 0.027635396214693811 0 -0.0014292694282622173 0.027764086183243879 0 0.0013760900460818865 0.030024544475332607 0 0.0035312951953101229 0.026920456677407115 0 0.0019638153959193839 0.026001365831782534 0 0.0019298658319801603 0.027635396214693811 0 0.0028508244991447547 0.025331851541761465 0 0.0035312951953101229 0.026920456677407115 0 0.0019638153959193839 0.026001365831782534 0 0.0019638153959193839 0.026001365831782534 0 0.0019298658319801603 0.027635396214693811 0 0.00048746816436250561 0.025790674766210952 0 0.0019298658319801603 0.027635396214693811 0 -0.0012906580056513972 0.026826286537172891 0 0.00048746816436250561 0.025790674766210952 0 0.0012412841919993984 0.027249677797003713 0 -0.00014634670446036141 0.029865593623096875 0 -0.00014634670446036141 0.029865593623096875 0 1.2639020454648788e-06 0.031488243203809066 0 0.00011837636655615746 0.032250278916419892 0 0.00018863431951124176 0.031582873402123943 0 0.0001884575129621783 0.032211648752831765 0 -0.0014292694282622173 0.027764086183243879 0 0.00018863431951124176 0.031582873402123943 0 0.0013760900460818865 0.030024544475332607 0 0.0029627776351090888 0.030694843902193805 0 0.0040182451762476468 0.028994202810769774 0 0.0013760900460818865 0.030024544475332607 0 0.0040182451762476468 0.028994202810769774 0 0.0019298658319801603 0.027635396214693811 0 0.0013760900460818865 0.030024544475332607 0 0.00018863431951124176 0.031582873402123943 0 0.0013760900460818865 0.030024544475332607 0 0.0018340581179235762 0.031489812509053014 0 0.0029627776351090888 0.030694843902193805 0 0.0013760900460818865 0.030024544475332607 0 0.0018340581179235762 0.031489812509053014 0 0.0026523020301953324 0.032131939608151125 0 0.0018340581179235762 0.031489812509053014 0 0.0019455192194211032 0.032205624650194706 0 0.0029627776351090888 0.030694843902193805 0 0.0026523020301953324 0.032131939608151125 0 0.0018340581179235762 0.031489812509053014 0 0.002251926860401867 0.032738010481459967 0 0.0026523020301953324 0.032131939608151125 0 0.0019455192194211032 0.032205624650194706 0 0.002251926860401867 0.032738010481459967 0 0.0019455192194211032 0.032205624650194706 0 0.0010955936327942089 0.032387083635653853 0 0.00018863431951124176 0.031582873402123943 0 0.0018340581179235762 0.031489812509053014 0 0.0010955936327942089 0.032387083635653853 0 0.0018340581179235762 0.031489812509053014 0 0.0019455192194211032 0.032205624650194706 0 0.0010955936327942089 0.032387083635653853 0 0.00018863431951124176 0.031582873402123943 0 0.00020984006606517602 0.032432685544903916 0 0.0001884575129621783 0.032211648752831765 0 0.00018863431951124176 0.031582873402123943 0 0.0010955936327942089 0.032387083635653853 0 0.00020984006606517602 0.032432685544903916 0 0.0010955936327942089 0.032387083635653853 0 0.00046593460442605504 0.033156386000212028 0 0.00020984006606517602 0.032432685544903916 0 0.00054576797778113726 0.030477608741354783 0 0.00080844503358867717 0.02913537289411703 0 0.0011208497850418349 0.029700002027874504 0 0.00054576797778113726 0.030477608741354783 0 0.0017648106316510007 0.029910981213397695 0 0.0011208497850418349 0.029700002027874504 0 0.002251926860401867 0.032738010481459967 0 0.0010955936327942089 0.032387083635653853 0 0.00046593460442605504 0.033156386000212028 0 0.00095366457207463463 0.026852661532492904 0 0.00077991743829058924 0.028186031524444297 0 0.001020846702753087 0.025422133364761658 0 0.000799022879064802 0.026758574345241901 0 0.001216045157873337 0.026293352264679434 0 0.00095366457207463463 0.026852661532492904 0 0.0010725661360315795 0.032264410461724784 0 0.00012766058780120534 0.032944513286281445 0 8.0865720771380303e-05 0.032699641437545203 0 5.5099339519628067e-06 0.033093250312072151 0 0.00012766058780120534 0.032944513286281445 0 5.5099339519628067e-06 0.033093250312072151 0 0.00010984337339618638 0.033296190397367149 0 0.00046593460442605504 0.033156386000212028 0 0.00012766058780120534 0.032944513286281445 0 0.00020984006606517602 0.032432685544903916 0 0.00046593460442605504 0.033156386000212028 0 0.00012766058780120534 0.032944513286281445 0 0.00010984337339618638 0.033296190397367149 0 0.00020984006606517602 0.032432685544903916 0 8.0865720771380303e-05 0.032699641437545203 0 0.0001884575129621783 0.032211648752831765 0 0.00012766058780120534 0.032944513286281445 0 0.00020984006606517602 0.032432685544903916 0 8.0865720771380303e-05 0.032699641437545203 0 8.0865720771380303e-05 0.032699641437545203 0 7.1070791174177315e-05 0.03259515700052653 0 0.0001884575129621783 0.032211648752831765 0 7.1070791174177315e-05 0.03259515700052653 0 0.0001884575129621783 0.032211648752831765 0 0.00017065588970430602 0.0323902531148249 0 -0.00014634670446036141 0.029865593623096875 0 0.00087310418347171155 0.032718005525057575 0 0.00011837636655615746 0.032250278916419892 0 0.0001884575129621783 0.032211648752831765 0 0.00017065588970430602 0.0323902531148249 0 7.1070791174177315e-05 0.03259515700052653 0 0.00017065588970430602 0.0323902531148249 0 4.8818486335904463e-05 0.032593041394192876 0 0.00087310418347171155 0.032718005525057575 0 0.00028650881281336559 0.03266687436542038 0 0.00085781578929557567 0.032314788159604389 0 0.0011236276034294883 0.032753088800483214 0 0.00060501780663622994 0.03277232005937749 0 0.00028650881281336559 0.03266687436542038 0 6.8401056553610967e-05 0.032722181142328804 0 1.3861218903196818e-05 0.032738034683443336 0 -8.020988840400573e-06 0.032760731038771265 0 -0.00017068268202774875 0.032959739205979194 0 4.8818486335904463e-05 0.032593041394192876 0 1.3861218903196818e-05 0.032738034683443336 0 -8.020988840400573e-06 0.032760731038771265 0 0.00060501780663622994 0.03277232005937749 0 1.3861218903196818e-05 0.032738034683443336 0 0.00029062380977403071 0.032418593492081038 0 -8.020988840400573e-06 0.032760731038771265 0 -8.3935034918307492e-05 0.03306546741040315 0 -0.00017068268202774875 0.032959739205979194 0 7.1070791174177315e-05 0.03259515700052653 0 4.8818486335904463e-05 0.032593041394192876 0 -8.020988840400573e-06 0.032760731038771265 0 7.1070791174177315e-05 0.03259515700052653 0 -8.020988840400573e-06 0.032760731038771265 0 -8.3935034918307492e-05 0.03306546741040315 0 8.0865720771380303e-05 0.032699641437545203 0 -8.3935034918307492e-05 0.03306546741040315 0 5.5099339519628067e-06 0.033093250312072151 0 8.0865720771380303e-05 0.032699641437545203 0 7.1070791174177315e-05 0.03259515700052653 0 -8.3935034918307492e-05 0.03306546741040315 0 -8.3935034918307492e-05 0.03306546741040315 0 -0.00022219986043282717 0.033440512442681383 0 -0.00028994163756836512 0.03333485754660194 0 -8.3935034918307492e-05 0.03306546741040315 0 -0.00022219986043282717 0.033440512442681383 0 -0.00010615640333281465 0.033375977344255216 0 -8.3935034918307492e-05 0.03306546741040315 0 5.5099339519628067e-06 0.033093250312072151 0 -0.00010615640333281465 0.033375977344255216 0 -0.00028994163756836512 0.03333485754660194 0 -0.00059246885962587056 0.033513817445412215 0 -0.00036553528255510448 0.033726941999268366 0 -0.00022219986043282717 0.033440512442681383 0 -0.00028994163756836512 0.03333485754660194 0 -0.00036553528255510448 0.033726941999268366 0 -8.3935034918307492e-05 0.03306546741040315 0 -0.00028994163756836512 0.03333485754660194 0 -0.00017068268202774875 0.032959739205979194 0 -0.00028994163756836512 0.03333485754660194 0 -0.00040759062850141692 0.033178034268592151 0 -0.00059246885962587056 0.033513817445412215 0 -0.00040759062850141692 0.033178034268592151 0 -0.00017068268202774875 0.032959739205979194 0 -0.00043044024520530656 0.032856376811101637 0 -0.00040759062850141692 0.033178034268592151 0 -0.00043044024520530656 0.032856376811101637 0 -0.00060715775333724598 0.033181367918486686 0 -0.00028994163756836512 0.03333485754660194 0 -0.00040759062850141692 0.033178034268592151 0 -0.00017068268202774875 0.032959739205979194 0 1.3861218903196818e-05 0.032738034683443336 0 -0.00017068268202774875 0.032959739205979194 0 -0.00019489375290289421 0.032616974206019514 0 -0.00017068268202774875 0.032959739205979194 0 -0.00043044024520530656 0.032856376811101637 0 -0.00019489375290289421 0.032616974206019514 0 -0.00043044024520530656 0.032856376811101637 0 -0.00045192174018230432 0.032478111548747059 0 -0.00019489375290289421 0.032616974206019514 0 -0.00043044024520530656 0.032856376811101637 0 -0.00045192174018230432 0.032478111548747059 0 -0.00073628519174698509 0.032747581637217638 0 -0.00045192174018230432 0.032478111548747059 0 -0.00034542346528189822 0.031777186106927695 0 -0.00074777023215016924 0.032292771239991212 0 -0.00045192174018230432 0.032478111548747059 0 -3.053336686752006e-05 0.032180896149453013 0 -0.00034542346528189822 0.031777186106927695 0 -0.00045192174018230432 0.032478111548747059 0 -3.053336686752006e-05 0.032180896149453013 0 -0.00019489375290289421 0.032616974206019514 0 1.3861218903196818e-05 0.032738034683443336 0 -0.00019489375290289421 0.032616974206019514 0 0.00029062380977403071 0.032418593492081038 0 -3.053336686752006e-05 0.032180896149453013 0 -0.00019489375290289421 0.032616974206019514 0 0.00029062380977403071 0.032418593492081038 0 0.00085781578929557567 0.032314788159604389 0 0.00060501780663622994 0.03277232005937749 0 0.00029062380977403071 0.032418593492081038 0 0.00085781578929557567 0.032314788159604389 0 0.00029062380977403071 0.032418593492081038 0 0.00048398253996669765 0.031959925842164179 0 0.00098058966429343409 0.031879639423104157 0 0.00085781578929557567 0.032314788159604389 0 0.00048398253996669765 0.031959925842164179 0 -3.053336686752006e-05 0.032180896149453013 0 0.00029062380977403071 0.032418593492081038 0 0.00048398253996669765 0.031959925842164179 0 -3.053336686752006e-05 0.032180896149453013 0 0.00048398253996669765 0.031959925842164179 0 8.4692265787328827e-05 0.0317803285213379 0 0.00048398253996669765 0.031959925842164179 0 8.4692265787328827e-05 0.0317803285213379 0 0.00040454664589288376 0.031565254056795347 0 8.4692265787328827e-05 0.0317803285213379 0 0.00040454664589288376 0.031565254056795347 0 7.9926170667760137e-05 0.031374180859413812 0 0.00083195761286749864 0.031549793847446037 0 0.00048398253996669765 0.031959925842164179 0 0.00040454664589288376 0.031565254056795347 0 0.00083195761286749864 0.031549793847446037 0 0.00098058966429343409 0.031879639423104157 0 0.00048398253996669765 0.031959925842164179 0 0.00083195761286749864 0.031549793847446037 0 0.00040454664589288376 0.031565254056795347 0 0.00062518630223408543 0.031122830982190597 0 0.00040454664589288376 0.031565254056795347 0 0.00062518630223408543 0.031122830982190597 0 7.9926170667760137e-05 0.031374180859413812 0 0.00017266737100116907 0.030861921320533517 0 7.9926170667760137e-05 0.031374180859413812 0 -0.00025935054491640159 0.031094349888781438 0 0.00017266737100116907 0.030861921320533517 0 0.00062518630223408543 0.031122830982190597 0 7.9926170667760137e-05 0.031374180859413812 0 7.9926170667760137e-05 0.031374180859413812 0 -0.00025935054491640159 0.031094349888781438 0 -0.00034542346528189822 0.031777186106927695 0 -0.00061621614998458828 0.030795119852587267 0 -0.00025935054491640159 0.031094349888781438 0 -0.00065150722275713127 0.0312254138346044 0 -0.00025935054491640159 0.031094349888781438 0 -0.00065150722275713127 0.0312254138346044 0 -0.00034542346528189822 0.031777186106927695 0 -0.000995430334307591 0.031006175611434181 0 -0.00065150722275713127 0.0312254138346044 0 -0.00094585874449878635 0.031316351409557242 0 -0.000995430334307591 0.031006175611434181 0 -0.00061621614998458828 0.030795119852587267 0 -0.00065150722275713127 0.0312254138346044 0 -0.00065150722275713127 0.0312254138346044 0 -0.00082689061366849053 0.031633093908148308 0 -0.00094585874449878635 0.031316351409557242 0 -0.00034542346528189822 0.031777186106927695 0 -0.00082689061366849053 0.031633093908148308 0 -0.00074777023215016924 0.032292771239991212 0 -0.00065150722275713127 0.0312254138346044 0 -0.00034542346528189822 0.031777186106927695 0 -0.00082689061366849053 0.031633093908148308 0 8.4692265787328827e-05 0.0317803285213379 0 7.9926170667760137e-05 0.031374180859413812 0 -0.00034542346528189822 0.031777186106927695 0 -3.053336686752006e-05 0.032180896149453013 0 8.4692265787328827e-05 0.0317803285213379 0 -0.00034542346528189822 0.031777186106927695 0 -0.0012230110559077062 0.032655014544650106 0 -0.0013688275035617604 0.031283199233891931 0 -0.00047492470906778972 0.034033129049949651 0 -0.00055463467222178207 0.034310689319228885 0 -0.00041599251021908731 0.034302831882979612 0 -0.0017080801391449927 0.032093985613459407 0 -0.001261928926617822 0.031373386277504176 0 -0.001594667473565756 0.031411924998743609 0 -0.001763663451302743 0.032111796600457529 0 -0.00118333793559292 0.031872432058987238 0 -0.001261928926617822 0.031373386277504176 0 -0.0018058183285960712 0.032075709636087787 0 -0.0017080801391449927 0.032093985613459407 0 -0.001594667473565756 0.031411924998743609 0 -0.0011163301357407333 0.03294609439119113 0 -0.0010415532725340968 0.032829225768137391 0 -0.0011163301357407333 0.03294609439119113 0 -0.0012230110559077062 0.032655014544650106 0 -0.00118333793559292 0.031872432058987238 0 -0.00082689061366849053 0.031633093908148308 0 -0.00074777023215016924 0.032292771239991212 0 -0.001763663451302743 0.032111796600457529 0 -0.00118333793559292 0.031872432058987238 0 -0.00074777023215016924 0.032292771239991212 0 -0.00118333793559292 0.031872432058987238 0 -0.00082689061366849053 0.031633093908148308 0 -0.001261928926617822 0.031373386277504176 0 -0.0013960729088667045 0.030816435530223292 0 -0.000995430334307591 0.031006175611434181 0 -0.001261928926617822 0.031373386277504176 0 -0.00082689061366849053 0.031633093908148308 0 -0.001261928926617822 0.031373386277504176 0 -0.00094585874449878635 0.031316351409557242 0 -0.000995430334307591 0.031006175611434181 0 -0.001261928926617822 0.031373386277504176 0 -0.00094585874449878635 0.031316351409557242 0 -0.00063623510739940401 0.034527743416011301 0 -0.00047975735309334849 0.034366072288091409 0 -0.0004019889049651931 0.034416533928023747 0 -0.0013960729088667045 0.030816435530223292 0 -0.001261928926617822 0.031373386277504176 0 -0.001594667473565756 0.031411924998743609 0 -0.0016183773774286465 0.032815921269509177 0 -0.0010415532725340968 0.032829225768137391 0 -0.00063623510739940401 0.034527743416011301 0 -0.00055463467222178207 0.034310689319228885 0 -0.00047975735309334849 0.034366072288091409 0 -0.00055463467222178207 0.034310689319228885 0 -0.00047975735309334849 0.034366072288091409 0 -0.00041599251021908731 0.034302831882979612 0 -0.00028563914864046823 0.03452467098665752 0 -0.0004019889049651931 0.034416533928023747 0 -0.00030474937489461274 0.034378341640037842 0 -0.00030474937489461274 0.034378341640037842 0 -0.00041599251021908731 0.034302831882979612 0 -0.00025557173136109322 0.034278376647570295 0 -0.0004019889049651931 0.034416533928023747 0 -0.00030474937489461274 0.034378341640037842 0 -0.00041599251021908731 0.034302831882979612 0 -0.00047975735309334849 0.034366072288091409 0 -0.0004019889049651931 0.034416533928023747 0 -0.00041599251021908731 0.034302831882979612 0 -0.00028563914864046823 0.03452467098665752 0 -0.00030474937489461274 0.034378341640037842 0 -0.00017079166872114681 0.034369626770924949 0 -0.00030474937489461274 0.034378341640037842 0 -0.00017079166872114681 0.034369626770924949 0 -0.00025557173136109322 0.034278376647570295 0 -0.00055061926935739026 0.034289599201531795 0 -0.00031676334316420443 0.034834061770884918 0 -0.00017079166872114681 0.034369626770924949 0 -0.00025557173136109322 0.034278376647570295 0 -2.5348135269726008e-05 0.034223792191924514 0 -0.00095541591546611203 0.035259935555120941 0 -0.00071228146082041594 0.035158727463037547 0 -0.00059494590840445066 0.035329377130601358 0 -0.00025557173136109322 0.034278376647570295 0 -0.00034847219937779152 0.034145020732389293 0 -2.5348135269726008e-05 0.034223792191924514 0 -0.00047492470906778972 0.034033129049949651 0 -0.00041599251021908731 0.034302831882979612 0 -0.00033105568620825463 0.034062630403449166 0 -0.00038234726807108806 0.034204706410141658 0 -0.00055061926935739026 0.034289599201531795 0 -0.00041599251021908731 0.034302831882979612 0 -0.00025557173136109322 0.034278376647570295 0 -0.00034847219937779152 0.034145020732389293 0 -0.0011163301357407333 0.03294609439119113 0 -0.00055061926935739026 0.034289599201531795 0 -0.0012230110559077062 0.032655014544650106 0 -0.00096779277840606051 0.033312602685558336 0 -0.00055061926935739026 0.034289599201531795 0 -0.0010163834117946236 0.034481615689596637 0 -0.00083308871198908255 0.033530453438052416 0 -0.00080096392480669858 0.033535940835451306 0 -0.00096803145976599573 0.033790649787258542 0 -0.00094166990055728501 0.033512008172237574 0 -0.0010387194251204792 0.033778012870919576 0 -0.00096803145976599573 0.033790649787258542 0 -0.00083308871198908255 0.033530453438052416 0 -0.00094166990055728501 0.033512008172237574 0 -0.00096803145976599573 0.033790649787258542 0 -0.00071228146082041594 0.035158727463037547 0 -0.00087635361065010466 0.035002285105832691 0 -0.00057863435854082828 0.035032402188088244 0 -0.00095541591546611203 0.035259935555120941 0 -0.00071228146082041594 0.035158727463037547 0 -0.00087635361065010466 0.035002285105832691 0 -0.00087635361065010466 0.035002285105832691 0 -0.00066553992774005669 0.034854056274877615 0 -0.00057863435854082828 0.035032402188088244 0 -0.0010387194251204792 0.033778012870919576 0 -0.00096803145976599573 0.033790649787258542 0 -0.0011347584301779068 0.034039568204551569 0 -0.0010542958425425076 0.032856732413122078 0 -0.00073628519174698509 0.032747581637217638 0 -0.00081549075134472405 0.033197726325606483 0 -0.0009483206506530153 0.032413684303047877 0 -0.0010542958425425076 0.032856732413122078 0 -0.00073628519174698509 0.032747581637217638 0 -0.0012230110559077062 0.032655014544650106 0 -0.00084496657623639101 0.032215860929983763 0 -0.0009483206506530153 0.032413684303047877 0 -0.00074777023215016924 0.032292771239991212 0 -0.00073628519174698509 0.032747581637217638 0 -0.00045192174018230432 0.032478111548747059 0 -0.00074777023215016924 0.032292771239991212 0 -0.00073628519174698509 0.032747581637217638 0 -0.00073628519174698509 0.032747581637217638 0 -0.00081549075134472405 0.033197726325606483 0 -0.00060715775333724598 0.033181367918486686 0 -0.00043044024520530656 0.032856376811101637 0 -0.00073628519174698509 0.032747581637217638 0 -0.00060715775333724598 0.033181367918486686 0 -0.00081549075134472405 0.033197726325606483 0 -0.00076099508911143751 0.033483230457776292 0 -0.000886115162870912 0.03363661665405028 0 -0.00081549075134472405 0.033197726325606483 0 -0.00076099508911143751 0.033483230457776292 0 -0.00060715775333724598 0.033181367918486686 0 -0.00040759062850141692 0.033178034268592151 0 -0.00060715775333724598 0.033181367918486686 0 -0.00059246885962587056 0.033513817445412215 0 -0.00076099508911143751 0.033483230457776292 0 -0.00060715775333724598 0.033181367918486686 0 -0.00059246885962587056 0.033513817445412215 0 -0.00076099508911143751 0.033483230457776292 0 -0.00059246885962587056 0.033513817445412215 0 -0.0008442123519192045 0.0337693652628097 0 -0.00059246885962587056 0.033513817445412215 0 -0.0008442123519192045 0.0337693652628097 0 -0.00069770453133805911 0.033797683496852624 0 -0.00059246885962587056 0.033513817445412215 0 -0.00069770453133805911 0.033797683496852624 0 -0.00036553528255510448 0.033726941999268366 0 -0.00036652442054101766 0.034315833883109693 0 -0.00048494186332874841 0.034125385176455601 0 -0.00083071507465807095 0.034017777012055848 0 -0.00063522303220424033 0.034053664701902506 0 -0.00085723066119651871 0.033889404821414774 0 -0.0008442123519192045 0.0337693652628097 0 -0.00083071507465807095 0.034017777012055848 0 -0.00085723066119651871 0.033889404821414774 0 -0.0008442123519192045 0.0337693652628097 0 -0.00085723066119651871 0.033889404821414774 0 -0.00069770453133805911 0.033797683496852624 0 -0.0008442123519192045 0.0337693652628097 0 -0.00090528381420178173 0.033920025135173497 0 -0.000886115162870912 0.03363661665405028 0 -0.0008442123519192045 0.0337693652628097 0 -0.00083071507465807095 0.034017777012055848 0 -0.00090528381420178173 0.033920025135173497 0 -0.00083071507465807095 0.034017777012055848 0 -0.00083574120310065791 0.034064378206679236 0 -0.00090528381420178173 0.033920025135173497 0 -0.00083071507465807095 0.034017777012055848 0 -0.00083574120310065791 0.034064378206679236 0 -0.00071003161479857345 0.034203991201927665 0 -0.00083574120310065791 0.034064378206679236 0 -0.00085434341973097212 0.034105298184484809 0 -0.00090528381420178173 0.033920025135173497 0 -0.00085434341973097212 0.034105298184484809 0 -0.00092259591166670406 0.034075911496682237 0 -0.00090528381420178173 0.033920025135173497 0 -0.00085434341973097212 0.034105298184484809 0 -0.00092259591166670406 0.034075911496682237 0 -0.00078235203619127247 0.034240173043709396 0 -0.00090528381420178173 0.033920025135173497 0 -0.00095980220435621418 0.033705966592039005 0 -0.000886115162870912 0.03363661665405028 0 -0.00092259591166670406 0.034075911496682237 0 -0.00090528381420178173 0.033920025135173497 0 -0.00095980220435621418 0.033705966592039005 0 -0.0010156027281369793 0.034037821607190058 0 -0.00082626898254719032 0.034248733248107559 0 -0.00092259591166670406 0.034075911496682237 0 -0.00095980220435621418 0.033705966592039005 0 -0.0011308745493132382 0.033477812675368264 0 -0.00092259591166670406 0.034075911496682237 0 -0.001099410129265043 0.03392341992631856 0 -0.00078235203619127247 0.034240173043709396 0 -0.00097114419526191879 0.033909874013727297 0 -0.0010156027281369793 0.034037821607190058 0 -0.00076099508911143751 0.033483230457776292 0 -0.0008442123519192045 0.0337693652628097 0 -0.000886115162870912 0.03363661665405028 0 -0.00095980220435621418 0.033705966592039005 0 -0.000886115162870912 0.03363661665405028 0 -0.00095306731449725857 0.033327073489297733 0 -0.0010542958425425076 0.032856732413122078 0 -0.00095306731449725857 0.033327073489297733 0 -0.0011308745493132382 0.033477812675368264 0 -0.0010542958425425076 0.032856732413122078 0 -0.00081549075134472405 0.033197726325606483 0 -0.00095306731449725857 0.033327073489297733 0 -0.00081549075134472405 0.033197726325606483 0 -0.000886115162870912 0.03363661665405028 0 -0.00095306731449725857 0.033327073489297733 0 -0.0010163834117946236 0.034481615689596637 0 -0.0010156027281369793 0.034037821607190058 0 -0.00087635361065010466 0.035002285105832691 0 -0.00085873109607022269 0.034709361192628872 0 -0.00066553992774005669 0.034854056274877615 0 -0.00096779277840606051 0.033312602685558336 0 -0.0010156027281369793 0.034037821607190058 0 -0.00095980220435621418 0.033705966592039005 0 -0.00095306731449725857 0.033327073489297733 0 -0.0011308745493132382 0.033477812675368264 0 -0.00066553992774005669 0.034854056274877615 0 -0.0004770223414648074 0.034746992479582475 0 -0.00048120338587623692 0.034904236476570587 0 -0.0004770223414648074 0.034746992479582475 0 -0.00066928338066272119 0.034652314107665658 0 -0.00055418435845914376 0.034530691890550837 0 -0.00085873109607022269 0.034709361192628872 0 -0.00066553992774005669 0.034854056274877615 0 -0.00066928338066272119 0.034652314107665658 0 -0.00066553992774005669 0.034854056274877615 0 -0.0004770223414648074 0.034746992479582475 0 -0.00066928338066272119 0.034652314107665658 0 -0.0004770223414648074 0.034746992479582475 0 -0.00031303043887491108 0.034909680032943306 0 -0.00048120338587623692 0.034904236476570587 0 -0.0004770223414648074 0.034746992479582475 0 -0.00025791474633990777 0.034798666891607787 0 -0.00038951829528599644 0.034604362187189208 0 -0.0004770223414648074 0.034746992479582475 0 -0.00025791474633990777 0.034798666891607787 0 -0.00031303043887491108 0.034909680032943306 0 -0.00025791474633990777 0.034798666891607787 0 -0.00038951829528599644 0.034604362187189208 0 -0.00018909166581820863 0.034739362440518951 0 -0.0004770223414648074 0.034746992479582475 0 -0.00038951829528599644 0.034604362187189208 0 -0.00055418435845914376 0.034530691890550837 0 -0.00038951829528599644 0.034604362187189208 0 -0.00055307877536581857 0.034375665657179096 0 -0.00030183350505730999 0.034552596612393002 0 -0.00038951829528599644 0.034604362187189208 0 -0.00030183350505730999 0.034552596612393002 0 -0.00018909166581820863 0.034739362440518951 0 -0.00085873109607022269 0.034709361192628872 0 -0.00066928338066272119 0.034652314107665658 0 -0.00078235203619127247 0.034240173043709396 0 -0.00066928338066272119 0.034652314107665658 0 -0.00055418435845914376 0.034530691890550837 0 -0.00078235203619127247 0.034240173043709396 0 -0.00055418435845914376 0.034530691890550837 0 -0.00055307877536581857 0.034375665657179096 0 -0.00078235203619127247 0.034240173043709396 0 -0.00038951829528599644 0.034604362187189208 0 -0.00055418435845914376 0.034530691890550837 0 -0.00055307877536581857 0.034375665657179096 0 -0.00085434341973097212 0.034105298184484809 0 -0.00078235203619127247 0.034240173043709396 0 -0.00071003161479857345 0.034203991201927665 0 -0.00055307877536581857 0.034375665657179096 0 -0.00078235203619127247 0.034240173043709396 0 -0.00071003161479857345 0.034203991201927665 0 -0.00083574120310065791 0.034064378206679236 0 -0.00085434341973097212 0.034105298184484809 0 -0.00071003161479857345 0.034203991201927665 0 -0.00083071507465807095 0.034017777012055848 0 -0.00071003161479857345 0.034203991201927665 0 -0.00055244583150066112 0.034282737815838099 0 -0.00055307877536581857 0.034375665657179096 0 -0.00071003161479857345 0.034203991201927665 0 -0.00055244583150066112 0.034282737815838099 0 -0.00055307877536581857 0.034375665657179096 0 -0.00055244583150066112 0.034282737815838099 0 -0.00030183350505730999 0.034552596612393002 0 -0.00055244583150066112 0.034282737815838099 0 -0.00030183350505730999 0.034552596612393002 0 -0.00013829099704659902 0.034631251043314625 0 -0.00036652442054101766 0.034315833883109693 0 -0.00017224544299853189 0.034570069630505205 0 -0.00055244583150066112 0.034282737815838099 0 -0.00063522303220424033 0.034053664701902506 0 -0.00013829099704659902 0.034631251043314625 0 -0.00083071507465807095 0.034017777012055848 0 -0.00055244583150066112 0.034282737815838099 0 -0.00063522303220424033 0.034053664701902506 0 -8.1736836849041381e-08 0.03499955998519632 0 -0.00013829099704659902 0.034631251043314625 0 -0.00010070177120005809 0.034785066032121129 0 -0.00030183350505730999 0.034552596612393002 0 -0.00010070177120005809 0.034785066032121129 0 -0.00018909166581820863 0.034739362440518951 0 -0.00030183350505730999 0.034552596612393002 0 -0.00013829099704659902 0.034631251043314625 0 -0.00010070177120005809 0.034785066032121129 0 -8.1736836849041381e-08 0.03499955998519632 0 -0.00010070177120005809 0.034785066032121129 0 -4.9969553696906902e-08 0.034999704708418754 0 -0.00010070177120005809 0.034785066032121129 0 -4.9969553696906902e-08 0.034999704708418754 0 -0.00018909166581820863 0.034739362440518951 0 -4.9969553696906902e-08 0.034999704708418754 0 -0.00018909166581820863 0.034739362440518951 0 -0.00010083957609843019 0.034900154175548044 0 -0.00025791474633990777 0.034798666891607787 0 -0.00018909166581820863 0.034739362440518951 0 -0.00010083957609843019 0.034900154175548044 0 -0.00025791474633990777 0.034798666891607787 0 -0.00014525981581221052 0.034957326270418664 0 -0.00031303043887491108 0.034909680032943306 0 -0.00025791474633990777 0.034798666891607787 0 -0.00010083957609843019 0.034900154175548044 0 -0.00014525981581221052 0.034957326270418664 0 -0.00010083957609843019 0.034900154175548044 0 -5.8773489637360211e-08 0.035000001817244455 0 -0.00014525981581221052 0.034957326270418664 0 -4.9969553696906902e-08 0.034999704708418754 0 -0.00010083957609843019 0.034900154175548044 0 -5.8773489637360211e-08 0.035000001817244455 0 -5.8773489637360211e-08 0.035000001817244455 0 -5.8869577307323733e-05 0.035016852050725328 0 -1.0804019659427677e-06 0.035006424062130032 0 -5.8773489637360211e-08 0.035000001817244455 0 -5.8869577307323733e-05 0.035016852050725328 0 -0.00014525981581221052 0.034957326270418664 0 -5.8773489637360211e-08 0.035000001817244455 0 -1.0804019659427677e-06 0.035006424062130032 0 -8.0130487320046578e-09 0.03500010482130924 0 -5.8869577307323733e-05 0.035016852050725328 0 -9.0276231366855471e-05 0.035075231178960851 0 -0.00014927123114565993 0.035040741515125172 0 -5.8869577307323733e-05 0.035016852050725328 0 -9.0276231366855471e-05 0.035075231178960851 0 -1.0804019659427677e-06 0.035006424062130032 0 -9.0276231366855471e-05 0.035075231178960851 0 -1.0804019659427677e-06 0.035006424062130032 0 -9.0495312973709591e-05 0.035216758729744259 0 -1.0804019659427677e-06 0.035006424062130032 0 -8.0130487320046578e-09 0.03500010482130924 0 -6.3516685836077239e-06 0.034990596202488004 0 2.7132428730928214e-06 0.035024229523021554 0 -9.3600673697434738e-05 0.035127764399274578 0 -0.00021274061801863711 0.035156831297810304 0 -0.00014927123114565993 0.035040741515125172 0 -0.00031566787180747641 0.035022534872580238 0 -9.0276231366855471e-05 0.035075231178960851 0 -0.00021274061801863711 0.035156831297810304 0 -9.0495312973709591e-05 0.035216758729744259 0 -9.0276231366855471e-05 0.035075231178960851 0 -0.00021274061801863711 0.035156831297810304 0 -0.00014927123114565993 0.035040741515125172 0 -0.00014927123114565993 0.035040741515125172 0 -0.00014525981581221052 0.034957326270418664 0 -0.00031566787180747641 0.035022534872580238 0 -5.8869577307323733e-05 0.035016852050725328 0 -0.00014927123114565993 0.035040741515125172 0 -0.00014525981581221052 0.034957326270418664 0 -0.00014525981581221052 0.034957326270418664 0 -0.00031303043887491108 0.034909680032943306 0 -0.00031566787180747641 0.035022534872580238 0 -0.00031566787180747641 0.035022534872580238 0 -0.00048120338587623692 0.034904236476570587 0 -0.00057863435854082828 0.035032402188088244 0 -0.00031303043887491108 0.034909680032943306 0 -0.00031566787180747641 0.035022534872580238 0 -0.00048120338587623692 0.034904236476570587 0 -0.00066553992774005669 0.034854056274877615 0 -0.00048120338587623692 0.034904236476570587 0 -0.00057863435854082828 0.035032402188088244 0 -0.00071228146082041594 0.035158727463037547 0 -0.00057863435854082828 0.035032402188088244 0 -0.00057256374291093557 0.035169295862429235 0 -0.00057863435854082828 0.035032402188088244 0 -0.00057256374291093557 0.035169295862429235 0 -0.00040333871910303834 0.035162860045827089 0 -0.00057256374291093557 0.035169295862429235 0 -0.00040333871910303834 0.035162860045827089 0 -0.00059494590840445066 0.035329377130601358 0 -0.00071228146082041594 0.035158727463037547 0 -0.00057256374291093557 0.035169295862429235 0 -0.00059494590840445066 0.035329377130601358 0 -0.00021274061801863711 0.035156831297810304 0 -0.00040333871910303834 0.035162860045827089 0 -0.00036056831930774135 0.035253226375386727 0 -0.00031566787180747641 0.035022534872580238 0 -0.00057863435854082828 0.035032402188088244 0 -0.00040333871910303834 0.035162860045827089 0 -0.00021274061801863711 0.035156831297810304 0 -0.00031566787180747641 0.035022534872580238 0 -0.00040333871910303834 0.035162860045827089 0 -0.00040333871910303834 0.035162860045827089 0 -0.00036056831930774135 0.035253226375386727 0 -0.00059494590840445066 0.035329377130601358 0 -0.00031676334316420443 0.034834061770884918 0 -2.8971969603274038e-05 0.034834358360611516 0 -0.00036056831930774135 0.035253226375386727 0 -0.00059494590840445066 0.035329377130601358 0 -0.00023257991934016672 0.035364689857821589 0 -0.00017079166872114681 0.034369626770924949 0 -2.5348135269726008e-05 0.034223792191924514 0 9.0528151833468973e-05 0.034445406657053833 0 3.1683049895809152e-05 0.034639239071132095 0 -2.8971969603274038e-05 0.034834358360611516 0 -9.4260035263626595e-05 0.034906775107425216 0 -4.0600074888524151e-05 0.03495194794520784 0 -4.337051407513546e-05 0.034937276066614745 0 -2.5348135269726008e-05 0.034223792191924514 0 9.0528151833468973e-05 0.034445406657053833 0 0.0002787840901629952 0.034297383911643317 0 -4.0600074888524151e-05 0.03495194794520784 0 -1.4748419583528502e-05 0.034974261734347104 0 -4.337051407513546e-05 0.034937276066614745 0 -4.0600074888524151e-05 0.03495194794520784 0 -2.216948791400473e-08 0.034999898105356066 0 -1.4748419583528502e-05 0.034974261734347104 0 -2.216948791400473e-08 0.034999898105356066 0 -1.4748419583528502e-05 0.034974261734347104 0 -8.0130487320046578e-09 0.03500010482130924 0 -1.4748419583528502e-05 0.034974261734347104 0 -8.0130487320046578e-09 0.03500010482130924 0 -6.3516685836077239e-06 0.034990596202488004 0 -0.00021274061801863711 0.035156831297810304 0 -0.00036056831930774135 0.035253226375386727 0 -0.00023257991934016672 0.035364689857821589 0 -0.00021274061801863711 0.035156831297810304 0 -9.0495312973709591e-05 0.035216758729744259 0 -0.00023257991934016672 0.035364689857821589 0 -1.4748419583528502e-05 0.034974261734347104 0 -6.3516685836077239e-06 0.034990596202488004 0 3.9099132242222802e-06 0.034976967184889463 0 -6.1686844231104385e-06 0.034950534041052181 0 -2.8971969603274038e-05 0.034834358360611516 0 -9.3600673697434738e-05 0.035127764399274578 0 -2.8971969603274038e-05 0.034834358360611516 0 -6.112146295023247e-06 0.034953883814788547 0 4.5555509244730467e-07 0.03490625852733277 0 1.6169853792220365e-05 0.034961003231514895 0 -6.112146295023247e-06 0.034953883814788547 0 4.5555509244730467e-07 0.03490625852733277 0 -2.3586990153568221e-05 0.034914451162106439 0 -6.112146295023247e-06 0.034953883814788547 0 -3.5380473447291324e-08 0.034999935449985489 0 -2.3586990153568221e-05 0.034914451162106439 0 -6.112146295023247e-06 0.034953883814788547 0 -3.5380473447291324e-08 0.034999935449985489 0 1.6568230957079247e-06 0.034984010774952182 0 -3.5380473447291324e-08 0.034999935449985489 0 1.6568230957079247e-06 0.034984010774952182 0 6.5397447359134921e-09 0.035000000437035939 0 -6.112146295023247e-06 0.034953883814788547 0 1.6568230957079247e-06 0.034984010774952182 0 1.6169853792220365e-05 0.034961003231514895 0 3.9411616330177283e-05 0.034975682571080184 0 1.6169853792220365e-05 0.034961003231514895 0 6.8779453994816784e-05 0.034934123737043715 0 4.282188243985053e-05 0.034429651009280762 0 -2.2752959810591593e-05 0.034406929154528844 0 4.2678883840320227e-05 0.034541649142050226 0 1.6568230957079247e-06 0.034984010774952182 0 3.9411616330177283e-05 0.034975682571080184 0 1.6169853792220365e-05 0.034961003231514895 0 4.0541215704155618e-05 0.034751533866747251 0 3.9953040625794655e-05 0.034623479770088804 0 -5.0376541337083876e-05 0.034079589284089683 0 -3.1245028532523651e-05 0.034069294963490898 0 -7.5695057594100333e-05 0.034146719749595031 0 3.3260400354918207e-05 0.033968700069935936 0 2.9684585923784594e-05 0.033760078500269089 0 3.3260400354918207e-05 0.033968700069935936 0 3.9953040625794655e-05 0.034623479770088804 0 -3.1245028532523651e-05 0.034069294963490898 0 -0.00016309463552026762 0.034166260773196525 0 -7.5695057594100333e-05 0.034146719749595031 0 4.5555509244730467e-07 0.03490625852733277 0 6.8779453994816784e-05 0.034934123737043715 0 -1.2288140569812616e-05 0.034764487235838776 0 3.9953040625794655e-05 0.034623479770088804 0 3.8011638177857428e-05 0.034900652411702093 0 4.5555509244730467e-07 0.03490625852733277 0 1.6169853792220365e-05 0.034961003231514895 0 6.8779453994816784e-05 0.034934123737043715 0 3.9953040625794655e-05 0.034623479770088804 0 3.4642188082751425e-05 0.034565461539479571 0 0.00010838532280668179 0.034997928309328775 0 -1.2288140569812616e-05 0.034764487235838776 0 3.4221839082070999e-05 0.034596974450013127 0 -0.00016309463552026762 0.034166260773196525 0 -0.00013983174892017418 0.034485024438002387 0 3.4221839082070999e-05 0.034596974450013127 0 -3.1245028532523651e-05 0.034069294963490898 0 -0.00016309463552026762 0.034166260773196525 0 3.4221839082070999e-05 0.034596974450013127 0 -0.00013983174892017418 0.034485024438002387 0 -0.0001065579556786001 0.034578297717787629 0 3.4221839082070999e-05 0.034596974450013127 0 -0.0001065579556786001 0.034578297717787629 0 3.4221839082070999e-05 0.034596974450013127 0 -3.5039682532405527e-05 0.034666241068433711 0 -0.00013983174892017418 0.034485024438002387 0 -0.0001065579556786001 0.034578297717787629 0 -0.00017996016560401957 0.034521988584476103 0 -1.2288140569812616e-05 0.034764487235838776 0 3.4221839082070999e-05 0.034596974450013127 0 -1.6672905444519907e-05 0.034751961535390771 0 3.4221839082070999e-05 0.034596974450013127 0 -3.5039682532405527e-05 0.034666241068433711 0 -1.6672905444519907e-05 0.034751961535390771 0 -1.6672905444519907e-05 0.034751961535390771 0 -1.9667430477674449e-05 0.034853541597950712 0 -1.5064509421801465e-05 0.034891812446920224 0 -1.2288140569812616e-05 0.034764487235838776 0 -1.6672905444519907e-05 0.034751961535390771 0 -1.9667430477674449e-05 0.034853541597950712 0 -1.2288140569812616e-05 0.034764487235838776 0 -1.9667430477674449e-05 0.034853541597950712 0 -2.3586990153568221e-05 0.034914451162106439 0 4.5555509244730467e-07 0.03490625852733277 0 -1.2288140569812616e-05 0.034764487235838776 0 -2.3586990153568221e-05 0.034914451162106439 0 -3.5380473447291324e-08 0.034999935449985489 0 -2.3586990153568221e-05 0.034914451162106439 0 -3.6118094273155701e-08 0.034999786233065523 0 -1.9667430477674449e-05 0.034853541597950712 0 -2.3586990153568221e-05 0.034914451162106439 0 -3.6118094273155701e-08 0.034999786233065523 0 -3.6118094273155701e-08 0.034999786233065523 0 -1.5064509421801465e-05 0.034891812446920224 0 -5.9329161036729737e-09 0.034999759540508615 0 -1.9667430477674449e-05 0.034853541597950712 0 -3.6118094273155701e-08 0.034999786233065523 0 -1.5064509421801465e-05 0.034891812446920224 0 -1.5064509421801465e-05 0.034891812446920224 0 -5.9329161036729737e-09 0.034999759540508615 0 -3.7498865118384739e-05 0.034773216834208781 0 -1.6672905444519907e-05 0.034751961535390771 0 -1.5064509421801465e-05 0.034891812446920224 0 -3.7498865118384739e-05 0.034773216834208781 0 -3.7498865118384739e-05 0.034773216834208781 0 -5.5117288952502483e-05 0.034819480997629423 0 -7.5531252919963136e-05 0.034680240177887144 0 -5.9329161036729737e-09 0.034999759540508615 0 -3.7498865118384739e-05 0.034773216834208781 0 -5.5117288952502483e-05 0.034819480997629423 0 -5.9329161036729737e-09 0.034999759540508615 0 -9.1818968850128323e-08 0.03499973489356166 0 -5.5117288952502483e-05 0.034819480997629423 0 -0.00013829099704659902 0.034631251043314625 0 -9.1818968850128323e-08 0.03499973489356166 0 -5.5117288952502483e-05 0.034819480997629423 0 -0.00013829099704659902 0.034631251043314625 0 -5.5117288952502483e-05 0.034819480997629423 0 -7.9417067539604255e-05 0.034651533446452568 0 -8.1736836849041381e-08 0.03499955998519632 0 -0.00013829099704659902 0.034631251043314625 0 -9.1818968850128323e-08 0.03499973489356166 0 -8.56984948451927e-05 0.03453717733922574 0 -7.9417067539604255e-05 0.034651533446452568 0 -0.00011540618147845057 0.03442752613434473 0 -8.56984948451927e-05 0.03453717733922574 0 -0.00013829099704659902 0.034631251043314625 0 -7.9417067539604255e-05 0.034651533446452568 0 -5.5117288952502483e-05 0.034819480997629423 0 -7.9417067539604255e-05 0.034651533446452568 0 -7.5531252919963136e-05 0.034680240177887144 0 -7.9417067539604255e-05 0.034651533446452568 0 -0.00011359580451391428 0.034539694081660792 0 -0.00011540618147845057 0.03442752613434473 0 -7.9417067539604255e-05 0.034651533446452568 0 -0.00011359580451391428 0.034539694081660792 0 -7.5531252919963136e-05 0.034680240177887144 0 -0.00011359580451391428 0.034539694081660792 0 -7.5531252919963136e-05 0.034680240177887144 0 -9.5117044706277584e-05 0.034606459192970764 0 -3.7498865118384739e-05 0.034773216834208781 0 -7.5531252919963136e-05 0.034680240177887144 0 -9.5117044706277584e-05 0.034606459192970764 0 -3.5039682532405527e-05 0.034666241068433711 0 -1.6672905444519907e-05 0.034751961535390771 0 -3.7498865118384739e-05 0.034773216834208781 0 -3.5039682532405527e-05 0.034666241068433711 0 -3.7498865118384739e-05 0.034773216834208781 0 -9.5117044706277584e-05 0.034606459192970764 0 -0.00011359580451391428 0.034539694081660792 0 -9.5117044706277584e-05 0.034606459192970764 0 -0.00013867721719657621 0.034543775621318627 0 -0.0001065579556786001 0.034578297717787629 0 -3.5039682532405527e-05 0.034666241068433711 0 -9.5117044706277584e-05 0.034606459192970764 0 -0.0001065579556786001 0.034578297717787629 0 -9.5117044706277584e-05 0.034606459192970764 0 -0.00013867721719657621 0.034543775621318627 0 -0.00011359580451391428 0.034539694081660792 0 -0.00015742265489928023 0.034463158762124774 0 -0.00013867721719657621 0.034543775621318627 0 -0.0001065579556786001 0.034578297717787629 0 -0.00013867721719657621 0.034543775621318627 0 -0.00017996016560401957 0.034521988584476103 0 -0.00015742265489928023 0.034463158762124774 0 -0.00013867721719657621 0.034543775621318627 0 -0.00017996016560401957 0.034521988584476103 0 -0.00015742265489928023 0.034463158762124774 0 -0.00016621579598709711 0.034435028487535949 0 -0.00017996016560401957 0.034521988584476103 0 -0.00016621579598709711 0.034435028487535949 0 -0.00010879908011348492 0.034401277962877286 0 -0.00022016818840724336 0.034520793587593614 0 -0.00015742265489928023 0.034463158762124774 0 -0.00016621579598709711 0.034435028487535949 0 -0.00015250487628839501 0.034339113624345552 0 -0.00016621579598709711 0.034435028487535949 0 -0.00014583800571958417 0.034341598574023115 0 -0.00015250487628839501 0.034339113624345552 0 -0.00016621579598709711 0.034435028487535949 0 -0.00014583800571958417 0.034341598574023115 0 -0.00010879908011348492 0.034401277962877286 0 -0.00014583800571958417 0.034341598574023115 0 -0.00015250487628839501 0.034339113624345552 0 -0.00014370698334252859 0.034183145666482714 0 -0.00015250487628839501 0.034339113624345552 0 -0.00014011185408659691 0.034407479204368353 0 -0.00014444784172609623 0.034275318643768878 0 -0.00015250487628839501 0.034339113624345552 0 -0.00014444784172609623 0.034275318643768878 0 -0.00014370698334252859 0.034183145666482714 0 -0.00011359580451391428 0.034539694081660792 0 -0.00015742265489928023 0.034463158762124774 0 -0.00014011185408659691 0.034407479204368353 0 -0.00015742265489928023 0.034463158762124774 0 -0.00015250487628839501 0.034339113624345552 0 -0.00014011185408659691 0.034407479204368353 0 -0.00011359580451391428 0.034539694081660792 0 -0.00014011185408659691 0.034407479204368353 0 -0.00011540618147845057 0.03442752613434473 0 -0.00014011185408659691 0.034407479204368353 0 -0.00011540618147845057 0.03442752613434473 0 -0.00014444784172609623 0.034275318643768878 0 -0.00011540618147845057 0.03442752613434473 0 -0.00014444784172609623 0.034275318643768878 0 -0.00014779912442457597 0.034254063488803117 0 -0.00012780772567977993 0.0343637715706804 0 -0.00014779912442457597 0.034254063488803117 0 -0.00021512045612248379 0.034128724971775756 0 -0.00011540618147845057 0.03442752613434473 0 -0.00012780772567977993 0.0343637715706804 0 -0.00014779912442457597 0.034254063488803117 0 -8.56984948451927e-05 0.03453717733922574 0 -0.00011540618147845057 0.03442752613434473 0 -0.00012780772567977993 0.0343637715706804 0 -0.00021512045612248379 0.034128724971775756 0 -0.00027784105464551204 0.033942727251600857 0 -0.00036553528255510448 0.033726941999268366 0 -0.00044473392944666514 0.033952452282849148 0 -0.00035796531135658414 0.033771207629100679 0 -0.00014779912442457597 0.034254063488803117 0 -0.00021512045612248379 0.034128724971775756 0 -0.00016665129597425124 0.034105398608655031 0 -0.00048494186332874841 0.034125385176455601 0 -0.00044473392944666514 0.033952452282849148 0 -0.00014444784172609623 0.034275318643768878 0 -0.00016665129597425124 0.034105398608655031 0 -0.00014370698334252859 0.034183145666482714 0 -0.00014444784172609623 0.034275318643768878 0 -0.00014779912442457597 0.034254063488803117 0 -0.00016665129597425124 0.034105398608655031 0 -0.00027784105464551204 0.033942727251600857 0 -0.00015756230695856895 0.033949835342962795 0 -0.00030518699508395516 0.033857986044207547 0 -0.00016665129597425124 0.034105398608655031 0 -0.00027784105464551204 0.033942727251600857 0 -0.00015756230695856895 0.033949835342962795 0 -0.00021512045612248379 0.034128724971775756 0 -0.00016665129597425124 0.034105398608655031 0 -0.00027784105464551204 0.033942727251600857 0 -0.00015756230695856895 0.033949835342962795 0 -0.00030328986732576214 0.033624030153759532 0 -0.00030518699508395516 0.033857986044207547 0 -0.00016665129597425124 0.034105398608655031 0 -0.00015756230695856895 0.033949835342962795 0 -0.00014370698334252859 0.034183145666482714 0 -0.00016899051975552057 0.033961637403127201 0 5.1711432541580563e-05 0.033763057383908009 0 -0.00015756230695856895 0.033949835342962795 0 -0.00014370698334252859 0.034183145666482714 0 -0.00010879908011348492 0.034401277962877286 0 0.0012044499486316737 0.031296797307933368 0 0.00056727122307134292 0.032766166579989764 0 0.00023967036965381403 0.032951612172088883 0 0.00051113044614368595 0.032455728371432575 0 0.0002837418930272877 0.032863958241789185 0 0.00026748118029382454 0.033074616060807534 0 -0.00030328986732576214 0.033624030153759532 0 0.00023967036965381403 0.032951612172088883 0 -0.00014583800571958417 0.034341598574023115 0 -0.00014370698334252859 0.034183145666482714 0 -0.00010879908011348492 0.034401277962877286 0 -0.00015756230695856895 0.033949835342962795 0 0.00026748118029382454 0.033074616060807534 0 -0.00030328986732576214 0.033624030153759532 0 0.0012044499486316737 0.031296797307933368 0 0.00056727122307134292 0.032766166579989764 0 0.0015638292586648331 0.032139144383540742 0 0.0006891961921274267 0.033043721302469665 0 0.00088373751871052841 0.033103318795945531 0 0.00089834744069852192 0.032779854586102122 0 0.0006891961921274267 0.033043721302469665 0 0.00056727122307134292 0.032766166579989764 0 0.00089834744069852192 0.032779854586102122 0 0.00037184200338066217 0.032845459822532889 0 0.0016866938953500608 0.03130681390975474 0 0.00066308115632261126 0.033284967975686558 0 0.00086598744087134369 0.033359457617237388 0 0.00088373751871052841 0.033103318795945531 0 0.0006891961921274267 0.033043721302469665 0 0.00066308115632261126 0.033284967975686558 0 0.00088373751871052841 0.033103318795945531 0 0.0006891961921274267 0.033043721302469665 0 0.00054020242376421116 0.03318942741171451 0 0.00066308115632261126 0.033284967975686558 0 0.00054020242376421116 0.03318942741171451 0 0.00036057575146627513 0.033231166753855013 0 0.00047093886669439974 0.033364479796023416 0 0.00054020242376421116 0.03318942741171451 0 0.00066308115632261126 0.033284967975686558 0 0.00047093886669439974 0.033364479796023416 0 0.0006891961921274267 0.033043721302469665 0 0.00054020242376421116 0.03318942741171451 0 0.00044155284759209607 0.033078663438213647 0 0.00054020242376421116 0.03318942741171451 0 0.00044155284759209607 0.033078663438213647 0 0.00036057575146627513 0.033231166753855013 0 0.00044155284759209607 0.033078663438213647 0 0.00029176138473611111 0.033119387185571815 0 0.00036057575146627513 0.033231166753855013 0 0.00044155284759209607 0.033078663438213647 0 0.00036907021077539441 0.032980435964157978 0 0.00029176138473611111 0.033119387185571815 0 0.0006891961921274267 0.033043721302469665 0 0.00044155284759209607 0.033078663438213647 0 0.00056727122307134292 0.032766166579989764 0 0.00023967036965381403 0.032951612172088883 0 0.00036907021077539441 0.032980435964157978 0 0.00029176138473611111 0.033119387185571815 0 0.00044155284759209607 0.033078663438213647 0 0.00056727122307134292 0.032766166579989764 0 0.00036907021077539441 0.032980435964157978 0 0.00056727122307134292 0.032766166579989764 0 0.00023967036965381403 0.032951612172088883 0 0.00036907021077539441 0.032980435964157978 0 0.00026748118029382454 0.033074616060807534 0 0.00023967036965381403 0.032951612172088883 0 0.00011150685820195438 0.033256576526375509 0 5.1711432541580563e-05 0.033763057383908009 0 -3.1568412740469013e-05 0.033885060904193236 0 0.00023967036965381403 0.032951612172088883 0 0.00029176138473611111 0.033119387185571815 0 0.00011150685820195438 0.033256576526375509 0 -0.00013983174892017418 0.034485024438002387 0 -0.00022016818840724336 0.034520793587593614 0 -0.00017996016560401957 0.034521988584476103 0 -0.00016621579598709711 0.034435028487535949 0 -0.00022016818840724336 0.034520793587593614 0 -0.00017996016560401957 0.034521988584476103 0 -0.0001419316923504904 0.034111486274483564 0 -3.1568412740469013e-05 0.033885060904193236 0 -0.00016309463552026762 0.034166260773196525 0 0.00011150685820195438 0.033256576526375509 0 0.00019752196080778585 0.033820107785230216 0 -0.00016309463552026762 0.034166260773196525 0 -0.00013983174892017418 0.034485024438002387 0 -0.00022016818840724336 0.034520793587593614 0 0.0002993933009612523 0.033194384209711304 0 0.00018798809092369621 0.033522228914683934 0 0.00029176138473611111 0.033119387185571815 0 0.00011150685820195438 0.033256576526375509 0 0.00019752196080778585 0.033820107785230216 0 0.00029176138473611111 0.033119387185571815 0 0.00022679932375756706 0.033250925662737359 0 0.00036057575146627513 0.033231166753855013 0 0.00036057575146627513 0.033231166753855013 0 0.00031600931837376498 0.033447393657254444 0 0.00047093886669439974 0.033364479796023416 0 0.00022679932375756706 0.033250925662737359 0 0.00036057575146627513 0.033231166753855013 0 0.00031600931837376498 0.033447393657254444 0 0.00018798809092369621 0.033522228914683934 0 2.9684585923784594e-05 0.033760078500269089 0 -0.00016309463552026762 0.034166260773196525 0 0.00019752196080778585 0.033820107785230216 0 -7.5695057594100333e-05 0.034146719749595031 0 0.00022679932375756706 0.033250925662737359 0 0.00031600931837376498 0.033447393657254444 0 0.00011122345924908824 0.033424095595644798 0 0.00031600931837376498 0.033447393657254444 0 0.00011122345924908824 0.033424095595644798 0 0.0001661953321740849 0.03357981813804934 0 -7.7633253714785072e-07 0.033586250240139941 0 0.00011122345924908824 0.033424095595644798 0 0.0001661953321740849 0.03357981813804934 0 0.00031600931837376498 0.033447393657254444 0 0.0001661953321740849 0.03357981813804934 0 0.00033816296634540911 0.033711109456009289 0 0.00031600931837376498 0.033447393657254444 0 0.00056619450327581285 0.033557514962542646 0 0.00033816296634540911 0.033711109456009289 0 0.0005149895009421803 0.031526506098533871 0 0.00075838923786436389 0.031477120766576341 0 0.00090384604895093839 0.031153664324451061 0 0.0005149895009421803 0.031526506098533871 0 0.00064357624479913201 0.031630407400016922 0 0.00075838923786436389 0.031477120766576341 0 0.00042655499226350367 0.032695682871609316 0 0.0013487402375829322 0.031435048112071165 0 0.001130127915020541 0.031710580692951434 0 0.00041391120355529804 0.029491466826652702 0 0.00064357624479913201 0.031630407400016922 0 0.00075838923786436389 0.031477120766576341 0 0.00085654136393450346 0.031668575446601122 0 0.00075838923786436389 0.031477120766576341 0 0.00084213702225632034 0.031476074136534658 0 0.0008502970606589507 0.031498943520640747 0 0.00056619450327581285 0.033557514962542646 0 0.00066308115632261126 0.033284967975686558 0 0.00086598744087134369 0.033359457617237388 0 0.00056619450327581285 0.033557514962542646 0 0.00066308115632261126 0.033284967975686558 0 0.00047093886669439974 0.033364479796023416 0 0.00031600931837376498 0.033447393657254444 0 0.00056619450327581285 0.033557514962542646 0 0.00047093886669439974 0.033364479796023416 0 0.0019137455670721348 0.027401434356935855 0 0.0016532322310071619 0.029170405596487335 0 0.0024674896483132731 0.029973391191948855 0 0.0022549537672674055 0.030000550030352836 0 0.0022994409147908622 0.029838017661945469 0 0.0021211611612588404 0.029987295613238259 0 0.0022549537672674055 0.030000550030352836 0 0.0022994409147908622 0.029838017661945469 0 0.0013487402375829322 0.031435048112071165 0 0.0026423025860811784 0.029599499953076647 0 0.0024674896483132731 0.029973391191948855 0 0.0022549537672674055 0.030000550030352836 0 0.002132817929349713 0.030203375327004039 0 0.0021211611612588404 0.029987295613238259 0 0.0022549537672674055 0.030000550030352836 0 0.002132817929349713 0.030203375327004039 0 0.0013487402375829322 0.031435048112071165 0 0.0016532322310071619 0.029170405596487335 0 0.0011363663887578659 0.025342465722147343 0 0.0012065436741356137 0.025310501652895698 0 0.001136452803961958 0.025372513022288063 0 0.00075838923786436389 0.031477120766576341 0 0.00090384604895093839 0.031153664324451061 0 0.00091272876869192329 0.03143859772488939 0 0.00075838923786436389 0.031477120766576341 0 0.00091272876869192329 0.03143859772488939 0 0.00084213702225632034 0.031476074136534658 0 0.00087664154024236262 0.031445787013579765 0 0.0008502970606589507 0.031498943520640747 0 0.00087992733657187038 0.031520935783830348 0 0.00075838923786436389 0.031477120766576341 0 0.0008502970606589507 0.031498943520640747 0 0.00085416034916395846 0.031535534626604765 0 0.0016532322310071619 0.029170405596487335 0 0.00092444571242261578 0.026192340869274303 0 0.00087664154024236262 0.031445787013579765 0 0.00084213702225632034 0.031476074136534658 0 0.0008502970606589507 0.031498943520640747 0 0.0016532322310071619 0.029170405596487335 0 0.00094933869725873923 0.030003177657051568 0 0.0008502970606589507 0.031498943520640747 0 0.00085416034916395846 0.031535534626604765 0 0.00087992733657187038 0.031520935783830348 0 0.00065945519463219532 0.02222733872527136 0 0.00092444571242261578 0.026192340869274303 0 -2.8564116299169642e-05 0.01992213620375451 0 1.2069472635477609e-05 0.019889983031019413 0 7.6915328432094934e-05 0.019949007612664174 0 0.001207689318493484 0.025281301530006281 0 0.0011363663887578659 0.025342465722147343 0 0.0012065436741356137 0.025310501652895698 0 -2.8564116299169642e-05 0.01992213620375451 0 -9.1088230673144519e-05 0.019901220696328055 0 -8.2037372488258907e-05 0.019855727632448767 0 0.00065945519463219532 0.02222733872527136 0 0.00054684155827989839 0.02262045124505737 0 -0.00011127579947488169 0.019843545969123293 0 -9.1088230673144519e-05 0.019901220696328055 0 -8.2037372488258907e-05 0.019855727632448767 0 0.001207689318493484 0.025281301530006281 0 0.0012065436741356137 0.025310501652895698 0 0.0012310727810324093 0.025257036243725942 0 0.001207689318493484 0.025281301530006281 0 0.0012310727810324093 0.025257036243725942 0 0.0012335422788377598 0.025271118518203996 0 0.0028381383686111178 0.02970747272164961 0 0.0026268990559759719 0.029554248217012573 0 0.0025126618373480687 0.029724507441786067 0 0.0024674896483132731 0.029973391191948855 0 0.0028381383686111178 0.02970747272164961 0 0.0025126618373480687 0.029724507441786067 0 0.0019137455670721348 0.027401434356935855 0 0.0019568972568613681 0.027547945889641507 0 0.0012335422788377598 0.025271118518203996 0 0.0012203593123477244 0.025301159672487489 0 0.0012212405237271527 0.025263763480591929 0 0.0012310727810324093 0.025257036243725942 0 0.0012335422788377598 0.025271118518203996 0 0.0012212405237271527 0.025263763480591929 0 0.0028381383686111178 0.02970747272164961 0 0.0028209755219976377 0.029447068320050323 0 0.0032124181555225886 0.029419956802731035 0 0.0019568972568613681 0.027547945889641507 0 0.0025004828374382121 0.027307400868549957 0 0.0028209755219976377 0.029447068320050323 0 0.0030397974481755873 0.029279112091212374 0 0.0032124181555225886 0.029419956802731035 0 0.0028209755219976377 0.029447068320050323 0 0.002586276592171856 0.029334517014616847 0 0.0030397974481755873 0.029279112091212374 0 0.0028381383686111178 0.02970747272164961 0 0.0026268990559759719 0.029554248217012573 0 0.0028209755219976377 0.029447068320050323 0 0.0026268990559759719 0.029554248217012573 0 0.0028209755219976377 0.029447068320050323 0 0.002586276592171856 0.029334517014616847 0 0.0026268990559759719 0.029554248217012573 0 0.0023788079134660052 0.029557125158527268 0 0.002586276592171856 0.029334517014616847 0 0.0023788079134660052 0.029557125158527268 0 0.0021377726351977594 0.029389565323726094 0 0.002586276592171856 0.029334517014616847 0 0.0026268990559759719 0.029554248217012573 0 0.0023788079134660052 0.029557125158527268 0 0.0025126618373480687 0.029724507441786067 0 0.0023788079134660052 0.029557125158527268 0 0.0025126618373480687 0.029724507441786067 0 0.0022994409147908622 0.029838017661945469 0 0.0024674896483132731 0.029973391191948855 0 0.0025126618373480687 0.029724507441786067 0 0.0022994409147908622 0.029838017661945469 0 0.0020820734818214155 0.030038582194384281 0 0.0022994409147908622 0.029838017661945469 0 0.0020668793395503845 0.029708770623349621 0 0.0022994409147908622 0.029838017661945469 0 0.0020668793395503845 0.029708770623349621 0 0.0021871610913760807 0.02956211377131996 0 0.0023788079134660052 0.029557125158527268 0 0.0022994409147908622 0.029838017661945469 0 0.0021871610913760807 0.02956211377131996 0 0.0013487402375829322 0.031435048112071165 0 0.0014713799202729747 0.031408098409470335 0 0.0014713799202729747 0.031408098409470335 0 0.0016866938953500608 0.03130681390975474 0 0.0020668793395503845 0.029708770623349621 0 0.0021871610913760807 0.02956211377131996 0 0.0020464629248243544 0.029400423954231376 0 0.0023788079134660052 0.029557125158527268 0 0.0021871610913760807 0.02956211377131996 0 0.0021377726351977594 0.029389565323726094 0 0.0021871610913760807 0.02956211377131996 0 0.0021377726351977594 0.029389565323726094 0 0.0020464629248243544 0.029400423954231376 0 0.0020373611333444537 0.030901808136786776 0 0.0016866938953500608 0.03130681390975474 0 0.0012044499486316737 0.031296797307933368 0 0.0019197365482163278 0.03202994385796569 0 0.0022965934596032309 0.030993162376158498 0 0.0019197365482163278 0.03202994385796569 0 0.0022965934596032309 0.030993162376158498 0 0.0030225333032785759 0.030933254025397611 0 0.0012044499486316737 0.031296797307933368 0 0.0019197365482163278 0.03202994385796569 0 0.0015638292586648331 0.032139144383540742 0 0.0019197365482163278 0.03202994385796569 0 0.0030225333032785759 0.030933254025397611 0 0.0036625119457984029 0.031604737072231 0 0.0020373611333444537 0.030901808136786776 0 0.0030447187193940141 0.030562116922666274 0 0.0030225333032785759 0.030933254025397611 0 0.0038079364077788238 0.030750422280985533 0 0.0036625119457984029 0.031604737072231 0 0.0030225333032785759 0.030933254025397611 0 0.0033733983163390809 0.030307870850866503 0 0.0038079364077788238 0.030750422280985533 0 0.0030225333032785759 0.030933254025397611 0 0.0033733983163390809 0.030307870850866503 0 0.0030075328132113462 0.029792448895722991 0 0.0033733983163390809 0.030307870850866503 0 0.0030075328132113462 0.029792448895722991 0 0.0036841514314962958 0.029820595273355541 0 0.0022965934596032309 0.030993162376158498 0 0.0030225333032785759 0.030933254025397611 0 0.0030075328132113462 0.029792448895722991 0 0.0030075328132113462 0.029792448895722991 0 0.0036467469706444235 0.029247339817349779 0 0.0036841514314962958 0.029820595273355541 0 0.00051113044614368595 0.032455728371432575 0 0.0013616464059986188 0.031789960141149057 0 -0.00030328986732576214 0.033624030153759532 0 -0.00031907269909795075 0.033841373863985745 0 -0.00030518699508395516 0.033857986044207547 0 0.0012044499486316737 0.031296797307933368 0 0.0022965934596032309 0.030993162376158498 0 0.0030075328132113462 0.029792448895722991 0 -0.00027784105464551204 0.033942727251600857 0 -0.00032823148389480135 0.033808477925570228 0 -0.00036553528255510448 0.033726941999268366 0 -0.00031907269909795075 0.033841373863985745 0 -0.00030518699508395516 0.033857986044207547 0 -0.00032823148389480135 0.033808477925570228 0 -0.00027784105464551204 0.033942727251600857 0 -0.00030518699508395516 0.033857986044207547 0 -0.00032823148389480135 0.033808477925570228 0 -0.00031907269909795075 0.033841373863985745 0 -0.00032823148389480135 0.033808477925570228 0 -0.00025412557574012806 0.033656787315840757 0 -0.00032823148389480135 0.033808477925570228 0 -0.00025412557574012806 0.033656787315840757 0 -0.00036553528255510448 0.033726941999268366 0 -0.00022219986043282717 0.033440512442681383 0 -0.00025412557574012806 0.033656787315840757 0 -0.00036553528255510448 0.033726941999268366 0 5.5099339519628067e-06 0.033093250312072151 0 -0.00010615640333281465 0.033375977344255216 0 0.00010984337339618638 0.033296190397367149 0 -0.00010615640333281465 0.033375977344255216 0 -7.1011374027652154e-05 0.03361647213306744 0 0.00010984337339618638 0.033296190397367149 0 -0.00025412557574012806 0.033656787315840757 0 -0.00010615640333281465 0.033375977344255216 0 -7.1011374027652154e-05 0.03361647213306744 0 -0.00022219986043282717 0.033440512442681383 0 -0.00025412557574012806 0.033656787315840757 0 -0.00010615640333281465 0.033375977344255216 0 -0.00031907269909795075 0.033841373863985745 0 -0.00025412557574012806 0.033656787315840757 0 -7.1011374027652154e-05 0.03361647213306744 0 0.0013616464059986188 0.031789960141149057 0 0.0019629764224169321 0.031214083297343077 0 0.0030075328132113462 0.029792448895722991 0 0.0036467469706444235 0.029247339817349779 0 0.004055401489733667 0.028716013610023124 0 0.0036467469706444235 0.029247339817349779 0 0.004055401489733667 0.028716013610023124 0 0.003853623154488818 0.028670937681285119 0 0.004055401489733667 0.028716013610023124 0 0.0037385016674025442 0.02845859056233855 0 0.003853623154488818 0.028670937681285119 0 0.0019629764224169321 0.031214083297343077 0 0.0016029881518107288 0.031183089868761723 0 0.004055401489733667 0.028716013610023124 0 0.0034278613403508512 0.028508613862042252 0 0.0030232871412128591 0.029295220350044476 0 0.004055401489733667 0.028716013610023124 0 0.0037385016674025442 0.02845859056233855 0 0.0034278613403508512 0.028508613862042252 0 0.0037385016674025442 0.02845859056233855 0 0.0033207292524353028 0.027995385119801784 0 0.0034278613403508512 0.028508613862042252 0 0.0037385016674025442 0.02845859056233855 0 0.003853623154488818 0.028670937681285119 0 0.0039273721415813978 0.028064822434900719 0 0.0037385016674025442 0.02845859056233855 0 0.0039273721415813978 0.028064822434900719 0 0.0033207292524353028 0.027995385119801784 0 0.0036467469706444235 0.029247339817349779 0 0.003853623154488818 0.028670937681285119 0 0.0039273721415813978 0.028064822434900719 0 0.0036467469706444235 0.029247339817349779 0 0.0046617414142412807 0.030135182005596787 0 0.0036841514314962958 0.029820595273355541 0 0.0046617414142412807 0.030135182005596787 0 0.0036841514314962958 0.029820595273355541 0 0.0043766939570708012 0.030342443462536433 0 0.0036648336559702262 0.029075857338847853 0 0.0043008537529738242 0.029240516800941214 0 0.0037546796382174085 0.029863297093848364 0 0.0047080763413738973 0.030623249062021539 0 0.0036841514314962958 0.029820595273355541 0 0.0038079364077788238 0.030750422280985533 0 0.0047117195863895008 0.030691447098466978 0 0.0033733983163390809 0.030307870850866503 0 0.0036841514314962958 0.029820595273355541 0 0.0038079364077788238 0.030750422280985533 0 0.0030447187193940141 0.030562116922666274 0 0.0046171074334676347 0.029489968335331782 0 0.0036625119457984029 0.031604737072231 0 0.0047117195863895008 0.030691447098466978 0 0.0055691903251954902 0.031417819100515852 0 0.0038079364077788238 0.030750422280985533 0 0.0036625119457984029 0.031604737072231 0 0.0047117195863895008 0.030691447098466978 0 0.0043008537529738242 0.029240516800941214 0 0.0040479903778357883 0.027899121085927066 0 0.0046617414142412807 0.030135182005596787 0 0.0048898374289222 0.030708639285912338 0 0.0052721949113758411 0.030668881602313371 0 0.0046617414142412807 0.030135182005596787 0 0.0043766939570708012 0.030342443462536433 0 0.0048898374289222 0.030708639285912338 0 0.0047080763413738973 0.030623249062021539 0 0.0046171074334676347 0.029489968335331782 0 0.0032011118339820028 0.027131437730704006 0 0.0027196465972379701 0.027646024428525935 0 0.0033207292524353028 0.027995385119801784 0 0.0039273721415813978 0.028064822434900719 0 0.0032011118339820028 0.027131437730704006 0 0.0033207292524353028 0.027995385119801784 0 0.0046171074334676347 0.029489968335331782 0 0.0040479903778357883 0.027899121085927066 0 0.0057431134059652954 0.027107554397512612 0 0.0043182302177072829 0.027203985472814537 0 0.0043089658617759489 0.025845427769029341 0 0.0040479903778357883 0.027899121085927066 0 0.0024699045291197322 0.026865940774423693 0 0.0032011118339820028 0.027131437730704006 0 0.0022071235236335728 0.027047252934665141 0 0.0027196465972379701 0.027646024428525935 0 0.0022071235236335728 0.027047252934665141 0 0.0021101796632837493 0.027781432228334603 0 0.0027196465972379701 0.027646024428525935 0 0.0021101796632837493 0.027781432228334603 0 0.0027794292151813314 0.028237727105636733 0 0.0019978036608101434 0.028761549740067303 0 0.0021101796632837493 0.027781432228334603 0 0.0027196465972379701 0.027646024428525935 0 0.0027794292151813314 0.028237727105636733 0 0.0027196465972379701 0.027646024428525935 0 0.0027794292151813314 0.028237727105636733 0 0.0033207292524353028 0.027995385119801784 0 0.0027794292151813314 0.028237727105636733 0 0.0033207292524353028 0.027995385119801784 0 0.0034278613403508512 0.028508613862042252 0 0.0027794292151813314 0.028237727105636733 0 0.0034278613403508512 0.028508613862042252 0 0.0030232871412128591 0.029295220350044476 0 0.0027794292151813314 0.028237727105636733 0 0.0030232871412128591 0.029295220350044476 0 0.0019978036608101434 0.028761549740067303 0 0.0017648106316510007 0.029910981213397695 0 0.0030232871412128591 0.029295220350044476 0 0.0019978036608101434 0.028761549740067303 0 0.0010725661360315795 0.032264410461724784 0 0.0016029881518107288 0.031183089868761723 0 0.00080844503358867717 0.02913537289411703 0 0.0013743915519571033 0.029257563943511439 0 0.0014201779511083849 0.028561050782786847 0 0.00080844503358867717 0.02913537289411703 0 0.0011208497850418349 0.029700002027874504 0 0.0013743915519571033 0.029257563943511439 0 0.0017648106316510007 0.029910981213397695 0 0.0013743915519571033 0.029257563943511439 0 0.0019978036608101434 0.028761549740067303 0 0.0017648106316510007 0.029910981213397695 0 0.0011208497850418349 0.029700002027874504 0 0.0013743915519571033 0.029257563943511439 0 0.0013743915519571033 0.029257563943511439 0 0.0019978036608101434 0.028761549740067303 0 0.0014201779511083849 0.028561050782786847 0 0.0019978036608101434 0.028761549740067303 0 0.0014201779511083849 0.028561050782786847 0 0.0016574840653475152 0.028015855986288789 0 0.000799022879064802 0.026758574345241901 0 0.0010222451064564606 0.027231270300188674 0 0.0011263948942455682 0.027425171969195521 0 0.000799022879064802 0.026758574345241901 0 0.0010222451064564606 0.027231270300188674 0 0.0011544051620409382 0.027031438339380563 0 0.00080844503358867717 0.02913537289411703 0 0.0014201779511083849 0.028561050782786847 0 0.0011263948942455682 0.027425171969195521 0 0.00077991743829058924 0.028186031524444297 0 0.0011148570019894359 0.027306574214711207 0 0.0010222451064564606 0.027231270300188674 0 0.0010352419888539504 0.027281219359121932 0 0.00096200150889724811 0.027236127706368921 0 0.0010222451064564606 0.027231270300188674 0 0.0011263948942455682 0.027425171969195521 0 0.0010352419888539504 0.027281219359121932 0 0.0010352419888539504 0.027281219359121932 0 0.00096200150889724811 0.027236127706368921 0 0.00097856795491974946 0.027078771675392146 0 0.0021101796632837493 0.027781432228334603 0 0.0019978036608101434 0.028761549740067303 0 0.0016574840653475152 0.028015855986288789 0 0.0014201779511083849 0.028561050782786847 0 0.0011263948942455682 0.027425171969195521 0 0.0016574840653475152 0.028015855986288789 0 0.0011263948942455682 0.027425171969195521 0 0.0016574840653475152 0.028015855986288789 0 0.001663240014958521 0.027412490945194608 0 0.0021101796632837493 0.027781432228334603 0 0.0016574840653475152 0.028015855986288789 0 0.001663240014958521 0.027412490945194608 0 0.0022071235236335728 0.027047252934665141 0 0.001663240014958521 0.027412490945194608 0 0.0013115825686624923 0.026902466192393549 0 0.0028755968929553401 0.026806028607411169 0 0.0013115825686624923 0.026902466192393549 0 0.0018739672301444441 0.025594977852037078 0 0.0022071235236335728 0.027047252934665141 0 0.0021101796632837493 0.027781432228334603 0 0.001663240014958521 0.027412490945194608 0 0.0024699045291197322 0.026865940774423693 0 0.001419955266912855 0.02693191160717558 0 0.0011263948942455682 0.027425171969195521 0 0.001663240014958521 0.027412490945194608 0 0.0013115825686624923 0.026902466192393549 0 0.00096150760116969997 0.026818028077024453 0 0.00084144552709419708 0.026258150505003155 0 0.00085648337348804171 0.027255316165376981 0 0.00096150760116969997 0.026818028077024453 0 0.00097856795491974946 0.027078771675392146 0 0.0013115825686624923 0.026902466192393549 0 0.0010352419888539504 0.027281219359121932 0 0.00097856795491974946 0.027078771675392146 0 0.0013115825686624923 0.026902466192393549 0 0.0011263948942455682 0.027425171969195521 0 0.0010352419888539504 0.027281219359121932 0 0.0013115825686624923 0.026902466192393549 0 0.00096150760116969997 0.026818028077024453 0 0.0013115825686624923 0.026902466192393549 0 0.00084144552709419708 0.026258150505003155 0 0.0013115825686624923 0.026902466192393549 0 0.00084144552709419708 0.026258150505003155 0 0.0018739672301444441 0.025594977852037078 0 0.0011959850341333722 0.0093305218473347471 0 0.0010735350774722088 0.0093526451657019258 0 0.0011148089304072312 0.009249796402822719 0 0.0011430282182443221 0.017561606146465045 0 0.001106783205704369 0.018606385450525242 0 0.00084144552709419708 0.026258150505003155 0 0.001713872041865184 0.024375745019727738 0 0.0018739672301444441 0.025594977852037078 0 0.0011959850341333722 0.0093305218473347471 0 0.00099784529343498098 0.0093813478614701643 0 0.0010182065668990353 0.0093754866857843292 0 0.0011959850341333722 0.0093305218473347471 0 0.0010735350774722088 0.0093526451657019258 0 0.0010182065668990353 0.0093754866857843292 0 0.0010735350774722088 0.0093526451657019258 0 0.00099807201856697762 0.0093835564997150327 0 0.0011309241685346348 0.0095395785270658701 0 0.0010735350774722088 0.0093526451657019258 0 0.00099807201856697762 0.0093835564997150327 0 0.0010182065668990353 0.0093754866857843292 0 0.0010735350774722088 0.0093526451657019258 0 0.0010563190623565377 0.0093399645654321344 0 0.0011148089304072312 0.009249796402822719 0 0.0017430284153227709 0.024421785781840948 0 0.0018739672301444441 0.025594977852037078 0 0.0031042292843094146 0.025592753651251944 0 0.001106783205704369 0.018606385450525242 0 0.0026451046694371395 0.025866476866516205 0 0.00048644529850267728 0.022455796510050492 0 -0.00073536779476220321 0.022904794206761264 0 0.0018320868315895007 0.025053215454403945 0 0.00048971722753367991 0.022070229522538894 0 0.001106783205704369 0.018606385450525242 0 -5.0532917097559498e-05 0.020313593839179755 0 0.0011242556127439823 0.019863656581828128 0 0.0004980526729477119 0.020781450903229925 0 0.00048971722753367991 0.022070229522538894 0 0.00018678370639829908 0.019654028979733555 0 0.001106783205704369 0.018606385450525242 0 0.00018678370639829908 0.019654028979733555 0 0.001106783205704369 0.018606385450525242 0 0.0015351995916038179 0.017922194629893126 0 0.001106783205704369 0.018606385450525242 0 0.0020360917984415089 0.027087499191851893 0 0.0028755968929553401 0.026806028607411169 0 0.0018739672301444441 0.025594977852037078 0 0.0031042292843094146 0.025592753651251944 0 0.0040479903778357883 0.027899121085927066 0 0.0026451046694371395 0.025866476866516205 0 0.0043936437266105573 0.026700813310331369 0 0.0028755968929553401 0.026806028607411169 0 0.0031042292843094146 0.025592753651251944 0 0.0043182302177072829 0.027203985472814537 0 0.0018320868315895007 0.025053215454403945 0 0.0031204793311218441 0.024792040374886991 0 0.0012203593123477244 0.025301159672487489 0 0.0011976891656389442 0.025280076386226511 0 0.0012212405237271527 0.025263763480591929 0 0.0043182302177072829 0.027203985472814537 0 0.0043089658617759489 0.025845427769029341 0 0.0031204793311218441 0.024792040374886991 0 0.0046171074334676347 0.029489968335331782 0 0.0025004828374382121 0.027307400868549957 0 0.0025004828374382121 0.027307400868549957 0 0.0021813072562305233 0.02549510904329268 0 0.0011976891656389442 0.025280076386226511 0 0.0012212405237271527 0.025263763480591929 0 0.0012029671575345912 0.025225286286963532 0 0.00048971722753367991 0.022070229522538894 0 0.0021813072562305233 0.02549510904329268 0 0.0011422807783057539 0.025215471784043247 0 0.0011976891656389442 0.025280076386226511 0 0.0012029671575345912 0.025225286286963532 0 0.00048644529850267728 0.022455796510050492 0 0.0018320868315895007 0.025053215454403945 0 0.0031204793311218441 0.024792040374886991 0 0.00048971722753367991 0.022070229522538894 0 0.00051515172204012413 0.022615549127677763 0 -0.00017622536276251722 0.019874781849904197 0 -0.00013894419700546479 0.019900962487204393 0 -0.00015213265420041156 0.019849619348287263 0 -0.00019734938721774611 0.019916263099956946 0 -0.00017622536276251722 0.019874781849904197 0 -0.00013894419700546479 0.019900962487204393 0 -0.00017622536276251722 0.019874781849904197 0 -0.00020133645775906387 0.019878369355974822 0 -0.00019301580389313426 0.0198611115648538 0 -0.00017622536276251722 0.019874781849904197 0 -0.00018212727146080715 0.019845393877758539 0 -0.00019301580389313426 0.0198611115648538 0 0.00054684155827989839 0.02262045124505737 0 0.00051515172204012413 0.022615549127677763 0 -9.1088230673144519e-05 0.019901220696328055 0 -0.00013894419700546479 0.019900962487204393 0 -0.00015213265420041156 0.019849619348287263 0 0.0012310727810324093 0.025257036243725942 0 0.0012212405237271527 0.025263763480591929 0 0.0012029671575345912 0.025225286286963532 0 -0.00011127579947488169 0.019843545969123293 0 -0.00015213265420041156 0.019849619348287263 0 -0.00014121727348786461 0.019812849216412361 0 -0.00011127579947488169 0.019843545969123293 0 -9.1088230673144519e-05 0.019901220696328055 0 -0.00015213265420041156 0.019849619348287263 0 -0.00015213265420041156 0.019849619348287263 0 -0.00015926268136408985 0.019818627311669498 0 -0.00014121727348786461 0.019812849216412361 0 -0.00018212727146080715 0.019845393877758539 0 -0.00019885865768684997 0.019842633915595761 0 -0.00019301580389313426 0.0198611115648538 0 -0.00017622536276251722 0.019874781849904197 0 -0.00018212727146080715 0.019845393877758539 0 -0.00015213265420041156 0.019849619348287263 0 -0.00018212727146080715 0.019845393877758539 0 -0.00015213265420041156 0.019849619348287263 0 -0.00017674742693606476 0.019822898789096453 0 -0.00015213265420041156 0.019849619348287263 0 -0.00015926268136408985 0.019818627311669498 0 -0.00017674742693606476 0.019822898789096453 0 -0.00018212727146080715 0.019845393877758539 0 -0.00017674742693606476 0.019822898789096453 0 -0.00019645602261629799 0.019822333950576157 0 -0.00017674742693606476 0.019822898789096453 0 -0.00019645602261629799 0.019822333950576157 0 -0.00019267115068930454 0.01979775545943227 0 -0.00019645602261629799 0.019822333950576157 0 -0.00021390063306104621 0.019833849864738965 0 -0.00021369893057559446 0.019803698638612598 0 -0.00019645602261629799 0.019822333950576157 0 -0.00021369893057559446 0.019803698638612598 0 -0.00019267115068930454 0.01979775545943227 0 -0.00018212727146080715 0.019845393877758539 0 -0.00019645602261629799 0.019822333950576157 0 -0.00019885865768684997 0.019842633915595761 0 -0.00019645602261629799 0.019822333950576157 0 -0.00019885865768684997 0.019842633915595761 0 -0.00021390063306104621 0.019833849864738965 0 -0.00019885865768684997 0.019842633915595761 0 -0.00021390063306104621 0.019833849864738965 0 -0.00021041894989655093 0.019855267131884225 0 -0.00023212856888210333 0.019834750968831173 0 -0.00021390063306104621 0.019833849864738965 0 -0.00021369893057559446 0.019803698638612598 0 -0.00023212856888210333 0.019834750968831173 0 -0.00021390063306104621 0.019833849864738965 0 -0.00022997934025150482 0.019842133138448615 0 -0.00019148807601523994 0.018097289547304676 0 -5.3634145338836854e-05 0.018758469318657208 0 -0.00021390063306104621 0.019833849864738965 0 -0.00021041894989655093 0.019855267131884225 0 -0.00022997934025150482 0.019842133138448615 0 3.9074563095200092e-05 0.015497832164081987 0 6.3781659777468477e-05 0.015082017957322691 0 -0.00014588236820286182 0.015307965872400417 0 0.00022321172061725973 0.015498862857592765 0 3.9074563095200092e-05 0.015497832164081987 0 6.3781659777468477e-05 0.015082017957322691 0 0.0010735350774722088 0.0093526451657019258 0 0.00099669925226362251 0.0094047138748933889 0 0.0010563190623565377 0.0093399645654321344 0 0.001106783205704369 0.018606385450525242 0 0.00051701048431095509 0.0104271478246513 0 0.00098805180390505775 0.0091802575645534984 0 0.00051701048431095509 0.0104271478246513 0 0.00022227968853673157 0.013540618540299948 0 -0.00024097451313812544 0.014358226497439397 0 0.0017663027562197418 0.014886690242175751 0 0.0019171699058301473 0.016295877603122053 0 -0.00024097451313812544 0.014358226497439397 0 0.0017663027562197418 0.014886690242175751 0 0.00022321172061725973 0.015498862857592765 0 3.9074563095200092e-05 0.015497832164081987 0 0.00024954160336355724 0.015710316827528676 0 9.1100729199286774e-05 0.014485597998146311 0 0.0004282900617180274 0.01717452814648688 0 0.00068482381900991337 0.018891498046160495 0 0.00059820595247535822 0.018144803109133051 0 0.00097194238232117282 0.018467765825059098 0 0.001106783205704369 0.018606385450525242 0 0.0004282900617180274 0.01717452814648688 0 -0.00022646830960500075 0.019870698793966312 0 -0.00021314624580421728 0.019874799013151249 0 -0.00021973908509846088 0.019860896788424721 0 -0.00022646830960500075 0.019870698793966312 0 -0.00021314624580421728 0.019874799013151249 0 -0.0002099212182857027 0.019883477429273117 0 0.0004282900617180274 0.01717452814648688 0 0.00018678370639829908 0.019654028979733555 0 -0.00019734938721774611 0.019916263099956946 0 -0.00017622536276251722 0.019874781849904197 0 -0.00020133645775906387 0.019878369355974822 0 -0.00019734938721774611 0.019916263099956946 0 -0.00021215756025112965 0.019902293920940829 0 -0.00020133645775906387 0.019878369355974822 0 0.00018678370639829908 0.019654028979733555 0 -7.5385358080358968e-05 0.01991288478486844 0 -0.00021314624580421728 0.019874799013151249 0 -0.0002099212182857027 0.019883477429273117 0 -0.00020133645775906387 0.019878369355974822 0 -0.00021314624580421728 0.019874799013151249 0 -0.00020133645775906387 0.019878369355974822 0 -0.00021041894989655093 0.019855267131884225 0 -0.00020133645775906387 0.019878369355974822 0 -0.00019301580389313426 0.0198611115648538 0 -0.00021041894989655093 0.019855267131884225 0 -0.00019885865768684997 0.019842633915595761 0 -0.00019301580389313426 0.0198611115648538 0 -0.00021041894989655093 0.019855267131884225 0 -0.00021041894989655093 0.019855267131884225 0 -0.00022997934025150482 0.019842133138448615 0 -0.00021973908509846088 0.019860896788424721 0 -0.00023538828642385558 0.019828943826928493 0 -0.00022646830960500075 0.019870698793966312 0 -0.00022997934025150482 0.019842133138448615 0 -0.00022646830960500075 0.019870698793966312 0 -0.00022997934025150482 0.019842133138448615 0 -0.00021973908509846088 0.019860896788424721 0 -0.00019148807601523994 0.018097289547304676 0 0.0004282900617180274 0.01717452814648688 0 -0.00021314624580421728 0.019874799013151249 0 -0.00021041894989655093 0.019855267131884225 0 -0.00021973908509846088 0.019860896788424721 0 -0.00020369613220377593 0.019742871685255875 0 -0.00020543200117435724 0.019710187013597294 0 -0.00023565416227740635 0.019762541171584953 0 -0.00020369613220377593 0.019742871685255875 0 -0.00017609163830696007 0.01970471529367571 0 -0.000169038022722077 0.019741702679331376 0 -0.00020369613220377593 0.019742871685255875 0 -0.00019268232587985704 0.019768962425235216 0 -0.000169038022722077 0.019741702679331376 0 -0.00020369613220377593 0.019742871685255875 0 -0.00017609163830696007 0.01970471529367571 0 -0.00020543200117435724 0.019710187013597294 0 -0.00020543200117435724 0.019710187013597294 0 -0.00023565416227740635 0.019762541171584953 0 -0.00023162691498196855 0.019668532854401958 0 -0.00029182508779883396 0.018879487027747728 0 -0.00041987562146911364 0.018840360121406122 0 -0.00035996313125387662 0.019336895875523796 0 -0.00013335846643825375 0.016720308030332427 0 -0.00015025682655745964 0.017085016082012038 0 -0.00033387597167207442 0.01950903151332398 0 -0.0002917209524912671 0.019447282571489019 0 -0.00019148807601523994 0.018097289547304676 0 -0.00033387597167207442 0.01950903151332398 0 -0.00019148807601523994 0.018097289547304676 0 -0.00013335846643825375 0.016720308030332427 0 -0.00045550004668364107 0.018239955786055355 0 -0.00029182508779883396 0.018879487027747728 0 -0.00041987562146911364 0.018840360121406122 0 -0.00021369893057559446 0.019803698638612598 0 -0.00023565416227740635 0.019762541171584953 0 -0.00020864177335285826 0.019778622328468543 0 -0.00023212856888210333 0.019834750968831173 0 -0.00021369893057559446 0.019803698638612598 0 -0.00023565416227740635 0.019762541171584953 0 -0.00023565416227740635 0.019762541171584953 0 -0.00021408287458149112 0.019761320028982704 0 -0.00020864177335285826 0.019778622328468543 0 -0.00020369613220377593 0.019742871685255875 0 -0.00023565416227740635 0.019762541171584953 0 -0.00021408287458149112 0.019761320028982704 0 -0.00021408287458149112 0.019761320028982704 0 -0.00020864177335285826 0.019778622328468543 0 -0.00019268232587985704 0.019768962425235216 0 -0.00020369613220377593 0.019742871685255875 0 -0.00021408287458149112 0.019761320028982704 0 -0.00019268232587985704 0.019768962425235216 0 -0.00020864177335285826 0.019778622328468543 0 -0.00019268232587985704 0.019768962425235216 0 -0.00019267115068930454 0.01979775545943227 0 -0.00021369893057559446 0.019803698638612598 0 -0.00020864177335285826 0.019778622328468543 0 -0.00019267115068930454 0.01979775545943227 0 -0.00019268232587985704 0.019768962425235216 0 -0.00019267115068930454 0.01979775545943227 0 -0.00016784881735124393 0.019790133639603011 0 -0.00017674742693606476 0.019822898789096453 0 -0.00019267115068930454 0.01979775545943227 0 -0.00016784881735124393 0.019790133639603011 0 -0.00015926268136408985 0.019818627311669498 0 -0.00017674742693606476 0.019822898789096453 0 -0.00016784881735124393 0.019790133639603011 0 -0.00015926268136408985 0.019818627311669498 0 -0.00016784881735124393 0.019790133639603011 0 -0.00014121727348786461 0.019812849216412361 0 -0.00016784881735124393 0.019790133639603011 0 -0.000169038022722077 0.019741702679331376 0 -0.00015189928893656786 0.019761818706560439 0 -0.00016784881735124393 0.019790133639603011 0 -0.00014121727348786461 0.019812849216412361 0 -0.00015189928893656786 0.019761818706560439 0 -0.00019268232587985704 0.019768962425235216 0 -0.00016784881735124393 0.019790133639603011 0 -0.000169038022722077 0.019741702679331376 0 -0.00014121727348786461 0.019812849216412361 0 -0.00013378174420043972 0.019756505184979664 0 -0.00015189928893656786 0.019761818706560439 0 -0.00014121727348786461 0.019812849216412361 0 -0.00013378174420043972 0.019756505184979664 0 -0.00011600171667346722 0.019799455485101564 0 -0.00011127579947488169 0.019843545969123293 0 -0.00014121727348786461 0.019812849216412361 0 -0.00011600171667346722 0.019799455485101564 0 -0.00013378174420043972 0.019756505184979664 0 -0.00014295597395519791 0.019724226970437044 0 -0.00015189928893656786 0.019761818706560439 0 -0.00013378174420043972 0.019756505184979664 0 -0.00014295597395519791 0.019724226970437044 0 -0.00013088993224835704 0.01971233757959763 0 -0.00013378174420043972 0.019756505184979664 0 -0.00013088993224835704 0.01971233757959763 0 -0.00012028596808127738 0.01974934198390664 0 -0.00014295597395519791 0.019724226970437044 0 -0.000169038022722077 0.019741702679331376 0 -0.00015189928893656786 0.019761818706560439 0 -0.00014295597395519791 0.019724226970437044 0 -0.000169038022722077 0.019741702679331376 0 -0.00014545076618246482 0.019690222453829686 0 -0.00017609163830696007 0.01970471529367571 0 -0.000169038022722077 0.019741702679331376 0 -0.00014545076618246482 0.019690222453829686 0 -0.00017609163830696007 0.01970471529367571 0 -0.00014545076618246482 0.019690222453829686 0 -0.00015279780132288585 0.019665980180732918 0 -0.00014295597395519791 0.019724226970437044 0 -0.00014545076618246482 0.019690222453829686 0 -0.00013174953968822205 0.019675739700560427 0 -0.00014545076618246482 0.019690222453829686 0 -0.00012942969947396822 0.019646230302278522 0 -0.00013174953968822205 0.019675739700560427 0 -0.00014545076618246482 0.019690222453829686 0 -0.00012942969947396822 0.019646230302278522 0 -0.00015279780132288585 0.019665980180732918 0 -0.00012942969947396822 0.019646230302278522 0 -0.00015279780132288585 0.019665980180732918 0 -0.00014026630925364339 0.019619988407674642 0 -0.00013088993224835704 0.01971233757959763 0 -0.00012826443084319855 0.019679521683669477 0 -0.00012634499399147715 0.019702557064870212 0 -0.00014295597395519791 0.019724226970437044 0 -0.00013088993224835704 0.01971233757959763 0 -0.00013174953968822205 0.019675739700560427 0 -0.00013088993224835704 0.01971233757959763 0 -0.00013174953968822205 0.019675739700560427 0 -0.00012826443084319855 0.019679521683669477 0 -0.00013174953968822205 0.019675739700560427 0 -0.00012826443084319855 0.019679521683669477 0 -0.00012272325088649361 0.019644764045832961 0 -0.00012942969947396822 0.019646230302278522 0 -0.00013174953968822205 0.019675739700560427 0 -0.00012272325088649361 0.019644764045832961 0 -0.00012826443084319855 0.019679521683669477 0 -0.00012998931488453227 0.01966936772644267 0 -0.00012634499399147715 0.019702557064870212 0 -0.00012826443084319855 0.019679521683669477 0 -0.00012272325088649361 0.019644764045832961 0 -0.00012998931488453227 0.01966936772644267 0 -0.00013062214178223208 0.019649665449016571 0 -0.00012272325088649361 0.019644764045832961 0 -0.00012998931488453227 0.01966936772644267 0 -0.00012272325088649361 0.019644764045832961 0 -0.00012102716889578443 0.019618876123225947 0 -0.00010455225898248875 0.019589699761688621 0 -0.00013062214178223208 0.019649665449016571 0 -0.00012102716889578443 0.019618876123225947 0 -0.00014427120516588581 0.019654475101513722 0 -0.00013062214178223208 0.019649665449016571 0 -0.00012272325088649361 0.019644764045832961 0 -0.00012102716889578443 0.019618876123225947 0 -0.00010455225898248875 0.019589699761688621 0 -0.00014026630925364339 0.019619988407674642 0 -0.00011789316008187105 0.019540476963329983 0 -0.00012942969947396822 0.019646230302278522 0 -0.00010455225898248875 0.019589699761688621 0 -0.00014026630925364339 0.019619988407674642 0 -0.00012942969947396822 0.019646230302278522 0 -0.00012272325088649361 0.019644764045832961 0 -0.00010455225898248875 0.019589699761688621 0 -0.00017569327748874735 0.019606886172049812 0 -0.00022782660010573047 0.019506846733116423 0 -0.00011789316008187105 0.019540476963329983 0 -0.00017569327748874735 0.019606886172049812 0 -0.00014026630925364339 0.019619988407674642 0 -0.00011789316008187105 0.019540476963329983 0 -0.00017569327748874735 0.019606886172049812 0 -0.00014026630925364339 0.019619988407674642 0 -0.00017967544776791575 0.019666121181792 0 -0.00015279780132288585 0.019665980180732918 0 -0.00014026630925364339 0.019619988407674642 0 -0.00017967544776791575 0.019666121181792 0 -0.00017569327748874735 0.019606886172049812 0 -0.00017967544776791575 0.019666121181792 0 -0.00023162691498196855 0.019668532854401958 0 -0.00020543200117435724 0.019710187013597294 0 -0.00017967544776791575 0.019666121181792 0 -0.00023162691498196855 0.019668532854401958 0 -0.00017609163830696007 0.01970471529367571 0 -0.00020543200117435724 0.019710187013597294 0 -0.00017967544776791575 0.019666121181792 0 -0.00017609163830696007 0.01970471529367571 0 -0.00015279780132288585 0.019665980180732918 0 -0.00017967544776791575 0.019666121181792 0 -0.00029182508779883396 0.018879487027747728 0 -0.00035996313125387662 0.019336895875523796 0 -0.00021713665605804466 0.019395144321385584 0 -0.00017569327748874735 0.019606886172049812 0 -0.00023162691498196855 0.019668532854401958 0 -0.00022782660010573047 0.019506846733116423 0 -0.00035996313125387662 0.019336895875523796 0 -0.00022782660010573047 0.019506846733116423 0 -0.00021713665605804466 0.019395144321385584 0 -0.0002917209524912671 0.019447282571489019 0 -0.00024022678680911413 0.01952470392250762 0 -0.00022782660010573047 0.019506846733116423 0 -0.00016116881500268602 0.019272059695917491 0 -0.00039535728966348356 0.019493749296979074 0 -0.00022782660010573047 0.019506846733116423 0 -8.7027647487191351e-05 0.019409277064357921 0 -0.00016116881500268602 0.019272059695917491 0 -0.00022782660010573047 0.019506846733116423 0 -0.00011789316008187105 0.019540476963329983 0 -8.7027647487191351e-05 0.019409277064357921 0 -0.00011789316008187105 0.019540476963329983 0 -8.7027647487191351e-05 0.019409277064357921 0 -6.1205066333850679e-05 0.019486440010305923 0 -8.7027647487191351e-05 0.019409277064357921 0 6.3072868662661559e-05 0.019312595924263622 0 -6.1205066333850679e-05 0.019486440010305923 0 -8.7027647487191351e-05 0.019409277064357921 0 6.3072868662661559e-05 0.019312595924263622 0 -0.00016116881500268602 0.019272059695917491 0 6.3072868662661559e-05 0.019312595924263622 0 -0.00016116881500268602 0.019272059695917491 0 0.00010979576718055784 0.018743057668653036 0 6.3072868662661559e-05 0.019312595924263622 0 0.00010979576718055784 0.018743057668653036 0 0.00014641629900344344 0.01935283726502833 0 0.00014641629900344344 0.01935283726502833 0 1.1934702693847636e-06 0.018827808472253328 0 -7.2518651352750697e-07 0.02047024487940247 0 0.00010979576718055784 0.018743057668653036 0 0.00014641629900344344 0.01935283726502833 0 1.1934702693847636e-06 0.018827808472253328 0 0.00010979576718055784 0.018743057668653036 0 1.1934702693847636e-06 0.018827808472253328 0 -1.8942278765642621e-06 0.017185236668703491 0 -1.0216224052456391e-06 0.020475973246380202 0 3.4980009315242595e-05 0.022836097476456464 0 4.9149765701661598e-07 0.022032851809812314 0 9.1997439862749701e-08 0.020473798280935474 0 -6.4246851575129404e-05 0.021249498649413907 0 0.00014641629900344344 0.01935283726502833 0 -7.2518651352750697e-07 0.02047024487940247 0 -4.6611805398226428e-05 0.019442694482978071 0 6.3072868662661559e-05 0.019312595924263622 0 0.00014641629900344344 0.01935283726502833 0 -4.6611805398226428e-05 0.019442694482978071 0 -4.6611805398226428e-05 0.019442694482978071 0 -0.00033796490372568804 0.019684967754865747 0 -0.00021167702188418006 0.01961141575293153 0 -7.2518651352750697e-07 0.02047024487940247 0 -4.6611805398226428e-05 0.019442694482978071 0 -0.00033796490372568804 0.019684967754865747 0 -4.6611805398226428e-05 0.019442694482978071 0 -0.00021167702188418006 0.01961141575293153 0 -0.00014096071757098633 0.019583864490273429 0 -0.00021167702188418006 0.01961141575293153 0 -0.00014096071757098633 0.019583864490273429 0 -0.0001991179957696482 0.019665390610696054 0 6.3072868662661559e-05 0.019312595924263622 0 -4.6611805398226428e-05 0.019442694482978071 0 -4.4333286197690761e-05 0.019457137780592125 0 6.3072868662661559e-05 0.019312595924263622 0 -4.4333286197690761e-05 0.019457137780592125 0 -6.1205066333850679e-05 0.019486440010305923 0 -4.6611805398226428e-05 0.019442694482978071 0 -4.4333286197690761e-05 0.019457137780592125 0 -0.00014096071757098633 0.019583864490273429 0 -4.4333286197690761e-05 0.019457137780592125 0 -8.9934189689064433e-05 0.019544567294025737 0 -0.00014096071757098633 0.019583864490273429 0 -0.00010455225898248875 0.019589699761688621 0 -0.00011789316008187105 0.019540476963329983 0 -6.1205066333850679e-05 0.019486440010305923 0 -4.4333286197690761e-05 0.019457137780592125 0 -6.1205066333850679e-05 0.019486440010305923 0 -8.9934189689064433e-05 0.019544567294025737 0 -0.00010455225898248875 0.019589699761688621 0 -6.1205066333850679e-05 0.019486440010305923 0 -8.9934189689064433e-05 0.019544567294025737 0 -0.00012102716889578443 0.019618876123225947 0 -8.9934189689064433e-05 0.019544567294025737 0 -0.00014096071757098633 0.019583864490273429 0 -0.00012102716889578443 0.019618876123225947 0 -0.00014096071757098633 0.019583864490273429 0 -0.00016369875240627307 0.019667302342590308 0 -0.00014096071757098633 0.019583864490273429 0 -0.00016369875240627307 0.019667302342590308 0 -0.0001991179957696482 0.019665390610696054 0 -0.00012102716889578443 0.019618876123225947 0 -0.00010455225898248875 0.019589699761688621 0 -8.9934189689064433e-05 0.019544567294025737 0 -0.00012102716889578443 0.019618876123225947 0 -0.00016369875240627307 0.019667302342590308 0 -0.00014427120516588581 0.019654475101513722 0 -0.00016302905363601265 0.019682852386555674 0 -0.00016369875240627307 0.019667302342590308 0 -0.00014427120516588581 0.019654475101513722 0 -0.00016302905363601265 0.019682852386555674 0 -0.00018279037541722796 0.019706919379404331 0 -0.00016369875240627307 0.019667302342590308 0 -0.00016302905363601265 0.019682852386555674 0 -0.00019518667507542354 0.019729676239944743 0 -0.00016757585777736874 0.019682462294864363 0 -0.00019518667507542354 0.019729676239944743 0 -0.00018586201299824218 0.019701925952988926 0 -0.00016757585777736874 0.019682462294864363 0 -0.00019518667507542354 0.019729676239944743 0 -0.0002299902638119931 0.019787809403035306 0 -0.00021818815750205509 0.019754444655943115 0 -0.00016302905363601265 0.019682852386555674 0 -0.00019518667507542354 0.019729676239944743 0 -0.00018279037541722796 0.019706919379404331 0 -0.00019518667507542354 0.019729676239944743 0 -0.00018279037541722796 0.019706919379404331 0 -0.00020837584055982325 0.019750139554935316 0 -0.00024349233111533943 0.019810880948588933 0 -0.00020837584055982325 0.019750139554935316 0 -0.00025085354526293121 0.019710621799440883 0 -0.00019518667507542354 0.019729676239944743 0 -0.0002299902638119931 0.019787809403035306 0 -0.00020837584055982325 0.019750139554935316 0 -0.0002299902638119931 0.019787809403035306 0 -0.00024349233111533943 0.019810880948588933 0 -0.00020837584055982325 0.019750139554935316 0 -0.0002299902638119931 0.019787809403035306 0 -0.00024349233111533943 0.019810880948588933 0 -0.00031776802897237567 0.019912742851304271 0 -0.00020837584055982325 0.019750139554935316 0 -0.00016369875240627307 0.019667302342590308 0 -0.0001991179957696482 0.019665390610696054 0 -0.00018279037541722796 0.019706919379404331 0 -0.00020837584055982325 0.019750139554935316 0 -0.00016369875240627307 0.019667302342590308 0 -0.00031776802897237567 0.019912742851304271 0 1.0821523759913014e-05 0.021964246951452809 0 -0.00021722796340124437 0.022046486876479997 0 -0.00034330629756535315 0.019996816674252089 0 -8.6371260984418921e-05 0.020977276465090833 0 0.00015528551020900256 0.022623402649045932 0 0.00037184921809489913 0.022781810517038172 0 1.0821523759913014e-05 0.021964246951452809 0 -0.00021818815750205509 0.019754444655943115 0 -0.00031776802897237567 0.019912742851304271 0 -0.00014415438257837134 0.019632301192571439 0 -0.0002126634106223389 0.019714556255800292 0 -0.00031776802897237567 0.019912742851304271 0 1.0821523759913014e-05 0.021964246951452809 0 -2.7871120062660472e-06 0.021271911923405017 0 1.8900343191746589e-05 0.02181916992154051 0 -0.00019518667507542354 0.019729676239944743 0 -0.00021818815750205509 0.019754444655943115 0 -0.00018586201299824218 0.019701925952988926 0 -0.0002299902638119931 0.019787809403035306 0 -0.00021818815750205509 0.019754444655943115 0 -0.00031776802897237567 0.019912742851304271 0 0.00037184921809489913 0.022781810517038172 0 0.00027313374947894272 0.022903801582984738 0 0.00020897769145408317 0.022923257778386299 0 0.00015528551020900256 0.022623402649045932 0 0.00037184921809489913 0.022781810517038172 0 0.00026606062952424251 0.022826141147943714 0 -0.0002126634106223389 0.019714556255800292 0 -0.00031776802897237567 0.019912742851304271 0 -0.00027301078197090336 0.01980612011880245 0 0.00037184921809489913 0.022781810517038172 0 0.00027313374947894272 0.022903801582984738 0 0.00026606062952424251 0.022826141147943714 0 0.00015528551020900256 0.022623402649045932 0 0.00026606062952424251 0.022826141147943714 0 0.00018988245110177542 0.022914098244364453 0 0.00027313374947894272 0.022903801582984738 0 0.00026606062952424251 0.022826141147943714 0 0.00018988245110177542 0.022914098244364453 0 -0.00033796490372568804 0.019684967754865747 0 -0.0002126634106223389 0.019714556255800292 0 -0.00025085354526293121 0.019710621799440883 0 -0.00033796490372568804 0.019684967754865747 0 -0.00021167702188418006 0.01961141575293153 0 -0.00025085354526293121 0.019710621799440883 0 -6.4246851575129404e-05 0.021249498649413907 0 -2.7871120062660472e-06 0.021271911923405017 0 -0.00021167702188418006 0.01961141575293153 0 -0.0001991179957696482 0.019665390610696054 0 -0.00025085354526293121 0.019710621799440883 0 -0.00020837584055982325 0.019750139554935316 0 -0.0001991179957696482 0.019665390610696054 0 -0.00025085354526293121 0.019710621799440883 0 -0.0002126634106223389 0.019714556255800292 0 -0.00027301078197090336 0.01980612011880245 0 -0.00025085354526293121 0.019710621799440883 0 -0.00024349233111533943 0.019810880948588933 0 -0.00027301078197090336 0.01980612011880245 0 -0.00025085354526293121 0.019710621799440883 0 -0.00024349233111533943 0.019810880948588933 0 -0.00031776802897237567 0.019912742851304271 0 -0.00027301078197090336 0.01980612011880245 0 3.4980009315242595e-05 0.022836097476456464 0 0.00037184921809489913 0.022781810517038172 0 0.00020897769145408317 0.022923257778386299 0 3.4980009315242595e-05 0.022836097476456464 0 0.00020897769145408317 0.022923257778386299 0 0.00020175168490492015 0.022854381123874567 0 0.00020897769145408317 0.022923257778386299 0 0.00023912394319402852 0.023148876659409019 0 0.00020175168490492015 0.022854381123874567 0 0.00027313374947894272 0.022903801582984738 0 0.00018988245110177542 0.022914098244364453 0 0.00023912394319402852 0.023148876659409019 0 0.00027313374947894272 0.022903801582984738 0 0.00020897769145408317 0.022923257778386299 0 0.00023912394319402852 0.023148876659409019 0 0.00018988245110177542 0.022914098244364453 0 0.00023912394319402852 0.023148876659409019 0 7.8110867699641992e-05 0.023242591635718981 0 0.00023912394319402852 0.023148876659409019 0 0.00012006704089961158 0.023838782517176291 0 7.8110867699641992e-05 0.023242591635718981 0 0.00023912394319402852 0.023148876659409019 0 9.3355708367918099e-07 0.023594345227435132 0 0.00020175168490492015 0.022854381123874567 0 0.00023912394319402852 0.023148876659409019 0 9.3355708367918099e-07 0.023594345227435132 0 0.00012006704089961158 0.023838782517176291 0 9.3355708367918099e-07 0.023594345227435132 0 4.9149765701661598e-07 0.022032851809812314 0 0.00020175168490492015 0.022854381123874567 0 3.4980009315242595e-05 0.022836097476456464 0 4.9149765701661598e-07 0.022032851809812314 0 0.00020175168490492015 0.022854381123874567 0 -4.3633294264565584e-06 0.025160987889609455 0 -0.0012338597197340661 0.028469750193646809 0 -0.00043803078016242279 0.029889055030159067 0 -3.4995417392575003e-07 0.025154048047686992 0 -0.00079146826996384363 0.025817389974292424 0 9.3355708367918099e-07 0.023594345227435132 0 -1.5792194172521019e-06 0.025150577946514225 0 0.00012006704089961158 0.023838782517176291 0 -1.5792194172521019e-06 0.025150577946514225 0 0.00012006704089961158 0.023838782517176291 0 -0.0005144086107973586 0.023020770350342099 0 0.00012006704089961158 0.023838782517176291 0 7.8110867699641992e-05 0.023242591635718981 0 -0.0005144086107973586 0.023020770350342099 0 0.00018988245110177542 0.022914098244364453 0 7.8110867699641992e-05 0.023242591635718981 0 -0.0005144086107973586 0.023020770350342099 0 -0.00079146826996384363 0.025817389974292424 0 -0.00071531137941994831 0.026305397126012781 0 -0.0012338597197340661 0.028469750193646809 0 -0.0011699935769310858 0.030692507065685014 0 -0.00043803078016242279 0.029889055030159067 0 -0.0005144086107973586 0.023020770350342099 0 -7.8934741431100136e-05 0.022536951516155167 0 -0.00025658332459318253 0.022150817627989532 0 0.00018988245110177542 0.022914098244364453 0 -0.0005144086107973586 0.023020770350342099 0 -7.8934741431100136e-05 0.022536951516155167 0 0.00015528551020900256 0.022623402649045932 0 0.00018988245110177542 0.022914098244364453 0 -7.8934741431100136e-05 0.022536951516155167 0 0.00015528551020900256 0.022623402649045932 0 -7.8934741431100136e-05 0.022536951516155167 0 1.0821523759913014e-05 0.021964246951452809 0 -7.8934741431100136e-05 0.022536951516155167 0 -0.00025658332459318253 0.022150817627989532 0 1.0821523759913014e-05 0.021964246951452809 0 -0.00025658332459318253 0.022150817627989532 0 9.3293074346521157e-06 0.022172598300385503 0 -7.4758569575869913e-05 0.022099490876178171 0 -0.00071531137941994831 0.026305397126012781 0 -0.00044330773551124549 0.027381874617342077 0 -0.0011699935769310858 0.030692507065685014 0 -0.00087203095253446112 0.03158250101459998 0 -0.00026047672958791682 0.030937881867713998 0 -8.7892892007840901e-05 0.022241789058265099 0 -7.4758569575869913e-05 0.022099490876178171 0 -0.00021722796340124437 0.022046486876479997 0 2.1334689555897187e-08 0.019742945933327281 0 -0.00014415438257837134 0.019632301192571439 0 -0.00010468785407054914 0.019697769832121386 0 -0.0001846135158568398 0.020246592871525769 0 -8.6371260984418921e-05 0.020977276465090833 0 2.1334689555897187e-08 0.019742945933327281 0 -0.00010468785407054914 0.019697769832121386 0 -6.5448204755633551e-05 0.019761312610757486 0 9.3293074346521157e-06 0.022172598300385503 0 -8.7892892007840901e-05 0.022241789058265099 0 -7.4758569575869913e-05 0.022099490876178171 0 -0.00025658332459318253 0.022150817627989532 0 -7.4758569575869913e-05 0.022099490876178171 0 -7.077488680257805e-05 0.022034105860379551 0 -7.4758569575869913e-05 0.022099490876178171 0 -7.077488680257805e-05 0.022034105860379551 0 -0.00021722796340124437 0.022046486876479997 0 -0.00025658332459318253 0.022150817627989532 0 -7.077488680257805e-05 0.022034105860379551 0 1.0821523759913014e-05 0.021964246951452809 0 -7.077488680257805e-05 0.022034105860379551 0 1.0821523759913014e-05 0.021964246951452809 0 -0.00021722796340124437 0.022046486876479997 0 -0.00021818815750205509 0.019754444655943115 0 -0.00014415438257837134 0.019632301192571439 0 -0.00018586201299824218 0.019701925952988926 0 -0.00014415438257837134 0.019632301192571439 0 -0.00018586201299824218 0.019701925952988926 0 -0.00016522717404815135 0.019671977983353368 0 -0.00018586201299824218 0.019701925952988926 0 -0.00016522717404815135 0.019671977983353368 0 -0.00016757585777736874 0.019682462294864363 0 -0.00016522717404815135 0.019671977983353368 0 -0.00014459543317386434 0.01966567652061656 0 -0.00014690217372061114 0.019666132151797321 0 -0.00014459543317386434 0.01966567652061656 0 -0.00014690217372061114 0.019666132151797321 0 -0.00013232369923913076 0.01968187397532618 0 -0.00014415438257837134 0.019632301192571439 0 -0.00016522717404815135 0.019671977983353368 0 -0.00014459543317386434 0.01966567652061656 0 -0.00014415438257837134 0.019632301192571439 0 -0.00014459543317386434 0.01966567652061656 0 -0.00010468785407054914 0.019697769832121386 0 -0.00013062214178223208 0.019649665449016571 0 -0.00014427120516588581 0.019654475101513722 0 -0.00014794312332357516 0.019664270114731989 0 -0.00016302905363601265 0.019682852386555674 0 -0.00014427120516588581 0.019654475101513722 0 -0.00014794312332357516 0.019664270114731989 0 -0.00014794312332357516 0.019664270114731989 0 -0.00016757585777736874 0.019682462294864363 0 -0.00014690217372061114 0.019666132151797321 0 -0.00016522717404815135 0.019671977983353368 0 -0.00016757585777736874 0.019682462294864363 0 -0.00014690217372061114 0.019666132151797321 0 -0.00016302905363601265 0.019682852386555674 0 -0.00014794312332357516 0.019664270114731989 0 -0.00016757585777736874 0.019682462294864363 0 -0.00014794312332357516 0.019664270114731989 0 -0.00014690217372061114 0.019666132151797321 0 -0.00013708023793930762 0.019664181771077729 0 -0.00014690217372061114 0.019666132151797321 0 -0.00013708023793930762 0.019664181771077729 0 -0.00012884298363458849 0.019687023208775196 0 -0.00013062214178223208 0.019649665449016571 0 -0.00014794312332357516 0.019664270114731989 0 -0.00013708023793930762 0.019664181771077729 0 -0.00013062214178223208 0.019649665449016571 0 -0.00013708023793930762 0.019664181771077729 0 -0.00012998931488453227 0.01966936772644267 0 -0.00012998931488453227 0.01966936772644267 0 -0.00012884298363458849 0.019687023208775196 0 -0.00012634499399147715 0.019702557064870212 0 -0.00013708023793930762 0.019664181771077729 0 -0.00012998931488453227 0.01966936772644267 0 -0.00012884298363458849 0.019687023208775196 0 -0.00014690217372061114 0.019666132151797321 0 -0.00012884298363458849 0.019687023208775196 0 -0.00013232369923913076 0.01968187397532618 0 -0.00012884298363458849 0.019687023208775196 0 -0.00010780331329820012 0.019714542367558478 0 -0.00011179541949102298 0.019735004588527044 0 -0.00012884298363458849 0.019687023208775196 0 -0.00012634499399147715 0.019702557064870212 0 -0.00011179541949102298 0.019735004588527044 0 -0.00012884298363458849 0.019687023208775196 0 -0.00013232369923913076 0.01968187397532618 0 -0.00010780331329820012 0.019714542367558478 0 -0.00010468785407054914 0.019697769832121386 0 -0.00013232369923913076 0.01968187397532618 0 -0.00010780331329820012 0.019714542367558478 0 -0.00014459543317386434 0.01966567652061656 0 -0.00010468785407054914 0.019697769832121386 0 -0.00013232369923913076 0.01968187397532618 0 -0.00010468785407054914 0.019697769832121386 0 -0.00010780331329820012 0.019714542367558478 0 -6.5448204755633551e-05 0.019761312610757486 0 -6.5448204755633551e-05 0.019761312610757486 0 -9.3878841975495874e-05 0.019798987285211057 0 -4.4429924391220725e-05 0.019846739077332566 0 -0.00010780331329820012 0.019714542367558478 0 -6.5448204755633551e-05 0.019761312610757486 0 -0.00011179541949102298 0.019735004588527044 0 -6.5448204755633551e-05 0.019761312610757486 0 -0.00011179541949102298 0.019735004588527044 0 -9.3878841975495874e-05 0.019798987285211057 0 -0.00013088993224835704 0.01971233757959763 0 -0.00012634499399147715 0.019702557064870212 0 -0.00012028596808127738 0.01974934198390664 0 -0.00012634499399147715 0.019702557064870212 0 -0.00011179541949102298 0.019735004588527044 0 -0.00012028596808127738 0.01974934198390664 0 -0.00011179541949102298 0.019735004588527044 0 -0.00012028596808127738 0.01974934198390664 0 -9.3878841975495874e-05 0.019798987285211057 0 -0.00012028596808127738 0.01974934198390664 0 -0.00011600171667346722 0.019799455485101564 0 -9.3878841975495874e-05 0.019798987285211057 0 -0.00013378174420043972 0.019756505184979664 0 -0.00012028596808127738 0.01974934198390664 0 -0.00011600171667346722 0.019799455485101564 0 -0.00011600171667346722 0.019799455485101564 0 -9.3878841975495874e-05 0.019798987285211057 0 -8.2037372488258907e-05 0.019855727632448767 0 -0.00011127579947488169 0.019843545969123293 0 -0.00011600171667346722 0.019799455485101564 0 -8.2037372488258907e-05 0.019855727632448767 0 -2.8564116299169642e-05 0.01992213620375451 0 -4.4429924391220725e-05 0.019846739077332566 0 -8.2037372488258907e-05 0.019855727632448767 0 -9.3878841975495874e-05 0.019798987285211057 0 -4.4429924391220725e-05 0.019846739077332566 0 -8.2037372488258907e-05 0.019855727632448767 0 -2.8564116299169642e-05 0.01992213620375451 0 -4.4429924391220725e-05 0.019846739077332566 0 1.2069472635477609e-05 0.019889983031019413 0 -4.4429924391220725e-05 0.019846739077332566 0 1.2069472635477609e-05 0.019889983031019413 0 -6.4384786660592819e-06 0.019830173852770142 0 1.2069472635477609e-05 0.019889983031019413 0 7.7228330201348686e-05 0.019894925196027258 0 -6.4384786660592819e-06 0.019830173852770142 0 1.2069472635477609e-05 0.019889983031019413 0 7.6915328432094934e-05 0.019949007612664174 0 7.7228330201348686e-05 0.019894925196027258 0 0.00071113885769217308 0.027757274600597306 0 -0.00017648877268411264 0.028089866747254961 0 -0.0003524799026900592 0.025927579114661026 0 0.00092444571242261578 0.026192340869274303 0 -0.00020780945957718096 0.02518153930527019 0 0.00041391120355529804 0.029491466826652702 0 0.00092444571242261578 0.026192340869274303 0 0.00041391120355529804 0.029491466826652702 0 -0.00020780945957718096 0.02518153930527019 0 -0.00061975958287278021 0.032304403049961246 0 -0.00072263551315836206 0.032135178957191861 0 -0.00042588623420271836 0.032107908738674529 0 9.3293074346521157e-06 0.022172598300385503 0 -8.7892892007840901e-05 0.022241789058265099 0 9.4168834346867661e-05 0.022635580506999053 0 -0.00044330773551124549 0.027381874617342077 0 -0.00020780945957718096 0.02518153930527019 0 -0.0001846135158568398 0.020246592871525769 0 -0.00020780945957718096 0.02518153930527019 0 -0.00087203095253446112 0.03158250101459998 0 -0.00072263551315836206 0.032135178957191861 0 -0.00042588623420271836 0.032107908738674529 0 -6.5448204755633551e-05 0.019761312610757486 0 -4.4429924391220725e-05 0.019846739077332566 0 -6.4384786660592819e-06 0.019830173852770142 0 2.1334689555897187e-08 0.019742945933327281 0 -6.5448204755633551e-05 0.019761312610757486 0 -6.4384786660592819e-06 0.019830173852770142 0 2.1334689555897187e-08 0.019742945933327281 0 7.7228330201348686e-05 0.019894925196027258 0 -6.4384786660592819e-06 0.019830173852770142 0 5.9941569565388892e-05 0.031856543222463292 0 -0.00025592904614059287 0.031860073554972029 0 -0.00012323212948776201 0.032150020151012343 0 -0.00087203095253446112 0.03158250101459998 0 -0.00025592904614059287 0.031860073554972029 0 -0.00042588623420271836 0.032107908738674529 0 -0.00025592904614059287 0.031860073554972029 0 -0.00042588623420271836 0.032107908738674529 0 -0.00012323212948776201 0.032150020151012343 0 -0.00061975958287278021 0.032304403049961246 0 -0.00042588623420271836 0.032107908738674529 0 -0.00012323212948776201 0.032150020151012343 0 0.00041391120355529804 0.029491466826652702 0 2.1150825874138297e-06 0.032284984235714333 0 0.00064357624479913201 0.031630407400016922 0 0.00085654136393450346 0.031668575446601122 0 0.00045220840177019996 0.031835183070514868 0 0.0005149895009421803 0.031526506098533871 0 0.00045220840177019996 0.031835183070514868 0 0.00030298377261558717 0.031864431032129298 0 0.00042655499226350367 0.032695682871609316 0 0.00035368015352253018 0.032765222139386561 0 0.0005149895009421803 0.031526506098533871 0 0.00064357624479913201 0.031630407400016922 0 0.00045220840177019996 0.031835183070514868 0 2.1150825874138297e-06 0.032284984235714333 0 0.00036739939810049476 0.031824913723791266 0 0.00045220840177019996 0.031835183070514868 0 0.00030298377261558717 0.031864431032129298 0 0.0002957140813906693 0.031886224825926394 0 0.0001661953321740849 0.03357981813804934 0 0.00033816296634540911 0.033711109456009289 0 7.2260604810377889e-05 0.033725991217203183 0 0.00031771664499425365 0.031870500158121769 0 0.0002957140813906693 0.031886224825926394 0 0.0002543571370427859 0.031785750921957491 0 0.00035368015352253018 0.032765222139386561 0 0.00019799648042136819 0.032747045356669752 0 0.00033816296634540911 0.033711109456009289 0 0.00014343669403937357 0.03385893268713671 0 7.2260604810377889e-05 0.033725991217203183 0 0.00019799648042136819 0.032747045356669752 0 7.8502299526867991e-05 0.033855268508559563 0 5.9941569565388892e-05 0.031856543222463292 0 -0.00012323212948776201 0.032150020151012343 0 0.0002957140813906693 0.031886224825926394 0 0.00030298377261558717 0.031864431032129298 0 0.00031771664499425365 0.031870500158121769 0 0.0002957140813906693 0.031886224825926394 0 5.9941569565388892e-05 0.031856543222463292 0 0.0002957140813906693 0.031886224825926394 0 0.0002543571370427859 0.031785750921957491 0 5.9941569565388892e-05 0.031856543222463292 0 0.0002543571370427859 0.031785750921957491 0 1.8034946284953022e-05 0.031580537209217302 0 0.0002543571370427859 0.031785750921957491 0 0.00034624373058612636 0.03167096748575976 0 1.8034946284953022e-05 0.031580537209217302 0 0.00019799648042136819 0.032747045356669752 0 0.00028934087565295246 0.031400387607600701 0 0.00038906850348365257 0.031928225791684632 0 0.0004135495649210207 0.03181154282053985 0 0.00034624373058612636 0.03167096748575976 0 0.00031771664499425365 0.031870500158121769 0 0.0002543571370427859 0.031785750921957491 0 0.00034624373058612636 0.03167096748575976 0 0.00038906850348365257 0.031928225791684632 0 0.0004135495649210207 0.03181154282053985 0 0.00042956773078034504 0.031856699615023326 0 0.0004135495649210207 0.03181154282053985 0 0.00038753153632250294 0.031738911491130922 0 0.00042082652995992546 0.031920887988109804 0 0.0004135495649210207 0.03181154282053985 0 0.00034624373058612636 0.03167096748575976 0 0.00038753153632250294 0.031738911491130922 0 0.00034624373058612636 0.03167096748575976 0 0.00038753153632250294 0.031738911491130922 0 0.00027514296338837664 0.03122483878466023 0 0.00034624373058612636 0.03167096748575976 0 1.8034946284953022e-05 0.031580537209217302 0 0.00027514296338837664 0.03122483878466023 0 1.8034946284953022e-05 0.031580537209217302 0 -0.00026047672958791682 0.030937881867713998 0 0.00027514296338837664 0.03122483878466023 0 -0.00087203095253446112 0.03158250101459998 0 1.8034946284953022e-05 0.031580537209217302 0 -0.00026047672958791682 0.030937881867713998 0 -0.00087203095253446112 0.03158250101459998 0 -0.00025592904614059287 0.031860073554972029 0 1.8034946284953022e-05 0.031580537209217302 0 5.9941569565388892e-05 0.031856543222463292 0 -0.00025592904614059287 0.031860073554972029 0 1.8034946284953022e-05 0.031580537209217302 0 -4.3633294264565584e-06 0.025160987889609455 0 0.00019474997074001618 0.030030872584343671 0 2.377491169112944e-06 0.030635079441759406 0 -0.0011699935769310858 0.030692507065685014 0 -0.00026047672958791682 0.030937881867713998 0 -0.00043803078016242279 0.029889055030159067 0 -0.00026047672958791682 0.030937881867713998 0 0.00019474997074001618 0.030030872584343671 0 0.00027514296338837664 0.03122483878466023 0 -0.00026047672958791682 0.030937881867713998 0 0.00019474997074001618 0.030030872584343671 0 -0.00043803078016242279 0.029889055030159067 0 -4.3633294264565584e-06 0.025160987889609455 0 0.00019474997074001618 0.030030872584343671 0 -0.00043803078016242279 0.029889055030159067 0 0.00019474997074001618 0.030030872584343671 0 0.00032412783675892962 0.031584663078953946 0 2.377491169112944e-06 0.030635079441759406 0 0.00019474997074001618 0.030030872584343671 0 0.00032412783675892962 0.031584663078953946 0 0.00027514296338837664 0.03122483878466023 0 0.00038753153632250294 0.031738911491130922 0 0.00032412783675892962 0.031584663078953946 0 0.00027514296338837664 0.03122483878466023 0 0.00038753153632250294 0.031738911491130922 0 0.00032412783675892962 0.031584663078953946 0 0.00039320957412373536 0.032195461170083081 0 0.00032412783675892962 0.031584663078953946 0 0.00039320957412373536 0.032195461170083081 0 0.00025089667999630673 0.032675598696716074 0 0.00039320957412373536 0.032195461170083081 0 0.00023365830511696035 0.032720164511910316 0 0.00025089667999630673 0.032675598696716074 0 0.00023365830511696035 0.032720164511910316 0 0.00025089667999630673 0.032675598696716074 0 -1.4533303363315315e-05 0.034013836854938029 0 0.00025089667999630673 0.032675598696716074 0 0.00021036293155106672 0.032119792962280645 0 0.00014903658645719494 0.033408259053055889 0 0.00032412783675892962 0.031584663078953946 0 0.00025089667999630673 0.032675598696716074 0 0.00021036293155106672 0.032119792962280645 0 0.00032412783675892962 0.031584663078953946 0 0.00021036293155106672 0.032119792962280645 0 2.377491169112944e-06 0.030635079441759406 0 0.00021036293155106672 0.032119792962280645 0 2.377491169112944e-06 0.030635079441759406 0 0.00014903658645719494 0.033408259053055889 0 -3.4298908402902326e-07 0.034998935503441173 0 0.00014903658645719494 0.033408259053055889 0 3.1772357548546932e-07 0.034994266362656061 0 2.377491169112944e-06 0.030635079441759406 0 -3.4298908402902326e-07 0.034998935503441173 0 0.00014903658645719494 0.033408259053055889 0 0.00014903658645719494 0.033408259053055889 0 -1.4533303363315315e-05 0.034013836854938029 0 3.1772357548546932e-07 0.034994266362656061 0 0.00025089667999630673 0.032675598696716074 0 0.00014903658645719494 0.033408259053055889 0 -1.4533303363315315e-05 0.034013836854938029 0 0.00023365830511696035 0.032720164511910316 0 -1.4533303363315315e-05 0.034013836854938029 0 6.2622500279496145e-05 0.032627305659156634 0 -1.7981303121995918e-05 0.033783340355169195 0 -9.8750277876090387e-07 0.033429085683821816 0 -1.4533303363315315e-05 0.034013836854938029 0 3.1772357548546932e-07 0.034994266362656061 0 7.9190512696886897e-06 0.034288959748148259 0 3.1651911678483423e-10 0.034999999698349285 0 1.8237806080394573e-06 0.034999870023503986 0 1.4290202114116174e-09 0.034999999590290903 0 9.3519810379151358e-09 0.0349998272013178 0 3.1677424692517693e-05 0.034639469823439101 0 1.8237806080394573e-06 0.034999870023503986 0 1.4290202114116174e-09 0.034999999590290903 0 2.0494121634641203e-06 0.034999776490342083 0 3.1677424692517693e-05 0.034639469823439101 0 -9.6532981383575577e-05 0.03478434580130832 0 7.9190512696886897e-06 0.034288959748148259 0 -0.0001472007764246384 0.034306914204673342 0 -0.00013614391554645053 0.034436612149369474 0 1.8237806080394573e-06 0.034999870023503986 0 2.0494121634641203e-06 0.034999776490342083 0 8.4069659620141075e-06 0.035001356745503441 0 -1.4533303363315315e-05 0.034013836854938029 0 7.9190512696886897e-06 0.034288959748148259 0 -0.00015867262651303489 0.034158167429344265 0 7.9190512696886897e-06 0.034288959748148259 0 -0.0001472007764246384 0.034306914204673342 0 -0.00015867262651303489 0.034158167429344265 0 0.00023365830511696035 0.032720164511910316 0 6.2622500279496145e-05 0.032627305659156634 0 0.0003059296436919039 0.032198766399608045 0 0.00039320957412373536 0.032195461170083081 0 0.00023365830511696035 0.032720164511910316 0 0.0003059296436919039 0.032198766399608045 0 0.00018509834812589321 0.032476648531095852 0 0.00014658406035288039 0.033057385734001112 0 0.0003059296436919039 0.032198766399608045 0 0.00029166222265550215 0.03202236642280086 0 0.00038065267431930015 0.032021875495182615 0 -0.0001472007764246384 0.034306914204673342 0 -0.00015867262651303489 0.034158167429344265 0 -0.00026109867733616852 0.034265069180440803 0 -9.8750277876090387e-07 0.033429085683821816 0 0.00014658406035288039 0.033057385734001112 0 6.2622500279496145e-05 0.032627305659156634 0 0.0003059296436919039 0.032198766399608045 0 0.00028881794566917911 0.032005868878801268 0 0.00038753153632250294 0.031738911491130922 0 0.00039320957412373536 0.032195461170083081 0 0.00042082652995992546 0.031920887988109804 0 0.00039320957412373536 0.032195461170083081 0 0.0003059296436919039 0.032198766399608045 0 0.00038065267431930015 0.032021875495182615 0 0.00039320957412373536 0.032195461170083081 0 0.00038065267431930015 0.032021875495182615 0 0.00042082652995992546 0.031920887988109804 0 0.00038065267431930015 0.032021875495182615 0 0.00042082652995992546 0.031920887988109804 0 0.00042956773078034504 0.031856699615023326 0 0.00033372570989916148 0.033059978578108315 0 8.5477786616194607e-05 0.033273356241820748 0 0.00033185676019892546 0.033454919702522547 0 0.0004135495649210207 0.03181154282053985 0 0.00042082652995992546 0.031920887988109804 0 0.00042956773078034504 0.031856699615023326 0 0.00014658406035288039 0.033057385734001112 0 0.00031028007899453305 0.032538376926250494 0 0.00029166222265550215 0.03202236642280086 0 0.00038065267431930015 0.032021875495182615 0 0.00042956773078034504 0.031856699615023326 0 0.00019799648042136819 0.032747045356669752 0 0.00031028007899453305 0.032538376926250494 0 -0.00026109867733616852 0.034265069180440803 0 -0.00019772099553489359 0.034362013769201213 0 -0.00025047844930114544 0.03443469187961052 0 0.00014658406035288039 0.033057385734001112 0 3.7513360497193401e-05 0.034014360769150709 0 -0.0001472007764246384 0.034306914204673342 0 -0.00026109867733616852 0.034265069180440803 0 -0.00019772099553489359 0.034362013769201213 0 -0.00019772099553489359 0.034362013769201213 0 -0.00025047844930114544 0.03443469187961052 0 -0.00013614391554645053 0.034436612149369474 0 -0.0001472007764246384 0.034306914204673342 0 -0.00019772099553489359 0.034362013769201213 0 -0.00013614391554645053 0.034436612149369474 0 2.9994345599620381e-05 0.034991995229958099 0 4.3416535370446172e-06 0.034996133555767084 0 8.4069659620141075e-06 0.035001356745503441 0 -1.2247344353346812e-05 0.034433385331978671 0 -9.6532981383575577e-05 0.03478434580130832 0 -0.00025047844930114544 0.03443469187961052 0 -0.00024804416954478966 0.034583498672111503 0 -0.00013614391554645053 0.034436612149369474 0 3.7513360497193401e-05 0.034014360769150709 0 -1.2247344353346812e-05 0.034433385331978671 0 0.00011301970247259496 0.033572990035990416 0 -1.5957798899323977e-05 0.033800376502113545 0 0.00032834662004194436 0.033851274141385834 0 0.00033185676019892546 0.033454919702522547 0 0.00011301970247259496 0.033572990035990416 0 0.00032834662004194436 0.033851274141385834 0 -0.00016446429208985075 0.03348625771538661 0 8.5477786616194607e-05 0.033273356241820748 0 0.00011301970247259496 0.033572990035990416 0 8.5477786616194607e-05 0.033273356241820748 0 0.00033185676019892546 0.033454919702522547 0 0.00011301970247259496 0.033572990035990416 0 -0.00016446429208985075 0.03348625771538661 0 0.00011301970247259496 0.033572990035990416 0 -1.5957798899323977e-05 0.033800376502113545 0 0.00013381886779740182 0.034111498899545623 0 -1.5957798899323977e-05 0.033800376502113545 0 0.00032834662004194436 0.033851274141385834 0 -7.7633253714785072e-07 0.033586250240139941 0 0.0001661953321740849 0.03357981813804934 0 7.2260604810377889e-05 0.033725991217203183 0 3.3260400354918207e-05 0.033968700069935936 0 -1.2247344353346812e-05 0.034433385331978671 0 3.3260400354918207e-05 0.033968700069935936 0 7.8502299526867991e-05 0.033855268508559563 0 4.0541215704155618e-05 0.034751533866747251 0 -1.2247344353346812e-05 0.034433385331978671 0 1.6568230957079247e-06 0.034984010774952182 0 3.9411616330177283e-05 0.034975682571080184 0 2.9994345599620381e-05 0.034991995229958099 0 4.282188243985053e-05 0.034429651009280762 0 -2.2752959810591593e-05 0.034406929154528844 0 4.2400912901116017e-05 0.034319705818581313 0 1.6568230957079247e-06 0.034984010774952182 0 2.9994345599620381e-05 0.034991995229958099 0 4.3416535370446172e-06 0.034996133555767084 0 1.6568230957079247e-06 0.034984010774952182 0 6.5397447359134921e-09 0.035000000437035939 0 4.3416535370446172e-06 0.034996133555767084 0 6.5397447359134921e-09 0.035000000437035939 0 2.0494121634641203e-06 0.034999776490342083 0 4.3416535370446172e-06 0.034996133555767084 0 1.4290202114116174e-09 0.034999999590290903 0 6.5397447359134921e-09 0.035000000437035939 0 2.0494121634641203e-06 0.034999776490342083 0 2.0494121634641203e-06 0.034999776490342083 0 4.3416535370446172e-06 0.034996133555767084 0 8.4069659620141075e-06 0.035001356745503441 0 0.0017350450069584184 0.0074743409878795606 0 0.0015206742079169461 0.0074988871405259555 0 0.0015153292617011589 0.0070174077032855702 0 0.0017350450069584184 0.0074743409878795606 0 0.0015206742079169461 0.0074988871405259555 0 0.0017648415856744654 0.0078917747199922991 0 0.0015206742079169461 0.0074988871405259555 0 0.0015153292617011589 0.0070174077032855702 0 0.0012932918679384551 0.0069348907780354217 0 0.0015206742079169461 0.0074988871405259555 0 0.0012932918679384551 0.0069348907780354217 0 0.0011795393703476311 0.0076370723128451482 0 0.0015206742079169461 0.0074988871405259555 0 0.0014610821769969102 0.0079197482046327282 0 0.0011795393703476311 0.0076370723128451482 0 0.0015206742079169461 0.0074988871405259555 0 0.0014610821769969102 0.0079197482046327282 0 0.0017648415856744654 0.0078917747199922991 0 0.0017648415856744654 0.0078917747199922991 0 0.0019679523990757627 0.0080678744642340063 0 0.0018893189626162201 0.0081486416533293887 0 0.0017648415856744654 0.0078917747199922991 0 0.0019679523990757627 0.0080678744642340063 0 0.0019082777731802508 0.0078198974805745725 0 0.0019679523990757627 0.0080678744642340063 0 0.0020245550073256808 0.0079585176963445012 0 0.0020869293092933643 0.0082116786005259103 0 0.0019679523990757627 0.0080678744642340063 0 0.0020245550073256808 0.0079585176963445012 0 0.0019082777731802508 0.0078198974805745725 0 0.0020245550073256808 0.0079585176963445012 0 0.0020209086045177441 0.0076830839817910081 0 0.0019082777731802508 0.0078198974805745725 0 0.0020245550073256808 0.0079585176963445012 0 0.0020209086045177441 0.0076830839817910081 0 0.0020681598798627738 0.0080269565916230023 0 0.0017350450069584184 0.0074743409878795606 0 0.0017648415856744654 0.0078917747199922991 0 0.0019082777731802508 0.0078198974805745725 0 0.0017350450069584184 0.0074743409878795606 0 0.0020209086045177441 0.0076830839817910081 0 0.0019082777731802508 0.0078198974805745725 0 0.0017350450069584184 0.0074743409878795606 0 0.0017841276077082888 0.00719343321462653 0 0.0016102706956560566 0.007041652823087865 0 0.0017350450069584184 0.0074743409878795606 0 0.0020209086045177441 0.0076830839817910081 0 0.0017841276077082888 0.00719343321462653 0 0.0020209086045177441 0.0076830839817910081 0 0.0017841276077082888 0.00719343321462653 0 0.0019946617391377835 0.0071689052914240964 0 0.0017841276077082888 0.00719343321462653 0 0.0019946617391377835 0.0071689052914240964 0 0.0018139546001187115 0.0069649533253737256 0 0.0017841276077082888 0.00719343321462653 0 0.0016133396662576876 0.0068768727628436199 0 0.0016102706956560566 0.007041652823087865 0 0.0020209086045177441 0.0076830839817910081 0 0.0020091899905163345 0.0078927650356012038 0 0.0020681598798627738 0.0080269565916230023 0 0.0020163738530390523 0.0077075980372899684 0 0.0022312380701189028 0.0074490162713791797 0 0.0020209086045177441 0.0076830839817910081 0 0.0019946617391377835 0.0071689052914240964 0 0.0023546528894666813 0.0071587455902866418 0 0.0020631726036152128 0.0069149126550370416 0 0.001639564039639572 0.0067392791260902727 0 0.0024810611068652511 0.006668953234324702 0 0.001851051845137856 0.0066218461388546455 0 0.0017279767380006252 0.0071871313209575845 0 0.0023546528894666813 0.0071587455902866418 0 0.0020631726036152128 0.0069149126550370416 0 0.0024810611068652511 0.006668953234324702 0 0.0019946617391377835 0.0071689052914240964 0 0.0023546528894666813 0.0071587455902866418 0 0.0020631726036152128 0.0069149126550370416 0 0.0017841276077082888 0.00719343321462653 0 0.0016133396662576876 0.0068768727628436199 0 0.0018139546001187115 0.0069649533253737256 0 0.0016133396662576876 0.0068768727628436199 0 0.0018139546001187115 0.0069649533253737256 0 0.001639564039639572 0.0067392791260902727 0 0.0019946617391377835 0.0071689052914240964 0 0.0020631726036152128 0.0069149126550370416 0 0.0018139546001187115 0.0069649533253737256 0 0.0020631726036152128 0.0069149126550370416 0 0.0018139546001187115 0.0069649533253737256 0 0.001639564039639572 0.0067392791260902727 0 0.0016133396662576876 0.0068768727628436199 0 0.001639564039639572 0.0067392791260902727 0 0.0014806501914833843 0.0067237513399199802 0 0.0016133396662576876 0.0068768727628436199 0 0.0014806501914833843 0.0067237513399199802 0 0.0014497329171482838 0.006703315423411715 0 0.0014806501914833843 0.0067237513399199802 0 0.0014497329171482838 0.006703315423411715 0 0.0013967997947454363 0.0066489325041291999 0 0.0016133396662576876 0.0068768727628436199 0 0.0014497329171482838 0.006703315423411715 0 0.0016102706956560566 0.007041652823087865 0 0.0014497329171482838 0.006703315423411715 0 0.0016102706956560566 0.007041652823087865 0 0.0015153292617011589 0.0070174077032855702 0 0.0017350450069584184 0.0074743409878795606 0 0.0016102706956560566 0.007041652823087865 0 0.0015153292617011589 0.0070174077032855702 0 0.0014497329171482838 0.006703315423411715 0 0.0015153292617011589 0.0070174077032855702 0 0.0013795497782105371 0.0065307582224852397 0 0.0015153292617011589 0.0070174077032855702 0 0.0013795497782105371 0.0065307582224852397 0 0.0012932918679384551 0.0069348907780354217 0 0.0014497329171482838 0.006703315423411715 0 0.0013795497782105371 0.0065307582224852397 0 0.0013377143993946929 0.006501414326483824 0 0.0013795497782105371 0.0065307582224852397 0 0.0012866814300014535 0.0059409637076079146 0 0.0013377143993946929 0.006501414326483824 0 0.0012866814300014535 0.0059409637076079146 0 -0.00034681581469827335 0.0051839871038983701 0 0.00046041062878986704 0.0040860178631666518 0 0.0012866814300014535 0.0059409637076079146 0 0.0001838520269957376 0.0063343189698247459 0 -0.00034681581469827335 0.0051839871038983701 0 0.0012866814300014535 0.0059409637076079146 0 0.0001838520269957376 0.0063343189698247459 0 0.00072048231202080128 0.007001296056944357 0 0.0013795497782105371 0.0065307582224852397 0 0.0012866814300014535 0.0059409637076079146 0 0.0012932918679384551 0.0069348907780354217 0 0.0012866814300014535 0.0059409637076079146 0 0.0012932918679384551 0.0069348907780354217 0 0.00072048231202080128 0.007001296056944357 0 -0.0018433335402901602 0.0047555807475810324 0 -0.00034681581469827335 0.0051839871038983701 0 -0.0017459569703504891 0.0060613060872653632 0 -0.0018433335402901602 0.0047555807475810324 0 -0.00034681581469827335 0.0051839871038983701 0 -0.00044676888712223483 0.003059893358485501 0 0.0001838520269957376 0.0063343189698247459 0 -0.00034681581469827335 0.0051839871038983701 0 -0.00071292312904826661 0.0065802761640921187 0 -0.00034681581469827335 0.0051839871038983701 0 -0.00071292312904826661 0.0065802761640921187 0 -0.0017459569703504891 0.0060613060872653632 0 0.0001838520269957376 0.0063343189698247459 0 -0.00071292312904826661 0.0065802761640921187 0 -1.7771312951476802e-05 0.0071031563647957199 0 -0.0018433335402901602 0.0047555807475810324 0 -0.0017459569703504891 0.0060613060872653632 0 -0.0027311365139587674 0.0058953568398442723 0 -0.00071292312904826661 0.0065802761640921187 0 -0.0017459569703504891 0.0060613060872653632 0 -0.0015729794886304128 0.0071429690237320353 0 -0.0017459569703504891 0.0060613060872653632 0 -0.0015729794886304128 0.0071429690237320353 0 -0.0026251277059673871 0.0069241689920169934 0 -0.0015729794886304128 0.0071429690237320353 0 -0.00065852365140520543 0.007402470005350016 0 -0.0013746134553101524 0.008149697172805951 0 -0.00071292312904826661 0.0065802761640921187 0 -0.0015729794886304128 0.0071429690237320353 0 -0.00065852365140520543 0.007402470005350016 0 -0.00071292312904826661 0.0065802761640921187 0 -0.00065852365140520543 0.007402470005350016 0 -1.7771312951476802e-05 0.0071031563647957199 0 -0.00065852365140520543 0.007402470005350016 0 -1.7771312951476802e-05 0.0071031563647957199 0 0.00018249197491687023 0.0078932319341390392 0 -0.00065852365140520543 0.007402470005350016 0 -0.0013746134553101524 0.008149697172805951 0 0.00018249197491687023 0.0078932319341390392 0 -0.00072955214605759837 0.0076275669194466929 0 0.00039281686566389353 0.0078074376822994153 0 -1.2326328415377714e-05 0.0077158012567036215 0 0.00061104909611867 0.0076640777694490193 0 0.00058130409755486571 0.0079705991001335474 0 -0.00072955214605759837 0.0076275669194466929 0 0.00095516217670511068 0.0071638191942697852 0 -0.0015729794886304128 0.0071429690237320353 0 -0.0013746134553101524 0.008149697172805951 0 -0.0022370600112592396 0.007763220896014101 0 -0.00072955214605759837 0.0076275669194466929 0 -0.0021500027903418343 0.0076803446359344635 0 0.0012932918679384551 0.0069348907780354217 0 0.00072048231202080128 0.007001296056944357 0 0.0011795393703476311 0.0076370723128451482 0 0.00072048231202080128 0.007001296056944357 0 0.00018249197491687023 0.0078932319341390392 0 0.0011795393703476311 0.0076370723128451482 0 -1.7771312951476802e-05 0.0071031563647957199 0 0.00072048231202080128 0.007001296056944357 0 0.00018249197491687023 0.0078932319341390392 0 0.0001838520269957376 0.0063343189698247459 0 -1.7771312951476802e-05 0.0071031563647957199 0 0.00072048231202080128 0.007001296056944357 0 0.00039281686566389353 0.0078074376822994153 0 0.0011232727005136022 0.0076498430327218729 0 0.00061104909611867 0.0076640777694490193 0 0.0009182875631597757 0.0078545828073980622 0 0.0011795393703476311 0.0076370723128451482 0 0.00061104909611867 0.0076640777694490193 0 0.0009182875631597757 0.0078545828073980622 0 0.00058130409755486571 0.0079705991001335474 0 0.0009182875631597757 0.0078545828073980622 0 0.0011795393703476311 0.0076370723128451482 0 0.0011169711368982068 0.0081871421004316158 0 0.0014610821769969102 0.0079197482046327282 0 0.0011795393703476311 0.0076370723128451482 0 0.0011169711368982068 0.0081871421004316158 0 0.0018639607222930967 0.0063435096460672091 0 0.0010011480093457274 0.0061632563925114138 0 0.0014746433564111639 0.0075483320559970573 0 0.00095516217670511068 0.0071638191942697852 0 0.0009182875631597757 0.0078545828073980622 0 0.0011169711368982068 0.0081871421004316158 0 0.00058130409755486571 0.0079705991001335474 0 0.0010571775801335207 0.0064792637044314349 0 0.0015430958669541092 0.0069969004546656059 0 0.0005689155906943035 0.0067404805755329616 0 0.0018943415762562388 0.0068492534548394782 0 0.0010571775801335207 0.0064792637044314349 0 0.0015430958669541092 0.0069969004546656059 0 0.0023509649580943197 0.005684840606056194 0 0.002507820160319849 0.0060358081670919151 0 0.0017798528218819262 0.0061456027543239349 0 0.0030683773938662926 0.0056751641179678099 0 0.0021044811752180723 0.0058765106376848378 0 0.0023509649580943197 0.005684840606056194 0 0.002507820160319849 0.0060358081670919151 0 0.0032382685474756671 0.0059276389872981953 0 0.0018943415762562388 0.0068492534548394782 0 0.0015430958669541092 0.0069969004546656059 0 0.002512531438736889 0.0072537088866656153 0 0.0018639607222930967 0.0063435096460672091 0 0.0032961854448715707 0.0064376066280988848 0 0.0030683773938662926 0.0056751641179678099 0 0.0032961854448715707 0.0064376066280988848 0 0.0010192273262035821 0.0055443451302671313 0 0.0014683976662174902 0.0054478740727383155 0 0.0005859857229895863 0.005213585593122667 0 0.00021644267870933969 0.0061085742582625792 0 0.0005689155906943035 0.0067404805755329616 0 -0.00040252851111212851 0.0064781786463043653 0 0.0010011480093457274 0.0061632563925114138 0 0.00031449031977635097 0.0053012597077352012 0 0.0010192273262035821 0.0055443451302671313 0 0.0014683976662174902 0.0054478740727383155 0 0.0013334658122004636 0.0058900364056746193 0 0.00021644267870933969 0.0061085742582625792 0 0.0010571775801335207 0.0064792637044314349 0 0.0005689155906943035 0.0067404805755329616 0 0.0023509649580943197 0.005684840606056194 0 0.0014683976662174902 0.0054478740727383155 0 0.0017798528218819262 0.0061456027543239349 0 0.0017798528218819262 0.0061456027543239349 0 0.0013334658122004636 0.0058900364056746193 0 0.0010558268192066872 0.0062573463728876283 0 0.0014683976662174902 0.0054478740727383155 0 0.0017798528218819262 0.0061456027543239349 0 0.0013334658122004636 0.0058900364056746193 0 0.0010479700024180211 0.0058325781908332586 0 0.0010558268192066872 0.0062573463728876283 0 0.00077699461604088652 0.0057244843750110831 0 0.0014913838302304276 0.0056885725017353133 0 0.0010459843979568231 0.0052056454762009416 0 0.0010192273262035821 0.0055443451302671313 0 0.0013334658122004636 0.0058900364056746193 0 0.0010479700024180211 0.0058325781908332586 0 0.0013334658122004636 0.0058900364056746193 0 0.0010479700024180211 0.0058325781908332586 0 0.0010558268192066872 0.0062573463728876283 0 0.0010192273262035821 0.0055443451302671313 0 0.0010479700024180211 0.0058325781908332586 0 0.00077699461604088652 0.0057244843750110831 0 0.0025427821893228685 0.0055478318229292755 0 0.0016937643600654631 0.0055997866404176094 0 0.0017860828142084576 0.0057783700591573115 0 0.0016799424047870507 0.0060441823814609977 0 0.0015028765732792281 0.0057977959407891216 0 0.0012402956055931741 0.0060711564326316981 0 0.0016799424047870507 0.0060441823814609977 0 0.0015028765732792281 0.0057977959407891216 0 0.0017860828142084576 0.0057783700591573115 0 0.0015028765732792281 0.0057977959407891216 0 0.0016755784716196095 0.0055206250165976351 0 0.0013254135252770418 0.0055337039028775167 0 0.0014913838302304276 0.0056885725017353133 0 0.001454954210271467 0.0056171294626781634 0 0.0014913838302304276 0.0056885725017353133 0 0.0015795505694336368 0.0057394843950494363 0 0.0015028765732792281 0.0057977959407891216 0 0.0016755784716196095 0.0055206250165976351 0 0.0017860828142084576 0.0057783700591573115 0 0.0017860828142084576 0.0057783700591573115 0 0.002302552699378793 0.0059918258301309884 0 0.0020567723857923331 0.0061306378131269481 0 0.0016799424047870507 0.0060441823814609977 0 0.0017860828142084576 0.0057783700591573115 0 0.0020567723857923331 0.0061306378131269481 0 0.0021044811752180723 0.0058765106376848378 0 0.0014913838302304276 0.0056885725017353133 0 0.0025427821893228685 0.0055478318229292755 0 0.002302552699378793 0.0059918258301309884 0 0.0026988438896657901 0.006374563006431494 0 0.0025427821893228685 0.0055478318229292755 0 0.0017860828142084576 0.0057783700591573115 0 0.002302552699378793 0.0059918258301309884 0 0.0013356758707260992 0.0065674916773295223 0 0.0023582389255938406 0.0064447700483377763 0 0.002302552699378793 0.0059918258301309884 0 0.0020567723857923331 0.0061306378131269481 0 0.0026988438896657901 0.006374563006431494 0 0.0020567723857923331 0.0061306378131269481 0 0.0017643972494067078 0.0064481718621232555 0 0.0026988438896657901 0.006374563006431494 0 0.0013955888988062665 0.0070436414362322541 0 0.00091775479832926663 0.0067178841721487271 0 0.0019999289061284099 0.006494718071423022 0 0.0020484971660614387 0.0072327999447013543 0 0.0013955888988062665 0.0070436414362322541 0 0.0019999289061284099 0.006494718071423022 0 0.0016799424047870507 0.0060441823814609977 0 0.0020567723857923331 0.0061306378131269481 0 0.0017643972494067078 0.0064481718621232555 0 0.00091305378682147401 0.0070340382068982349 0 0.0013955888988062665 0.0070436414362322541 0 0.00091775479832926663 0.0067178841721487271 0 0.00091305378682147401 0.0070340382068982349 0 0.00091775479832926663 0.0067178841721487271 0 0.00072056679280558546 0.006903834475212537 0 0.0016799424047870507 0.0060441823814609977 0 0.0017643972494067078 0.0064481718621232555 0 0.0012402956055931741 0.0060711564326316981 0 0.0033934848876089915 0.0054721728931607545 0 0.0036410336910559491 0.0063582316495973184 0 0.0039800810807022391 0.0058191068118698562 0 0.0033934848876089915 0.0054721728931607545 0 0.0026988438896657901 0.006374563006431494 0 0.0036410336910559491 0.0063582316495973184 0 0.0033934848876089915 0.0054721728931607545 0 0.0025427821893228685 0.0055478318229292755 0 0.0026988438896657901 0.006374563006431494 0 0.0027294450364454366 0.0070580693019936091 0 0.0019999289061284099 0.006494718071423022 0 0.0033624424100029849 0.0063865797339949229 0 0.0023582389255938406 0.0064447700483377763 0 0.0035184151853872971 0.0063781677917653856 0 0.0027294450364454366 0.0070580693019936091 0 0.0020484971660614387 0.0072327999447013543 0 0.0019999289061284099 0.006494718071423022 0 0.0034390910213472742 0.0076691559893935285 0 0.0027294450364454366 0.0070580693019936091 0 0.0033624424100029849 0.0063865797339949229 0 0.0044759677377983554 0.0073075420615263988 0 0.0033624424100029849 0.0063865797339949229 0 0.0046787145779306422 0.0063672958539908106 0 0.0035184151853872971 0.0063781677917653856 0 0.0046001388117537182 0.0063481093791010667 0 0.0044759677377983554 0.0073075420615263988 0 0.0052799308794606176 0.0068573169731609507 0 0.0046787145779306422 0.0063672958539908106 0 0.0052799308794606176 0.0068573169731609507 0 0.0051950834588344449 0.0062047179026417775 0 0.0046787145779306422 0.0063672958539908106 0 0.0051950834588344449 0.0062047179026417775 0 0.0046787145779306422 0.0063672958539908106 0 0.0045969479860080422 0.0058257943267890442 0 0.0051950834588344449 0.0062047179026417775 0 0.0045969479860080422 0.0058257943267890442 0 0.0049946949668332272 0.0054940655132537722 0 0.0036410336910559491 0.0063582316495973184 0 0.0046787145779306422 0.0063672958539908106 0 0.0039800810807022391 0.0058191068118698562 0 0.0046787145779306422 0.0063672958539908106 0 0.0045969479860080422 0.0058257943267890442 0 0.0039800810807022391 0.0058191068118698562 0 0.0033934848876089915 0.0054721728931607545 0 0.0039800810807022391 0.0058191068118698562 0 0.004304406698848527 0.0053480667339786585 0 0.0014746433564111639 0.0075483320559970573 0 0.0022159171692763637 0.0075329031955412998 0 0.0018943415762562388 0.0068492534548394782 0 0.002512531438736889 0.0072537088866656153 0 0.002728198968422964 0.0072198574752980176 0 0.0032961854448715707 0.0064376066280988848 0 0.0022159171692763637 0.0075329031955412998 0 0.0045969479860080422 0.0058257943267890442 0 0.0039800810807022391 0.0058191068118698562 0 0.004304406698848527 0.0053480667339786585 0 0.0045969479860080422 0.0058257943267890442 0 0.004304406698848527 0.0053480667339786585 0 0.0049946949668332272 0.0054940655132537722 0 0.0034624068297312732 0.0069850013702159553 0 0.0022159171692763637 0.0075329031955412998 0 0.0032961854448715707 0.0064376066280988848 0 0.0034624068297312732 0.0069850013702159553 0 0.0022159171692763637 0.0075329031955412998 0 0.001708115025334248 0.0084961242963317932 0 0.0028605437308968774 0.0068210712160370534 0 0.0032673924433264051 0.0069142209174670498 0 0.0030212292963827068 0.0067987765316887853 0 0.0019251837148028998 0.0083108652006633719 0 0.0019156170355425091 0.0083044220654990702 0 0.0019428713768942325 0.0082934341756663397 0 0.0015558291988184284 0.0083578155749316277 0 0.0017257519207436579 0.0081437004189360961 0 0.0019428713768942325 0.0082934341756663397 0 0.0014610821769969102 0.0079197482046327282 0 0.0017257519207436579 0.0081437004189360961 0 0.0014736746754344015 0.0081506405589677772 0 0.0014610821769969102 0.0079197482046327282 0 0.0017648415856744654 0.0078917747199922991 0 0.0017257519207436579 0.0081437004189360961 0 0.0015558291988184284 0.0083578155749316277 0 0.0017257519207436579 0.0081437004189360961 0 0.0014736746754344015 0.0081506405589677772 0 0.0014610821769969102 0.0079197482046327282 0 0.0011169711368982068 0.0081871421004316158 0 0.0014736746754344015 0.0081506405589677772 0 0.0011169711368982068 0.0081871421004316158 0 0.0015558291988184284 0.0083578155749316277 0 0.0014736746754344015 0.0081506405589677772 0 0.0019679523990757627 0.0080678744642340063 0 0.0020174226223474328 0.0082448085619715849 0 0.0020869293092933643 0.0082116786005259103 0 0.0019679523990757627 0.0080678744642340063 0 0.0020174226223474328 0.0082448085619715849 0 0.0018893189626162201 0.0081486416533293887 0 0.0017648415856744654 0.0078917747199922991 0 0.0017257519207436579 0.0081437004189360961 0 0.0018893189626162201 0.0081486416533293887 0 0.0017257519207436579 0.0081437004189360961 0 0.0018893189626162201 0.0081486416533293887 0 0.0019428713768942325 0.0082934341756663397 0 0.0020174226223474328 0.0082448085619715849 0 0.0018893189626162201 0.0081486416533293887 0 0.0019428713768942325 0.0082934341756663397 0 0.0019251837148028998 0.0083108652006633719 0 0.0019428713768942325 0.0082934341756663397 0 0.001958907792478965 0.0083505406882372971 0 0.0034624068297312732 0.0069850013702159553 0 0.0038177075884163951 0.0071020102621914298 0 0.0019428713768942325 0.0082934341756663397 0 0.0020114946973113748 0.00833636835305138 0 0.001958907792478965 0.0083505406882372971 0 0.0020114946973113748 0.00833636835305138 0 0.0020592291687469753 0.0084084079789589674 0 0.0020619378668972994 0.0083426924428465065 0 0.0020174226223474328 0.0082448085619715849 0 0.0019428713768942325 0.0082934341756663397 0 0.0020114946973113748 0.00833636835305138 0 0.0020174226223474328 0.0082448085619715849 0 0.0020114946973113748 0.00833636835305138 0 0.0020619378668972994 0.0083426924428465065 0 0.0038177075884163951 0.0071020102621914298 0 0.0044140343355101109 0.0074636760776312615 0 0.0057025433355689234 0.0058516738371510949 0 0.0059614788610978763 0.0068359557382878383 0 0.0067713503775414215 0.006519718058295018 0 0.0020114946973113748 0.00833636835305138 0 0.001958907792478965 0.0083505406882372971 0 0.0020592291687469753 0.0084084079789589674 0 0.0051950834588344449 0.0062047179026417775 0 0.0057025433355689234 0.0058516738371510949 0 0.0059614788610978763 0.0068359557382878383 0 0.0051950834588344449 0.0062047179026417775 0 0.0049946949668332272 0.0054940655132537722 0 0.0057025433355689234 0.0058516738371510949 0 0.0054493110506197819 0.0075776020606677817 0 0.0052799308794606176 0.0068573169731609507 0 0.0059614788610978763 0.0068359557382878383 0 0.0052799308794606176 0.0068573169731609507 0 0.0051950834588344449 0.0062047179026417775 0 0.0059614788610978763 0.0068359557382878383 0 0.0059614788610978763 0.0068359557382878383 0 0.0068885465059210513 0.0073348723178378247 0 0.0067713503775414215 0.006519718058295018 0 0.0068885465059210513 0.0073348723178378247 0 0.0067713503775414215 0.006519718058295018 0 0.0076296392931538498 0.0071536701981310367 0 0.0044140343355101109 0.0074636760776312615 0 0.0047784313923467433 0.0077889696404096972 0 0.0020592291687469753 0.0084084079789589674 0 0.0020635417785603428 0.0084115435355212181 0 0.0020619378668972994 0.0083426924428465065 0 0.0020592291687469753 0.0084084079789589674 0 0.0020635417785603428 0.0084115435355212181 0 0.0020555832669285588 0.0084372435068192711 0 0.001992308399310483 0.0085008316404566863 0 0.0020555832669285588 0.0084372435068192711 0 0.0019890216372094979 0.0084735646868687783 0 0.0054184402793447184 0.0080135705569677508 0 0.0047784313923467433 0.0077889696404096972 0 0.001992308399310483 0.0085008316404566863 0 0.0019326524677007542 0.0085360031425171685 0 0.0019890216372094979 0.0084735646868687783 0 0.0019326524677007542 0.0085360031425171685 0 0.0019890216372094979 0.0084735646868687783 0 0.0018913725395322066 0.0085265345900656896 0 0.0019372453448401475 0.0084812196644254035 0 0.0019890216372094979 0.0084735646868687783 0 0.0018913725395322066 0.0085265345900656896 0 0.0019372453448401475 0.0084812196644254035 0 0.0019890216372094979 0.0084735646868687783 0 0.0020329302471720125 0.0084302840583689084 0 0.0020635417785603428 0.0084115435355212181 0 0.0019890216372094979 0.0084735646868687783 0 0.0020329302471720125 0.0084302840583689084 0 0.0020635417785603428 0.0084115435355212181 0 0.0020555832669285588 0.0084372435068192711 0 0.0019890216372094979 0.0084735646868687783 0 0.0019372453448401475 0.0084812196644254035 0 0.0020329302471720125 0.0084302840583689084 0 0.0019211720278358593 0.0084966468497735658 0 0.0019211720278358593 0.0084966468497735658 0 0.0020347974050381624 0.0084574288668365638 0 0.0019078217065587571 0.0085795902265978167 0 0.0020329302471720125 0.0084302840583689084 0 0.0019211720278358593 0.0084966468497735658 0 0.0020347974050381624 0.0084574288668365638 0 0.0020329302471720125 0.0084302840583689084 0 0.0021094553704339072 0.0083404661538885125 0 0.0020347974050381624 0.0084574288668365638 0 0.002086012807526644 0.008357245064894412 0 0.0020869293092933643 0.0082116786005259103 0 0.0021094553704339072 0.0083404661538885125 0 0.0020329302471720125 0.0084302840583689084 0 0.002086012807526644 0.008357245064894412 0 0.0021094553704339072 0.0083404661538885125 0 0.0020174226223474328 0.0082448085619715849 0 0.0020619378668972994 0.0083426924428465065 0 0.0020869293092933643 0.0082116786005259103 0 0.002086012807526644 0.008357245064894412 0 0.0020619378668972994 0.0083426924428465065 0 0.0020869293092933643 0.0082116786005259103 0 0.0020635417785603428 0.0084115435355212181 0 0.002086012807526644 0.008357245064894412 0 0.0020619378668972994 0.0083426924428465065 0 0.0020635417785603428 0.0084115435355212181 0 0.0020329302471720125 0.0084302840583689084 0 0.002086012807526644 0.008357245064894412 0 0.00087429220824016224 0.014716660488567004 0 0.0022924540722905461 0.014792717178771264 0 0.0010602203289159842 0.016811973316219374 0 0.00087429220824016224 0.014716660488567004 0 0.0015550359335967986 0.013366643509033447 0 0.0022924540722905461 0.014792717178771264 0 0.00087429220824016224 0.014716660488567004 0 0.00077146792366370397 0.012704294354704168 0 0.0015550359335967986 0.013366643509033447 0 0.000799022879064802 0.026758574345241901 0 0.0011544051620409382 0.027031438339380563 0 0.001216045157873337 0.026293352264679434 0 0.001074981348508568 0.021773562081309435 0 0.00084199957649852639 0.018728960496542321 0 0.0015063585028434931 0.012239192113115091 0 0.0015550359335967986 0.013366643509033447 0 0.0023359829744932403 0.01247137341555315 0 0.0015063585028434931 0.012239192113115091 0 0.00077146792366370397 0.012704294354704168 0 0.0015550359335967986 0.013366643509033447 0 0.0024424196924371813 0.0096965660648642878 0 0.0022346297693916035 0.0095758028542100252 0 0.0024106539233550669 0.0092926084121392263 0 0.0015550359335967986 0.013366643509033447 0 0.0023359829744932403 0.01247137341555315 0 0.0022924540722905461 0.014792717178771264 0 0.0023864712522545053 0.011444207365120945 0 0.0018868509990706667 0.01044807246718178 0 0.0022052591641910195 0.0097736567317683789 0 0.0024424196924371813 0.0096965660648642878 0 0.0022346297693916035 0.0095758028542100252 0 0.0022387826307453782 0.0089092929923437082 0 0.0018868509990706667 0.01044807246718178 0 0.0020221262912307235 0.0085835507645084727 0 0.0017827882121574372 0.0084973350146499323 0 0.0018666556060108589 0.008518257658561507 0 0.0017827882121574372 0.0084973350146499323 0 0.0018666556060108589 0.008518257658561507 0 0.0017334412675082535 0.0085100666648916124 0 0.0018156961950289232 0.0085064588973341303 0 0.0018666556060108589 0.008518257658561507 0 0.0017334412675082535 0.0085100666648916124 0 0.0018156961950289232 0.0085064588973341303 0 0.0018580168155622125 0.0085311021832591011 0 0.0018520684524159425 0.0084981551317429276 0 0.0018580168155622125 0.0085311021832591011 0 0.0018666556060108589 0.008518257658561507 0 0.0018992095514570166 0.0085791694013707537 0 0.0018156961950289232 0.0085064588973341303 0 0.0018580168155622125 0.0085311021832591011 0 0.0018666556060108589 0.008518257658561507 0 0.0018992095514570166 0.0085791694013707537 0 0.0019077162740444157 0.0088314664846410387 0 0.0018636103536598776 0.008621572363669925 0 0.0020221262912307235 0.0085835507645084727 0 0.0018666556060108589 0.008518257658561507 0 0.0018992095514570166 0.0085791694013707537 0 0.0020028310448596373 0.0097865472468112377 0 0.0020221262912307235 0.0085835507645084727 0 0.0019077162740444157 0.0088314664846410387 0 0.0020221262912307235 0.0085835507645084727 0 0.0018992095514570166 0.0085791694013707537 0 0.0019077162740444157 0.0088314664846410387 0 0.0019077162740444157 0.0088314664846410387 0 0.0018939718104955638 0.0086940569788578562 0 0.0018636103536598776 0.008621572363669925 0 0.0018580168155622125 0.0085311021832591011 0 0.0018992095514570166 0.0085791694013707537 0 0.0018636103536598776 0.008621572363669925 0 0.0018580168155622125 0.0085311021832591011 0 0.0018636103536598776 0.008621572363669925 0 0.0018913725395322066 0.0085265345900656896 0 0.0018636103536598776 0.008621572363669925 0 0.00189094947879398 0.008598075118587168 0 0.0018913725395322066 0.0085265345900656896 0 0.0018939718104955638 0.0086940569788578562 0 0.0018636103536598776 0.008621572363669925 0 0.00189094947879398 0.008598075118587168 0 0.00189881339837333 0.0086104062974944016 0 0.0018939718104955638 0.0086940569788578562 0 0.00189094947879398 0.008598075118587168 0 0.0019167721762418978 0.008555785585319017 0 0.0019326524677007542 0.0085360031425171685 0 0.00189094947879398 0.008598075118587168 0 0.0019326524677007542 0.0085360031425171685 0 0.00189094947879398 0.008598075118587168 0 0.0018913725395322066 0.0085265345900656896 0 0.0019372453448401475 0.0084812196644254035 0 0.0018913725395322066 0.0085265345900656896 0 0.0018520684524159425 0.0084981551317429276 0 0.0018580168155622125 0.0085311021832591011 0 0.0018913725395322066 0.0085265345900656896 0 0.0018520684524159425 0.0084981551317429276 0 0.0019211720278358593 0.0084966468497735658 0 0.0018520684524159425 0.0084981551317429276 0 0.0017846041676191698 0.0085313404661035343 0 0.0019372453448401475 0.0084812196644254035 0 0.0019211720278358593 0.0084966468497735658 0 0.0018520684524159425 0.0084981551317429276 0 0.0019211720278358593 0.0084966468497735658 0 0.0017754493005705538 0.0086402380411156297 0 0.0019078217065587571 0.0085795902265978167 0 0.0019211720278358593 0.0084966468497735658 0 0.0017846041676191698 0.0085313404661035343 0 0.0017754493005705538 0.0086402380411156297 0 0.0016515955830677389 0.0086116235242853726 0 0.0017846041676191698 0.0085313404661035343 0 0.0017754493005705538 0.0086402380411156297 0 0.0016515955830677389 0.0086116235242853726 0 0.0017846041676191698 0.0085313404661035343 0 0.0016469465533890057 0.008548133222607229 0 0.0017846041676191698 0.0085313404661035343 0 0.0017386143781957853 0.0085155193616773383 0 0.0016469465533890057 0.008548133222607229 0 0.0017846041676191698 0.0085313404661035343 0 0.0017992121789560361 0.0085096537227000793 0 0.0017386143781957853 0.0085155193616773383 0 0.0018156961950289232 0.0085064588973341303 0 0.0018520684524159425 0.0084981551317429276 0 0.0017992121789560361 0.0085096537227000793 0 0.0018520684524159425 0.0084981551317429276 0 0.0017846041676191698 0.0085313404661035343 0 0.0017992121789560361 0.0085096537227000793 0 0.0018156961950289232 0.0085064588973341303 0 0.0017992121789560361 0.0085096537227000793 0 0.0017386143781957853 0.0085155193616773383 0 0.0018156961950289232 0.0085064588973341303 0 0.0017386143781957853 0.0085155193616773383 0 0.0017334412675082535 0.0085100666648916124 0 0.0018868509990706667 0.01044807246718178 0 0.0011345188767215211 0.0088962467475215395 0 0.00084119148894964784 0.010377028819960391 0 0.00088581860235507339 0.0096200608476471432 0 0.0011547435480136934 0.0098062578600014924 0 0.0017334412675082535 0.0085100666648916124 0 0.0016469465533890057 0.008548133222607229 0 0.0014870687321467894 0.0085628411947436429 0 0.0017827882121574372 0.0084973350146499323 0 0.0017334412675082535 0.0085100666648916124 0 0.0014870687321467894 0.0085628411947436429 0 0.0017386143781957853 0.0085155193616773383 0 0.0017334412675082535 0.0085100666648916124 0 0.0016469465533890057 0.008548133222607229 0 0.0016515955830677389 0.0086116235242853726 0 0.0014870687321467894 0.0085628411947436429 0 0.0015373893818320804 0.0088457635168479043 0 0.0016515955830677389 0.0086116235242853726 0 0.0016469465533890057 0.008548133222607229 0 0.0014870687321467894 0.0085628411947436429 0 0.0011430282182443221 0.017561606146465045 0 0.0010005163865936173 0.017873510090393039 0 0.00088581860235507339 0.0096200608476471432 0 0.0011474158445751873 0.0097545702285798466 0 0.0011236564827712299 0.0093520831394980422 0 0.0011959850341333722 0.0093305218473347471 0 0.0011474158445751873 0.0097545702285798466 0 0.0011581152521907391 0.0097884078524485881 0 0.0011959850341333722 0.0093305218473347471 0 0.0011474158445751873 0.0097545702285798466 0 0.0011236564827712299 0.0093520831394980422 0 0.00096150760116969997 0.026818028077024453 0 0.00097856795491974946 0.027078771675392146 0 0.00085648337348804171 0.027255316165376981 0 0.0018868509990706667 0.01044807246718178 0 0.0010005163865936173 0.017873510090393039 0 0.0010222451064564606 0.027231270300188674 0 0.00096200150889724811 0.027236127706368921 0 0.00085648337348804171 0.027255316165376981 0 0.00096200150889724811 0.027236127706368921 0 0.00097856795491974946 0.027078771675392146 0 0.00085648337348804171 0.027255316165376981 0 0.0010222451064564606 0.027231270300188674 0 0.0011544051620409382 0.027031438339380563 0 0.00085648337348804171 0.027255316165376981 0 0.001074981348508568 0.021773562081309435 0 0.0010005163865936173 0.017873510090393039 0 0.00088581860235507339 0.0096200608476471432 0 0.0011474158445751873 0.0097545702285798466 0 0.0011547435480136934 0.0098062578600014924 0 0.00094935825399111815 0.017099702120720688 0 0.0010005163865936173 0.017873510090393039 0 0.0010882390919237644 0.0092887577242046857 0 0.0011491656892546435 0.0090915615288530236 0 0.0011738049087946152 0.0092805045928831213 0 0.0010563190623565377 0.0093399645654321344 0 0.0010882390919237644 0.0092887577242046857 0 0.0011148089304072312 0.009249796402822719 0 0.0010882390919237644 0.0092887577242046857 0 0.0011148089304072312 0.009249796402822719 0 0.0011491656892546435 0.0090915615288530236 0 0.00088581860235507339 0.0096200608476471432 0 0.0011236564827712299 0.0093520831394980422 0 0.0011491656892546435 0.0090915615288530236 0 0.0011959850341333722 0.0093305218473347471 0 0.0011148089304072312 0.009249796402822719 0 0.0011236564827712299 0.0093520831394980422 0 0.0011148089304072312 0.009249796402822719 0 0.0011236564827712299 0.0093520831394980422 0 0.0011491656892546435 0.0090915615288530236 0 0.0014870687321467894 0.0085628411947436429 0 0.0011491656892546435 0.0090915615288530236 0 0.0015373893818320804 0.0088457635168479043 0 0.0011345188767215211 0.0088962467475215395 0 0.001163289106001719 0.0092101087431748687 0 0.0011491656892546435 0.0090915615288530236 0 0.0014404736408850235 0.009149144061672625 0 0.0015373893818320804 0.0088457635168479043 0 0.0011491656892546435 0.0090915615288530236 0 0.0014404736408850235 0.009149144061672625 0 0.0011738049087946152 0.0092805045928831213 0 0.0014404736408850235 0.009149144061672625 0 0.0015373893818320804 0.0088457635168479043 0 0.0017931353484155661 0.0087710641985245617 0 0.0016515955830677389 0.0086116235242853726 0 0.0015373893818320804 0.0088457635168479043 0 0.0017754493005705538 0.0086402380411156297 0 0.0015373893818320804 0.0088457635168479043 0 0.0017754493005705538 0.0086402380411156297 0 0.0017931353484155661 0.0087710641985245617 0 0.0017754493005705538 0.0086402380411156297 0 0.0017931353484155661 0.0087710641985245617 0 0.0019078217065587571 0.0085795902265978167 0 0.0014404736408850235 0.009149144061672625 0 0.0017931353484155661 0.0087710641985245617 0 0.0017772004768000197 0.0089392386350940073 0 0.0017931353484155661 0.0087710641985245617 0 0.0017772004768000197 0.0089392386350940073 0 0.0019029938306004224 0.0087467992630857541 0 0.0010257229419975698 0.0097501698037225984 0 0.0011287956397228493 0.0097654558600757824 0 0.0015791207652149032 0.0097104608893788837 0 0.0017920674239512427 0.009522465087562328 0 0.0019085565631510877 0.009663805903959018 0 0.0016925642213210575 0.0092931351611634221 0 0.0015791207652149032 0.0097104608893788837 0 0.0017920674239512427 0.009522465087562328 0 0.0015791207652149032 0.0097104608893788837 0 0.0013113993544364363 0.0094561300379895716 0 0.0010447398857166088 0.0097342829756331527 0 0.0010257229419975698 0.0097501698037225984 0 0.0010363025177266745 0.0097439475324399422 0 0.0016925642213210575 0.0092931351611634221 0 0.0015791207652149032 0.0097104608893788837 0 0.0013113993544364363 0.0094561300379895716 0 0.0014404736408850235 0.009149144061672625 0 0.0013113993544364363 0.0094561300379895716 0 0.0012605450432430785 0.0093389731223736498 0 0.0014404736408850235 0.009149144061672625 0 0.0016925642213210575 0.0092931351611634221 0 0.0013113993544364363 0.0094561300379895716 0 0.0014585557404885156 0.0091191763424092343 0 0.0016930799326547812 0.0091091521884930429 0 0.0014404736408850235 0.009149144061672625 0 0.0012605450432430785 0.0093389731223736498 0 0.0011738049087946152 0.0092805045928831213 0 0.0011738049087946152 0.0092805045928831213 0 0.0011310795690484324 0.0094395662173531372 0 0.0010707968696948276 0.0093947541208082731 0 0.0012605450432430785 0.0093389731223736498 0 0.0011738049087946152 0.0092805045928831213 0 0.0011310795690484324 0.0094395662173531372 0 0.0013113993544364363 0.0094561300379895716 0 0.0012605450432430785 0.0093389731223736498 0 0.0011310795690484324 0.0094395662173531372 0 0.0010548594002205989 0.009623848125085769 0 0.0010072366443279299 0.0096336386587854775 0 0.001012168959240921 0.0096739441114448068 0 0.0013113993544364363 0.0094561300379895716 0 0.0011310795690484324 0.0094395662173531372 0 0.0010548594002205989 0.009623848125085769 0 0.0013113993544364363 0.0094561300379895716 0 0.0010447398857166088 0.0097342829756331527 0 0.0010548594002205989 0.009623848125085769 0 0.0011310795690484324 0.0094395662173531372 0 0.0010548594002205989 0.009623848125085769 0 0.001050286282580262 0.0095154619780293374 0 0.001050286282580262 0.0095154619780293374 0 0.0010072366443279299 0.0096336386587854775 0 0.0010307564490485597 0.0094683829363986921 0 0.00099669925226362251 0.0094047138748933889 0 0.0010072366443279299 0.0096336386587854775 0 0.0010307564490485597 0.0094683829363986921 0 0.00051701048431095509 0.0104271478246513 0 0.00021443547996605905 0.011980070391723953 0 0.00022227968853673157 0.013540618540299948 0 -0.00024097451313812544 0.014358226497439397 0 -0.0012857417118039042 0.012221438087845215 0 0.0010548594002205989 0.009623848125085769 0 0.001050286282580262 0.0095154619780293374 0 0.0010072366443279299 0.0096336386587854775 0 9.1100729199286774e-05 0.014485597998146311 0 0.00021443547996605905 0.011980070391723953 0 0.0010307564490485597 0.0094683829363986921 0 0.0010707968696948276 0.0093947541208082731 0 0.0010360271542347529 0.0093798999480292841 0 0.00099669925226362251 0.0094047138748933889 0 0.0010307564490485597 0.0094683829363986921 0 0.0010360271542347529 0.0093798999480292841 0 0.001050286282580262 0.0095154619780293374 0 0.0010307564490485597 0.0094683829363986921 0 0.0010707968696948276 0.0093947541208082731 0 0.0011310795690484324 0.0094395662173531372 0 0.001050286282580262 0.0095154619780293374 0 0.0010707968696948276 0.0093947541208082731 0 0.0010882390919237644 0.0092887577242046857 0 0.0010707968696948276 0.0093947541208082731 0 0.0010360271542347529 0.0093798999480292841 0 0.0010882390919237644 0.0092887577242046857 0 0.0011738049087946152 0.0092805045928831213 0 0.0010707968696948276 0.0093947541208082731 0 0.00099669925226362251 0.0094047138748933889 0 0.0010563190623565377 0.0093399645654321344 0 0.0010360271542347529 0.0093798999480292841 0 0.0010563190623565377 0.0093399645654321344 0 0.0010882390919237644 0.0092887577242046857 0 0.0010360271542347529 0.0093798999480292841 0 0.0021935420648965492 0.0083377614412968558 0 0.0020681598798627738 0.0080269565916230023 0 0.0021271808114101333 0.0082334446985611355 0 0.0021935420648965492 0.0083377614412968558 0 0.0020681598798627738 0.0080269565916230023 0 0.0020865493905022816 0.0080000567231574837 0 0.0020681598798627738 0.0080269565916230023 0 0.0021271808114101333 0.0082334446985611355 0 0.0020869293092933643 0.0082116786005259103 0 0.0020245550073256808 0.0079585176963445012 0 0.0020681598798627738 0.0080269565916230023 0 0.0020869293092933643 0.0082116786005259103 0 0.0021271808114101333 0.0082334446985611355 0 0.0020869293092933643 0.0082116786005259103 0 0.0021094553704339072 0.0083404661538885125 0 0.0021935420648965492 0.0083377614412968558 0 0.0021271808114101333 0.0082334446985611355 0 0.0021094553704339072 0.0083404661538885125 0 0.0021935420648965492 0.0083377614412968558 0 0.0020347974050381624 0.0084574288668365638 0 0.0019698138573491604 0.0085824883280603871 0 0.0021935420648965492 0.0083377614412968558 0 0.0021094553704339072 0.0083404661538885125 0 0.0020347974050381624 0.0084574288668365638 0 0.0017931353484155661 0.0087710641985245617 0 0.0019078217065587571 0.0085795902265978167 0 0.0019698138573491604 0.0085824883280603871 0 0.0020347974050381624 0.0084574288668365638 0 0.0019078217065587571 0.0085795902265978167 0 0.0019698138573491604 0.0085824883280603871 0 0.0017931353484155661 0.0087710641985245617 0 0.0019698138573491604 0.0085824883280603871 0 0.0019029938306004224 0.0087467992630857541 0 0.0019698138573491604 0.0085824883280603871 0 0.0019029938306004224 0.0087467992630857541 0 0.0020418231173699418 0.0086323013049966132 0 0.0021935420648965492 0.0083377614412968558 0 0.0019698138573491604 0.0085824883280603871 0 0.0020418231173699418 0.0086323013049966132 0 0.0020418231173699418 0.0086323013049966132 0 0.0019308425982291256 0.0087974655796031424 0 0.0021990412893430158 0.0088933321292449449 0 0.0021935420648965492 0.0083377614412968558 0 0.0020418231173699418 0.0086323013049966132 0 0.0021990412893430158 0.0088933321292449449 0 0.0019029938306004224 0.0087467992630857541 0 0.0020418231173699418 0.0086323013049966132 0 0.0019308425982291256 0.0087974655796031424 0 0.0016925642213210575 0.0092931351611634221 0 0.0019620036642188795 0.0094251322365006968 0 0.0017920674239512427 0.009522465087562328 0 0.0016930799326547812 0.0091091521884930429 0 0.0020014865180929169 0.0091658378494533163 0 0.0017772004768000197 0.0089392386350940073 0 0.0019029938306004224 0.0087467992630857541 0 0.0019308425982291256 0.0087974655796031424 0 0.0019620036642188795 0.0094251322365006968 0 0.0017920674239512427 0.009522465087562328 0 0.0019085565631510877 0.009663805903959018 0 0.0019620036642188795 0.0094251322365006968 0 0.0019085565631510877 0.009663805903959018 0 0.0020497402400898395 0.0095602087765756707 0 0.0019085565631510877 0.009663805903959018 0 0.0020497402400898395 0.0095602087765756707 0 0.0021740146035261671 0.0096408352657206559 0 0.0019620036642188795 0.0094251322365006968 0 0.0020497402400898395 0.0095602087765756707 0 0.002196273251623537 0.0095151256642064964 0 0.0011287956397228493 0.0097654558600757824 0 0.0010460060353767941 0.0089014877353197353 0 0.0020014865180929169 0.0091658378494533163 0 0.0019979989382382015 0.008671330850253612 0 0.0020497402400898395 0.0095602087765756707 0 0.0021740146035261671 0.0096408352657206559 0 0.002196273251623537 0.0095151256642064964 0 0.0010460060353767941 0.0089014877353197353 0 0.0019979989382382015 0.008671330850253612 0 0.0019979989382382015 0.008671330850253612 0 0.001742749500202821 0.007493658490396426 0 0.002300818600499817 0.0078929022425263309 0 0.0020865493905022816 0.0080000567231574837 0 0.0020426955077702856 0.0078195223075397859 0 0.0010460060353767941 0.0089014877353197353 0 0.001222320526116623 0.0077499741935452655 0 0.0015841551728926098 0.0082715959167223695 0 0.0015733722881267423 0.0083500020653323129 0 0.0014036226244818037 0.0082627089001113454 0 0.0022684837365389084 0.0082239132216328 0 0.0019979989382382015 0.008671330850253612 0 0.0021935420648965492 0.0083377614412968558 0 0.002300818600499817 0.0078929022425263309 0 0.0020865493905022816 0.0080000567231574837 0 0.0020091899905163345 0.0078927650356012038 0 0.0020681598798627738 0.0080269565916230023 0 0.0020865493905022816 0.0080000567231574837 0 0.0015733722881267423 0.0083500020653323129 0 0.0014036226244818037 0.0082627089001113454 0 0.0013920735973396436 0.0082778860180947947 0 0.0020091899905163345 0.0078927650356012038 0 0.0020865493905022816 0.0080000567231574837 0 0.0020426955077702856 0.0078195223075397859 0 0.0023546528894666813 0.0071587455902866418 0 0.0026563410483523863 0.0067327321040063903 0 0.0024810611068652511 0.006668953234324702 0 0.0022312380701189028 0.0074490162713791797 0 0.001742749500202821 0.007493658490396426 0 0.001643458174780156 0.0073956438581976695 0 0.0016417843207065916 0.0073977974706728377 0 0.0016346733219995573 0.0073932521516897678 0 0.001222320526116623 0.0077499741935452655 0 0.0017279767380006252 0.0071871313209575845 0 0.001742749500202821 0.007493658490396426 0 0.0017279767380006252 0.0071871313209575845 0 0.001222320526116623 0.0077499741935452655 0 0.001742749500202821 0.007493658490396426 0 0.00072686114690514558 0.0075631904698615282 0 0.00062756523228318039 0.0083019509526776579 0 0.00034750433472288683 0.0083813380001913351 0 0.00072686114690514558 0.0075631904698615282 0 0.00091650275537769944 0.0078174182327000134 0 0.00062756523228318039 0.0083019509526776579 0 0.001222320526116623 0.0077499741935452655 0 0.00043512899808274022 0.0084545372045215852 0 0.00072686114690514558 0.0075631904698615282 0 0.0010042018748634674 0.007557154310692084 0 0.00091650275537769944 0.0078174182327000134 0 0.00091650275537769944 0.0078174182327000134 0 0.00062756523228318039 0.0083019509526776579 0 0.00078648811612158263 0.0086652401781699244 0 0.00062756523228318039 0.0083019509526776579 0 0.00078648811612158263 0.0086652401781699244 0 0.00049695826584572481 0.0088388908872259215 0 0.00043512899808274022 0.0084545372045215852 0 0.0002969183721051868 0.0088830813733867409 0 0.00062756523228318039 0.0083019509526776579 0 0.00034750433472288683 0.0083813380001913351 0 0.00049695826584572481 0.0088388908872259215 0 0.00034750433472288683 0.0083813380001913351 0 0.0002830827319834968 0.0089644375704139318 0 0.00049695826584572481 0.0088388908872259215 0 0.00033246219393250352 0.0080147656793023644 0 0.00059147089189884468 0.0084717081873748063 0 0.0002116004053223303 0.0086702148546325009 0 0.00033246219393250352 0.0080147656793023644 0 0.00094548932433657093 0.0080102521590208666 0 0.00059147089189884468 0.0084717081873748063 0 0.00017480163838506658 0.0097286650247867014 0 0.00023285233289833821 0.0096364108101636859 0 0.00020184922070486992 0.0095718548521998587 0 0.00029642943488862632 0.0097522020817708156 0 0.00017480163838506658 0.0097286650247867014 0 0.00024593667544780634 0.0096859074724399731 0 0.0010460060353767941 0.0089014877353197353 0 0.000129074015748026 0.0091326160087733255 0 0.00017480163838506658 0.0097286650247867014 0 0.00024593667544780634 0.0096859074724399731 0 0.00023285233289833821 0.0096364108101636859 0 0.00024593667544780634 0.0096859074724399731 0 0.00023285233289833821 0.0096364108101636859 0 0.00028814360867839754 0.009636640102260818 0 0.00029642943488862632 0.0097522020817708156 0 0.00024593667544780634 0.0096859074724399731 0 0.00028814360867839754 0.009636640102260818 0 0.00029642943488862632 0.0097522020817708156 0 0.00028814360867839754 0.009636640102260818 0 0.0003774269834789337 0.0096537281532249816 0 0.00028814360867839754 0.009636640102260818 0 0.00032284035246845678 0.009552132930283494 0 0.0003774269834789337 0.0096537281532249816 0 0.00028814360867839754 0.009636640102260818 0 0.00026603749530146098 0.0095745330422460969 0 0.00032284035246845678 0.009552132930283494 0 0.00023285233289833821 0.0096364108101636859 0 0.00028814360867839754 0.009636640102260818 0 0.00026603749530146098 0.0095745330422460969 0 0.00026603749530146098 0.0095745330422460969 0 0.00032284035246845678 0.009552132930283494 0 0.00028618200703200151 0.0095140906910261332 0 0.00059147089189884468 0.0084717081873748063 0 0.0002116004053223303 0.0086702148546325009 0 0.0002830827319834968 0.0089644375704139318 0 0.00023285233289833821 0.0096364108101636859 0 0.00026603749530146098 0.0095745330422460969 0 0.00020184922070486992 0.0095718548521998587 0 0.00026603749530146098 0.0095745330422460969 0 0.00020184922070486992 0.0095718548521998587 0 0.00028618200703200151 0.0095140906910261332 0 0.00020184922070486992 0.0095718548521998587 0 0.00028618200703200151 0.0095140906910261332 0 0.00030191485793637697 0.0094095223633041455 0 0.000129074015748026 0.0091326160087733255 0 0.00029878779060696836 0.0093751758615545303 0 0.0002116004053223303 0.0086702148546325009 0 0.0002830827319834968 0.0089644375704139318 0 0.00030191485793637697 0.0094095223633041455 0 0.0002830827319834968 0.0089644375704139318 0 0.00030191485793637697 0.0094095223633041455 0 0.00043444634308524837 0.0091911384230347892 0 0.00028618200703200151 0.0095140906910261332 0 0.00029033945504514352 0.009515398422224871 0 0.00030191485793637697 0.0094095223633041455 0 0.00029870090701632847 0.0095219401575784759 0 0.00028618200703200151 0.0095140906910261332 0 0.00029033945504514352 0.009515398422224871 0 0.00032284035246845678 0.009552132930283494 0 0.00029870090701632847 0.0095219401575784759 0 0.00028618200703200151 0.0095140906910261332 0 0.00029870090701632847 0.0095219401575784759 0 0.00029033945504514352 0.009515398422224871 0 0.00028671963145264875 0.0095196131490733454 0 0.00029033945504514352 0.009515398422224871 0 0.00029946685267510031 0.0096697816260673461 0 0.00030191485793637697 0.0094095223633041455 0 0.00029033945504514352 0.009515398422224871 0 0.00029946685267510031 0.0096697816260673461 0 0.00012141670246707895 0.0098312808323377833 0 0.00030191485793637697 0.0094095223633041455 0 0.00043444634308524837 0.0091911384230347892 0 0.00052302276606291443 0.0095213382794497696 0 0.00029946685267510031 0.0096697816260673461 0 0.00030191485793637697 0.0094095223633041455 0 0.00037261376237027476 0.009698256176009723 0 0.00030191485793637697 0.0094095223633041455 0 0.00052302276606291443 0.0095213382794497696 0 0.00037261376237027476 0.009698256176009723 0 0.00058214806694323286 0.009152000278492653 0 0.00062376307824540793 0.0092479033850021829 0 0.00052302276606291443 0.0095213382794497696 0 0.00058214806694323286 0.009152000278492653 0 0.00043444634308524837 0.0091911384230347892 0 0.00052302276606291443 0.0095213382794497696 0 0.00058214806694323286 0.009152000278492653 0 0.000732238748229322 0.0090326390363147466 0 0.00062376307824540793 0.0092479033850021829 0 0.00058214806694323286 0.009152000278492653 0 0.000732238748229322 0.0090326390363147466 0 0.00070903453884853609 0.0089442476489442566 0 0.00058214806694323286 0.009152000278492653 0 0.00070903453884853609 0.0089442476489442566 0 0.00049695826584572481 0.0088388908872259215 0 0.00078648811612158263 0.0086652401781699244 0 0.00070903453884853609 0.0089442476489442566 0 0.00049695826584572481 0.0088388908872259215 0 0.00058214806694323286 0.009152000278492653 0 0.00049695826584572481 0.0088388908872259215 0 0.00043444634308524837 0.0091911384230347892 0 0.0002830827319834968 0.0089644375704139318 0 0.00049695826584572481 0.0088388908872259215 0 0.00043444634308524837 0.0091911384230347892 0 6.3781659777468477e-05 0.015082017957322691 0 -0.00026249225175342764 0.015004950235114535 0 -6.8166663325995176e-05 0.0147680204100292 0 0.00021443547996605905 0.011980070391723953 0 0.00021215619250616514 0.012426894954114007 0 6.3781659777468477e-05 0.015082017957322691 0 -0.00014588236820286182 0.015307965872400417 0 -0.00026249225175342764 0.015004950235114535 0 0.00021443547996605905 0.011980070391723953 0 0.00069568362311242646 0.0095768317400029418 0 0.0010447398857166088 0.0097342829756331527 0 0.0010548594002205989 0.009623848125085769 0 0.001012168959240921 0.0096739441114448068 0 0.00077802505882439415 0.0099030853950076731 0 0.00061145343765408157 0.0097375716488198229 0 0.00063185969357112037 0.0096315315927314547 0 0.0010447398857166088 0.0097342829756331527 0 0.001012168959240921 0.0096739441114448068 0 0.00074105273434200514 0.0096717761774514268 0 0.00069568362311242646 0.0095768317400029418 0 0.00066955987118702423 0.0096465834113893811 0 0.00063185969357112037 0.0096315315927314547 0 0.00056871905805209154 0.0095873961836973522 0 0.00046831724435148278 0.0095676857145423049 0 0.00061145343765408157 0.0097375716488198229 0 0.00063185969357112037 0.0096315315927314547 0 0.00056871905805209154 0.0095873961836973522 0 0.00021215619250616514 0.012426894954114007 0 0.00010623871208472001 0.012277677516208934 0 0.00056871905805209154 0.0095873961836973522 0 0.00042312038629470258 0.0095853792934757973 0 0.00035929360936299659 0.0095522912321927868 0 0.00056871905805209154 0.0095873961836973522 0 0.00051942049190270394 0.0096406488992927183 0 0.00042312038629470258 0.0095853792934757973 0 0.001012168959240921 0.0096739441114448068 0 0.00056871905805209154 0.0095873961836973522 0 0.00074105273434200514 0.0096717761774514268 0 0.00047946477679113427 0.0098204326303774764 0 0.0010447398857166088 0.0097342829756331527 0 0.00074105273434200514 0.0096717761774514268 0 0.00047946477679113427 0.0098204326303774764 0 0.00074105273434200514 0.0096717761774514268 0 0.00051942049190270394 0.0096406488992927183 0 0.00056871905805209154 0.0095873961836973522 0 0.00074105273434200514 0.0096717761774514268 0 0.00051942049190270394 0.0096406488992927183 0 0.00047946477679113427 0.0098204326303774764 0 0.00051942049190270394 0.0096406488992927183 0 0.0003774269834789337 0.0096537281532249816 0 0.00047946477679113427 0.0098204326303774764 0 0.00029642943488862632 0.0097522020817708156 0 0.0003774269834789337 0.0096537281532249816 0 0.00051942049190270394 0.0096406488992927183 0 0.0003774269834789337 0.0096537281532249816 0 0.00042312038629470258 0.0095853792934757973 0 0.00032284035246845678 0.009552132930283494 0 0.0003774269834789337 0.0096537281532249816 0 0.00042312038629470258 0.0095853792934757973 0 0.00032284035246845678 0.009552132930283494 0 0.00042312038629470258 0.0095853792934757973 0 0.00035929360936299659 0.0095522912321927868 0 0.00028671963145264875 0.0095196131490733454 0 0.00035929360936299659 0.0095522912321927868 0 0.00013723953675774358 0.0095366333824707574 0 0.00032284035246845678 0.009552132930283494 0 0.00028671963145264875 0.0095196131490733454 0 0.00035929360936299659 0.0095522912321927868 0 0.00029033945504514352 0.009515398422224871 0 0.00028671963145264875 0.0095196131490733454 0 0.00013723953675774358 0.0095366333824707574 0 0.00032284035246845678 0.009552132930283494 0 0.00029870090701632847 0.0095219401575784759 0 0.00028671963145264875 0.0095196131490733454 0 0.00029033945504514352 0.009515398422224871 0 0.00013723953675774358 0.0095366333824707574 0 0.00012141670246707895 0.0098312808323377833 0 0.00013723953675774358 0.0095366333824707574 0 -0.00038456699451232539 0.0098827081469816131 0 0.00012141670246707895 0.0098312808323377833 0 -0.00035558618378443826 0.014763238905753963 0 -0.00028651558766654308 0.014616105015739811 0 -0.00042767003023418641 0.014558457602504892 0 0.00013723953675774358 0.0095366333824707574 0 0.00046831724435148278 0.0095676857145423049 0 0.00023645191349497364 0.0093849440725788866 0 0.00010623871208472001 0.012277677516208934 0 -0.0003209421517105739 0.011346300944418826 0 0.00035629740520110758 0.0092525045341971032 0 -0.0003209421517105739 0.011346300944418826 0 0.00056871905805209154 0.0095873961836973522 0 0.00035929360936299659 0.0095522912321927868 0 0.00046831724435148278 0.0095676857145423049 0 0.00035929360936299659 0.0095522912321927868 0 0.00013723953675774358 0.0095366333824707574 0 0.00046831724435148278 0.0095676857145423049 0 -0.00026249225175342764 0.015004950235114535 0 -0.00035558618378443826 0.014763238905753963 0 -6.8166663325995176e-05 0.0147680204100292 0 -0.00035558618378443826 0.014763238905753963 0 -0.00028651558766654308 0.014616105015739811 0 -6.8166663325995176e-05 0.0147680204100292 0 -0.00022782660010573047 0.019506846733116423 0 -0.00021713665605804466 0.019395144321385584 0 -0.00039535728966348356 0.019493749296979074 0 -0.00028651558766654308 0.014616105015739811 0 -6.8166663325995176e-05 0.0147680204100292 0 -0.00017941565199902724 0.014527004559755119 0 -0.00015025682655745964 0.017085016082012038 0 -0.00025718788644488953 0.017209395819960283 0 -0.00016116881500268602 0.019272059695917491 0 -0.00039535728966348356 0.019493749296979074 0 -0.0008676790687359 0.018890940353839734 0 -0.00025718788644488953 0.017209395819960283 0 -0.0006543376499536141 0.015592185898010522 0 -0.00028651558766654308 0.014616105015739811 0 -0.00017941565199902724 0.014527004559755119 0 -0.00033430005041508974 0.014440789107997039 0 -0.00017941565199902724 0.014527004559755119 0 -0.00033430005041508974 0.014440789107997039 0 -0.0002623363437436458 0.014335073827061557 0 -0.00070517177594256019 0.012520755788299849 0 -0.0006543376499536141 0.015592185898010522 0 -0.0011206478986691189 0.010909933027300466 0 3.9211193369731029e-05 0.011091867420050047 0 -0.00016063804599898473 0.012887607897511468 0 -0.0011206478986691189 0.010909933027300466 0 -0.00057165098985340567 0.010009058158485585 0 3.9211193369731029e-05 0.011091867420050047 0 -0.00028651558766654308 0.014616105015739811 0 -0.00033430005041508974 0.014440789107997039 0 -0.00042767003023418641 0.014558457602504892 0 -0.00070517177594256019 0.012520755788299849 0 -0.0003209421517105739 0.011346300944418826 0 -0.00038456699451232539 0.0098827081469816131 0 0.00012141670246707895 0.0098312808323377833 0 3.9211193369731029e-05 0.011091867420050047 0 -0.0003209421517105739 0.011346300944418826 0 -0.00012453219335452524 0.010493488379000654 0 0.00012141670246707895 0.0098312808323377833 0 3.9211193369731029e-05 0.011091867420050047 0 0.00029186517802860692 0.0099747111161583302 0 3.9211193369731029e-05 0.011091867420050047 0 0.00015082324384968308 0.012047330419539468 0 -0.00016063804599898473 0.012887607897511468 0 0.00015082324384968308 0.012047330419539468 0 1.2400637699896781e-06 0.013561383877375563 0 -0.00016063804599898473 0.012887607897511468 0 1.2400637699896781e-06 0.013561383877375563 0 -0.00016063804599898473 0.012887607897511468 0 -4.1332832111911754e-06 0.015512120447129005 0 -0.0011206478986691189 0.010909933027300466 0 -0.00016063804599898473 0.012887607897511468 0 -0.0018676380837707662 0.012400621172487298 0 -5.1072694869475993e-06 0.016091058639194668 0 1.1358380146195151e-08 0.015521542513396719 0 -1.8117062231162768e-08 0.017176670408704249 0 -0.0006543376499536141 0.015592185898010522 0 -9.1909835458433063e-07 0.015513739523310199 0 -0.00016063804599898473 0.012887607897511468 0 -0.0018676380837707662 0.012400621172487298 0 -4.1332832111911754e-06 0.015512120447129005 0 -0.0006543376499536141 0.015592185898010522 0 -7.7443795603903042e-07 0.017184654273422192 0 0.00010979576718055784 0.018743057668653036 0 -0.0008676790687359 0.018890940353839734 0 -1.8942278765642621e-06 0.017185236668703491 0 -0.00016116881500268602 0.019272059695917491 0 0.00010979576718055784 0.018743057668653036 0 -0.0008676790687359 0.018890940353839734 0 0.00051786588804942214 0.0098176754686192438 0 0.00064766043321282259 0.009231839891494056 0 0.0005034458649165256 0.0088131112416608547 0 0.000732238748229322 0.0090326390363147466 0 0.00064766043321282259 0.009231839891494056 0 0.00064518140535613038 0.0087597163864529138 0 0.000732238748229322 0.0090326390363147466 0 0.00062376307824540793 0.0092479033850021829 0 0.00064766043321282259 0.009231839891494056 0 0.00051786588804942214 0.0098176754686192438 0 0.00064766043321282259 0.009231839891494056 0 0.00052302276606291443 0.0095213382794497696 0 0.00062376307824540793 0.0092479033850021829 0 0.00064766043321282259 0.009231839891494056 0 0.00052302276606291443 0.0095213382794497696 0 0.00052302276606291443 0.0095213382794497696 0 0.00037261376237027476 0.009698256176009723 0 0.00041809099200835055 0.010117497829209815 0 0.00051786588804942214 0.0098176754686192438 0 0.00052302276606291443 0.0095213382794497696 0 0.00041809099200835055 0.010117497829209815 0 0.00029946685267510031 0.0096697816260673461 0 0.00012141670246707895 0.0098312808323377833 0 0.00029186517802860692 0.0099747111161583302 0 0.00029946685267510031 0.0096697816260673461 0 0.00037261376237027476 0.009698256176009723 0 0.00029186517802860692 0.0099747111161583302 0 0.00037261376237027476 0.009698256176009723 0 0.00029186517802860692 0.0099747111161583302 0 0.00041809099200835055 0.010117497829209815 0 3.9211193369731029e-05 0.011091867420050047 0 0.00029186517802860692 0.0099747111161583302 0 0.00041809099200835055 0.010117497829209815 0 3.9211193369731029e-05 0.011091867420050047 0 0.00041809099200835055 0.010117497829209815 0 0.00033154950839163998 0.010902049179766867 0 0.00051786588804942214 0.0098176754686192438 0 0.00041809099200835055 0.010117497829209815 0 0.00033154950839163998 0.010902049179766867 0 0.00051786588804942214 0.0098176754686192438 0 0.00033154950839163998 0.010902049179766867 0 0.00032716774437326643 0.010146663993221413 0 3.9211193369731029e-05 0.011091867420050047 0 0.00015082324384968308 0.012047330419539468 0 0.00033154950839163998 0.010902049179766867 0 0.00015082324384968308 0.012047330419539468 0 1.2400637699896781e-06 0.013561383877375563 0 4.0499710079037788e-07 0.011606550223202236 0 0.00015082324384968308 0.012047330419539468 0 0.00033154950839163998 0.010902049179766867 0 4.0499710079037788e-07 0.011606550223202236 0 0.00033154950839163998 0.010902049179766867 0 4.0499710079037788e-07 0.011606550223202236 0 0.00032716774437326643 0.010146663993221413 0 4.0499710079037788e-07 0.011606550223202236 0 0.00032716774437326643 0.010146663993221413 0 7.385127214291686e-07 0.0096523152339515837 0 0.00051786588804942214 0.0098176754686192438 0 0.00032716774437326643 0.010146663993221413 0 0.0005034458649165256 0.0088131112416608547 0 0.00032716774437326643 0.010146663993221413 0 7.385127214291686e-07 0.0096523152339515837 0 0.0005034458649165256 0.0088131112416608547 0 0.0005034458649165256 0.0088131112416608547 0 0.00029360591661924514 0.0071144219451444377 0 0.00050258561457948393 0.0081926971525478915 0 5.2351648956639329e-07 0.0076982090458077761 0 0.0005034458649165256 0.0088131112416608547 0 0.00029360591661924514 0.0071144219451444377 0 7.385127214291686e-07 0.0096523152339515837 0 5.2351648956639329e-07 0.0076982090458077761 0 0.0005034458649165256 0.0088131112416608547 0 5.2351648956639329e-07 0.0076982090458077761 0 9.4039398331263966e-07 0.0057441978818845475 0 0.00029360591661924514 0.0071144219451444377 0 9.4039398331263966e-07 0.0057441978818845475 0 -5.4691141943920778e-05 0.0057948018269098501 0 -2.2962819514338551e-06 0.0037888033895873302 0 9.4039398331263966e-07 0.0057441978818845475 0 0.00029360591661924514 0.0071144219451444377 0 -5.4691141943920778e-05 0.0057948018269098501 0 0.00029360591661924514 0.0071144219451444377 0 -5.4691141943920778e-05 0.0057948018269098501 0 -2.6519139353190636e-05 0.0078127516044135693 0 -5.4691141943920778e-05 0.0057948018269098501 0 -2.6519139353190636e-05 0.0078127516044135693 0 -0.001170602563843806 0.0068298081738924652 0 0.00029360591661924514 0.0071144219451444377 0 -2.6519139353190636e-05 0.0078127516044135693 0 0.00050258561457948393 0.0081926971525478915 0 -2.6519139353190636e-05 0.0078127516044135693 0 0.00029477912263497027 0.0085048427882679408 0 0.00050258561457948393 0.0081926971525478915 0 -2.6519139353190636e-05 0.0078127516044135693 0 -0.00018984852104086402 0.0083782877578428751 0 -0.0010767253955577887 0.0083147989364480007 0 -2.6519139353190636e-05 0.0078127516044135693 0 0.00029477912263497027 0.0085048427882679408 0 -0.00018984852104086402 0.0083782877578428751 0 0.0005034458649165256 0.0088131112416608547 0 0.00050258561457948393 0.0081926971525478915 0 0.00064518140535613038 0.0087597163864529138 0 0.00064766043321282259 0.009231839891494056 0 0.0005034458649165256 0.0088131112416608547 0 0.00064518140535613038 0.0087597163864529138 0 0.00050258561457948393 0.0081926971525478915 0 0.00064518140535613038 0.0087597163864529138 0 0.00064371767953334412 0.0087725702336196327 0 0.00029477912263497027 0.0085048427882679408 0 0.00050258561457948393 0.0081926971525478915 0 0.00064371767953334412 0.0087725702336196327 0 0.000732238748229322 0.0090326390363147466 0 0.00064518140535613038 0.0087597163864529138 0 0.00064371767953334412 0.0087725702336196327 0 0.000732238748229322 0.0090326390363147466 0 0.00081825955771945753 0.0088979553023489678 0 0.00064371767953334412 0.0087725702336196327 0 0.00078648811612158263 0.0086652401781699244 0 0.00070903453884853609 0.0089442476489442566 0 0.00081825955771945753 0.0088979553023489678 0 0.000732238748229322 0.0090326390363147466 0 0.00070903453884853609 0.0089442476489442566 0 0.00081825955771945753 0.0088979553023489678 0 0.00081825955771945753 0.0088979553023489678 0 0.00064371767953334412 0.0087725702336196327 0 0.00056506518487880152 0.0090008635540410002 0 0.00081825955771945753 0.0088979553023489678 0 0.00056506518487880152 0.0090008635540410002 0 0.00095131964044559245 0.0087163382055547092 0 0.00029477912263497027 0.0085048427882679408 0 0.00064371767953334412 0.0087725702336196327 0 0.00056506518487880152 0.0090008635540410002 0 0.00029477912263497027 0.0085048427882679408 0 -9.6909871655315299e-05 0.0088258431723348008 0 0.00056506518487880152 0.0090008635540410002 0 -0.00018984852104086402 0.0083782877578428751 0 -9.6909871655315299e-05 0.0088258431723348008 0 -0.0010767253955577887 0.0083147989364480007 0 0.00029477912263497027 0.0085048427882679408 0 -0.00018984852104086402 0.0083782877578428751 0 -9.6909871655315299e-05 0.0088258431723348008 0 0.0013914536224715521 0.0068363359024039361 0 0.0013353668111448815 0.006858072596356117 0 0.0013816416970010468 0.006744874824190024 0 0.0013914536224715521 0.0068363359024039361 0 0.0013816416970010468 0.006744874824190024 0 0.0014552753513831372 0.0067913639935637668 0 0.00076992755627107456 0.0082618211828363059 0 0.00088784057537862494 0.0078376956296233157 0 0.0013353668111448815 0.006858072596356117 0 0.0013844783233146504 0.0067870375456186216 0 0.0012846649071115673 0.0069936805791851612 0 0.0013353668111448815 0.006858072596356117 0 0.0013816416970010468 0.006744874824190024 0 0.0013844783233146504 0.0067870375456186216 0 0.0013816416970010468 0.006744874824190024 0 0.0013967997947454363 0.0066489325041291999 0 0.0013377143993946929 0.006501414326483824 0 0.0014497329171482838 0.006703315423411715 0 0.0013967997947454363 0.0066489325041291999 0 0.0013377143993946929 0.006501414326483824 0 0.0013816416970010468 0.006744874824190024 0 0.0013967997947454363 0.0066489325041291999 0 0.0013844783233146504 0.0067870375456186216 0 0.0014806501914833843 0.0067237513399199802 0 0.0013967997947454363 0.0066489325041291999 0 0.0013844783233146504 0.0067870375456186216 0 0.001639564039639572 0.0067392791260902727 0 0.0014806501914833843 0.0067237513399199802 0 0.0013844783233146504 0.0067870375456186216 0 0.001639564039639572 0.0067392791260902727 0 0.0013844783233146504 0.0067870375456186216 0 0.0016959277291472979 0.0066960119713083844 0 0.0013844783233146504 0.0067870375456186216 0 0.0012846649071115673 0.0069936805791851612 0 0.0012238001813575936 0.0072270348437596067 0 0.0014474512167169825 0.0068504053088857117 0 0.0014283154002468763 0.0069601863694705376 0 0.0012846649071115673 0.0069936805791851612 0 0.0011995825572591408 0.0072720253195472494 0 0.0012839906533855705 0.0070501967025086735 0 0.0012846649071115673 0.0069936805791851612 0 0.0012238001813575936 0.0072270348437596067 0 0.0011995825572591408 0.0072720253195472494 0 0.00086957057866937713 0.0077543099325168762 0 0.0010645214396455317 0.007874463320556772 0 0.00091650275537769944 0.0078174182327000134 0 0.001104713155258787 0.0074617022513312013 0 0.0011995825572591408 0.0072720253195472494 0 0.001639564039639572 0.0067392791260902727 0 0.0018242556368491117 0.0067488830828889412 0 0.0016959277291472979 0.0066960119713083844 0 0.00091650275537769944 0.0078174182327000134 0 0.0011995825572591408 0.0072720253195472494 0 0.0012839906533855705 0.0070501967025086735 0 0.0010042018748634674 0.007557154310692084 0 0.0012238001813575936 0.0072270348437596067 0 0.001104713155258787 0.0074617022513312013 0 0.0012238001813575936 0.0072270348437596067 0 0.001104713155258787 0.0074617022513312013 0 0.0011995825572591408 0.0072720253195472494 0 0.0017279767380006252 0.0071871313209575845 0 0.0014283154002468763 0.0069601863694705376 0 0.0010042018748634674 0.007557154310692084 0 0.00091650275537769944 0.0078174182327000134 0 0.001104713155258787 0.0074617022513312013 0 0.00091650275537769944 0.0078174182327000134 0 0.00078648811612158263 0.0086652401781699244 0 0.00095131964044559245 0.0087163382055547092 0 0.00078648811612158263 0.0086652401781699244 0 0.00081825955771945753 0.0088979553023489678 0 0.00095131964044559245 0.0087163382055547092 0 0.0013353668111448815 0.006858072596356117 0 0.0012846649071115673 0.0069936805791851612 0 0.0012839906533855705 0.0070501967025086735 0 0.00088784057537862494 0.0078376956296233157 0 0.0010645214396455317 0.007874463320556772 0 0.00016956221655924517 0.0024409229606936643 0 -0.00030964143718425607 0.0024392497647811977 0 -0.00044676888712223483 0.003059893358485501 0 0.00016956221655924517 0.0024409229606936643 0 -0.00030964143718425607 0.0024392497647811977 0 -0.00019020584514075405 0.0021453085532246318 0 -0.00030964143718425607 0.0024392497647811977 0 -0.00026880267769733695 0.0022738157125218239 0 -0.00017164768770771429 0.0020609899467069147 0 -0.00030964143718425607 0.0024392497647811977 0 -0.00044676888712223483 0.003059893358485501 0 -0.00017164768770771429 0.0020609899467069147 0 -0.00022791369313325972 0.0019174546194813407 0 -0.00044676888712223483 0.003059893358485501 0 -0.00017164768770771429 0.0020609899467069147 0 -0.00095095604713443284 0.003313612888525217 0 -0.00048967416265844948 0.0030205150541587011 0 -0.00034681581469827335 0.0051839871038983701 0 -0.00044676888712223483 0.003059893358485501 0 0.00046041062878986704 0.0040860178631666518 0 0.00016956221655924517 0.0024409229606936643 0 -0.00044676888712223483 0.003059893358485501 0 0.00046041062878986704 0.0040860178631666518 0 0.0012866814300014535 0.0059409637076079146 0 0.00046041062878986704 0.0040860178631666518 0 0.001295735715179441 0.0031697398885021841 0 0.00016956221655924517 0.0024409229606936643 0 0.00046041062878986704 0.0040860178631666518 0 0.001295735715179441 0.0031697398885021841 0 0.0013816416970010468 0.006744874824190024 0 0.0013377143993946929 0.006501414326483824 0 0.0015104732134734542 0.0066463955126096616 0 0.0012866814300014535 0.0059409637076079146 0 0.0013377143993946929 0.006501414326483824 0 0.0015104732134734542 0.0066463955126096616 0 0.0013150856876411707 0.0058820996960484359 0 0.0013553926963193366 0.004971556182347037 0 0.0013816416970010468 0.006744874824190024 0 0.0015104732134734542 0.0066463955126096616 0 0.0014552753513831372 0.0067913639935637668 0 0.0013553926963193366 0.004971556182347037 0 0.0012735884759978566 0.0043664870349038772 0 0.00016956221655924517 0.0024409229606936643 0 0.001295735715179441 0.0031697398885021841 0 0.0008704552407888857 0.0020721972864260114 0 0.00016956221655924517 0.0024409229606936643 0 0.0008704552407888857 0.0020721972864260114 0 0.00025837123710094611 0.0017994190550984328 0 0.0012735884759978566 0.0043664870349038772 0 0.00032305977078403637 0.00452774452834857 0 0.0013914536224715521 0.0068363359024039361 0 0.0014552753513831372 0.0067913639935637668 0 0.0014222749143593351 0.0068216764708265883 0 0.00076992755627107456 0.0082618211828363059 0 0.00032305977078403637 0.00452774452834857 0 0.0008704552407888857 0.0020721972864260114 0 0.00025837123710094611 0.0017994190550984328 0 0.00074137238204052261 0.0015457037415088307 0 0.00025837123710094611 0.0017994190550984328 0 -0.00019020584514075405 0.0021453085532246318 0 -0.00025589312465534587 0.0017667624812596091 0 0.00025837123710094611 0.0017994190550984328 0 -0.00025589312465534587 0.0017667624812596091 0 0.00015935288942267933 0.0015231158892980853 0 0.00016956221655924517 0.0024409229606936643 0 0.00025837123710094611 0.0017994190550984328 0 -0.00019020584514075405 0.0021453085532246318 0 -0.00019020584514075405 0.0021453085532246318 0 -0.00025589312465534587 0.0017667624812596091 0 -0.00026880267769733695 0.0022738157125218239 0 -0.00030964143718425607 0.0024392497647811977 0 -0.00019020584514075405 0.0021453085532246318 0 -0.00026880267769733695 0.0022738157125218239 0 0.00022632768336251844 0.00040973987651382946 0 0.00010409079271887347 0.0003109262834379271 0 0.00072784864538228474 -0.0010127832915887904 0 -1.0424340097330627e-06 -0.00077634963933273916 0 0.00038323747574701272 -0.00085959490165537806 0 0.00072784864538228474 -0.0010127832915887904 0 0.00048887727467027966 -0.00091454983628308365 0 0.00038323747574701272 -0.00085959490165537806 0 0.00025837123710094611 0.0017994190550984328 0 0.00015935288942267933 0.0015231158892980853 0 0.00038822795600938705 0.001328499057342479 0 -0.00025589312465534587 0.0017667624812596091 0 0.00015935288942267933 0.0015231158892980853 0 0.00010094630731290951 0.0012468925756247591 0 0.00015935288942267933 0.0015231158892980853 0 0.00010094630731290951 0.0012468925756247591 0 0.00018594962722475218 0.0013403595984397879 0 0.00015935288942267933 0.0015231158892980853 0 0.00018594962722475218 0.0013403595984397879 0 0.00038822795600938705 0.001328499057342479 0 -1.0424340097330627e-06 -0.00077634963933273916 0 0.00033879064125563784 -0.00042627576180853769 0 0.00019145285097632835 0.00027806412940631071 0 0.00010094630731290951 0.0012468925756247591 0 0.00018594962722475218 0.0013403595984397879 0 5.4278276901986615e-05 0.0013345104638873989 0 0.0001861742886831619 0.0013948012158731709 0 -0.0002253642894638223 0.0009924402327059509 0 0.00018594962722475218 0.0013403595984397879 0 5.4278276901986615e-05 0.0013345104638873989 0 0.00038822795600938705 0.001328499057342479 0 0.00033879064125563784 -0.00042627576180853769 0 0.00048887727467027966 -0.00091454983628308365 0 0.00032707661352710172 -0.00028544610949420262 0 0.00033879064125563784 -0.00042627576180853769 0 0.00048887727467027966 -0.00091454983628308365 0 0.00038323747574701272 -0.00085959490165537806 0 -1.0424340097330627e-06 -0.00077634963933273916 0 0.00033879064125563784 -0.00042627576180853769 0 0.00038323747574701272 -0.00085959490165537806 0 0.00025837123710094611 0.0017994190550984328 0 0.00074137238204052261 0.0015457037415088307 0 0.00038822795600938705 0.001328499057342479 0 0.00032305977078403637 0.00452774452834857 0 -0.0002253642894638223 0.0009924402327059509 0 -0.00052616808269328314 0.00090382284497605037 0 -0.00023165950251576614 0.0011064274757523541 0 -0.00060048832466262137 0.0014439177475753951 0 5.4278276901986615e-05 0.0013345104638873989 0 -0.00023165950251576614 0.0011064274757523541 0 -0.00020359589412800039 0.001390453552377898 0 -0.00023165950251576614 0.0011064274757523541 0 -0.00020359589412800039 0.001390453552377898 0 -0.00060048832466262137 0.0014439177475753951 0 0.00032305977078403637 0.00452774452834857 0 -0.00093934522774649187 0.0041644539444449851 0 -2.6519139353190636e-05 0.0078127516044135693 0 -0.0010767253955577887 0.0083147989364480007 0 -0.001170602563843806 0.0068298081738924652 0 -5.4691141943920778e-05 0.0057948018269098501 0 -0.001170602563843806 0.0068298081738924652 0 -0.00026477758503851866 0.0037419970350337129 0 -0.00093934522774649187 0.0041644539444449851 0 -0.00036410726199416639 0.0037789149904266617 0 5.4278276901986615e-05 0.0013345104638873989 0 -0.00020359589412800039 0.001390453552377898 0 -5.1156110239429852e-05 0.0016585738826711072 0 -0.00060048832466262137 0.0014439177475753951 0 -5.1156110239429852e-05 0.0016585738826711072 0 -0.00026477758503851866 0.0037419970350337129 0 -0.00020359589412800039 0.001390453552377898 0 -0.00060048832466262137 0.0014439177475753951 0 -5.1156110239429852e-05 0.0016585738826711072 0 -5.1156110239429852e-05 0.0016585738826711072 0 -0.00026477758503851866 0.0037419970350337129 0 4.9344857517432111e-07 0.0018338302220834047 0 -0.00026477758503851866 0.0037419970350337129 0 -2.2962819514338551e-06 0.0037888033895873302 0 4.9344857517432111e-07 0.0018338302220834047 0 -5.4691141943920778e-05 0.0057948018269098501 0 -0.00026477758503851866 0.0037419970350337129 0 -2.2962819514338551e-06 0.0037888033895873302 0 0.00032707661352710172 -0.00028544610949420262 0 0.00019145285097632835 0.00027806412940631071 0 0.00013971644569086097 0.00070884176267239983 0 0.00033879064125563784 -0.00042627576180853769 0 0.00032707661352710172 -0.00028544610949420262 0 0.00019145285097632835 0.00027806412940631071 0 0.00010094630731290951 0.0012468925756247591 0 5.4278276901986615e-05 0.0013345104638873989 0 -5.1156110239429852e-05 0.0016585738826711072 0 -5.1156110239429852e-05 0.0016585738826711072 0 0.00019145285097632835 0.00027806412940631071 0 0.00013971644569086097 0.00070884176267239983 0 -1.0424340097330627e-06 -0.00077634963933273916 0 -5.1156110239429852e-05 0.0016585738826711072 0 0.00019145285097632835 0.00027806412940631071 0 0.00010409079271887347 0.0003109262834379271 0 -8.4955132308036965e-05 0.0014691724136556741 0 -5.1156110239429852e-05 0.0016585738826711072 0 4.9344857517432111e-07 0.0018338302220834047 0 0.00013971644569086097 0.00070884176267239983 0 0.00032707661352710172 -0.00028544610949420262 0 0.00013971644569086097 0.00070884176267239983 0 4.9831507702522031e-07 -0.00012058425981254102 0 4.9344857517432111e-07 0.0018338302220834047 0 0.00013971644569086097 0.00070884176267239983 0 4.9831507702522031e-07 -0.00012058425981254102 0 4.9831507702522031e-07 -0.00012058425981254102 0 0.00026816606047631197 -0.0011690253181718788 0 4.9435698986482469e-07 -0.0020748621857624664 0 0.00032707661352710172 -0.00028544610949420262 0 4.9831507702522031e-07 -0.00012058425981254102 0 0.00026816606047631197 -0.0011690253181718788 0 0.00032707661352710172 -0.00028544610949420262 0 0.00026816606047631197 -0.0011690253181718788 0 0.00045107923213704988 -0.0012766825714518883 0 0.00026816606047631197 -0.0011690253181718788 0 0.00024302060265173753 -0.0020342692063183426 0 0.00045107923213704988 -0.0012766825714518883 0 0.00026816606047631197 -0.0011690253181718788 0 4.9435698986482469e-07 -0.0020748621857624664 0 0.00024302060265173753 -0.0020342692063183426 0 4.9435698986482469e-07 -0.0020748621857624664 0 9.9618772953847311e-05 -0.0030093016461227298 0 0.00024302060265173753 -0.0020342692063183426 0 4.9435698986482469e-07 -0.0020748621857624664 0 2.5484221447277754e-07 -0.0040292030379259778 0 9.9618772953847311e-05 -0.0030093016461227298 0 2.5484221447277754e-07 -0.0040292030379259778 0 9.9618772953847311e-05 -0.0030093016461227298 0 0.00014153895153378522 -0.0040497291045152135 0 9.9618772953847311e-05 -0.0030093016461227298 0 -1.4971126698327325e-05 -0.0025220472828353822 0 0.00014153895153378522 -0.0040497291045152135 0 9.9618772953847311e-05 -0.0030093016461227298 0 0.00024302060265173753 -0.0020342692063183426 0 -1.4971126698327325e-05 -0.0025220472828353822 0 0.00024302060265173753 -0.0020342692063183426 0 -1.4971126698327325e-05 -0.0025220472828353822 0 0.00030614156667889501 -0.0016137144194975565 0 -3.6910402398730586e-05 -0.0025387829816691798 0 -0.00048340947748905623 -0.0022486494778435053 0 -1.4971126698327325e-05 -0.0025220472828353822 0 -0.0012542392100738957 -0.0015487400464698324 0 -0.00034337167939458511 -0.0010257609966750258 0 -1.4971126698327325e-05 -0.0025220472828353822 0 0.00030614156667889501 -0.0016137144194975565 0 -0.00034337167939458511 -0.0010257609966750258 0 0.00030614156667889501 -0.0016137144194975565 0 0.00023094824870983945 -0.0009365920970742746 0 -0.00034337167939458511 -0.0010257609966750258 0 0.00055284095217406613 -0.0011424893980973693 0 0.00030614156667889501 -0.0016137144194975565 0 0.00023094824870983945 -0.0009365920970742746 0 0.00072784864538228474 -0.0010127832915887904 0 0.00048887727467027966 -0.00091454983628308365 0 0.00055284095217406613 -0.0011424893980973693 0 0.00048887727467027966 -0.00091454983628308365 0 0.00032707661352710172 -0.00028544610949420262 0 0.00045107923213704988 -0.0012766825714518883 0 0.00048887727467027966 -0.00091454983628308365 0 0.00055284095217406613 -0.0011424893980973693 0 0.00045107923213704988 -0.0012766825714518883 0 0.00055284095217406613 -0.0011424893980973693 0 0.00045107923213704988 -0.0012766825714518883 0 0.00030614156667889501 -0.0016137144194975565 0 0.00024302060265173753 -0.0020342692063183426 0 0.00045107923213704988 -0.0012766825714518883 0 0.00030614156667889501 -0.0016137144194975565 0 0.00025402552098774709 -0.0083139462897913793 0 0.00015550129408228806 -0.0084277997172354201 0 -8.4542135155164571e-05 -0.007801703866780859 0 0.00025402552098774709 -0.0083139462897913793 0 0.00015550129408228806 -0.0084277997172354201 0 -8.1255347667746528e-05 -0.0079845676671229885 0 -8.4542135155164571e-05 -0.007801703866780859 0 -1.4709963379018215e-06 -0.0079387435802703334 0 -1.1025052887332536e-08 -0.0098902979887192325 0 -0.00068469876407442349 -0.0063857545852644927 0 -0.000203165226681562 -0.0076745511877973141 0 -8.4542135155164571e-05 -0.007801703866780859 0 -1.4709963379018215e-06 -0.0079387435802703334 0 3.2193916589942275e-07 -0.0059828048840844363 0 -8.4542135155164571e-05 -0.007801703866780859 0 -0.0002271750639588304 -0.0055566028976788227 0 3.2193916589942275e-07 -0.0059828048840844363 0 -0.0017035119391284595 -0.0046799861089853274 0 -8.4542135155164571e-05 -0.007801703866780859 0 -0.0002271750639588304 -0.0055566028976788227 0 -0.0017035119391284595 -0.0046799861089853274 0 -0.0002271750639588304 -0.0055566028976788227 0 -0.00072613354003337556 -0.0041840670298900077 0 -0.0002271750639588304 -0.0055566028976788227 0 0.00014153895153378522 -0.0040497291045152135 0 -0.00072613354003337556 -0.0041840670298900077 0 -0.0002271750639588304 -0.0055566028976788227 0 3.2193916589942275e-07 -0.0059828048840844363 0 0.00014153895153378522 -0.0040497291045152135 0 2.5484221447277754e-07 -0.0040292030379259778 0 3.2193916589942275e-07 -0.0059828048840844363 0 0.00014153895153378522 -0.0040497291045152135 0 -1.4971126698327325e-05 -0.0025220472828353822 0 0.00014153895153378522 -0.0040497291045152135 0 0.00023827004952553892 -0.0030136095445097611 0 0.00023827004952553892 -0.0030136095445097611 0 -0.00055553480977518733 -0.0031879058153504976 0 -0.00044947843585139226 -0.002059858395944377 0 -0.00048340947748905623 -0.0022486494778435053 0 -0.0011984765143082967 -0.0014927627682901265 0 0.00014153895153378522 -0.0040497291045152135 0 -0.00072613354003337556 -0.0041840670298900077 0 -0.00055553480977518733 -0.0031879058153504976 0 0.00014153895153378522 -0.0040497291045152135 0 0.00023827004952553892 -0.0030136095445097611 0 -0.00055553480977518733 -0.0031879058153504976 0 -0.00072613354003337556 -0.0041840670298900077 0 -0.00055553480977518733 -0.0031879058153504976 0 -0.0021817744859419161 -0.0028814610478690621 0 -0.00055553480977518733 -0.0031879058153504976 0 -0.0021817744859419161 -0.0028814610478690621 0 -0.001823782726594814 -0.0019207462488841781 0 -0.00055553480977518733 -0.0031879058153504976 0 -0.001823782726594814 -0.0019207462488841781 0 -0.00044947843585139226 -0.002059858395944377 0 -0.00068469876407442349 -0.0063857545852644927 0 -0.0008563293953617985 -0.0052809501118136967 0 -0.0017035119391284595 -0.0046799861089853274 0 -0.00072613354003337556 -0.0041840670298900077 0 -0.0021817744859419161 -0.0028814610478690621 0 0.00025402552098774709 -0.0083139462897913793 0 0.00034524292656946406 -0.0071228208100662729 0 -8.1255347667746528e-05 -0.0079845676671229885 0 -0.0022164826760314987 -0.00076558591790323188 0 -0.0024245828785123217 -0.0010007272222228227 0 -0.0019682232809931132 -0.0002942894273535037 0 -0.0015621228507296065 -0.0021678945687747713 0 -0.0022041765917010644 -9.8646665195435725e-05 0 -0.0026786309194218485 -0.00068316360115943623 0 -0.0024104469799347285 -0.00018008463777257982 0 -0.0027274833692323519 -2.9329873956486983e-05 0 -0.0026786309194218485 -0.00068316360115943623 0 -0.0019682232809931132 -0.0002942894273535037 0 -0.0024104469799347285 -0.00018008463777257982 0 -0.0015621228507296065 -0.0021678945687747713 0 -0.0028983409005003923 0.00049619427185867721 0 -0.0021817744859419161 -0.0028814610478690621 0 -0.0024245828785123217 -0.0010007272222228227 0 -0.001823782726594814 -0.0019207462488841781 0 -0.0008563293953617985 -0.0052809501118136967 0 -0.0015621228507296065 -0.0021678945687747713 0 -0.0022164826760314987 -0.00076558591790323188 0 -0.0024245828785123217 -0.0010007272222228227 0 -0.001823782726594814 -0.0019207462488841781 0 -0.0021450665193814378 -0.00079791228774377522 0 -0.0011984765143082967 -0.0014927627682901265 0 -0.0022164826760314987 -0.00076558591790323188 0 -0.001823782726594814 -0.0019207462488841781 0 -0.00044947843585139226 -0.002059858395944377 0 -0.0022164826760314987 -0.00076558591790323188 0 -0.0019682232809931132 -0.0002942894273535037 0 -0.0018488475062452992 -0.0009096785740176338 0 -0.0019682232809931132 -0.0002942894273535037 0 -0.0014555874153065545 -0.00019596933410159984 0 -0.0018488475062452992 -0.0009096785740176338 0 -0.0014555874153065545 -0.00019596933410159984 0 -0.0018488475062452992 -0.0009096785740176338 0 -0.0012265795941502756 -0.00075855660535430354 0 -0.0012542392100738957 -0.0015487400464698324 0 -0.0012265795941502756 -0.00075855660535430354 0 -0.00034337167939458511 -0.0010257609966750258 0 -0.0012542392100738957 -0.0015487400464698324 0 -0.0018488475062452992 -0.0009096785740176338 0 -0.0012265795941502756 -0.00075855660535430354 0 -0.0014555874153065545 -0.00019596933410159984 0 -0.0012019032868059068 0.00035065338867121731 0 -0.00084371473135296015 -0.00010613798671682193 0 -0.0014555874153065545 -0.00019596933410159984 0 -0.0012265795941502756 -0.00075855660535430354 0 -0.00084371473135296015 -0.00010613798671682193 0 -0.0014555874153065545 -0.00019596933410159984 0 -0.0012019032868059068 0.00035065338867121731 0 -0.0016610206405193581 0.00043154248335171161 0 -0.0010847770168901116 0.00085186920183684238 0 -0.0016610206405193581 0.00043154248335171161 0 -0.0014495085410675451 0.0011851100082548916 0 -0.0012019032868059068 0.00035065338867121731 0 -0.0010847770168901116 0.00085186920183684238 0 -0.0016610206405193581 0.00043154248335171161 0 -0.0016610206405193581 0.00043154248335171161 0 -0.0014495085410675451 0.0011851100082548916 0 -0.0020996205777156669 0.00090947892350903814 0 -0.0019682232809931132 -0.0002942894273535037 0 -0.0014555874153065545 -0.00019596933410159984 0 -0.0016610206405193581 0.00043154248335171161 0 -0.0019682232809931132 -0.0002942894273535037 0 -0.00225546859961914 0.00028404559676845813 0 -0.0024104469799347285 -0.00018008463777257982 0 -0.0019682232809931132 -0.0002942894273535037 0 -0.0016610206405193581 0.00043154248335171161 0 -0.00225546859961914 0.00028404559676845813 0 -0.0016610206405193581 0.00043154248335171161 0 -0.00225546859961914 0.00028404559676845813 0 -0.0020996205777156669 0.00090947892350903814 0 -0.00225546859961914 0.00028404559676845813 0 -0.0026137110134905662 0.00073582204761251204 0 -0.0020996205777156669 0.00090947892350903814 0 -0.0026137110134905662 0.00073582204761251204 0 -0.0027274833692323519 -2.9329873956486983e-05 0 -0.0030588460080576249 0.00055327519618314069 0 -0.00225546859961914 0.00028404559676845813 0 -0.0026137110134905662 0.00073582204761251204 0 -0.0027274833692323519 -2.9329873956486983e-05 0 -0.00225546859961914 0.00028404559676845813 0 -0.0024104469799347285 -0.00018008463777257982 0 -0.0027274833692323519 -2.9329873956486983e-05 0 0.00084946918465151451 -6.346140230034795e-05 0 0.00059175652920267368 -0.00076217262964804126 0 -7.3740186115712694e-05 -0.00011487824838786923 0 0.00072784864538228474 -0.0010127832915887904 0 0.00084946918465151451 -6.346140230034795e-05 0 0.00059175652920267368 -0.00076217262964804126 0 0.00072784864538228474 -0.0010127832915887904 0 0.00055284095217406613 -0.0011424893980973693 0 0.00059175652920267368 -0.00076217262964804126 0 0.00022632768336251844 0.00040973987651382946 0 0.0002599467716780389 0.0010954173531661834 0 0.00055284095217406613 -0.0011424893980973693 0 0.00059175652920267368 -0.00076217262964804126 0 0.00023094824870983945 -0.0009365920970742746 0 0.00059175652920267368 -0.00076217262964804126 0 0.00023094824870983945 -0.0009365920970742746 0 -7.3740186115712694e-05 -0.00011487824838786923 0 0.00023094824870983945 -0.0009365920970742746 0 -0.00034337167939458511 -0.0010257609966750258 0 -7.3740186115712694e-05 -0.00011487824838786923 0 -0.0012265795941502756 -0.00075855660535430354 0 -0.00034337167939458511 -0.0010257609966750258 0 -0.00084371473135296015 -0.00010613798671682193 0 -0.00034337167939458511 -0.0010257609966750258 0 -0.00084371473135296015 -0.00010613798671682193 0 -7.3740186115712694e-05 -0.00011487824838786923 0 -7.3740186115712694e-05 -0.00011487824838786923 0 -0.00063120104277494837 0.00082004295080415469 0 0.00013438667719081358 0.0014651135365610134 0 -0.00084371473135296015 -0.00010613798671682193 0 -7.3740186115712694e-05 -0.00011487824838786923 0 -0.00063120104277494837 0.00082004295080415469 0 -0.0012019032868059068 0.00035065338867121731 0 -0.00084371473135296015 -0.00010613798671682193 0 -0.00063120104277494837 0.00082004295080415469 0 -0.0012019032868059068 0.00035065338867121731 0 -0.0010847770168901116 0.00085186920183684238 0 -0.00063120104277494837 0.00082004295080415469 0 -0.00063120104277494837 0.00082004295080415469 0 -0.00037049135676438233 0.0014251789579312153 0 -0.00083014376139467917 0.0012834030236168366 0 -0.0010847770168901116 0.00085186920183684238 0 -0.00063120104277494837 0.00082004295080415469 0 -0.00083014376139467917 0.0012834030236168366 0 -0.00063120104277494837 0.00082004295080415469 0 0.00013438667719081358 0.0014651135365610134 0 -0.00037049135676438233 0.0014251789579312153 0 0.00013438667719081358 0.0014651135365610134 0 1.4786112020333868e-05 0.0016129803451880463 0 -0.00037049135676438233 0.0014251789579312153 0 0.00084946918465151451 -6.346140230034795e-05 0 -7.3740186115712694e-05 -0.00011487824838786923 0 0.00013438667719081358 0.0014651135365610134 0 0.0002599467716780389 0.0010954173531661834 0 0.00013998110472485228 0.0014572244155248819 0 -0.00026880267769733695 0.0022738157125218239 0 0.00013438667719081358 0.0014651135365610134 0 -0.00017164768770771429 0.0020609899467069147 0 -0.00022791369313325972 0.0019174546194813407 0 -0.00017164768770771429 0.0020609899467069147 0 1.4786112020333868e-05 0.0016129803451880463 0 0.00013438667719081358 0.0014651135365610134 0 -0.00017164768770771429 0.0020609899467069147 0 1.4786112020333868e-05 0.0016129803451880463 0 -0.00022791369313325972 0.0019174546194813407 0 1.4786112020333868e-05 0.0016129803451880463 0 -3.7338998850002642e-05 0.0016967830083408756 0 -0.00095095604713443284 0.003313612888525217 0 -0.0015159851495020022 0.0038762162636468904 0 1.4786112020333868e-05 0.0016129803451880463 0 -3.7338998850002642e-05 0.0016967830083408756 0 -0.00017632826006390621 0.001735030785593466 0 -3.7338998850002642e-05 0.0016967830083408756 0 -0.00013739720256245971 0.0018436604360004766 0 -0.00017632826006390621 0.001735030785593466 0 -0.0015159851495020022 0.0038762162636468904 0 -0.0011101843132778687 0.0041386149266040857 0 -0.0011101843132778687 0.0041386149266040857 0 -0.00035085101058132456 0.0014866457761685749 0 -0.0017459569703504891 0.0060613060872653632 0 -0.0027311365139587674 0.0058953568398442723 0 -0.0026251277059673871 0.0069241689920169934 0 -0.0027311365139587674 0.0058953568398442723 0 -0.0026251277059673871 0.0069241689920169934 0 -0.0036568063663530367 0.0068575203389536288 0 -0.0015729794886304128 0.0071429690237320353 0 -0.0026251277059673871 0.0069241689920169934 0 -0.0022370600112592396 0.007763220896014101 0 -0.0026251277059673871 0.0069241689920169934 0 -0.0036568063663530367 0.0068575203389536288 0 -0.0029351003441985585 0.0082593665840111179 0 -0.0011101843132778687 0.0041386149266040857 0 -0.0009958196395446566 0.0057284885326363772 0 -0.00064992867232304774 0.0038894242522584609 0 -0.00040042699409931448 0.004630843645694804 0 -0.00095728453606755382 0.0041898321611780502 0 -0.0011101843132778687 0.0041386149266040857 0 -0.00010248209470352662 0.0029237897544839575 0 -7.7566593144846576e-05 0.0045559149970755709 0 -0.00010248209470352662 0.0029237897544839575 0 0.00019921827348559707 0.0043277307360601626 0 3.5276877525718695e-05 0.0043364814139159932 0 0.00028586850820699704 0.0044150712290251561 0 -0.00064992867232304774 0.0038894242522584609 0 -0.00040042699409931448 0.004630843645694804 0 -0.00027972221841520361 0.0046204029359912732 0 0.00020897088280137215 0.0036307174429511912 0 0.00028643294093878206 0.0049583180723934946 0 0.0007103086400099979 0.0030611273432019207 0 0.00026511946501818115 0.0030952796841202108 0 0.0001846830808089539 0.0026309095903209348 0 -7.7566593144846576e-05 0.0045559149970755709 0 0.00020897088280137215 0.0036307174429511912 0 -7.7566593144846576e-05 0.0045559149970755709 0 -0.0009958196395446566 0.0057284885326363772 0 -7.7566593144846576e-05 0.0045559149970755709 0 2.4828266967997499e-06 0.0051422245195812981 0 -0.00047493808756878252 0.004692982181231895 0 3.1023775527879556e-05 0.0050846468177060435 0 -0.00018378493911817609 0.0046652334658876049 0 2.4828266967997499e-06 0.0051422245195812981 0 -0.0009958196395446566 0.0057284885326363772 0 -0.0014109070476788612 0.0081244304665756724 0 -0.0029351003441985585 0.0082593665840111179 0 -0.0022370600112592396 0.007763220896014101 0 0.00021644267870933969 0.0061085742582625792 0 -0.00054073193444751472 0.0063716836927066693 0 -0.00063841304022951308 0.0061838139741700413 0 0.00019921827348559707 0.0043277307360601626 0 0.00027261834838033676 0.0043880505376635943 0 0.00028586850820699704 0.0044150712290251561 0 -0.0026251277059673871 0.0069241689920169934 0 -0.0029351003441985585 0.0082593665840111179 0 -0.0022370600112592396 0.007763220896014101 0 0.00021644267870933969 0.0061085742582625792 0 -0.00054073193444751472 0.0063716836927066693 0 -0.00040252851111212851 0.0064781786463043653 0 -0.00072955214605759837 0.0076275669194466929 0 -0.0009958196395446566 0.0057284885326363772 0 -0.00061250569025112162 0.0032106452184390128 0 -0.00021582155668878862 0.0029868717733578863 0 7.0134171184156941e-05 0.0030403680237305257 0 -0.0006811381006922349 0.0025903673243369597 0 -0.00061250569025112162 0.0032106452184390128 0 -0.00021582155668878862 0.0029868717733578863 0 -0.0006811381006922349 0.0025903673243369597 0 -0.00021582155668878862 0.0029868717733578863 0 -0.00025643422922330965 0.0025105000172627847 0 -0.0006811381006922349 0.0025903673243369597 0 -0.00061250569025112162 0.0032106452184390128 0 -0.0012271750602582071 0.0028423414887644685 0 -0.00061250569025112162 0.0032106452184390128 0 0.00029766795123618476 0.0030953584001400633 0 7.0134171184156941e-05 0.0030403680237305257 0 -0.00077875646149218932 0.0034672237804223944 0 0.00020897088280137215 0.0036307174429511912 0 0.00020897088280137215 0.0036307174429511912 0 9.3790560367097486e-05 0.003422664212947236 0 0.00026511946501818115 0.0030952796841202108 0 7.0134171184156941e-05 0.0030403680237305257 0 0.0001846830808089539 0.0026309095903209348 0 -0.00021582155668878862 0.0029868717733578863 0 0.0002855366791002395 0.002488629178584919 0 -0.00025643422922330965 0.0025105000172627847 0 -0.00021582155668878862 0.0029868717733578863 0 7.0134171184156941e-05 0.0030403680237305257 0 0.0001846830808089539 0.0026309095903209348 0 -4.853012644327188e-05 0.0028300168609958643 0 -0.00010248209470352662 0.0029237897544839575 0 0.0002855366791002395 0.002488629178584919 0 -0.00039941729402269958 0.0019797280108822275 0 -0.00025643422922330965 0.0025105000172627847 0 -4.7858356383765538e-05 0.0020567918335048889 0 -0.00027142191944829375 0.0022757861193124528 0 -0.00033824701331660857 0.0019735939747453986 0 -0.00010248209470352662 0.0029237897544839575 0 -0.00055311987113397987 0.0019373231355906159 0 -0.00027142191944829375 0.0022757861193124528 0 -0.00033824701331660857 0.0019735939747453986 0 -0.00063733224092929778 0.0019819848055532391 0 -0.0006811381006922349 0.0025903673243369597 0 -0.00039941729402269958 0.0019797280108822275 0 -0.00025643422922330965 0.0025105000172627847 0 -0.0006811381006922349 0.0025903673243369597 0 -0.00039941729402269958 0.0019797280108822275 0 -0.00097985565615945226 0.0020565400366787732 0 -0.00063733224092929778 0.0019819848055532391 0 -0.00056194521522373348 0.0016195868632225127 0 -0.0010655846260949346 0.0015904455706981623 0 -0.00055311987113397987 0.0019373231355906159 0 -0.00098699795360402158 0.0016431480942272756 0 -0.00039941729402269958 0.0019797280108822275 0 -0.0010655846260949346 0.0015904455706981623 0 -0.00097985565615945226 0.0020565400366787732 0 -4.7858356383765538e-05 0.0020567918335048889 0 -0.00033824701331660857 0.0019735939747453986 0 -0.00023929681879841883 0.001683554671288346 0 -0.00033824701331660857 0.0019735939747453986 0 -0.00063733224092929778 0.0019819848055532391 0 -0.00056194521522373348 0.0016195868632225127 0 -0.00033824701331660857 0.0019735939747453986 0 -0.00056194521522373348 0.0016195868632225127 0 -0.00023929681879841883 0.001683554671288346 0 1.4786112020333868e-05 0.0016129803451880463 0 -0.00017632826006390621 0.001735030785593466 0 -0.00037049135676438233 0.0014251789579312153 0 -0.00035085101058132456 0.0014866457761685749 0 -0.00031136770110020464 0.001530221411171229 0 -0.00056194521522373348 0.0016195868632225127 0 -0.00023929681879841883 0.001683554671288346 0 -0.00037049135676438233 0.0014251789579312153 0 -0.00056194521522373348 0.0016195868632225127 0 -0.00083014376139467917 0.0012834030236168366 0 -0.0010655846260949346 0.0015904455706981623 0 -0.00056194521522373348 0.0016195868632225127 0 -0.00037049135676438233 0.0014251789579312153 0 -0.00083014376139467917 0.0012834030236168366 0 -0.0010847770168901116 0.00085186920183684238 0 -0.00083014376139467917 0.0012834030236168366 0 -0.0014495085410675451 0.0011851100082548916 0 -0.00083014376139467917 0.0012834030236168366 0 -0.0014495085410675451 0.0011851100082548916 0 -0.0010655846260949346 0.0015904455706981623 0 -0.0014495085410675451 0.0011851100082548916 0 -0.0020024858639543694 0.0014605189655321684 0 -0.0020996205777156669 0.00090947892350903814 0 -0.0014495085410675451 0.0011851100082548916 0 -0.0020024858639543694 0.0014605189655321684 0 -0.0015715062462843734 0.0018609056114801041 0 -0.0014495085410675451 0.0011851100082548916 0 -0.0010655846260949346 0.0015904455706981623 0 -0.0015715062462843734 0.0018609056114801041 0 -0.0010655846260949346 0.0015904455706981623 0 -0.00097985565615945226 0.0020565400366787732 0 -0.0015715062462843734 0.0018609056114801041 0 -0.0026137110134905662 0.00073582204761251204 0 -0.0025002351508466476 0.001389575446081475 0 -0.0030169449659683254 0.0012218913257186308 0 -0.0020024858639543694 0.0014605189655321684 0 -0.0020996205777156669 0.00090947892350903814 0 -0.0025002351508466476 0.001389575446081475 0 -0.0026137110134905662 0.00073582204761251204 0 -0.0020996205777156669 0.00090947892350903814 0 -0.0025002351508466476 0.001389575446081475 0 -0.0020024858639543694 0.0014605189655321684 0 -0.0025002351508466476 0.001389575446081475 0 -0.0024501381817018495 0.0020916254331913844 0 -0.0025002351508466476 0.001389575446081475 0 -0.0026969101929454095 0.0017996445429087366 0 -0.0030169449659683254 0.0012218913257186308 0 -0.0026969101929454095 0.0017996445429087366 0 -0.003050368412502797 0.0017272757647568799 0 -0.0030169449659683254 0.0012218913257186308 0 -0.0026969101929454095 0.0017996445429087366 0 -0.0024501381817018495 0.0020916254331913844 0 -0.0028291298200777298 0.0019565061541245098 0 -0.0026969101929454095 0.0017996445429087366 0 -0.0028291298200777298 0.0019565061541245098 0 -0.003050368412502797 0.0017272757647568799 0 -0.0025002351508466476 0.001389575446081475 0 -0.0026969101929454095 0.0017996445429087366 0 -0.0024501381817018495 0.0020916254331913844 0 -0.0024501381817018495 0.0020916254331913844 0 -0.0027172816950090249 0.0021426122823244922 0 -0.0025573974032598507 0.0021844838646704143 0 -0.0024840427660370607 0.0021761696474648607 0 -0.0026259847183202484 0.0029257436654918723 0 -0.0024501381817018495 0.0020916254331913844 0 -0.0028291298200777298 0.0019565061541245098 0 -0.0027172816950090249 0.0021426122823244922 0 -0.0028291298200777298 0.0019565061541245098 0 -0.0029571408046319401 0.002115427977726543 0 -0.0027172816950090249 0.0021426122823244922 0 -0.0012693545346708264 0.0023839914660999315 0 -0.0015715062462843734 0.0018609056114801041 0 -0.0018331458926903325 0.0026049649738459344 0 -0.0006811381006922349 0.0025903673243369597 0 -0.0012693545346708264 0.0023839914660999315 0 -0.00097985565615945226 0.0020565400366787732 0 -0.0012693545346708264 0.0023839914660999315 0 -0.00097985565615945226 0.0020565400366787732 0 -0.0015715062462843734 0.0018609056114801041 0 -0.0020024858639543694 0.0014605189655321684 0 -0.0024501381817018495 0.0020916254331913844 0 -0.0015715062462843734 0.0018609056114801041 0 -0.0024501381817018495 0.0020916254331913844 0 -0.0015715062462843734 0.0018609056114801041 0 -0.0018331458926903325 0.0026049649738459344 0 -0.0018331458926903325 0.0026049649738459344 0 -0.0018024094540255795 0.003519506913005292 0 -0.0026825111207433895 0.0037743145841993499 0 -0.0024501381817018495 0.0020916254331913844 0 -0.0018331458926903325 0.0026049649738459344 0 -0.0026825111207433895 0.0037743145841993499 0 -0.0018331458926903325 0.0026049649738459344 0 -0.0012271750602582071 0.0028423414887644685 0 -0.0018024094540255795 0.003519506913005292 0 -0.00061250569025112162 0.0032106452184390128 0 -0.0012271750602582071 0.0028423414887644685 0 -0.0018024094540255795 0.003519506913005292 0 -0.00077875646149218932 0.0034672237804223944 0 -0.0017630417008957331 0.0035368113036323072 0 -0.0012693545346708264 0.0023839914660999315 0 -0.0018331458926903325 0.0026049649738459344 0 -0.0012271750602582071 0.0028423414887644685 0 -0.0006811381006922349 0.0025903673243369597 0 -0.0012693545346708264 0.0023839914660999315 0 -0.0012271750602582071 0.0028423414887644685 0 -0.00086785300739841318 0.0037744541379998837 0 -0.0012294449524337581 0.0040477959981119489 0 -0.0018024094540255795 0.003519506913005292 0 -0.0012294449524337581 0.0040477959981119489 0 -0.0016429215804348951 0.0043079385235565391 0 -0.0010384249780565045 0.0045423518987353249 0 -0.0012294449524337581 0.0040477959981119489 0 -0.0016429215804348951 0.0043079385235565391 0 -0.0018024094540255795 0.003519506913005292 0 -0.0018024094540255795 0.003519506913005292 0 -0.0021867953110988308 0.0043714838390718613 0 -0.0026825111207433895 0.0037743145841993499 0 -0.0016429215804348951 0.0043079385235565391 0 -0.0018024094540255795 0.003519506913005292 0 -0.0021867953110988308 0.0043714838390718613 0 -0.0021867953110988308 0.0043714838390718613 0 -0.001776506888297469 0.0049305648192194745 0 -0.0026489837853260036 0.0051364437847958751 0 -0.0021867953110988308 0.0043714838390718613 0 -0.0026825111207433895 0.0037743145841993499 0 -0.0026489837853260036 0.0051364437847958751 0 -0.0016429215804348951 0.0043079385235565391 0 -0.0021867953110988308 0.0043714838390718613 0 -0.001776506888297469 0.0049305648192194745 0 -0.0020294608571600238 0.0050210961515298773 0 -0.0023179033567351762 0.0040416783951038836 0 -0.001776506888297469 0.0049305648192194745 0 -0.0013627159927488708 0.0048914148804434406 0 -0.0013991071586176471 0.0054300025439143283 0 -0.0016429215804348951 0.0043079385235565391 0 -0.0013627159927488708 0.0048914148804434406 0 -0.0010384249780565045 0.0045423518987353249 0 -0.0016429215804348951 0.0043079385235565391 0 -0.001776506888297469 0.0049305648192194745 0 -0.0013627159927488708 0.0048914148804434406 0 -0.0029571408046319401 0.002115427977726543 0 -0.0027172816950090249 0.0021426122823244922 0 -0.002927070397396197 0.0023259901975134843 0 -0.0027172816950090249 0.0021426122823244922 0 -0.0026960733011093915 0.0023359015691930812 0 -0.002927070397396197 0.0023259901975134843 0 -0.0027172816950090249 0.0021426122823244922 0 -0.0025573974032598507 0.0021844838646704143 0 -0.0026960733011093915 0.0023359015691930812 0 -0.0025156345366918356 0.0025469221009596301 0 -0.0026960733011093915 0.0023359015691930812 0 -0.0027858588358644792 0.0024529873162463722 0 -0.0026259847183202484 0.0029257436654918723 0 -0.0023179033567351762 0.0040416783951038836 0 -0.0025573974032598507 0.0021844838646704143 0 -0.0025156345366918356 0.0025469221009596301 0 -0.0026960733011093915 0.0023359015691930812 0 -0.0025156345366918356 0.0025469221009596301 0 -0.0027858588358644792 0.0024529873162463722 0 -0.0028903401035862658 0.0025778833702844077 0 -0.0026960733011093915 0.0023359015691930812 0 -0.0027858588358644792 0.0024529873162463722 0 -0.002927070397396197 0.0023259901975134843 0 -0.0027858588358644792 0.0024529873162463722 0 -0.0029127789608768564 0.0024662302300460497 0 -0.0028903401035862658 0.0025778833702844077 0 -0.0029127789608768564 0.0024662302300460497 0 -0.0028903401035862658 0.0025778833702844077 0 -0.0030585990081973217 0.002510161347876187 0 -0.0027858588358644792 0.0024529873162463722 0 -0.0029127789608768564 0.0024662302300460497 0 -0.002927070397396197 0.0023259901975134843 0 -0.0028526280431055606 0.0036689947566862749 0 -0.0026079962603442492 0.0037806817794309353 0 -0.0021061182837808527 0.0038783663625959314 0 -0.0025156345366918356 0.0025469221009596301 0 -0.0029103914708818609 0.0026485053292634262 0 -0.0028903401035862658 0.0025778833702844077 0 -0.0031621278256528888 0.0022509084164995491 0 -0.0021256077917111704 0.0037938210722073024 0 -0.0028698647609575537 0.0037287526725390181 0 -0.0028526280431055606 0.0036689947566862749 0 -0.0026079962603442492 0.0037806817794309353 0 -0.0029140615394104494 0.0026691459261990406 0 -0.0028903401035862658 0.0025778833702844077 0 -0.0030207576024410421 0.0026982508311956736 0 -0.0032196429713246752 0.0020199316811623474 0 -0.0031986947305724747 0.0019467568381130666 0 -0.0033915037671690953 0.001989043537739741 0 -0.0031471508013064761 0.0023539507409327848 0 -0.0035366182091488558 0.0016265901747268819 0 -0.0031621278256528888 0.0022509084164995491 0 -0.0031471508013064761 0.0023539507409327848 0 -0.0031471508013064761 0.0023539507409327848 0 -0.0031158344715612202 0.0024643301991546522 0 -0.0021398164022566092 0.0039213607809802931 0 -0.0017994567967594452 0.003987008626411344 0 -0.0016688361125852633 0.0044450637169669476 0 -0.0022194698383327252 0.0041874237673623959 0 -0.0016460660954300326 0.0043820969782961631 0 -0.0016490014279984839 0.0042955528088690527 0 -0.0023179033567351762 0.0040416783951038836 0 -0.0031471508013064761 0.0023539507409327848 0 -0.0021194088309531554 0.0035170444586958916 0 -0.0028526280431055606 0.0036689947566862749 0 -0.0021061182837808527 0.0038783663625959314 0 -0.0021256077917111704 0.0037938210722073024 0 -0.00157988671576464 0.0046615512259491542 0 -0.0021256077917111704 0.0037938210722073024 0 -0.0019700821269255835 0.0048103238009896739 0 -0.0017994567967594452 0.003987008626411344 0 -0.0011531227165057912 0.0042127918972460314 0 -0.0016688361125852633 0.0044450637169669476 0 -0.0023179033567351762 0.0040416783951038836 0 -0.0019700821269255835 0.0048103238009896739 0 -0.00157988671576464 0.0046615512259491542 0 -0.0019700821269255835 0.0048103238009896739 0 -0.00157988671576464 0.0046615512259491542 0 -0.0012123967721722696 0.0045785176194971028 0 -0.0011531227165057912 0.0042127918972460314 0 -0.0011462484733698569 0.0047504901139357554 0 -0.0016688361125852633 0.0044450637169669476 0 -0.0011462484733698569 0.0047504901139357554 0 -0.0016688361125852633 0.0044450637169669476 0 -0.0013884055603911292 0.0049130025492321611 0 -0.0021398164022566092 0.0039213607809802931 0 -0.0016688361125852633 0.0044450637169669476 0 -0.0024053725833981052 0.0048628563578124026 0 -0.0016688361125852633 0.0044450637169669476 0 -0.0013884055603911292 0.0049130025492321611 0 -0.0024053725833981052 0.0048628563578124026 0 -0.0013991071586176471 0.0054300025439143283 0 -0.001822532471080967 0.0057953960329914121 0 -0.0020882068084108556 0.0053809729240197135 0 -0.0013991071586176471 0.0054300025439143283 0 -0.001822532471080967 0.0057953960329914121 0 -0.0011412712740165379 0.0059445706848247565 0 -0.001776506888297469 0.0049305648192194745 0 -0.0013991071586176471 0.0054300025439143283 0 -0.0020882068084108556 0.0053809729240197135 0 -0.0013991071586176471 0.0054300025439143283 0 -0.0011412712740165379 0.0059445706848247565 0 -0.0010514901653224963 0.0056046447816095598 0 -0.0013627159927488708 0.0048914148804434406 0 -0.0013991071586176471 0.0054300025439143283 0 -0.00088739981036603727 0.0052884907052585806 0 -0.0019700821269255835 0.0048103238009896739 0 -0.0018150777150686978 0.0057955559101754211 0 -0.001776506888297469 0.0049305648192194745 0 -0.0025552381424198455 0.0051099885513093257 0 -0.0020882068084108556 0.0053809729240197135 0 -0.0025321027411004458 0.0056632602450634052 0 -0.001822532471080967 0.0057953960329914121 0 -0.0020882068084108556 0.0053809729240197135 0 -0.0023060954552203863 0.0057962132632135644 0 -0.0023089633542412447 0.0057028268541438783 0 -0.0017360252351381435 0.0058252697224567551 0 -0.0025552381424198455 0.0051099885513093257 0 -0.0025321027411004458 0.0056632602450634052 0 -0.0020882068084108556 0.0053809729240197135 0 -0.0011462484733698569 0.0047504901139357554 0 -0.00080689220069372805 0.004652650948142786 0 -0.00052626091465078216 0.0049521200598310246 0 -0.0011574934057892764 0.0043367637946632575 0 -0.00080689220069372805 0.004652650948142786 0 -0.00039695033620472435 0.0045771036666602503 0 -0.00157988671576464 0.0046615512259491542 0 -0.00093832735428919529 0.0053811219560443071 0 -0.0023060954552203863 0.0057962132632135644 0 -0.0017360252351381435 0.0058252697224567551 0 -0.0014338038608872009 0.0060790341662598397 0 -0.0011574934057892764 0.0043367637946632575 0 -0.0011462484733698569 0.0047504901139357554 0 -0.00080689220069372805 0.004652650948142786 0 -0.00039695033620472435 0.0045771036666602503 0 0.00025308437318506493 0.0050006330392459407 0 -0.00052626091465078216 0.0049521200598310246 0 -0.0018150777150686978 0.0057955559101754211 0 -0.0012016621376190121 0.0059255740003426472 0 -0.00080689220069372805 0.004652650948142786 0 -0.00039695033620472435 0.0045771036666602503 0 -0.00052626091465078216 0.0049521200598310246 0 -0.0017360252351381435 0.0058252697224567551 0 -0.0014338038608872009 0.0060790341662598397 0 -0.0011412712740165379 0.0059445706848247565 0 -0.0011412712740165379 0.0059445706848247565 0 -0.00077875226510475462 0.0057486749194492768 0 -0.00048755459178080618 0.0064461490829631068 0 -0.00093832735428919529 0.0053811219560443071 0 -6.3195612750213613e-05 0.0056024157795837625 0 -0.0014338038608872009 0.0060790341662598397 0 -0.0011412712740165379 0.0059445706848247565 0 -0.00048755459178080618 0.0064461490829631068 0 -0.00077875226510475462 0.0057486749194492768 0 -0.0003872002627210227 0.005668230776406962 0 -0.00048755459178080618 0.0064461490829631068 0 -0.00039695033620472435 0.0045771036666602503 0 0.00031565568602300487 0.0048239804627833241 0 0.00025308437318506493 0.0050006330392459407 0 -0.0010514901653224963 0.0056046447816095598 0 -0.00077875226510475462 0.0057486749194492768 0 -0.00088739981036603727 0.0052884907052585806 0 -0.0011412712740165379 0.0059445706848247565 0 -0.0010514901653224963 0.0056046447816095598 0 -0.00077875226510475462 0.0057486749194492768 0 -0.00077875226510475462 0.0057486749194492768 0 -0.00088739981036603727 0.0052884907052585806 0 -0.0003872002627210227 0.005668230776406962 0 -0.00088739981036603727 0.0052884907052585806 0 -0.0003872002627210227 0.005668230776406962 0 -0.0003092708066023949 0.0051258006868552097 0 -0.0013991071586176471 0.0054300025439143283 0 -0.0010514901653224963 0.0056046447816095598 0 -0.00088739981036603727 0.0052884907052585806 0 -2.3471982510052191e-05 0.0055087145367764068 0 0.00013762799614342724 0.0051073259851330049 0 -0.0003092708066023949 0.0051258006868552097 0 -2.3471982510052191e-05 0.0055087145367764068 0 -0.0003872002627210227 0.005668230776406962 0 -0.0003092708066023949 0.0051258006868552097 0 -2.3471982510052191e-05 0.0055087145367764068 0 -0.0003872002627210227 0.005668230776406962 0 7.8046363836791917e-05 0.006148094988880309 0 -0.0003872002627210227 0.005668230776406962 0 -0.00048755459178080618 0.0064461490829631068 0 7.8046363836791917e-05 0.006148094988880309 0 -0.00048755459178080618 0.0064461490829631068 0 7.8046363836791917e-05 0.006148094988880309 0 0.00041942974019500124 0.0068358401086433419 0 0.00054523762912233372 0.0065787005751818802 0 7.8046363836791917e-05 0.006148094988880309 0 0.00041942974019500124 0.0068358401086433419 0 0.00054523762912233372 0.0065787005751818802 0 0.00045179759814696142 0.0060742608890250963 0 7.8046363836791917e-05 0.006148094988880309 0 0.00054523762912233372 0.0065787005751818802 0 0.00045179759814696142 0.0060742608890250963 0 0.0008376006864316604 0.0059416742370596663 0 0.0013356758707260992 0.0065674916773295223 0 0.00058355437647389071 0.0065971765109249956 0 0.0017643972494067078 0.0064481718621232555 0 0.00054523762912233372 0.0065787005751818802 0 0.0012402956055931741 0.0060711564326316981 0 0.00091775479832926663 0.0067178841721487271 0 0.00054523762912233372 0.0065787005751818802 0 0.00072056679280558546 0.006903834475212537 0 0.00054523762912233372 0.0065787005751818802 0 0.0012402956055931741 0.0060711564326316981 0 0.0008376006864316604 0.0059416742370596663 0 0.0012402956055931741 0.0060711564326316981 0 0.0008376006864316604 0.0059416742370596663 0 0.001034909833882142 0.0056758782672685394 0 0.0015028765732792281 0.0057977959407891216 0 0.0012402956055931741 0.0060711564326316981 0 0.001034909833882142 0.0056758782672685394 0 0.0008376006864316604 0.0059416742370596663 0 0.001034909833882142 0.0056758782672685394 0 0.00083065918123261646 0.0054186438857560205 0 0.001034909833882142 0.0056758782672685394 0 0.00083065918123261646 0.0054186438857560205 0 0.0013254135252770418 0.0055337039028775167 0 0.0015028765732792281 0.0057977959407891216 0 0.001034909833882142 0.0056758782672685394 0 0.0013254135252770418 0.0055337039028775167 0 0.00083065918123261646 0.0054186438857560205 0 0.0013254135252770418 0.0055337039028775167 0 0.0011867120033220207 0.0051812942671422522 0 0.0016967127593628714 0.0054659010456691547 0 0.0013254135252770418 0.0055337039028775167 0 0.0011867120033220207 0.0051812942671422522 0 -2.3471982510052191e-05 0.0055087145367764068 0 7.8046363836791917e-05 0.006148094988880309 0 0.00037929220675379788 0.0056282616386642568 0 0.00045179759814696142 0.0060742608890250963 0 7.8046363836791917e-05 0.006148094988880309 0 0.00037929220675379788 0.0056282616386642568 0 0.00045179759814696142 0.0060742608890250963 0 0.0008376006864316604 0.0059416742370596663 0 0.00037929220675379788 0.0056282616386642568 0 0.0008376006864316604 0.0059416742370596663 0 0.00083065918123261646 0.0054186438857560205 0 0.00037929220675379788 0.0056282616386642568 0 0.00083065918123261646 0.0054186438857560205 0 0.00037929220675379788 0.0056282616386642568 0 0.00051258046699443607 0.0051407958478050754 0 -2.3471982510052191e-05 0.0055087145367764068 0 0.00037929220675379788 0.0056282616386642568 0 0.00013762799614342724 0.0051073259851330049 0 0.00037929220675379788 0.0056282616386642568 0 0.00013762799614342724 0.0051073259851330049 0 0.00051258046699443607 0.0051407958478050754 0 0.00013762799614342724 0.0051073259851330049 0 0.00051258046699443607 0.0051407958478050754 0 0.00039286851188370241 0.0046420353155210183 0 0.00051258046699443607 0.0051407958478050754 0 0.00039286851188370241 0.0046420353155210183 0 0.00084414451005186903 0.004825934451016884 0 0.00013762799614342724 0.0051073259851330049 0 0.00039286851188370241 0.0046420353155210183 0 -0.0001059617890943643 0.0046609473213525031 0 0.0016967127593628714 0.0054659010456691547 0 0.0011867120033220207 0.0051812942671422522 0 0.0013065464061697326 0.0047003424554371547 0 0.00083065918123261646 0.0054186438857560205 0 0.00051258046699443607 0.0051407958478050754 0 0.00084414451005186903 0.004825934451016884 0 0.00083065918123261646 0.0054186438857560205 0 0.0011867120033220207 0.0051812942671422522 0 0.00084414451005186903 0.004825934451016884 0 0.0011867120033220207 0.0051812942671422522 0 0.00084414451005186903 0.004825934451016884 0 0.0013065464061697326 0.0047003424554371547 0 0.00084414451005186903 0.004825934451016884 0 0.0013065464061697326 0.0047003424554371547 0 0.00094139491077218176 0.0039952944086054949 0 0.0010459843979568231 0.0052056454762009416 0 0.00028643294093878206 0.0049583180723934946 0 0.0010192273262035821 0.0055443451302671313 0 0.00077699461604088652 0.0057244843750110831 0 0.00058480104571535687 0.0052066411914102866 0 0.00077699461604088652 0.0057244843750110831 0 0.00049610563691492504 0.0051830781142340162 0 0.00058480104571535687 0.0052066411914102866 0 2.4828266967997499e-06 0.0051422245195812981 0 0.00028643294093878206 0.0049583180723934946 0 2.4828266967997499e-06 0.0051422245195812981 0 0.00031449031977635097 0.0053012597077352012 0 3.1886444793194754e-05 0.0051535698364818744 0 8.7262689104419989e-05 0.005260902132650078 0 0.00021587032154739774 0.0052947770696994941 0 0.00028643294093878206 0.0049583180723934946 0 0.00031449031977635097 0.0053012597077352012 0 0.0010024512352047148 0.0055405593896172669 0 0.00031449031977635097 0.0053012597077352012 0 6.309344166551338e-05 0.003753837032303222 0 0.00094139491077218176 0.0039952944086054949 0 0.00011503806252621933 0.0042399485044819539 0 0.00039286851188370241 0.0046420353155210183 0 0.00094139491077218176 0.0039952944086054949 0 0.00011503806252621933 0.0042399485044819539 0 0.00039286851188370241 0.0046420353155210183 0 0.00084414451005186903 0.004825934451016884 0 0.00094139491077218176 0.0039952944086054949 0 0.00039286851188370241 0.0046420353155210183 0 0.00011503806252621933 0.0042399485044819539 0 -0.0001059617890943643 0.0046609473213525031 0 -0.00086785300739841318 0.0037744541379998837 0 6.309344166551338e-05 0.003753837032303222 0 -0.00036567906142180205 0.0042048213598849075 0 6.309344166551338e-05 0.003753837032303222 0 0.00011503806252621933 0.0042399485044819539 0 -0.00036567906142180205 0.0042048213598849075 0 0.00011503806252621933 0.0042399485044819539 0 -0.00036567906142180205 0.0042048213598849075 0 -0.0001059617890943643 0.0046609473213525031 0 -0.00036567906142180205 0.0042048213598849075 0 -0.00058742797578551799 0.0046609448722747405 0 -0.0001059617890943643 0.0046609473213525031 0 -0.00086785300739841318 0.0037744541379998837 0 -0.00036567906142180205 0.0042048213598849075 0 -0.00081435179395371185 0.004229878781601166 0 -0.00086785300739841318 0.0037744541379998837 0 -0.0012294449524337581 0.0040477959981119489 0 -0.00081435179395371185 0.004229878781601166 0 -0.0012294449524337581 0.0040477959981119489 0 -0.00081435179395371185 0.004229878781601166 0 -0.0010384249780565045 0.0045423518987353249 0 -0.00036567906142180205 0.0042048213598849075 0 -0.00081435179395371185 0.004229878781601166 0 -0.00058742797578551799 0.0046609448722747405 0 -0.0013627159927488708 0.0048914148804434406 0 -0.00088739981036603727 0.0052884907052585806 0 -0.0010384249780565045 0.0045423518987353249 0 -0.00088739981036603727 0.0052884907052585806 0 -0.00058742797578551799 0.0046609448722747405 0 -0.0010384249780565045 0.0045423518987353249 0 -0.00081435179395371185 0.004229878781601166 0 -0.00058742797578551799 0.0046609448722747405 0 -0.0010384249780565045 0.0045423518987353249 0 -0.00088739981036603727 0.0052884907052585806 0 -0.00058742797578551799 0.0046609448722747405 0 -0.0003092708066023949 0.0051258006868552097 0 0.00013762799614342724 0.0051073259851330049 0 -0.0003092708066023949 0.0051258006868552097 0 -0.0001059617890943643 0.0046609473213525031 0 -0.00058742797578551799 0.0046609448722747405 0 -0.0003092708066023949 0.0051258006868552097 0 -0.0001059617890943643 0.0046609473213525031 0 -0.0040027742225446387 -0.0026146924523348042 0 -0.0021698315337541716 -0.0030457294586454151 0 -0.0047526762621810841 -0.0076906609793262314 0 -0.0048870669506062524 -0.0061486329291562947 0 -0.0049467345614000666 -0.0084651588730090006 0 -0.0023018404895603921 0.00089792040931705255 0 -0.0021589304144661622 0.0010821361211869052 0 -0.0019460337416278993 0.00032292419118933741 0 -0.0044880586210179971 -0.0075180358323548397 0 -0.0047526762621810841 -0.0076906609793262314 0 -0.0046925402275683472 -0.0071771694590565625 0 -0.0044112689674736623 -0.0072212056207992745 0 -0.0044880586210179971 -0.0075180358323548397 0 -0.0046925402275683472 -0.0071771694590565625 0 -0.0044112689674736623 -0.0072212056207992745 0 -0.0044880586210179971 -0.0075180358323548397 0 -0.0040228519494478667 -0.0073822854364740554 0 -0.0044880586210179971 -0.0075180358323548397 0 -0.0047526762621810841 -0.0076906609793262314 0 -0.0043351966130714811 -0.00790316611176454 0 -0.0044880586210179971 -0.0075180358323548397 0 -0.0043351966130714811 -0.00790316611176454 0 -0.0040228519494478667 -0.0073822854364740554 0 -0.0045784289638206238 -0.0081239915326398893 0 -0.0042480324209008017 -0.0083923263539486363 0 -0.0049467345614000666 -0.0084651588730090006 0 -0.0047526762621810841 -0.0076906609793262314 0 -0.0045784289638206238 -0.0081239915326398893 0 -0.0049467345614000666 -0.0084651588730090006 0 -0.0047526762621810841 -0.0076906609793262314 0 -0.0043351966130714811 -0.00790316611176454 0 -0.0045784289638206238 -0.0081239915326398893 0 -0.0043351966130714811 -0.00790316611176454 0 -0.0045784289638206238 -0.0081239915326398893 0 -0.0042480324209008017 -0.0083923263539486363 0 -0.0016981519255977759 -9.0757299235564616e-05 0 -0.0023871695381275674 0.00027753932307142046 0 -0.0019742350175880148 -0.0002106015020850374 0 -0.0023018404895603921 0.00089792040931705255 0 -0.0019460337416278993 0.00032292419118933741 0 -0.0027262950859160005 0.00087532208817082925 0 -0.0021698315337541716 -0.0030457294586454151 0 -0.0026929779594393076 0.0016698633811434297 0 -0.0016981519255977759 -9.0757299235564616e-05 0 -0.0011325002722082592 -0.00020483493523265332 0 -0.0027262950859160005 0.00087532208817082925 0 -0.0016981519255977759 -9.0757299235564616e-05 0 -0.0023871695381275674 0.00027753932307142046 0 -0.0027262950859160005 0.00087532208817082925 0 -0.0023018404895603921 0.00089792040931705255 0 -0.0025068180598095992 0.0010391801732711468 0 -0.0027262950859160005 0.00087532208817082925 0 -0.0023018404895603921 0.00089792040931705255 0 -0.0023798831527260173 0.0011230492951517729 0 -0.0021589304144661622 0.0010821361211869052 0 -0.0023018404895603921 0.00089792040931705255 0 -0.0023798831527260173 0.0011230492951517729 0 -0.0025068180598095992 0.0010391801732711468 0 -0.0023798831527260173 0.0011230492951517729 0 -0.0025534557016852919 0.0012444128587531216 0 -0.0023783986845263561 0.0013519117004193685 0 -0.0023798831527260173 0.0011230492951517729 0 -0.0023783986845263561 0.0013519117004193685 0 -0.0021589304144661622 0.0010821361211869052 0 -0.0025534557016852919 0.0012444128587531216 0 -0.0027461868666329237 0.0011217291375131692 0 -0.0028522035535566408 0.001350679318609037 0 -0.0025068180598095992 0.0010391801732711468 0 -0.0027262950859160005 0.00087532208817082925 0 -0.0027461868666329237 0.0011217291375131692 0 -0.0023798831527260173 0.0011230492951517729 0 -0.0025068180598095992 0.0010391801732711468 0 -0.0025534557016852919 0.0012444128587531216 0 -0.0025068180598095992 0.0010391801732711468 0 -0.0025534557016852919 0.0012444128587531216 0 -0.0027461868666329237 0.0011217291375131692 0 -0.0025534557016852919 0.0012444128587531216 0 -0.0026491563514386852 0.0014537175198301986 0 -0.0028522035535566408 0.001350679318609037 0 -0.0026491563514386852 0.0014537175198301986 0 -0.0023783986845263561 0.0013519117004193685 0 -0.0026115775519502935 0.0017255895229528204 0 -0.0025534557016852919 0.0012444128587531216 0 -0.0026491563514386852 0.0014537175198301986 0 -0.0023783986845263561 0.0013519117004193685 0 -0.0022315339146642193 0.001399581197667194 0 -0.0023783986845263561 0.0013519117004193685 0 -0.0026115775519502935 0.0017255895229528204 0 -0.0022315339146642193 0.001399581197667194 0 -0.0023783986845263561 0.0013519117004193685 0 -0.0021589304144661622 0.0010821361211869052 0 -0.0047526762621810841 -0.0076906609793262314 0 -0.0048870669506062524 -0.0061486329291562947 0 -0.0046925402275683472 -0.0071771694590565625 0 -0.0022315339146642193 0.001399581197667194 0 -0.0019132963339126587 0.00142238966565086 0 -0.0021589304144661622 0.0010821361211869052 0 -0.0019132963339126587 0.00142238966565086 0 -0.0021589304144661622 0.0010821361211869052 0 -0.0019460337416278993 0.00032292419118933741 0 -0.0048870669506062524 -0.0061486329291562947 0 -0.0046925402275683472 -0.0071771694590565625 0 -0.0045613881350228822 -0.0066681346351164707 0 -0.0044112689674736623 -0.0072212056207992745 0 -0.0045254330514903005 -0.0069741823139418384 0 -0.0043194713562052824 -0.0069389543069067914 0 -0.0044112689674736623 -0.0072212056207992745 0 -0.0045254330514903005 -0.0069741823139418384 0 -0.0046925402275683472 -0.0071771694590565625 0 -0.0045254330514903005 -0.0069741823139418384 0 -0.0046925402275683472 -0.0071771694590565625 0 -0.0045613881350228822 -0.0066681346351164707 0 -0.0045254330514903005 -0.0069741823139418384 0 -0.0043194713562052824 -0.0069389543069067914 0 -0.0045613881350228822 -0.0066681346351164707 0 -0.0040027742225446387 -0.0026146924523348042 0 -0.0037022447883147585 -0.0062971491256055079 0 -0.0049112868044170832 -0.006127782974071844 0 -0.0038204116772958185 -0.00662042733688441 0 -0.0048932350802308898 -0.0055985210016982201 0 -0.0048870669506062524 -0.0061486329291562947 0 -0.0045613881350228822 -0.0066681346351164707 0 -0.0038204116772958185 -0.00662042733688441 0 -0.0032450770321215527 -0.0063027452549095199 0 -0.0038204116772958185 -0.00662042733688441 0 -0.0048932350802308898 -0.0055985210016982201 0 -0.0038204116772958185 -0.00662042733688441 0 -0.0030182086254572308 -0.0074006537545249131 0 -0.0040228519494478667 -0.0073822854364740554 0 -0.0032450770321215527 -0.0063027452549095199 0 -0.0038204116772958185 -0.00662042733688441 0 -0.0030182086254572308 -0.0074006537545249131 0 -0.0043194713562052824 -0.0069389543069067914 0 -0.0038204116772958185 -0.00662042733688441 0 -0.0040228519494478667 -0.0073822854364740554 0 -0.0043194713562052824 -0.0069389543069067914 0 -0.0045613881350228822 -0.0066681346351164707 0 -0.0038204116772958185 -0.00662042733688441 0 -0.0044112689674736623 -0.0072212056207992745 0 -0.0043194713562052824 -0.0069389543069067914 0 -0.0040228519494478667 -0.0073822854364740554 0 -0.0032450770321215527 -0.0063027452549095199 0 -0.0030182086254572308 -0.0074006537545249131 0 -0.0016484800217367861 -0.0069813135247232035 0 -0.0025749076155315142 -0.006795198283148415 0 -0.0015997535670457484 -0.0064915953679242034 0 -0.001155004873383995 -0.0072835798322258916 0 -0.0028382354750691751 -0.0068673555223942402 0 -0.0014190147471823042 -0.007098605875467478 0 -0.0030182086254572308 -0.0074006537545249131 0 -0.0016484800217367861 -0.0069813135247232035 0 -0.001576464766848763 -0.0082540641105700221 0 -0.0030182086254572308 -0.0074006537545249131 0 -0.0026947386867901151 -0.0085714278283739107 0 -0.001576464766848763 -0.0082540641105700221 0 -0.0030182086254572308 -0.0074006537545249131 0 -0.0040228519494478667 -0.0073822854364740554 0 -0.0036717383761987023 -0.0081523890905895059 0 -0.0030182086254572308 -0.0074006537545249131 0 -0.0036717383761987023 -0.0081523890905895059 0 -0.0026947386867901151 -0.0085714278283739107 0 -0.0043351966130714811 -0.00790316611176454 0 -0.0036717383761987023 -0.0081523890905895059 0 -0.0042480324209008017 -0.0083923263539486363 0 -0.0043351966130714811 -0.00790316611176454 0 -0.0040228519494478667 -0.0073822854364740554 0 -0.0036717383761987023 -0.0081523890905895059 0 -0.0036717383761987023 -0.0081523890905895059 0 -0.0042480324209008017 -0.0083923263539486363 0 -0.003628169509704765 -0.009297026287420013 0 -0.0036717383761987023 -0.0081523890905895059 0 -0.003628169509704765 -0.009297026287420013 0 -0.0026947386867901151 -0.0085714278283739107 0 -0.0026947386867901151 -0.0085714278283739107 0 -0.001576464766848763 -0.0082540641105700221 0 -0.0019034397845057328 -0.0094704480958480164 0 -0.003628169509704765 -0.009297026287420013 0 -0.0026332099920010413 -0.0093556583145702268 0 -0.0023272005829869883 -0.010066564433920457 0 -0.003628169509704765 -0.009297026287420013 0 -0.0026947386867901151 -0.0085714278283739107 0 -0.0026332099920010413 -0.0093556583145702268 0 -0.0026947386867901151 -0.0085714278283739107 0 -0.0026332099920010413 -0.0093556583145702268 0 -0.0019034397845057328 -0.0094704480958480164 0 -0.0026332099920010413 -0.0093556583145702268 0 -0.0023272005829869883 -0.010066564433920457 0 -0.0019034397845057328 -0.0094704480958480164 0 -0.0017332324914044411 -0.0052802597964829784 0 -0.00032126576691028305 -0.0059595083846951278 0 0.0016093325009460505 -0.0020699866978540612 0 0.0012208644414906425 -0.0027782097477352702 0 0.00055836993038549192 -0.0022785109988070948 0 0.0016093325009460505 -0.0020699866978540612 0 0.0012208644414906425 -0.0027782097477352702 0 0.0019784692534462328 -0.0030049850405886951 0 0.000274223100557906 -0.0011542345674843632 0 0.0016093325009460505 -0.0020699866978540612 0 0.00055836993038549192 -0.0022785109988070948 0 0.000274223100557906 -0.0011542345674843632 0 0.00055836993038549192 -0.0022785109988070948 0 -0.00053401200852099451 -0.0023561167538260304 0 0.000274223100557906 -0.0011542345674843632 0 -0.00053401200852099451 -0.0023561167538260304 0 -0.00056055740347250242 -0.0011531155406059256 0 0.00055836993038549192 -0.0022785109988070948 0 -0.00053401200852099451 -0.0023561167538260304 0 0.00023569330642591601 -0.0033547220817662631 0 -0.00053401200852099451 -0.0023561167538260304 0 -0.0017336501147750744 -0.0024590182868186399 0 0.00023569330642591601 -0.0033547220817662631 0 -0.00053401200852099451 -0.0023561167538260304 0 -0.0011964562647487369 -0.0019705068623028271 0 -0.0017336501147750744 -0.0024590182868186399 0 -0.0011964562647487369 -0.0019705068623028271 0 -0.00056055740347250242 -0.0011531155406059256 0 -0.0013376066202145207 -0.0013688544710427312 0 -0.0011964562647487369 -0.0019705068623028271 0 -0.0013376066202145207 -0.0013688544710427312 0 -0.0020070062103176296 -0.0015822631420665408 0 -0.00053401200852099451 -0.0023561167538260304 0 -0.0011964562647487369 -0.0019705068623028271 0 -0.00056055740347250242 -0.0011531155406059256 0 -0.0017332324914044411 -0.0052802597964829784 0 -0.0021698315337541716 -0.0030457294586454151 0 -0.0042480324209008017 -0.0083923263539486363 0 -0.003628169509704765 -0.009297026287420013 0 -0.0049467345614000666 -0.0084651588730090006 0 0.000274223100557906 -0.0011542345674843632 0 -0.00056055740347250242 -0.0011531155406059256 0 -0.0011325002722082592 -0.00020483493523265332 0 -0.00056055740347250242 -0.0011531155406059256 0 -0.0013376066202145207 -0.0013688544710427312 0 -0.0012830347104316603 -0.00078187667976283015 0 -0.0012830347104316603 -0.00078187667976283015 0 -0.0018303665921726828 -0.00054960612306342307 0 -0.0017735901589060949 -0.0010538012038081692 0 -0.0013376066202145207 -0.0013688544710427312 0 -0.0012830347104316603 -0.00078187667976283015 0 -0.0017735901589060949 -0.0010538012038081692 0 -0.0012830347104316603 -0.00078187667976283015 0 -0.0013839134142637664 -0.00039507683803323651 0 -0.0011325002722082592 -0.00020483493523265332 0 -0.0016981519255977759 -9.0757299235564616e-05 0 -0.0013031718383776374 -0.00025211399132106131 0 -0.0011325002722082592 -0.00020483493523265332 0 -0.0012830347104316603 -0.00078187667976283015 0 -0.0013839134142637664 -0.00039507683803323651 0 -0.0018303665921726828 -0.00054960612306342307 0 -0.0016981519255977759 -9.0757299235564616e-05 0 -0.0013839134142637664 -0.00039507683803323651 0 -0.0013031718383776374 -0.00025211399132106131 0 -0.0013839134142637664 -0.00039507683803323651 0 -0.0013031718383776374 -0.00025211399132106131 0 -0.0011325002722082592 -0.00020483493523265332 0 -0.00056055740347250242 -0.0011531155406059256 0 -0.0012830347104316603 -0.00078187667976283015 0 -0.0011325002722082592 -0.00020483493523265332 0 -0.0023871695381275674 0.00027753932307142046 0 -0.0023484748069349391 -0.00042085395571391735 0 -0.0031593026935931964 -0.00063368244421375215 0 -0.0023871695381275674 0.00027753932307142046 0 -0.0023484748069349391 -0.00042085395571391735 0 -0.0019742350175880148 -0.0002106015020850374 0 -0.0023484748069349391 -0.00042085395571391735 0 -0.0024212591543641077 -0.00098951323825482713 0 -0.0031593026935931964 -0.00063368244421375215 0 -0.0023484748069349391 -0.00042085395571391735 0 -0.0019742350175880148 -0.0002106015020850374 0 -0.0018303665921726828 -0.00054960612306342307 0 -0.0016981519255977759 -9.0757299235564616e-05 0 -0.0019742350175880148 -0.0002106015020850374 0 -0.0018303665921726828 -0.00054960612306342307 0 -0.0016981519255977759 -9.0757299235564616e-05 0 -0.0013839134142637664 -0.00039507683803323651 0 -0.0018303665921726828 -0.00054960612306342307 0 -0.0023484748069349391 -0.00042085395571391735 0 -0.0018303665921726828 -0.00054960612306342307 0 -0.0024212591543641077 -0.00098951323825482713 0 -0.0018303665921726828 -0.00054960612306342307 0 -0.0017735901589060949 -0.0010538012038081692 0 -0.0024212591543641077 -0.00098951323825482713 0 -0.0013376066202145207 -0.0013688544710427312 0 -0.0017735901589060949 -0.0010538012038081692 0 -0.0020070062103176296 -0.0015822631420665408 0 -0.0017735901589060949 -0.0010538012038081692 0 -0.0024212591543641077 -0.00098951323825482713 0 -0.0020070062103176296 -0.0015822631420665408 0 -0.0024212591543641077 -0.00098951323825482713 0 -0.0020070062103176296 -0.0015822631420665408 0 -0.0037230535641285261 -0.0016254876536470437 0 -0.0016462869132947279 -0.0026165850228018579 0 -0.0034720671323422601 -0.0018782142513452075 0 -0.0029359054223594572 -0.0029587113074504129 0 -0.0020070062103176296 -0.0015822631420665408 0 -0.0017336501147750744 -0.0024590182868186399 0 -0.0037230535641285261 -0.0016254876536470437 0 -0.0018031692533458513 -0.0026427964821655013 0 -0.002815613570914382 -0.00088053356372194724 0 -0.0011964562647487369 -0.0019705068623028271 0 -0.0020070062103176296 -0.0015822631420665408 0 -0.0017336501147750744 -0.0024590182868186399 0 -0.002815613570914382 -0.00088053356372194724 0 -0.0023478883501804764 -0.0027210419649948327 0 -0.0016065161395840853 -1.7934336582714433e-05 0 -0.0016972699310593103 -0.00064274721114015868 0 -0.0021624843154600306 -0.00016188433713939355 0 -0.0016065161395840853 -1.7934336582714433e-05 0 -0.0016972699310593103 -0.00064274721114015868 0 -0.0012078587690501495 -0.0008230202484618385 0 -0.0016972699310593103 -0.00064274721114015868 0 -0.0023803608343447948 -0.000363646740369023 0 -0.0021624843154600306 -0.00016188433713939355 0 -0.0016972699310593103 -0.00064274721114015868 0 -0.0023803608343447948 -0.000363646740369023 0 -0.0016586992941619205 -0.00081875296197624027 0 -0.0023803608343447948 -0.000363646740369023 0 -0.0028524196698024615 -0.00073825445468362987 0 -0.0016586992941619205 -0.00081875296197624027 0 -0.0016065161395840853 -1.7934336582714433e-05 0 -0.0021624843154600306 -0.00016188433713939355 0 -0.0024625159494684342 0.00031279016226767637 0 -0.0024872940981462976 -2.4732577569305326e-05 0 -0.0021624843154600306 -0.00016188433713939355 0 -0.0024625159494684342 0.00031279016226767637 0 -0.0023803608343447948 -0.000363646740369023 0 -0.0024872940981462976 -2.4732577569305326e-05 0 -0.0026917608615973946 -5.6387327172892593e-05 0 -0.0023803608343447948 -0.000363646740369023 0 -0.0024872940981462976 -2.4732577569305326e-05 0 -0.0021624843154600306 -0.00016188433713939355 0 -0.0024872940981462976 -2.4732577569305326e-05 0 -0.0026778454778906328 0.00024564507359422312 0 -0.0026917608615973946 -5.6387327172892593e-05 0 -0.0033974293467483735 0.00081812263498242538 0 -0.0031792022016126241 0.0017122601584414331 0 -0.002815613570914382 -0.00088053356372194724 0 -0.0024874160918771635 0.00032587189818915308 0 -0.0026559270100343789 0.00040301782988045345 0 -0.0024566401933837356 0.00076646797429935816 0 -0.0030618405605734177 0.00067825552462994626 0 -0.0021836609922321116 0.00020481507094455824 0 -0.0026559270100343789 0.00040301782988045345 0 -0.0024566401933837356 0.00076646797429935816 0 -0.0024872940981462976 -2.4732577569305326e-05 0 -0.0026778454778906328 0.00024564507359422312 0 -0.0024625159494684342 0.00031279016226767637 0 -0.0024212591543641077 -0.00098951323825482713 0 -0.0037230535641285261 -0.0016254876536470437 0 -0.0031593026935931964 -0.00063368244421375215 0 -0.002815613570914382 -0.00088053356372194724 0 -0.0033974293467483735 0.00081812263498242538 0 -0.0023871695381275674 0.00027753932307142046 0 -0.0045122185423241753 -9.2434437438908558e-05 0 -0.0031593026935931964 -0.00063368244421375215 0 -0.0037230535641285261 -0.0016254876536470437 0 -0.0045122185423241753 -9.2434437438908558e-05 0 -0.0031593026935931964 -0.00063368244421375215 0 -0.0043061858964164295 0.00054456860746068152 0 -0.0034782606590173883 -3.4193877890653486e-05 0 -0.0039488389371947876 -0.00071686267011120781 0 -0.0031621278256528888 0.0022509084164995491 0 -0.0027255783295561621 0.0023525865392664603 0 -0.0026778454778906328 0.00024564507359422312 0 -0.0034782606590173883 -3.4193877890653486e-05 0 -0.0029772601551289021 -0.0001976941720840861 0 -0.0034782606590173883 -3.4193877890653486e-05 0 -0.0039488389371947876 -0.00071686267011120781 0 -0.0028524196698024615 -0.00073825445468362987 0 -0.0034782606590173883 -3.4193877890653486e-05 0 -0.0029772601551289021 -0.0001976941720840861 0 -0.0028524196698024615 -0.00073825445468362987 0 -0.0023803608343447948 -0.000363646740369023 0 -0.0029772601551289021 -0.0001976941720840861 0 -0.0028524196698024615 -0.00073825445468362987 0 -0.0026778454778906328 0.00024564507359422312 0 -0.0026917608615973946 -5.6387327172892593e-05 0 -0.0029772601551289021 -0.0001976941720840861 0 -0.0023803608343447948 -0.000363646740369023 0 -0.0026917608615973946 -5.6387327172892593e-05 0 -0.0029772601551289021 -0.0001976941720840861 0 -0.0026559270100343789 0.00040301782988045345 0 -0.0030618405605734177 0.00067825552462994626 0 -0.0031685512862328581 0.00059395234739654428 0 -0.0026778454778906328 0.00024564507359422312 0 -0.0024625159494684342 0.00031279016226767637 0 -0.0031685512862328581 0.00059395234739654428 0 -0.0026778454778906328 0.00024564507359422312 0 -0.0034782606590173883 -3.4193877890653486e-05 0 -0.004065737323071395 0.00058281271231858534 0 -0.0028828961993903747 -2.141760861521543e-05 0 -0.0035366182091488558 0.0016265901747268819 0 -0.0026778454778906328 0.00024564507359422312 0 -0.0031685512862328581 0.00059395234739654428 0 -0.0038910374967250942 0.00057117754992818607 0 -0.0024874160918771635 0.00032587189818915308 0 -0.0031251525934602531 0.00057849632758914219 0 -0.0031792022016126241 0.0017122601584414331 0 -0.0035366182091488558 0.0016265901747268819 0 -0.0043061858964164295 0.00054456860746068152 0 -0.0034782606590173883 -3.4193877890653486e-05 0 -0.004065737323071395 0.00058281271231858534 0 -0.0030618405605734177 0.00067825552462994626 0 -0.0031685512862328581 0.00059395234739654428 0 -0.0038910374967250942 0.00057117754992818607 0 -0.0034316495650453978 0.0026441910416859261 0 -0.0030207576024410421 0.0026982508311956736 0 -0.0030585990081973217 0.002510161347876187 0 -0.0028903401035862658 0.0025778833702844077 0 -0.0030207576024410421 0.0026982508311956736 0 -0.0030585990081973217 0.002510161347876187 0 -0.0031621278256528888 0.0022509084164995491 0 -0.0035366182091488558 0.0016265901747268819 0 -0.0034316495650453978 0.0026441910416859261 0 -0.0030585990081973217 0.002510161347876187 0 -0.0032052367987616876 0.0023776430558758097 0 -0.002927070397396197 0.0023259901975134843 0 -0.0030585990081973217 0.002510161347876187 0 -0.0032052367987616876 0.0023776430558758097 0 -0.0029127789608768564 0.0024662302300460497 0 -0.002927070397396197 0.0023259901975134843 0 -0.0030585990081973217 0.002510161347876187 0 -0.002927070397396197 0.0023259901975134843 0 -0.0032052367987616876 0.0023776430558758097 0 -0.0032253581407303191 0.0021024289294297163 0 -0.0034316495650453978 0.0026441910416859261 0 -0.0032052367987616876 0.0023776430558758097 0 -0.0034204035857130942 0.0022504080004988169 0 -0.0034316495650453978 0.0026441910416859261 0 -0.0034204035857130942 0.0022504080004988169 0 -0.0037303938003511671 0.0022303496689091867 0 -0.0032052367987616876 0.0023776430558758097 0 -0.0034204035857130942 0.0022504080004988169 0 -0.0032253581407303191 0.0021024289294297163 0 -0.0034204035857130942 0.0022504080004988169 0 -0.0035527999549663908 0.0017950663084226831 0 -0.0037303938003511671 0.0022303496689091867 0 -0.0035527999549663908 0.0017950663084226831 0 -0.0032253581407303191 0.0021024289294297163 0 -0.0032242336154702932 0.0018749784388877207 0 -0.0034204035857130942 0.0022504080004988169 0 -0.0035527999549663908 0.0017950663084226831 0 -0.0032253581407303191 0.0021024289294297163 0 -0.0029571408046319401 0.002115427977726543 0 -0.0032253581407303191 0.0021024289294297163 0 -0.0032242336154702932 0.0018749784388877207 0 -0.0029571408046319401 0.002115427977726543 0 -0.002927070397396197 0.0023259901975134843 0 -0.0032253581407303191 0.0021024289294297163 0 -0.0027136829541836299 0.00014314347250646243 0 -0.0033974293467483735 0.00081812263498242538 0 -0.0023871695381275674 0.00027753932307142046 0 -0.0034437058356403608 0.00047089054466846692 0 -0.0027262950859160005 0.00087532208817082925 0 -0.0034437058356403608 0.00047089054466846692 0 -0.0027262950859160005 0.00087532208817082925 0 -0.0030893686958104643 0.0010986386077330569 0 -0.0038888461376966996 0.0025575116468593401 0 -0.0034316495650453978 0.0026441910416859261 0 -0.0037303938003511671 0.0022303496689091867 0 -0.0034437058356403608 0.00047089054466846692 0 -0.0035644074635366244 0.001125424263593266 0 -0.0030893686958104643 0.0010986386077330569 0 -0.0033974293467483735 0.00081812263498242538 0 -0.003687201812364043 0.0017726097491177215 0 -0.0035644074635366244 0.001125424263593266 0 -0.0032120979922445232 0.0015745574392337434 0 -0.0030893686958104643 0.0010986386077330569 0 -0.0035527999549663908 0.0017950663084226831 0 -0.0035644074635366244 0.001125424263593266 0 -0.0032120979922445232 0.0015745574392337434 0 -0.003561124687993454 0.0017070680912702346 0 -0.003687201812364043 0.0017726097491177215 0 -0.0032120979922445232 0.0015745574392337434 0 -0.0030893686958104643 0.0010986386077330569 0 -0.0028522035535566408 0.001350679318609037 0 -0.0030893686958104643 0.0010986386077330569 0 -0.0027461868666329237 0.0011217291375131692 0 -0.0028522035535566408 0.001350679318609037 0 -0.0027262950859160005 0.00087532208817082925 0 -0.0030893686958104643 0.0010986386077330569 0 -0.0027461868666329237 0.0011217291375131692 0 -0.0026491563514386852 0.0014537175198301986 0 -0.0028522035535566408 0.001350679318609037 0 -0.0029271348209455729 0.0016057427662610339 0 -0.0032120979922445232 0.0015745574392337434 0 -0.0028522035535566408 0.001350679318609037 0 -0.0029271348209455729 0.0016057427662610339 0 -0.0040061997007951279 0.0016604072252495888 0 -0.0041456433433838605 0.0015529669528780874 0 -0.0042062754387252165 0.0015484675890078698 0 -0.0035790635387956834 0.0017189353057722435 0 -0.0034266563714442644 0.0018650899728288946 0 -0.0029271348209455729 0.0016057427662610339 0 -0.003259851372955396 0.0018651638553967226 0 -0.0026115775519502935 0.0017255895229528204 0 -0.0032120979922445232 0.0015745574392337434 0 -0.0029271348209455729 0.0016057427662610339 0 -0.003259851372955396 0.0018651638553967226 0 -0.0032120979922445232 0.0015745574392337434 0 -0.003259851372955396 0.0018651638553967226 0 -0.0034307693183852047 0.0017487755038759535 0 -0.0035527999549663908 0.0017950663084226831 0 -0.0034307693183852047 0.0017487755038759535 0 -0.0035385464442375123 0.0016832168190278709 0 -0.0035527999549663908 0.0017950663084226831 0 -0.0032120979922445232 0.0015745574392337434 0 -0.0034307693183852047 0.0017487755038759535 0 -0.003259851372955396 0.0018651638553967226 0 -0.0034307693183852047 0.0017487755038759535 0 -0.0035385464442375123 0.0016832168190278709 0 -0.0040061997007951279 0.0016604072252495888 0 -0.0035385464442375123 0.0016832168190278709 0 -0.0040324528514519608 0.0013586539965045287 0 -0.0035790635387956834 0.0017189353057722435 0 -0.0035290470528769788 0.0016922416559783577 0 -0.0041456433433838605 0.0015529669528780874 0 -0.0040324528514519608 0.0013586539965045287 0 -0.0041974795708390978 0.00144735488265825 0 -0.0040078762903210281 0.0013373197962973408 0 -0.0045161893615491104 0.0016006403824990322 0 -0.0040061997007951279 0.0016604072252495888 0 -0.0041456433433838605 0.0015529669528780874 0 -0.0040324528514519608 0.0013586539965045287 0 -0.0028291298200777298 0.0019565061541245098 0 -0.0029571408046319401 0.002115427977726543 0 -0.0032242336154702932 0.0018749784388877207 0 -0.0028291298200777298 0.0019565061541245098 0 -0.0032242336154702932 0.0018749784388877207 0 -0.003050368412502797 0.0017272757647568799 0 -0.0035527999549663908 0.0017950663084226831 0 -0.0032242336154702932 0.0018749784388877207 0 -0.0035385464442375123 0.0016832168190278709 0 -0.0032242336154702932 0.0018749784388877207 0 -0.0035385464442375123 0.0016832168190278709 0 -0.003050368412502797 0.0017272757647568799 0 -0.0035385464442375123 0.0016832168190278709 0 -0.003050368412502797 0.0017272757647568799 0 -0.0032693710890477558 0.0014461046871199316 0 -0.003050368412502797 0.0017272757647568799 0 -0.0030169449659683254 0.0012218913257186308 0 -0.0032693710890477558 0.0014461046871199316 0 -0.0030169449659683254 0.0012218913257186308 0 -0.0035199397786283052 0.0011699181764471319 0 -0.0032693710890477558 0.0014461046871199316 0 -0.0035385464442375123 0.0016832168190278709 0 -0.0035199397786283052 0.0011699181764471319 0 -0.0032693710890477558 0.0014461046871199316 0 -0.0035199397786283052 0.0011699181764471319 0 -0.0034323335029457437 0.00071508148281460081 0 -0.0039057560945199576 0.00078537930589561472 0 -0.0030169449659683254 0.0012218913257186308 0 -0.0035199397786283052 0.0011699181764471319 0 -0.0034323335029457437 0.00071508148281460081 0 -0.0026137110134905662 0.00073582204761251204 0 -0.0030169449659683254 0.0012218913257186308 0 -0.0030588460080576249 0.00055327519618314069 0 -0.0030169449659683254 0.0012218913257186308 0 -0.0034323335029457437 0.00071508148281460081 0 -0.0030588460080576249 0.00055327519618314069 0 -0.0040324528514519608 0.0013586539965045287 0 -0.0042629108767901405 0.0010006933093705055 0 -0.0039057560945199576 0.00078537930589561472 0 -0.0040324528514519608 0.0013586539965045287 0 -0.0042629108767901405 0.0010006933093705055 0 -0.0046235491009155357 0.001430521442618831 0 -0.0035199397786283052 0.0011699181764471319 0 -0.0040324528514519608 0.0013586539965045287 0 -0.0039057560945199576 0.00078537930589561472 0 -0.0035385464442375123 0.0016832168190278709 0 -0.0035199397786283052 0.0011699181764471319 0 -0.0040324528514519608 0.0013586539965045287 0 -0.0034323335029457437 0.00071508148281460081 0 -0.0039057560945199576 0.00078537930589561472 0 -0.0037353006003600165 0.00034410519667598484 0 -0.0039057560945199576 0.00078537930589561472 0 -0.0042418239130989945 0.00064870665253482498 0 -0.0042169193461240083 0.00022050567700034789 0 -0.0042629108767901405 0.0010006933093705055 0 -0.0039057560945199576 0.00078537930589561472 0 -0.0042418239130989945 0.00064870665253482498 0 -0.0042629108767901405 0.0010006933093705055 0 -0.0042418239130989945 0.00064870665253482498 0 -0.0046224588809731766 0.00080409574686497276 0 -0.0042418239130989945 0.00064870665253482498 0 -0.0045569071087643758 0.00045159186571139639 0 -0.0046224588809731766 0.00080409574686497276 0 -0.0049146946746147042 0.0004090169720504596 0 -0.0046224588809731766 0.00080409574686497276 0 -0.0052147021136663141 0.00088744692664543233 0 -0.0045569071087643758 0.00045159186571139639 0 -0.0049146946746147042 0.0004090169720504596 0 -0.0046224588809731766 0.00080409574686497276 0 -0.0049146946746147042 0.0004090169720504596 0 -0.0052147021136663141 0.00088744692664543233 0 -0.0050435715245376886 7.9218454112710556e-05 0 -0.0053334110020698969 -0.00068488731990744387 0 -0.0051094063254519982 9.5048306446581088e-06 0 -0.0054392874575248263 -0.002266754430404948 0 -0.004549945716104664 -0.0010297545687835391 0 -0.0050435715245376886 7.9218454112710556e-05 0 -0.0053334110020698969 -0.00068488731990744387 0 -0.0047035963056590441 -0.0016385034127031602 0 -0.0054392874575248263 -0.002266754430404948 0 -0.0055240795411984032 -0.0047484411699243029 0 -0.0036519783010564247 -0.0035771018240364828 0 -0.0052147021136663141 0.00088744692664543233 0 -0.0046235491009155357 0.001430521442618831 0 -0.005195616182366229 0.0015313294970451822 0 -0.0042629108767901405 0.0010006933093705055 0 -0.0046224588809731766 0.00080409574686497276 0 -0.0046235491009155357 0.001430521442618831 0 -0.0046224588809731766 0.00080409574686497276 0 -0.0052147021136663141 0.00088744692664543233 0 -0.0046235491009155357 0.001430521442618831 0 -0.0041974795708390978 0.00144735488265825 0 -0.0042500527289831887 0.0015010735360812006 0 -0.0041984866146083212 0.0015466264521985923 0 -0.0045161893615491104 0.0016006403824990322 0 -0.0047035963056590441 -0.0016385034127031602 0 -0.0041456433433838605 0.0015529669528780874 0 -0.0041974795708390978 0.00144735488265825 0 -0.0041984866146083212 0.0015466264521985923 0 -0.0041974795708390978 0.00144735488265825 0 -0.0042821396039743661 0.0014543310197443207 0 -0.0042500527289831887 0.0015010735360812006 0 -0.0047035963056590441 -0.0016385034127031602 0 -0.0041626500552026172 -0.0024618288737152994 0 -0.0042500527289831887 0.0015010735360812006 0 -0.0042781995387302244 0.0015315100545642459 0 -0.0041984866146083212 0.0015466264521985923 0 -0.0040528530112764558 -0.0049084963267776284 0 -0.0040863168018996452 -0.0062051312944792127 0 -0.0031509003851679929 -0.0059584399196644221 0 -0.0042821396039743661 0.0014543310197443207 0 -0.0042500527289831887 0.0015010735360812006 0 -0.0042781995387302244 0.0015315100545642459 0 -0.0041626500552026172 -0.0024618288737152994 0 -0.004693572357500269 0.0014610013322468144 0 -0.0040956874965499329 0.0014015026493812376 0 -0.0040903748107802501 0.0014600161570914928 0 -0.0041984866146083212 0.0015466264521985923 0 -0.0040027742225446387 -0.0026146924523348042 0 -0.0041626500552026172 -0.0024618288737152994 0 -0.0022315339146642193 0.001399581197667194 0 -0.0019132963339126587 0.00142238966565086 0 -0.0026115775519502935 0.0017255895229528204 0 -0.0040027742225446387 -0.0026146924523348042 0 -0.0034266563714442644 0.0018650899728288946 0 -0.0040956874965499329 0.0014015026493812376 0 -0.0042062754387252165 0.0015484675890078698 0 -0.0041984866146083212 0.0015466264521985923 0 -0.0026491563514386852 0.0014537175198301986 0 -0.0029271348209455729 0.0016057427662610339 0 -0.0026115775519502935 0.0017255895229528204 0 -0.0041456433433838605 0.0015529669528780874 0 -0.0042062754387252165 0.0015484675890078698 0 -0.0041984866146083212 0.0015466264521985923 0 -0.0022734122412675231 -0.0060850671622260976 0 -0.0026553782836249594 -0.0053000445895010429 0 -0.001331118226911955 -0.00572233603373216 0 -0.0028866814852212745 -0.0054893951039729546 0 -0.0014420899486370358 -0.0057205626737842586 0 -0.0015997535670457484 -0.0064915953679242034 0 -0.0022734122412675231 -0.0060850671622260976 0 -0.001331118226911955 -0.00572233603373216 0 -0.0025749076155315142 -0.006795198283148415 0 -0.0015997535670457484 -0.0064915953679242034 0 -0.0022734122412675231 -0.0060850671622260976 0 -0.0028382354750691751 -0.0068673555223942402 0 -0.0041626500552026172 -0.0024618288737152994 0 -0.0025749076155315142 -0.006795198283148415 0 -0.0022734122412675231 -0.0060850671622260976 0 -0.0031509003851679929 -0.0059584399196644221 0 -0.0025749076155315142 -0.006795198283148415 0 -0.0040863168018996452 -0.0062051312944792127 0 -0.0031509003851679929 -0.0059584399196644221 0 -0.0022734122412675231 -0.0060850671622260976 0 -0.0031509003851679929 -0.0059584399196644221 0 -0.0026553782836249594 -0.0053000445895010429 0 -0.0047035963056590441 -0.0016385034127031602 0 -0.0028866814852212745 -0.0054893951039729546 0 -0.0040528530112764558 -0.0049084963267776284 0 -0.0031509003851679929 -0.0059584399196644221 0 -0.0026553782836249594 -0.0053000445895010429 0 -0.0055240795411984032 -0.0047484411699243029 0 -0.0032597656363541798 -0.0053246858209482556 0 -0.0036519783010564247 -0.0035771018240364828 0 -0.0032597656363541798 -0.0053246858209482556 0 -0.0023842919978296776 -0.0046948627731671763 0 -0.0036519783010564247 -0.0035771018240364828 0 -0.0023842919978296776 -0.0046948627731671763 0 -0.0022278477872509383 -0.0034566882706416097 0 -0.0036519783010564247 -0.0035771018240364828 0 -0.0032597656363541798 -0.0053246858209482556 0 -0.0023842919978296776 -0.0046948627731671763 0 -0.0015151722759193015 -0.0057182794184335098 0 -0.0023842919978296776 -0.0046948627731671763 0 -0.0022278477872509383 -0.0034566882706416097 0 -0.00099878659088577064 -0.0037481882324246849 0 -0.0022278477872509383 -0.0034566882706416097 0 -0.0019623150343662209 -0.0023388912775177901 0 -0.00099878659088577064 -0.0037481882324246849 0 -0.0019623150343662209 -0.0023388912775177901 0 -0.00099878659088577064 -0.0037481882324246849 0 -0.0010993663406391576 -0.0016662894654615921 0 -0.0022278477872509383 -0.0034566882706416097 0 -0.0036519783010564247 -0.0035771018240364828 0 -0.0029732776654949247 -0.0026111993692820826 0 -0.0019623150343662209 -0.0023388912775177901 0 -0.0029732776654949247 -0.0026111993692820826 0 -0.0029014608998015408 -0.0015272729654794213 0 -0.0022278477872509383 -0.0034566882706416097 0 -0.0019623150343662209 -0.0023388912775177901 0 -0.0029732776654949247 -0.0026111993692820826 0 -0.0054392874575248263 -0.002266754430404948 0 -0.0036519783010564247 -0.0035771018240364828 0 -0.0038852929816231884 -0.0018768507073766998 0 -0.0036519783010564247 -0.0035771018240364828 0 -0.0029732776654949247 -0.0026111993692820826 0 -0.0038852929816231884 -0.0018768507073766998 0 -0.0029732776654949247 -0.0026111993692820826 0 -0.0038852929816231884 -0.0018768507073766998 0 -0.0029014608998015408 -0.0015272729654794213 0 -0.0054392874575248263 -0.002266754430404948 0 -0.0038852929816231884 -0.0018768507073766998 0 -0.004549945716104664 -0.0010297545687835391 0 -0.0038852929816231884 -0.0018768507073766998 0 -0.0029014608998015408 -0.0015272729654794213 0 -0.0038471010730435338 -0.00015955383907065347 0 -0.0038852929816231884 -0.0018768507073766998 0 -0.004549945716104664 -0.0010297545687835391 0 -0.0038471010730435338 -0.00015955383907065347 0 -0.004549945716104664 -0.0010297545687835391 0 -0.0038471010730435338 -0.00015955383907065347 0 -0.0050435715245376886 7.9218454112710556e-05 0 -0.0019166960434040877 -0.0035832995699260194 0 -0.0030536635819072289 -0.0021433717433025513 0 -0.0039612968020439196 -0.0027737167532885885 0 -0.0029014608998015408 -0.0015272729654794213 0 -0.0016158489181969521 -0.0010102340924059137 0 -0.0038471010730435338 -0.00015955383907065347 0 -0.0018726087019772597 -0.0046669711844725152 0 -0.0040179557423172226 -0.00132366317322714 0 -0.0019623150343662209 -0.0023388912775177901 0 -0.0016158489181969521 -0.0010102340924059137 0 -0.0010993663406391576 -0.0016662894654615921 0 -0.0018726087019772597 -0.0046669711844725152 0 -0.0011212002183375246 -0.0042764516762105994 0 -0.0012377492652572138 -0.0050251471399092064 0 -0.00086614001312174235 -0.0051661415866272294 0 -0.000842315024055077 -0.0055118216117011976 0 -0.0019623150343662209 -0.0023388912775177901 0 -0.0029014608998015408 -0.0015272729654794213 0 -0.0016158489181969521 -0.0010102340924059137 0 -0.0018726087019772597 -0.0046669711844725152 0 -0.0036568269104106676 -0.0043467498419906114 0 -0.0014796739680250216 -0.01100627229836785 0 -0.0012472693737030998 -0.0070255253022199144 0 -0.0020831937043402048 -0.0075247872476474935 0 -0.0018123454215027664 -0.0069656760355995221 0 -0.0017671881576868688 -0.007646139117904468 0 -0.0020831937043402048 -0.0075247872476474935 0 -0.0018123454215027664 -0.0069656760355995221 0 -0.0020514984886827632 -0.0066039213840294224 0 -0.0018726087019772597 -0.0046669711844725152 0 -0.0012472693737030998 -0.0070255253022199144 0 -0.0014796739680250216 -0.01100627229836785 0 -0.0014113046542562626 -0.013243973843749562 0 -0.0014796739680250216 -0.01100627229836785 0 -0.0024341301038132823 -0.01059882884915646 0 -0.0032346964321950875 -0.012593128462132619 0 -0.002993452135564686 -0.012607003870107937 0 -0.003153239516112159 -0.014066836953086951 0 -0.0014113046542562626 -0.013243973843749562 0 -0.0024269031953097543 -0.017047470069194506 0 -0.0020831937043402048 -0.0075247872476474935 0 -0.0020514984886827632 -0.0066039213840294224 0 -0.0028729670098883719 -0.0065407217497035512 0 -0.001141843712086458 -0.011428769918452803 0 -0.0011342638360307756 -0.011594235126770477 0 -0.0010353780342528156 -0.011599874212768372 0 -0.0014113046542562626 -0.013243973843749562 0 -0.0024341301038132823 -0.01059882884915646 0 -0.0024341301038132823 -0.01059882884915646 0 -0.0036568269104106676 -0.0043467498419906114 0 -0.0024341301038132823 -0.01059882884915646 0 -0.0031132867422797735 -0.010694085415587785 0 -0.003808492843741899 -0.007863317397289446 0 -0.0036546752857875564 -0.0078587010885628229 0 -0.0036901695229511664 -0.00806650412616562 0 -0.003153239516112159 -0.014066836953086951 0 -0.0022587936785901175 -0.013752245838169436 0 -0.0015175620347103989 -0.014890362682823973 0 -0.002993452135564686 -0.012607003870107937 0 -0.003153239516112159 -0.014066836953086951 0 -0.0022587936785901175 -0.013752245838169436 0 -0.0034782517824314828 -0.008067630877340793 0 -0.0032528609432835075 -0.0083360526880889661 0 -0.0035563162414679571 -0.0083239050878482525 0 -0.0043972695980873042 -0.0041579472421316129 0 -0.0045919773632774937 -0.0035707846707146574 0 -0.0036901695229511664 -0.00806650412616562 0 -0.0034782517824314828 -0.008067630877340793 0 -0.0035563162414679571 -0.0083239050878482525 0 -0.0031132867422797735 -0.010694085415587785 0 -0.0025122757029166624 -0.012581027617335027 0 -0.0030536635819072289 -0.0021433717433025513 0 -0.0039612968020439196 -0.0027737167532885885 0 -0.0051989867374497012 -0.0019818109142187 0 -0.0054906819150008649 -1.2754221944045164e-06 0 -0.0053305455375062235 -0.00021375726782233256 0 -0.0051653939010908 4.7435402671353505e-05 0 -0.0036568269104106676 -0.0043467498419906114 0 -0.0053454062238372669 -0.00072245053570054059 0 -0.0036568269104106676 -0.0043467498419906114 0 -0.0043972695980873042 -0.0041579472421316129 0 -0.0036546752857875564 -0.0078587010885628229 0 -0.0036901695229511664 -0.00806650412616562 0 -0.0034782517824314828 -0.008067630877340793 0 -0.0039612968020439196 -0.0027737167532885885 0 -0.0051989867374497012 -0.0019818109142187 0 -0.0059938289058696073 -0.0019205739933967666 0 -0.0040179557423172226 -0.00132366317322714 0 -0.0052802157552915572 -0.00061971031455563966 0 -0.0038471010730435338 -0.00015955383907065347 0 -0.0050435715245376886 7.9218454112710556e-05 0 -0.0052492058812763157 0.00029183537390888221 0 -0.0053454062238372669 -0.00072245053570054059 0 -0.0052802157552915572 -0.00061971031455563966 0 -0.0049146946746147042 0.0004090169720504596 0 -0.0050435715245376886 7.9218454112710556e-05 0 -0.0052492058812763157 0.00029183537390888221 0 -0.0051653939010908 4.7435402671353505e-05 0 -0.0050251233865292837 7.3953661851411623e-05 0 -0.0049137342135736938 -3.9919506122555299e-05 0 -0.0051653939010908 4.7435402671353505e-05 0 -0.0051003279820820051 -6.4141215491851571e-05 0 -0.0049137342135736938 -3.9919506122555299e-05 0 -0.0053305455375062235 -0.00021375726782233256 0 -0.0051653939010908 4.7435402671353505e-05 0 -0.0051003279820820051 -6.4141215491851571e-05 0 -0.0049146946746147042 0.0004090169720504596 0 -0.0052492058812763157 0.00029183537390888221 0 -0.0047662619256166414 0.00015547603729737801 0 -0.0045569071087643758 0.00045159186571139639 0 -0.0049146946746147042 0.0004090169720504596 0 -0.0047662619256166414 0.00015547603729737801 0 -0.0052802157552915572 -0.00061971031455563966 0 -0.0048070634651636744 -3.3344457578506781e-05 0 -0.0050251233865292837 7.3953661851411623e-05 0 -0.0047662619256166414 0.00015547603729737801 0 -0.0049137342135736938 -3.9919506122555299e-05 0 -0.0047662619256166414 0.00015547603729737801 0 -0.0049137342135736938 -3.9919506122555299e-05 0 -0.0045798130366406413 -0.00012810305134043509 0 -0.0045798130366406413 -0.00012810305134043509 0 -0.0048821980309947353 -0.00026013230252361255 0 -0.0046466015377837249 -0.00057467048454585613 0 -0.0049137342135736938 -3.9919506122555299e-05 0 -0.0045798130366406413 -0.00012810305134043509 0 -0.0048821980309947353 -0.00026013230252361255 0 -0.0051003279820820051 -6.4141215491851571e-05 0 -0.0048821980309947353 -0.00026013230252361255 0 -0.0051742316959097999 -0.00050122748647907505 0 -0.0050938959209571883 0.00098543890058330145 0 -0.0045919773632774937 -0.0035707846707146574 0 -0.0053305455375062235 -0.00021375726782233256 0 -0.0051003279820820051 -6.4141215491851571e-05 0 -0.0050894933608916313 -0.00056265037408229394 0 -0.0051003279820820051 -6.4141215491851571e-05 0 -0.0049137342135736938 -3.9919506122555299e-05 0 -0.0048821980309947353 -0.00026013230252361255 0 -0.0045919773632774937 -0.0035707846707146574 0 -0.0032457083868087555 -0.010558580885183182 0 -0.0045919773632774937 -0.0035707846707146574 0 -0.0042167041942395072 -0.0036367730054589135 0 -0.0051742316959097999 -0.00050122748647907505 0 -0.0046466015377837249 -0.00057467048454585613 0 -0.004758966775756818 -0.0011058191650970195 0 -0.0048821980309947353 -0.00026013230252361255 0 -0.0051742316959097999 -0.00050122748647907505 0 -0.0046466015377837249 -0.00057467048454585613 0 -0.0046466015377837249 -0.00057467048454585613 0 -0.004758966775756818 -0.0011058191650970195 0 -0.0042248906584526572 -0.0010641856313797122 0 -0.0048764771532360746 -0.005025436860052925 0 -0.0032833248751813135 -0.007062774790190845 0 -0.004991467425208243 -0.0068986567471227859 0 -0.0032833248751813135 -0.007062774790190845 0 -0.004991467425208243 -0.0068986567471227859 0 -0.0039353434200241899 -0.0085259695269938752 0 -0.0021478166983863391 -0.014963762800720813 0 -0.0021852848825688592 -0.014987758502755742 0 -0.0021853113789869387 -0.015035372692796541 0 -0.0021852848825688592 -0.014987758502755742 0 -0.0022195161887026702 -0.01499559351384026 0 -0.0021853113789869387 -0.015035372692796541 0 -0.0018184278624245396 -0.018999004513357693 0 -0.0014836670178931058 -0.017944523540180907 0 -0.00047901971796546395 -0.020680532184582722 0 -0.00043345373110421649 -0.020976087873014103 0 -0.00097976104429566111 -0.020463809679198405 0 -0.00082650666433111677 -0.021080858355384487 0 -0.0018184278624245396 -0.018999004513357693 0 -0.00047901971796546395 -0.020680532184582722 0 -0.00042923399759117314 -0.020870945193147073 0 -0.00033128395292957908 -0.020842022381757253 0 -0.0021852848825688592 -0.014987758502755742 0 -0.0022195161887026702 -0.01499559351384026 0 -0.0022009031644849341 -0.014968670691222539 0 -0.0022009031644849341 -0.014968670691222539 0 -0.002223342014490922 -0.014972304006424622 0 -0.0021832260655076118 -0.014924136606469933 0 -0.0021132229146596229 -0.018093554667520259 0 -0.0025122757029166624 -0.012581027617335027 0 -0.003153239516112159 -0.014066836953086951 0 -0.0030639697962198268 -0.015535063741290026 0 -0.0015175620347103989 -0.014890362682823973 0 -0.0017418227691608096 -0.01936340015775611 0 -0.0016961696046175598 -0.020183304183207816 0 -0.0019095071403075941 -0.020273255081468048 0 -0.0024269031953097543 -0.017047470069194506 0 -0.0021132229146596229 -0.018093554667520259 0 -0.0022195161887026702 -0.01499559351384026 0 -0.0022009031644849341 -0.014968670691222539 0 -0.002223342014490922 -0.014972304006424622 0 -0.002612663213840005 -0.019594691744997877 0 -0.0025602089407202448 -0.020426390502030385 0 -0.002147605788910773 -0.020265023253599707 0 -0.0018184278624245396 -0.018999004513357693 0 -0.0021132229146596229 -0.018093554667520259 0 -0.0018184278624245396 -0.018999004513357693 0 -0.0025989680894593996 -0.022272664749091262 0 -0.0021132229146596229 -0.018093554667520259 0 -0.0025989680894593996 -0.022272664749091262 0 -0.0021852848825688592 -0.014987758502755742 0 -0.0022009031644849341 -0.014968670691222539 0 -0.0021832260655076118 -0.014924136606469933 0 -0.0032528609432835075 -0.0083360526880889661 0 -0.0032814100631315714 -0.0087930345327066929 0 -0.0035563162414679571 -0.0083239050878482525 0 -0.0032457083868087555 -0.010558580885183182 0 -0.0025122757029166624 -0.012581027617335027 0 -0.0021478166983863391 -0.014963762800720813 0 -0.0021852848825688592 -0.014987758502755742 0 -0.0021832260655076118 -0.014924136606469933 0 -0.0027274833692323519 -2.9329873956486983e-05 0 -0.0033282930667412982 0.00010003912346168782 0 -0.0030216469957519291 -0.00045334316862011325 0 -0.0027274833692323519 -2.9329873956486983e-05 0 -0.0030588460080576249 0.00055327519618314069 0 -0.0033282930667412982 0.00010003912346168782 0 -0.0034323335029457437 0.00071508148281460081 0 -0.0030588460080576249 0.00055327519618314069 0 -0.0033282930667412982 0.00010003912346168782 0 -0.0034323335029457437 0.00071508148281460081 0 -0.0033282930667412982 0.00010003912346168782 0 -0.0037353006003600165 0.00034410519667598484 0 -0.0033282930667412982 0.00010003912346168782 0 -0.0038208276128382556 -0.00010184849455658444 0 -0.0037353006003600165 0.00034410519667598484 0 -0.0033282930667412982 0.00010003912346168782 0 -0.0034479348171231462 -0.00040336215736373152 0 -0.0030216469957519291 -0.00045334316862011325 0 -0.0033282930667412982 0.00010003912346168782 0 -0.0038208276128382556 -0.00010184849455658444 0 -0.0034479348171231462 -0.00040336215736373152 0 -0.0038208276128382556 -0.00010184849455658444 0 -0.0042169193461240083 0.00022050567700034789 0 -0.0041977587522428039 -0.00043200250117341143 0 -0.0038208276128382556 -0.00010184849455658444 0 -0.0037353006003600165 0.00034410519667598484 0 -0.0042169193461240083 0.00022050567700034789 0 -0.0039057560945199576 0.00078537930589561472 0 -0.0037353006003600165 0.00034410519667598484 0 -0.0042169193461240083 0.00022050567700034789 0 -0.0045569071087643758 0.00045159186571139639 0 -0.0047662619256166414 0.00015547603729737801 0 -0.0042169193461240083 0.00022050567700034789 0 -0.0047662619256166414 0.00015547603729737801 0 -0.0045798130366406413 -0.00012810305134043509 0 -0.0042169193461240083 0.00022050567700034789 0 -0.0042418239130989945 0.00064870665253482498 0 -0.0045569071087643758 0.00045159186571139639 0 -0.0042169193461240083 0.00022050567700034789 0 -0.0045798130366406413 -0.00012810305134043509 0 -0.0042169193461240083 0.00022050567700034789 0 -0.0041977587522428039 -0.00043200250117341143 0 -0.0045798130366406413 -0.00012810305134043509 0 -0.0046466015377837249 -0.00057467048454585613 0 -0.0041977587522428039 -0.00043200250117341143 0 -0.0046466015377837249 -0.00057467048454585613 0 -0.0041977587522428039 -0.00043200250117341143 0 -0.0042248906584526572 -0.0010641856313797122 0 -0.0042248906584526572 -0.0010641856313797122 0 -0.0037730053770989188 -0.00079683200874924615 0 -0.0037299437800906604 -0.0014310173871111915 0 -0.0041977587522428039 -0.00043200250117341143 0 -0.0042248906584526572 -0.0010641856313797122 0 -0.0037730053770989188 -0.00079683200874924615 0 -0.0038208276128382556 -0.00010184849455658444 0 -0.0037730053770989188 -0.00079683200874924615 0 -0.0034479348171231462 -0.00040336215736373152 0 -0.0038208276128382556 -0.00010184849455658444 0 -0.0041977587522428039 -0.00043200250117341143 0 -0.0037730053770989188 -0.00079683200874924615 0 -0.0034479348171231462 -0.00040336215736373152 0 -0.0031926499155071121 -0.0010982317338015027 0 -0.0030216469957519291 -0.00045334316862011325 0 -0.0037730053770989188 -0.00079683200874924615 0 -0.0034479348171231462 -0.00040336215736373152 0 -0.0031926499155071121 -0.0010982317338015027 0 -0.0019117823807916724 -0.0039015448518171783 0 -0.0025056779661419473 -0.0039386902831215044 0 -0.0037730053770989188 -0.00079683200874924615 0 -0.0031926499155071121 -0.0010982317338015027 0 -0.0037299437800906604 -0.0014310173871111915 0 -0.0015621228507296065 -0.0021678945687747713 0 -0.0019117823807916724 -0.0039015448518171783 0 0.00034524292656946406 -0.0071228208100662729 0 0.00023983801348269909 -0.0059446091455485107 0 -0.00060083604937024269 -0.0064501122370292973 0 -0.0026033870991530161 -0.00076211214741910558 0 -0.0027274833692323519 -2.9329873956486983e-05 0 -0.0030216469957519291 -0.00045334316862011325 0 -0.0026033870991530161 -0.00076211214741910558 0 -0.0031926499155071121 -0.0010982317338015027 0 -0.0030216469957519291 -0.00045334316862011325 0 0.00034524292656946406 -0.0071228208100662729 0 -8.1255347667746528e-05 -0.0079845676671229885 0 -0.00028084055443415958 -0.0074281485500667021 0 -8.1255347667746528e-05 -0.0079845676671229885 0 -0.00028084055443415958 -0.0074281485500667021 0 -0.00061108975428327938 -0.0078427368189418808 0 -0.00028084055443415958 -0.0074281485500667021 0 -0.00081831452112547383 -0.0072465532015843648 0 -0.00061108975428327938 -0.0078427368189418808 0 0.00034524292656946406 -0.0071228208100662729 0 -0.00060083604937024269 -0.0064501122370292973 0 -0.00028084055443415958 -0.0074281485500667021 0 -0.00060083604937024269 -0.0064501122370292973 0 -0.00028084055443415958 -0.0074281485500667021 0 -0.00081831452112547383 -0.0072465532015843648 0 -0.00060083604937024269 -0.0064501122370292973 0 -0.00081831452112547383 -0.0072465532015843648 0 -0.0013895371282640629 -0.0069142417458446046 0 -0.00081831452112547383 -0.0072465532015843648 0 -0.0012447769681880659 -0.0075653236933103133 0 -0.0013895371282640629 -0.0069142417458446046 0 -0.00081831452112547383 -0.0072465532015843648 0 -0.00061108975428327938 -0.0078427368189418808 0 -0.0012447769681880659 -0.0075653236933103133 0 -0.00061108975428327938 -0.0078427368189418808 0 -0.0012447769681880659 -0.0075653236933103133 0 -0.0010225069230799958 -0.0081701662560143776 0 -0.0012447769681880659 -0.0075653236933103133 0 -0.0022034373309372606 -0.0073619653078166722 0 -0.0016387974444443485 -0.0080625377281861397 0 -0.0012447769681880659 -0.0075653236933103133 0 -0.0016387974444443485 -0.0080625377281861397 0 -0.0010225069230799958 -0.0081701662560143776 0 -0.0025056779661419473 -0.0039386902831215044 0 -0.0027957851717830824 -0.0069391403144260979 0 -0.0042248906584526572 -0.0010641856313797122 0 -0.0037299437800906604 -0.0014310173871111915 0 -0.0042736897550636529 -0.0017689015368338519 0 -0.0012447769681880659 -0.0075653236933103133 0 -0.0013895371282640629 -0.0069142417458446046 0 -0.0022034373309372606 -0.0073619653078166722 0 -0.004758966775756818 -0.0011058191650970195 0 -0.0042248906584526572 -0.0010641856313797122 0 -0.0042736897550636529 -0.0017689015368338519 0 -0.0027957851717830824 -0.0069391403144260979 0 -0.0028093651906796716 -0.0089908567273984091 0 -0.001824797765453579 -0.009231355262107244 0 -0.0016684799733440942 -0.010468958592610761 0 -0.00090809147835305517 -0.010522819265376142 0 -0.0027957851717830824 -0.0069391403144260979 0 -0.0011118134466962541 -0.0095263949804652408 0 -0.001824797765453579 -0.009231355262107244 0 -0.0016684799733440942 -0.010468958592610761 0 -0.0021784863246795245 -0.010193927270068718 0 -0.001824797765453579 -0.009231355262107244 0 -0.0021784863246795245 -0.010193927270068718 0 -0.0026570291877987752 -0.0096343098511322469 0 -0.0021784863246795245 -0.010193927270068718 0 -0.0018632818480871661 -0.011462146488510126 0 -0.0028659965927954668 -0.010125587111407401 0 -0.0016684799733440942 -0.010468958592610761 0 -0.0021784863246795245 -0.010193927270068718 0 -0.0018632818480871661 -0.011462146488510126 0 -0.0019533529223736152 -0.011377883439412696 0 -0.0024875881475557486 -0.010691422186664277 0 -0.0016684799733440942 -0.010468958592610761 0 -0.0018632818480871661 -0.011462146488510126 0 -0.0012322935431904943 -0.01120328344657307 0 -0.0018632818480871661 -0.011462146488510126 0 -0.0016135868808278965 -0.011829806002962847 0 -0.0012322935431904943 -0.01120328344657307 0 7.3906974740301623e-05 -0.012122921166882503 0 7.7974427923805578e-07 -0.011726336265045073 0 -8.0345173235972605e-07 -0.013557878080252451 0 -0.0018632818480871661 -0.011462146488510126 0 -0.0016135868808278965 -0.011829806002962847 0 -0.0024025772906735095 -0.011869027218697311 0 -0.0006443890050630139 -0.012001721036464257 0 -0.0010742737635293746 -0.013495819383417306 0 7.3906974740301623e-05 -0.012122921166882503 0 7.7974427923805578e-07 -0.011726336265045073 0 -2.0386789114219421e-05 -0.01118122655362633 0 -0.0006443890050630139 -0.012001721036464257 0 -0.00046849505759108807 -0.010122697897393847 0 -0.0016135868808278965 -0.011829806002962847 0 -0.0012322935431904943 -0.01120328344657307 0 -8.5662200278482513e-05 -0.011634158678611978 0 -0.0012322935431904943 -0.01120328344657307 0 -0.00090809147835305517 -0.010522819265376142 0 -8.5662200278482513e-05 -0.011634158678611978 0 -0.0016387974444443485 -0.0080625377281861397 0 -0.0010225069230799958 -0.0081701662560143776 0 -0.0010713899877173743 -0.0087526202123291898 0 -0.0011118134466962541 -0.0095263949804652408 0 -0.00046849505759108807 -0.010122697897393847 0 -0.0016684799733440942 -0.010468958592610761 0 -0.0012322935431904943 -0.01120328344657307 0 -0.00090809147835305517 -0.010522819265376142 0 0.00015550129408228806 -0.0084277997172354201 0 -0.0010225069230799958 -0.0081701662560143776 0 -0.0010713899877173743 -0.0087526202123291898 0 7.7974427923805578e-07 -0.011726336265045073 0 -2.0386789114219421e-05 -0.01118122655362633 0 -7.8543626487875271e-07 -0.0098950847604196649 0 -0.00046849505759108807 -0.010122697897393847 0 2.0627860268508028e-08 -0.0098935458946566215 0 0.00015550129408228806 -0.0084277997172354201 0 -0.0006298006918839989 -0.0091338513047122 0 -1.1025052887332536e-08 -0.0098902979887192325 0 0.00015550129408228806 -0.0084277997172354201 0 -8.4542135155164571e-05 -0.007801703866780859 0 -1.1025052887332536e-08 -0.0098902979887192325 0 1.3956136454778363e-05 -0.0081768627278536298 0 -0.00046849505759108807 -0.010122697897393847 0 0.00015550129408228806 -0.0084277997172354201 0 -0.00061108975428327938 -0.0078427368189418808 0 -0.0010225069230799958 -0.0081701662560143776 0 0.00015550129408228806 -0.0084277997172354201 0 -8.1255347667746528e-05 -0.0079845676671229885 0 -0.00061108975428327938 -0.0078427368189418808 0 -0.00097766062848800512 -0.019823459555649594 0 -0.00097976104429566111 -0.020463809679198405 0 -0.0018899258406819539 -0.01958530559634835 0 -0.00097766062848800512 -0.019823459555649594 0 -0.0018899258406819539 -0.01958530559634835 0 -0.0011716860033105928 -0.019205828637032171 0 -0.0014836670178931058 -0.017944523540180907 0 -0.0019803826069172874 -0.015266378843529793 0 -0.00097766062848800512 -0.019823459555649594 0 -0.00038173954806745587 -0.020053117787780947 0 -0.0003857375805126438 -0.019354771766009339 0 -0.00097766062848800512 -0.019823459555649594 0 -0.00038173954806745587 -0.020053117787780947 0 -0.00060977588284100311 -0.020330362699539938 0 -0.00097766062848800512 -0.019823459555649594 0 -0.00060977588284100311 -0.020330362699539938 0 -0.00097976104429566111 -0.020463809679198405 0 -0.00038173954806745587 -0.020053117787780947 0 -0.00060977588284100311 -0.020330362699539938 0 -0.00032645831504505673 -0.02045644987280823 0 -0.00047901971796546395 -0.020680532184582722 0 -0.00060977588284100311 -0.020330362699539938 0 -0.00032645831504505673 -0.02045644987280823 0 -0.00047901971796546395 -0.020680532184582722 0 -0.00060977588284100311 -0.020330362699539938 0 -0.00097976104429566111 -0.020463809679198405 0 -0.0021853113789869387 -0.015035372692796541 0 -0.002143006195526966 -0.015028916889844715 0 -0.0021459042717058428 -0.015091590498154197 0 -0.0021478166983863391 -0.014963762800720813 0 -0.0021853113789869387 -0.015035372692796541 0 -0.002143006195526966 -0.015028916889844715 0 -0.0032457083868087555 -0.010558580885183182 0 -0.0024348957618213394 -0.012921718484203301 0 -0.0027227074537443195 -0.010440357905783666 0 -0.0024924004479779482 -0.01077841742112351 0 -0.0027416842471250373 -0.010810618555947398 0 -0.0032457083868087555 -0.010558580885183182 0 -0.0033948110914712839 -0.0093127015134267903 0 -0.0024924004479779482 -0.01077841742112351 0 -0.0027416842471250373 -0.010810618555947398 0 -0.0025168922908882533 -0.011051465714806571 0 -0.0016885096522759181 -0.0090889168989163362 0 -0.0039353434200241899 -0.0085259695269938752 0 -0.0026570291877987752 -0.0096343098511322469 0 -0.0032833248751813135 -0.007062774790190845 0 -0.0016885096522759181 -0.0090889168989163362 0 -0.0039353434200241899 -0.0085259695269938752 0 -0.0042167041942395072 -0.0036367730054589135 0 -0.0027957851717830824 -0.0069391403144260979 0 -0.0024924004479779482 -0.01077841742112351 0 -0.002228454999327343 -0.011111519698540503 0 -0.0025168922908882533 -0.011051465714806571 0 -0.0039353434200241899 -0.0085259695269938752 0 -0.0026570291877987752 -0.0096343098511322469 0 -0.0028659965927954668 -0.010125587111407401 0 -0.0033948110914712839 -0.0093127015134267903 0 -0.0024875881475557486 -0.010691422186664277 0 -0.002228454999327343 -0.011111519698540503 0 -0.0025168922908882533 -0.011051465714806571 0 -0.0024845048189464916 -0.011249483348540461 0 -0.0021784863246795245 -0.010193927270068718 0 -0.0026570291877987752 -0.0096343098511322469 0 -0.0028659965927954668 -0.010125587111407401 0 -0.0024348957618213394 -0.012921718484203301 0 -0.0019803826069172874 -0.015266378843529793 0 -0.0027416842471250373 -0.010810618555947398 0 -0.0025168922908882533 -0.011051465714806571 0 -0.0027710625153811695 -0.011199843893097488 0 -0.0025168922908882533 -0.011051465714806571 0 -0.0027710625153811695 -0.011199843893097488 0 -0.0024845048189464916 -0.011249483348540461 0 -0.0019803826069172874 -0.015266378843529793 0 -0.0018500586973776369 -0.017050482229807516 0 -0.001685287947825174 -0.014974506105813567 0 -0.0017349423047675748 -0.014897061880061194 0 -0.0016805625612897194 -0.014895139289973519 0 -0.0019803826069172874 -0.015266378843529793 0 -0.002406979482969951 -0.012860264249858264 0 -0.0027710625153811695 -0.011199843893097488 0 -0.0024845048189464916 -0.011249483348540461 0 -0.0025959447662494144 -0.011485703465382512 0 -0.0018632818480871661 -0.011462146488510126 0 -0.002228454999327343 -0.011111519698540503 0 -0.0022915482097513478 -0.011417565760327514 0 -0.0018632818480871661 -0.011462146488510126 0 -0.0022915482097513478 -0.011417565760327514 0 -0.0024025772906735095 -0.011869027218697311 0 -0.002228454999327343 -0.011111519698540503 0 -0.0024845048189464916 -0.011249483348540461 0 -0.0022915482097513478 -0.011417565760327514 0 -0.0024845048189464916 -0.011249483348540461 0 -0.0025959447662494144 -0.011485703465382512 0 -0.0022915482097513478 -0.011417565760327514 0 -0.0025959447662494144 -0.011485703465382512 0 -0.0022915482097513478 -0.011417565760327514 0 -0.0024025772906735095 -0.011869027218697311 0 9.2757879638924024e-06 -0.014016245361710918 0 -9.9354272841185811e-08 -0.013560894356268685 0 7.9066433371101794e-08 -0.015127025528008223 0 7.3906974740301623e-05 -0.012122921166882503 0 -0.00016351288363322525 -0.013334633963016231 0 -8.0345173235972605e-07 -0.013557878080252451 0 -0.002406979482969951 -0.012860264249858264 0 -0.0010742737635293746 -0.013495819383417306 0 -0.0010742737635293746 -0.013495819383417306 0 -6.4898069720896199e-07 -0.013560171597355125 0 9.2757879638924024e-06 -0.014016245361710918 0 7.9066433371101794e-08 -0.015127025528008223 0 -1.1881896430070272e-05 -0.015210165442670443 0 -0.0010742737635293746 -0.013495819383417306 0 -0.001094896935726012 -0.015770356012271766 0 -0.0017349423047675748 -0.014897061880061194 0 -0.001778490312609885 -0.014822852267110958 0 -0.0016731822788731334 -0.014818270201747936 0 -0.0017349423047675748 -0.014897061880061194 0 -0.0016805625612897194 -0.014895139289973519 0 -0.0016731822788731334 -0.014818270201747936 0 -0.0018500586973776369 -0.017050482229807516 0 -0.001094896935726012 -0.015770356012271766 0 7.9066433371101794e-08 -0.015127025528008223 0 -4.7068415128975019e-06 -0.015319212155776045 0 -1.1881896430070272e-05 -0.015210165442670443 0 -0.001094896935726012 -0.015770356012271766 0 5.4872319527725642e-08 -0.016695278843723488 0 -0.0020367053537370082 -0.018603791012877045 0 -0.0021006760313020578 -0.01720734368906205 0 -0.00078920101756662525 -0.018445494364954167 0 -0.0021006760313020578 -0.01720734368906205 0 -0.00078920101756662525 -0.018445494364954167 0 -2.8197829267614583e-06 -0.016698977158744355 0 7.9066433371101794e-08 -0.015127025528008223 0 -4.7068415128975019e-06 -0.015319212155776045 0 -9.1308978257391436e-08 -0.016695425008855777 0 -4.7068415128975019e-06 -0.015319212155776045 0 -5.9850260070398227e-06 -0.015292795219298879 0 -9.1308978257391436e-08 -0.016695425008855777 0 -0.0010461959036932925 -0.015689880949470703 0 -0.001094896935726012 -0.015770356012271766 0 -0.0020367053537370082 -0.018603791012877045 0 -0.00078920101756662525 -0.018445494364954167 0 -0.0011716860033105928 -0.019205828637032171 0 -0.0018899258406819539 -0.01958530559634835 0 -0.0020367053537370082 -0.018603791012877045 0 -0.0011716860033105928 -0.019205828637032171 0 -0.00097766062848800512 -0.019823459555649594 0 -0.0011716860033105928 -0.019205828637032171 0 -0.0003857375805126438 -0.019354771766009339 0 -0.00078920101756662525 -0.018445494364954167 0 -0.0011716860033105928 -0.019205828637032171 0 -0.0003857375805126438 -0.019354771766009339 0 -0.00078920101756662525 -0.018445494364954167 0 -0.0003857375805126438 -0.019354771766009339 0 -4.6711019508437726e-05 -0.018474696031972739 0 -0.00078920101756662525 -0.018445494364954167 0 -4.6711019508437726e-05 -0.018474696031972739 0 -2.8197829267614583e-06 -0.016698977158744355 0 -4.6711019508437726e-05 -0.018474696031972739 0 -2.8197829267614583e-06 -0.016698977158744355 0 1.091955240803809e-06 -0.018555008710036014 0 -4.6711019508437726e-05 -0.018474696031972739 0 1.091955240803809e-06 -0.018555008710036014 0 0.00011198126445299486 -0.019517865131473321 0 1.091955240803809e-06 -0.018555008710036014 0 0.00016846768527161511 -0.019883745415924903 0 3.4377590651726343e-07 -0.020414891839943695 0 1.091955240803809e-06 -0.018555008710036014 0 0.00016846768527161511 -0.019883745415924903 0 0.00011198126445299486 -0.019517865131473321 0 0.00016846768527161511 -0.019883745415924903 0 0.00011198126445299486 -0.019517865131473321 0 0.00022997648443915265 -0.020302302678241423 0 -0.0003857375805126438 -0.019354771766009339 0 0.00011198126445299486 -0.019517865131473321 0 -9.3490586403399012e-05 -0.019831790570820677 0 -0.0003857375805126438 -0.019354771766009339 0 -4.6711019508437726e-05 -0.018474696031972739 0 0.00011198126445299486 -0.019517865131473321 0 -0.00038173954806745587 -0.020053117787780947 0 -0.0003857375805126438 -0.019354771766009339 0 -9.3490586403399012e-05 -0.019831790570820677 0 0.00011198126445299486 -0.019517865131473321 0 -9.3490586403399012e-05 -0.019831790570820677 0 9.1312018788990027e-05 -0.020132476962791686 0 -0.00038173954806745587 -0.020053117787780947 0 -9.3490586403399012e-05 -0.019831790570820677 0 -8.327461984461894e-05 -0.020284478126313284 0 -9.3490586403399012e-05 -0.019831790570820677 0 9.1312018788990027e-05 -0.020132476962791686 0 -8.327461984461894e-05 -0.020284478126313284 0 0.00022997648443915265 -0.020302302678241423 0 0.00013082534666528951 -0.020403968559700475 0 0.00022089819762636278 -0.020547211859297532 0 0.00011198126445299486 -0.019517865131473321 0 0.00022997648443915265 -0.020302302678241423 0 9.1312018788990027e-05 -0.020132476962791686 0 0.00022997648443915265 -0.020302302678241423 0 9.1312018788990027e-05 -0.020132476962791686 0 0.00013082534666528951 -0.020403968559700475 0 9.1312018788990027e-05 -0.020132476962791686 0 0.00013082534666528951 -0.020403968559700475 0 -8.327461984461894e-05 -0.020284478126313284 0 0.00013082534666528951 -0.020403968559700475 0 0.0001527304829381476 -0.020542308877830723 0 0.00022089819762636278 -0.020547211859297532 0 0.00013082534666528951 -0.020403968559700475 0 0.0001527304829381476 -0.020542308877830723 0 -4.03355327102099e-05 -0.020549268849581304 0 -4.03355327102099e-05 -0.020549268849581304 0 -0.00032645831504505673 -0.02045644987280823 0 -8.327461984461894e-05 -0.020284478126313284 0 -0.00047901971796546395 -0.020680532184582722 0 -0.00032645831504505673 -0.02045644987280823 0 -0.00026007125869766936 -0.020662610865795406 0 -4.03355327102099e-05 -0.020549268849581304 0 -0.00032645831504505673 -0.02045644987280823 0 -0.00026007125869766936 -0.020662610865795406 0 -0.00038173954806745587 -0.020053117787780947 0 -0.00032645831504505673 -0.02045644987280823 0 -8.327461984461894e-05 -0.020284478126313284 0 0.00013082534666528951 -0.020403968559700475 0 -4.03355327102099e-05 -0.020549268849581304 0 -8.327461984461894e-05 -0.020284478126313284 0 0.00010015702629632448 -0.020706061518011555 0 -0.00026137092409333205 -0.020647326940037087 0 0.00026044561396454245 -0.020546202590397536 0 0.00010015702629632448 -0.020706061518011555 0 0.00022089819762636278 -0.020547211859297532 0 0.00026044561396454245 -0.020546202590397536 0 0.0001527304829381476 -0.020542308877830723 0 0.00022089819762636278 -0.020547211859297532 0 0.00026044561396454245 -0.020546202590397536 0 0.00022997648443915265 -0.020302302678241423 0 0.00022089819762636278 -0.020547211859297532 0 0.00017163290399268538 -0.020744176166054888 0 0.00022997648443915265 -0.020302302678241423 0 0.00017163290399268538 -0.020744176166054888 0 0.00023080130097927304 -0.020577376381962869 0 0.00010015702629632448 -0.020706061518011555 0 0.00022089819762636278 -0.020547211859297532 0 0.00017163290399268538 -0.020744176166054888 0 0.00010015702629632448 -0.020706061518011555 0 0.00017163290399268538 -0.020744176166054888 0 5.2556691733483696e-06 -0.021059013653893521 0 0.00017163290399268538 -0.020744176166054888 0 0.00014944015829698016 -0.021229222313643402 0 5.2556691733483696e-06 -0.021059013653893521 0 0.00017163290399268538 -0.020744176166054888 0 0.00023080130097927304 -0.020577376381962869 0 0.00014944015829698016 -0.021229222313643402 0 0.00016846768527161511 -0.019883745415924903 0 0.00022997648443915265 -0.020302302678241423 0 0.00023080130097927304 -0.020577376381962869 0 0.00016846768527161511 -0.019883745415924903 0 0.00023080130097927304 -0.020577376381962869 0 0.00014944015829698016 -0.021229222313643402 0 0.00016846768527161511 -0.019883745415924903 0 3.4377590651726343e-07 -0.020414891839943695 0 0.00014944015829698016 -0.021229222313643402 0 3.4377590651726343e-07 -0.020414891839943695 0 0.00014944015829698016 -0.021229222313643402 0 1.4093827401149101e-07 -0.022273526246701789 0 1.4093827401149101e-07 -0.022273526246701789 0 -5.5097138492130163e-05 -0.022161022634351765 0 -9.6809242154069421e-05 -0.023368516945749436 0 0.00014944015829698016 -0.021229222313643402 0 1.4093827401149101e-07 -0.022273526246701789 0 -5.5097138492130163e-05 -0.022161022634351765 0 1.4093827401149101e-07 -0.022273526246701789 0 -9.6809242154069421e-05 -0.023368516945749436 0 -9.280895371372384e-07 -0.024133023715193835 0 -0.00039549735083180423 -0.02226102875530855 0 -0.00089246260096251771 -0.022270512268418648 0 -0.0010280170380365904 -0.022800158611014545 0 -9.6809242154069421e-05 -0.023368516945749436 0 -0.00039549735083180423 -0.02226102875530855 0 -0.0010280170380365904 -0.022800158611014545 0 -5.5097138492130163e-05 -0.022161022634351765 0 -9.6809242154069421e-05 -0.023368516945749436 0 -0.00039549735083180423 -0.02226102875530855 0 -0.00039549735083180423 -0.02226102875530855 0 -0.00068215735680373843 -0.021775157966542169 0 -0.00012346104302755158 -0.021640878314317529 0 -0.00039549735083180423 -0.02226102875530855 0 -0.00089246260096251771 -0.022270512268418648 0 -0.00068215735680373843 -0.021775157966542169 0 -0.00089246260096251771 -0.022270512268418648 0 -0.00068215735680373843 -0.021775157966542169 0 -0.0012103648142351435 -0.022082613882251852 0 -0.00068215735680373843 -0.021775157966542169 0 -0.0012103648142351435 -0.022082613882251852 0 -0.0012391674440851391 -0.021766843146117508 0 -0.00068215735680373843 -0.021775157966542169 0 -0.00012346104302755158 -0.021640878314317529 0 -0.00037045687437608046 -0.021332105934536789 0 0.00014944015829698016 -0.021229222313643402 0 -5.5097138492130163e-05 -0.022161022634351765 0 -0.00012346104302755158 -0.021640878314317529 0 0.00014944015829698016 -0.021229222313643402 0 -0.00012346104302755158 -0.021640878314317529 0 5.2556691733483696e-06 -0.021059013653893521 0 -5.5097138492130163e-05 -0.022161022634351765 0 -0.00039549735083180423 -0.02226102875530855 0 -0.00012346104302755158 -0.021640878314317529 0 -0.0027231580699616145 -0.02360545424117937 0 -0.0022327621338009622 -0.023114907779053725 0 -0.0027667243541748816 -0.022769768840455208 0 -0.0027231580699616145 -0.02360545424117937 0 -0.0022327621338009622 -0.023114907779053725 0 -0.0017225750235748292 -0.023595363893219572 0 -0.0015955120675521758 -0.02490986314097151 0 -0.00068011469255897371 -0.024150392182855633 0 -0.0022327621338009622 -0.023114907779053725 0 -0.001719659224771264 -0.02297619299729679 0 -0.0021276120228825805 -0.022673178601251665 0 -0.00010837037994214423 -0.023619963607448981 0 -0.00068011469255897371 -0.024150392182855633 0 5.1028411174674591e-07 -0.026035666218963076 0 -9.280895371372384e-07 -0.024133023715193835 0 5.4884481930863945e-06 -0.024790049206248138 0 -9.6809242154069421e-05 -0.023368516945749436 0 -0.0017225750235748292 -0.023595363893219572 0 -0.0010280170380365904 -0.022800158611014545 0 -9.6809242154069421e-05 -0.023368516945749436 0 -9.280895371372384e-07 -0.024133023715193835 0 5.4884481930863945e-06 -0.024790049206248138 0 -0.0022327621338009622 -0.023114907779053725 0 -0.001719659224771264 -0.02297619299729679 0 -0.0017225750235748292 -0.023595363893219572 0 -0.001719659224771264 -0.02297619299729679 0 -0.0010280170380365904 -0.022800158611014545 0 -0.0014512624653137348 -0.022479180245562034 0 -0.001719659224771264 -0.02297619299729679 0 -0.0017225750235748292 -0.023595363893219572 0 -0.0010280170380365904 -0.022800158611014545 0 -0.00089246260096251771 -0.022270512268418648 0 -0.0014512624653137348 -0.022479180245562034 0 -0.0012103648142351435 -0.022082613882251852 0 -0.00089246260096251771 -0.022270512268418648 0 -0.0010280170380365904 -0.022800158611014545 0 -0.0014512624653137348 -0.022479180245562034 0 -0.0012103648142351435 -0.022082613882251852 0 -0.0017483624886926925 -0.022185692162931092 0 -0.0012391674440851391 -0.021766843146117508 0 -0.0014512624653137348 -0.022479180245562034 0 -0.0012103648142351435 -0.022082613882251852 0 -0.0017483624886926925 -0.022185692162931092 0 -0.001719659224771264 -0.02297619299729679 0 -0.0014512624653137348 -0.022479180245562034 0 -0.0021276120228825805 -0.022673178601251665 0 -0.0014512624653137348 -0.022479180245562034 0 -0.0017483624886926925 -0.022185692162931092 0 -0.0021276120228825805 -0.022673178601251665 0 -0.0021276120228825805 -0.022673178601251665 0 -0.0024439531837070301 -0.022268282004204182 0 -0.0027667243541748816 -0.022769768840455208 0 -0.0022327621338009622 -0.023114907779053725 0 -0.0021276120228825805 -0.022673178601251665 0 -0.0027667243541748816 -0.022769768840455208 0 -0.0017483624886926925 -0.022185692162931092 0 -0.0021276120228825805 -0.022673178601251665 0 -0.0024439531837070301 -0.022268282004204182 0 -0.0024439531837070301 -0.022268282004204182 0 -0.0027667243541748816 -0.022769768840455208 0 -0.0032914100072130451 -0.022553782135812387 0 -0.0028185660027787028 -0.022113556049806748 0 -0.0023190286044755285 -0.021736250948002255 0 -0.0032255715731998331 -0.021888612267756267 0 -0.0023190286044755285 -0.021736250948002255 0 -0.0016821139677006076 -0.021079452898986727 0 -0.0032255715731998331 -0.021888612267756267 0 -0.0024439531837070301 -0.022268282004204182 0 -0.0028185660027787028 -0.022113556049806748 0 -0.0023190286044755285 -0.021736250948002255 0 -0.0024439531837070301 -0.022268282004204182 0 -0.0028185660027787028 -0.022113556049806748 0 -0.0032914100072130451 -0.022553782135812387 0 -0.0024439531837070301 -0.022268282004204182 0 -0.0023190286044755285 -0.021736250948002255 0 -0.0017194252477501478 -0.021727641127401706 0 -0.0023190286044755285 -0.021736250948002255 0 -0.0017194252477501478 -0.021727641127401706 0 -0.0016821139677006076 -0.021079452898986727 0 -0.0017483624886926925 -0.022185692162931092 0 -0.0017194252477501478 -0.021727641127401706 0 -0.0012391674440851391 -0.021766843146117508 0 -0.0017483624886926925 -0.022185692162931092 0 -0.0024439531837070301 -0.022268282004204182 0 -0.0017194252477501478 -0.021727641127401706 0 -0.0017194252477501478 -0.021727641127401706 0 -0.0012391674440851391 -0.021766843146117508 0 -0.00094086518113127202 -0.021344148499538574 0 -0.0017194252477501478 -0.021727641127401706 0 -0.0016821139677006076 -0.021079452898986727 0 -0.00094086518113127202 -0.021344148499538574 0 -0.0014626730380297274 -0.021168683079920373 0 -0.0016976913759603632 -0.020809869719554674 0 -0.00092032432161795116 -0.020503396880630704 0 -0.0013429824485792789 -0.021006157051533095 0 -0.0038134442084553919 -0.022752036351686187 0 -0.0014626730380297274 -0.021168683079920373 0 -0.0016976913759603632 -0.020809869719554674 0 -0.0025775263057950283 -0.021265383796564175 0 -0.0067872161771736165 -0.025599495707088742 0 -0.0058272522130554238 -0.025574853844961557 0 -0.0053741658567568315 -0.024402213524067528 0 -0.0042548827726576676 -0.023204013251452035 0 -0.0038134442084553919 -0.022752036351686187 0 -0.0067872161771736165 -0.025599495707088742 0 -0.0058272522130554238 -0.025574853844961557 0 -0.0063463443720617905 -0.026079112563814524 0 0.00010015702629632448 -0.020706061518011555 0 5.2556691733483696e-06 -0.021059013653893521 0 -0.00031377563576115176 -0.020838699073360695 0 5.2556691733483696e-06 -0.021059013653893521 0 -0.00037045687437608046 -0.021332105934536789 0 -0.00031377563576115176 -0.020838699073360695 0 -0.00012346104302755158 -0.021640878314317529 0 5.2556691733483696e-06 -0.021059013653893521 0 -0.00037045687437608046 -0.021332105934536789 0 -0.0016821139677006076 -0.021079452898986727 0 -0.00094086518113127202 -0.021344148499538574 0 -0.00031377563576115176 -0.020838699073360695 0 -0.00068215735680373843 -0.021775157966542169 0 -0.00037045687437608046 -0.021332105934536789 0 -0.00094086518113127202 -0.021344148499538574 0 -0.00068215735680373843 -0.021775157966542169 0 -0.0012391674440851391 -0.021766843146117508 0 -0.00094086518113127202 -0.021344148499538574 0 -0.00037045687437608046 -0.021332105934536789 0 -0.00094086518113127202 -0.021344148499538574 0 -0.00031377563576115176 -0.020838699073360695 0 -0.00061752134006509956 -0.021011757825468873 0 -0.00054112111934365408 -0.020603506373665672 0 -0.00092032432161795116 -0.020503396880630704 0 -0.0013429824485792789 -0.021006157051533095 0 -0.0005286905861057366 -0.020932747503767352 0 -0.0014626730380297274 -0.021168683079920373 0 -0.00061752134006509956 -0.021011757825468873 0 -0.00092032432161795116 -0.020503396880630704 0 0.00010015702629632448 -0.020706061518011555 0 -0.00026137092409333205 -0.020647326940037087 0 -0.00061752134006509956 -0.021011757825468873 0 -0.00026137092409333205 -0.020647326940037087 0 -0.00061752134006509956 -0.021011757825468873 0 -0.00054112111934365408 -0.020603506373665672 0 8.7073800856315344e-05 -0.020741750691435395 0 -0.0005286905861057366 -0.020932747503767352 0 -0.00026137092409333205 -0.020647326940037087 0 -0.00054112111934365408 -0.020603506373665672 0 -0.00042433582511395976 -0.020527685409541085 0 -0.00054112111934365408 -0.020603506373665672 0 -0.00092032432161795116 -0.020503396880630704 0 -0.00042433582511395976 -0.020527685409541085 0 -0.0044403031405807177 -0.023513820967628773 0 -0.0048259255468599003 -0.023718200356167615 0 -0.007978110754236328 -0.026492430572696728 0 -0.007958609075428013 -0.027710217938399853 0 -0.0074731851772140024 -0.027167556900721684 0 -0.007958609075428013 -0.027710217938399853 0 -0.0090753967185413179 -0.027213424375936466 0 -0.0086522886285619379 -0.027934955545892887 0 -0.007978110754236328 -0.026492430572696728 0 -0.007958609075428013 -0.027710217938399853 0 -0.0090753967185413179 -0.027213424375936466 0 -0.0090753967185413179 -0.027213424375936466 0 -0.0086522886285619379 -0.027934955545892887 0 -0.0093809940632398857 -0.028077608802466136 0 -0.0058272522130554238 -0.025574853844961557 0 -0.0059445028906663826 -0.026673876211026064 0 -0.0063463443720617905 -0.026079112563814524 0 -0.0067872161771736165 -0.025599495707088742 0 -0.0063463443720617905 -0.026079112563814524 0 -0.0069671801223331288 -0.026697474052592034 0 -0.0059445028906663826 -0.026673876211026064 0 -0.0063463443720617905 -0.026079112563814524 0 -0.0069671801223331288 -0.026697474052592034 0 -0.0042548827726576676 -0.023204013251452035 0 -0.0044403031405807177 -0.023513820967628773 0 -0.007978110754236328 -0.026492430572696728 0 -0.0069671801223331288 -0.026697474052592034 0 -0.0074731851772140024 -0.027167556900721684 0 -0.0067872161771736165 -0.025599495707088742 0 -0.007978110754236328 -0.026492430572696728 0 -0.0069671801223331288 -0.026697474052592034 0 -0.007958609075428013 -0.027710217938399853 0 -0.0074731851772140024 -0.027167556900721684 0 -0.0069429020395981172 -0.027808138462304108 0 -0.0069671801223331288 -0.026697474052592034 0 -0.0074731851772140024 -0.027167556900721684 0 -0.0069429020395981172 -0.027808138462304108 0 -0.007958609075428013 -0.027710217938399853 0 -0.0069429020395981172 -0.027808138462304108 0 -0.0071875250032611103 -0.028544316329727339 0 -0.0069671801223331288 -0.026697474052592034 0 -0.0069429020395981172 -0.027808138462304108 0 -0.0059623329405726526 -0.027675984000592655 0 -0.0059445028906663826 -0.026673876211026064 0 -0.0069671801223331288 -0.026697474052592034 0 -0.0059623329405726526 -0.027675984000592655 0 -0.0069429020395981172 -0.027808138462304108 0 -0.0059623329405726526 -0.027675984000592655 0 -0.0062499304053177229 -0.028632813196166559 0 -0.0059445028906663826 -0.026673876211026064 0 -0.0059623329405726526 -0.027675984000592655 0 -0.0051580754475961683 -0.026938036977382472 0 -0.0062499304053177229 -0.028632813196166559 0 -0.0055790350513538929 -0.029382924011022191 0 -0.0054235963992433677 -0.028938558096740997 0 -0.0062499304053177229 -0.028632813196166559 0 -0.0054270512214854892 -0.02830773394877549 0 -0.0054235963992433677 -0.028938558096740997 0 -0.0059623329405726526 -0.027675984000592655 0 -0.0062499304053177229 -0.028632813196166559 0 -0.0054270512214854892 -0.02830773394877549 0 -0.0062499304053177229 -0.028632813196166559 0 -0.0066104526120473973 -0.029596707541560581 0 -0.0055790350513538929 -0.029382924011022191 0 -0.0071875250032611103 -0.028544316329727339 0 -0.0066104526120473973 -0.029596707541560581 0 -0.0081531456622490877 -0.028768530233765025 0 -0.0062499304053177229 -0.028632813196166559 0 -0.0071875250032611103 -0.028544316329727339 0 -0.0066104526120473973 -0.029596707541560581 0 -0.0069429020395981172 -0.027808138462304108 0 -0.0062499304053177229 -0.028632813196166559 0 -0.0071875250032611103 -0.028544316329727339 0 -0.0053586378771204894 -0.02825499620073206 0 -0.0051748426539414277 -0.028575900577605191 0 -0.0053836855071118959 -0.028055846304971464 0 -0.0059012224102977587 -0.029069391251800351 0 -0.0067190495291243732 -0.028459677546581637 0 -0.0053359052247943092 -0.028626922239442295 0 -0.0048643102313701177 -0.027141211882859888 0 -0.0053586378771204894 -0.02825499620073206 0 -0.0052835215788155894 -0.028019022195149287 0 -0.0056007178596261739 -0.028058073817740739 0 -0.0053586378771204894 -0.02825499620073206 0 -0.0051748426539414277 -0.028575900577605191 0 -0.0051363150617868315 -0.029150046861911985 0 -0.0059012224102977587 -0.029069391251800351 0 -0.0045498477512553193 -0.02981305767965263 0 -0.0051748426539414277 -0.028575900577605191 0 -0.0042077830530594749 -0.029386317446002196 0 -0.0045732325962566239 -0.029406081120288051 0 -0.0066104526120473973 -0.029596707541560581 0 -0.0055790350513538929 -0.029382924011022191 0 -0.0048341857040129594 -0.030272580902317232 0 -0.0051748426539414277 -0.028575900577605191 0 -0.004908031118641726 -0.029281346715366828 0 -0.0051363150617868315 -0.029150046861911985 0 -0.0051748426539414277 -0.028575900577605191 0 -0.0045732325962566239 -0.029406081120288051 0 -0.004908031118641726 -0.029281346715366828 0 -0.0086522886285619379 -0.027934955545892887 0 -0.0081531456622490877 -0.028768530233765025 0 -0.0093809940632398857 -0.028077608802466136 0 -0.0053836855071118959 -0.028055846304971464 0 -0.0052380985318902966 -0.02797549202663294 0 -0.0051544697266337168 -0.028003479751890391 0 -0.0067190495291243732 -0.028459677546581637 0 -0.0074602723153740311 -0.027855414299390497 0 -0.0052380985318902966 -0.02797549202663294 0 -0.005130483596629121 -0.027918197403292003 0 -0.0051544697266337168 -0.028003479751890391 0 -0.007958609075428013 -0.027710217938399853 0 -0.0071875250032611103 -0.028544316329727339 0 -0.0081531456622490877 -0.028768530233765025 0 -0.007958609075428013 -0.027710217938399853 0 -0.0086522886285619379 -0.027934955545892887 0 -0.0081531456622490877 -0.028768530233765025 0 -0.0053836855071118959 -0.028055846304971464 0 -0.005326046408568018 -0.028086542690897394 0 -0.0052380985318902966 -0.02797549202663294 0 -0.0053586378771204894 -0.02825499620073206 0 -0.0053836855071118959 -0.028055846304971464 0 -0.005326046408568018 -0.028086542690897394 0 -0.0053586378771204894 -0.02825499620073206 0 -0.005326046408568018 -0.028086542690897394 0 -0.0052835215788155894 -0.028019022195149287 0 -0.005326046408568018 -0.028086542690897394 0 -0.0052380985318902966 -0.02797549202663294 0 -0.0052835215788155894 -0.028019022195149287 0 -0.0042831709621275532 -0.025626368887271257 0 -0.0042483715378064087 -0.024838059062406128 0 -0.0052380985318902966 -0.02797549202663294 0 -0.0051141622429411787 -0.027804803561784344 0 -0.0052835215788155894 -0.028019022195149287 0 -0.0051141622429411787 -0.027804803561784344 0 -0.005130483596629121 -0.027918197403292003 0 -0.0050052387081034487 -0.027876908938139034 0 -0.0052380985318902966 -0.02797549202663294 0 -0.0051141622429411787 -0.027804803561784344 0 -0.005130483596629121 -0.027918197403292003 0 -0.0051544697266337168 -0.028003479751890391 0 -0.0050052387081034487 -0.027876908938139034 0 -0.0050199115404014781 -0.027970721226930444 0 -0.005130483596629121 -0.027918197403292003 0 -0.0051544697266337168 -0.028003479751890391 0 -0.0050052387081034487 -0.027876908938139034 0 -0.0074602723153740311 -0.027855414299390497 0 -0.0045686925141663406 -0.025821891337155629 0 -0.0050052387081034487 -0.027876908938139034 0 -0.0050199115404014781 -0.027970721226930444 0 -0.004926984924289432 -0.027952488356976554 0 -0.0050052387081034487 -0.027876908938139034 0 -0.0048825657121367256 -0.027862110377366286 0 -0.004926984924289432 -0.027952488356976554 0 -0.0042831709621275532 -0.025626368887271257 0 -0.0030061804180078551 -0.020849275521812649 0 -0.0050052387081034487 -0.027876908938139034 0 -0.004866776300168389 -0.027705882975038655 0 -0.0048825657121367256 -0.027862110377366286 0 -0.0051141622429411787 -0.027804803561784344 0 -0.0050052387081034487 -0.027876908938139034 0 -0.004866776300168389 -0.027705882975038655 0 -0.0030061804180078551 -0.020849275521812649 0 -0.0036438781736608445 -0.024176000544133363 0 -0.0007058476577172213 -0.01436655868806936 0 -0.0015425191616478227 -0.01434745928469062 0 -0.0011546654147026594 -0.014096158549404932 0 -0.00071368041472789077 -0.014232309494116767 0 -0.0007058476577172213 -0.01436655868806936 0 -0.0011546654147026594 -0.014096158549404932 0 -0.0014113046542562626 -0.013243973843749562 0 -0.0030061804180078551 -0.020849275521812649 0 -0.001790131920373889 -0.018535712445990633 0 -0.0031502318919468097 -0.018495884422800847 0 -0.002530184846295002 -0.019382658287651525 0 -0.001790131920373889 -0.018535712445990633 0 -0.0017418227691608096 -0.01936340015775611 0 -0.002530184846295002 -0.019382658287651525 0 -0.0017418227691608096 -0.01936340015775611 0 -0.002530184846295002 -0.019382658287651525 0 -0.0019095071403075941 -0.020273255081468048 0 -0.004866776300168389 -0.027705882975038655 0 -0.0047720340684267309 -0.027817207899871799 0 -0.0048825657121367256 -0.027862110377366286 0 -0.0047720340684267309 -0.027817207899871799 0 -0.0048825657121367256 -0.027862110377366286 0 -0.0048189338135805971 -0.02789732043509259 0 -0.0048825657121367256 -0.027862110377366286 0 -0.0048189338135805971 -0.02789732043509259 0 -0.004926984924289432 -0.027952488356976554 0 -0.0015732332013260407 -0.022102728822158413 0 -0.0029930584945072956 -0.024919459266376148 0 -0.0048189338135805971 -0.02789732043509259 0 -0.0047406383607975049 -0.027919456826383252 0 -0.004926984924289432 -0.027952488356976554 0 -0.00074205778560038408 -0.0206742841199773 0 -0.00048476509518444898 -0.020565099508702563 0 -0.0005096102767399662 -0.02072825319693478 0 -0.0047720340684267309 -0.027817207899871799 0 -0.0048189338135805971 -0.02789732043509259 0 -0.0046705335780758833 -0.027874131342275229 0 -0.0048189338135805971 -0.02789732043509259 0 -0.0047406383607975049 -0.027919456826383252 0 -0.0046705335780758833 -0.027874131342275229 0 -0.0036438781736608445 -0.024176000544133363 0 -0.0025989680894593996 -0.022272664749091262 0 -0.0015732332013260407 -0.022102728822158413 0 -0.0025989680894593996 -0.022272664749091262 0 -0.00020535770830562005 -0.020909925275444968 0 -0.00034858137265131436 -0.020970685546456393 0 -0.00033128395292957908 -0.020842022381757253 0 -0.00042923399759117314 -0.020870945193147073 0 -0.00034858137265131436 -0.020970685546456393 0 -0.00033128395292957908 -0.020842022381757253 0 -4.6217909080479556e-05 -0.02088128899104999 0 -0.00033128395292957908 -0.020842022381757253 0 -0.00012278366228905431 -0.020718853374655136 0 -4.6217909080479556e-05 -0.02088128899104999 0 -0.00012278366228905431 -0.020718853374655136 0 5.9276381643197804e-05 -0.02065371742324593 0 -0.0015732332013260407 -0.022102728822158413 0 -0.00025685563892049367 -0.021273731096333567 0 -4.03355327102099e-05 -0.020549268849581304 0 -0.00012278366228905431 -0.020718853374655136 0 -0.00026007125869766936 -0.020662610865795406 0 -4.03355327102099e-05 -0.020549268849581304 0 -0.00012278366228905431 -0.020718853374655136 0 5.9276381643197804e-05 -0.02065371742324593 0 -0.00047901971796546395 -0.020680532184582722 0 -0.00033128395292957908 -0.020842022381757253 0 -0.00026007125869766936 -0.020662610865795406 0 -0.00033128395292957908 -0.020842022381757253 0 -0.00012278366228905431 -0.020718853374655136 0 -0.00026007125869766936 -0.020662610865795406 0 -0.0015732332013260407 -0.022102728822158413 0 0.00017422051917295367 -0.020348517016019845 0 -4.6217909080479556e-05 -0.02088128899104999 0 5.9276381643197804e-05 -0.02065371742324593 0 0.00026044561396454245 -0.020546202590397536 0 0.0001527304829381476 -0.020542308877830723 0 5.9276381643197804e-05 -0.02065371742324593 0 0.00026044561396454245 -0.020546202590397536 0 0.0001527304829381476 -0.020542308877830723 0 -4.03355327102099e-05 -0.020549268849581304 0 5.9276381643197804e-05 -0.02065371742324593 0 -0.00048476509518444898 -0.020565099508702563 0 -0.00038855053356501643 -0.02061221231387312 0 -0.00044689781725429454 -0.020662686622387259 0 -0.00026137092409333205 -0.020647326940037087 0 -0.00048476509518444898 -0.020565099508702563 0 -0.00038855053356501643 -0.02061221231387312 0 -0.00039910530123085842 -0.020719137868173355 0 0.00017422051917295367 -0.020348517016019845 0 -0.00026137092409333205 -0.020647326940037087 0 -0.00042433582511395976 -0.020527685409541085 0 -0.00038855053356501643 -0.02061221231387312 0 -0.00042433582511395976 -0.020527685409541085 0 -0.00038855053356501643 -0.02061221231387312 0 -0.000440649016146911 -0.020722998779243905 0 -0.0048259255468599003 -0.023718200356167615 0 -0.0045686925141663406 -0.025821891337155629 0 -0.0090753967185413179 -0.027213424375936466 0 -0.0093809940632398857 -0.028077608802466136 0 -0.010011960565690668 -0.027795193394106098 0 -0.00038855053356501643 -0.02061221231387312 0 -0.000440649016146911 -0.020722998779243905 0 -0.00044689781725429454 -0.020662686622387259 0 -0.0045686925141663406 -0.025821891337155629 0 -0.0029930584945072956 -0.024919459266376148 0 -0.000440649016146911 -0.020722998779243905 0 -0.0005096102767399662 -0.02072825319693478 0 -0.00044689781725429454 -0.020662686622387259 0 -0.00048476509518444898 -0.020565099508702563 0 -0.0005096102767399662 -0.02072825319693478 0 -0.00044689781725429454 -0.020662686622387259 0 0.0002346691754750667 -0.033709567927343871 0 1.6507007351360246e-07 -0.034997577425042635 0 6.9989934964256696e-07 -0.034997913620453333 0 0.0002346691754750667 -0.033709567927343871 0 0.00012828054558737556 -0.033771714869900375 0 6.9989934964256696e-07 -0.034997913620453333 0 0.0002346691754750667 -0.033709567927343871 0 1.6507007351360246e-07 -0.034997577425042635 0 6.1074591401816138e-07 -0.031526804289207164 0 0.0002346691754750667 -0.033709567927343871 0 6.1074591401816138e-07 -0.031526804289207164 0 1.1736910355115927e-05 -0.032366560847579919 0 0.0002346691754750667 -0.033709567927343871 0 1.1736910355115927e-05 -0.032366560847579919 0 0.00012828054558737556 -0.033771714869900375 0 1.1736910355115927e-05 -0.032366560847579919 0 0.00012828054558737556 -0.033771714869900375 0 -0.00049216520848951323 -0.033497230143936699 0 1.1736910355115927e-05 -0.032366560847579919 0 -0.00074811124167093932 -0.031888151166878972 0 -0.00049216520848951323 -0.033497230143936699 0 -0.0018472385672097847 -0.027715059134325291 0 -0.0011004917220685483 -0.02973225149489795 0 -0.0031698519838187331 -0.024912219694553588 0 -0.0034170790677178209 -0.026015818406823907 0 -0.0017155140015986715 -0.026019589012572505 0 -0.0031698519838187331 -0.024912219694553588 0 -0.0029883842747987087 -0.02348254740138199 0 -0.0017155140015986715 -0.026019589012572505 0 1.1736910355115927e-05 -0.032366560847579919 0 -0.00074811124167093932 -0.031888151166878972 0 -0.00010909976064596893 -0.030669190485239518 0 6.1074591401816138e-07 -0.031526804289207164 0 1.1736910355115927e-05 -0.032366560847579919 0 -0.00010909976064596893 -0.030669190485239518 0 6.1074591401816138e-07 -0.031526804289207164 0 -2.2720241345284553e-07 -0.028899800776904769 0 -0.00010909976064596893 -0.030669190485239518 0 -2.2720241345284553e-07 -0.028899800776904769 0 -0.00010909976064596893 -0.030669190485239518 0 -0.00070334917965822171 -0.02943332428379351 0 -0.00074811124167093932 -0.031888151166878972 0 -0.00010909976064596893 -0.030669190485239518 0 -0.00070334917965822171 -0.02943332428379351 0 -2.2720241345284553e-07 -0.028899800776904769 0 -6.9827289959546194e-07 -0.026914428564712295 0 -0.00070334917965822171 -0.02943332428379351 0 -0.0027231580699616145 -0.02360545424117937 0 -0.0027667243541748816 -0.022769768840455208 0 -0.0035414963497968181 -0.022661689955614173 0 -9.9490434123697967e-07 -0.026037119890490297 0 -6.9827289959546194e-07 -0.026914428564712295 0 -0.00070334917965822171 -0.02943332428379351 0 -0.0015955120675521758 -0.02490986314097151 0 -0.0019576934763055592 -0.026129561959221868 0 -0.0027667243541748816 -0.022769768840455208 0 -0.0035414963497968181 -0.022661689955614173 0 -0.0032914100072130451 -0.022553782135812387 0 -0.0035414963497968181 -0.022661689955614173 0 -0.0032914100072130451 -0.022553782135812387 0 -0.0037638213336360247 -0.023101320460862197 0 -0.0037638213336360247 -0.023101320460862197 0 -0.0036979294773540126 -0.023929193139270697 0 -0.0050121386937555645 -0.023730407983344064 0 -0.0028185660027787028 -0.022113556049806748 0 -0.0032914100072130451 -0.022553782135812387 0 -0.0032255715731998331 -0.021888612267756267 0 -0.0038537295619818198 -0.022959812773015023 0 -0.0038134442084553919 -0.022752036351686187 0 -0.0032914100072130451 -0.022553782135812387 0 -0.0037638213336360247 -0.023101320460862197 0 -0.0032255715731998331 -0.021888612267756267 0 -0.0018472385672097847 -0.027715059134325291 0 -0.0019576934763055592 -0.026129561959221868 0 -0.0029883842747987087 -0.02348254740138199 0 -0.0035414963497968181 -0.022661689955614173 0 -0.0037638213336360247 -0.023101320460862197 0 -0.0029883842747987087 -0.02348254740138199 0 -0.0037638213336360247 -0.023101320460862197 0 -0.0036979294773540126 -0.023929193139270697 0 -0.0031698519838187331 -0.024912219694553588 0 -0.0036979294773540126 -0.023929193139270697 0 -0.0038832578392567836 -0.025162232399499124 0 -0.0031698519838187331 -0.024912219694553588 0 -0.0029883842747987087 -0.02348254740138199 0 -0.0036979294773540126 -0.023929193139270697 0 -0.0031698519838187331 -0.024912219694553588 0 -0.0038832578392567836 -0.025162232399499124 0 -0.0034170790677178209 -0.026015818406823907 0 -0.0038832578392567836 -0.025162232399499124 0 -0.0048118935855366377 -0.025264742679869556 0 -0.0044130651191447217 -0.026038972401615054 0 -0.0036979294773540126 -0.023929193139270697 0 -0.0038832578392567836 -0.025162232399499124 0 -0.0048118935855366377 -0.025264742679869556 0 -0.0042601970443270319 -0.023929652330998565 0 -0.0038134442084553919 -0.022752036351686187 0 -0.0036979294773540126 -0.023929193139270697 0 -0.0048118935855366377 -0.025264742679869556 0 -0.0053741658567568315 -0.024402213524067528 0 -0.0058272522130554238 -0.025574853844961557 0 -0.0048118935855366377 -0.025264742679869556 0 -0.0053040462738113397 -0.026107230587661515 0 -0.0058272522130554238 -0.025574853844961557 0 -0.0048118935855366377 -0.025264742679869556 0 -0.0053741658567568315 -0.024402213524067528 0 -0.0051580754475961683 -0.026938036977382472 0 -0.0053040462738113397 -0.026107230587661515 0 -0.0044130651191447217 -0.026038972401615054 0 -0.0051580754475961683 -0.026938036977382472 0 -0.0044130651191447217 -0.026038972401615054 0 -0.0042068602135684613 -0.027145281238992847 0 -0.0059445028906663826 -0.026673876211026064 0 -0.0051580754475961683 -0.026938036977382472 0 -0.0053040462738113397 -0.026107230587661515 0 -0.0058272522130554238 -0.025574853844961557 0 -0.0059445028906663826 -0.026673876211026064 0 -0.0053040462738113397 -0.026107230587661515 0 -0.0048118935855366377 -0.025264742679869556 0 -0.0053040462738113397 -0.026107230587661515 0 -0.0044130651191447217 -0.026038972401615054 0 -0.0038832578392567836 -0.025162232399499124 0 -0.0044130651191447217 -0.026038972401615054 0 -0.0034170790677178209 -0.026015818406823907 0 -0.0034170790677178209 -0.026015818406823907 0 -0.0042068602135684613 -0.027145281238992847 0 -0.0030984140990242084 -0.027208681728336098 0 -0.0044130651191447217 -0.026038972401615054 0 -0.0034170790677178209 -0.026015818406823907 0 -0.0042068602135684613 -0.027145281238992847 0 -0.0042068602135684613 -0.027145281238992847 0 -0.0039106712706715157 -0.028415317204517176 0 -0.0030984140990242084 -0.027208681728336098 0 -0.0042068602135684613 -0.027145281238992847 0 -0.0039106712706715157 -0.028415317204517176 0 -0.0049392705208512484 -0.027829686711554908 0 -0.0051580754475961683 -0.026938036977382472 0 -0.0042068602135684613 -0.027145281238992847 0 -0.0049392705208512484 -0.027829686711554908 0 -0.0059623329405726526 -0.027675984000592655 0 -0.0051580754475961683 -0.026938036977382472 0 -0.0049392705208512484 -0.027829686711554908 0 -0.0059623329405726526 -0.027675984000592655 0 -0.0049392705208512484 -0.027829686711554908 0 -0.0054270512214854892 -0.02830773394877549 0 -0.0054270512214854892 -0.02830773394877549 0 -0.0047586120210007165 -0.028739489941780702 0 -0.0054235963992433677 -0.028938558096740997 0 -0.0049392705208512484 -0.027829686711554908 0 -0.0054270512214854892 -0.02830773394877549 0 -0.0047586120210007165 -0.028739489941780702 0 -0.0047586120210007165 -0.028739489941780702 0 -0.0054235963992433677 -0.028938558096740997 0 -0.004806207264449359 -0.02945234084871045 0 -0.0047586120210007165 -0.028739489941780702 0 -0.004806207264449359 -0.02945234084871045 0 -0.0040980317703540681 -0.029417208813856774 0 -0.0055790350513538929 -0.029382924011022191 0 -0.0054235963992433677 -0.028938558096740997 0 -0.004806207264449359 -0.02945234084871045 0 -0.0055790350513538929 -0.029382924011022191 0 -0.004806207264449359 -0.02945234084871045 0 -0.0048341857040129594 -0.030272580902317232 0 -0.004806207264449359 -0.02945234084871045 0 -0.0048341857040129594 -0.030272580902317232 0 -0.0039874754339698677 -0.029992520170669359 0 -0.0039874754339698677 -0.029992520170669359 0 -0.0040980317703540681 -0.029417208813856774 0 -0.0030747223815352867 -0.029886280070930013 0 -0.004806207264449359 -0.02945234084871045 0 -0.0039874754339698677 -0.029992520170669359 0 -0.0040980317703540681 -0.029417208813856774 0 -0.0039106712706715157 -0.028415317204517176 0 -0.0040980317703540681 -0.029417208813856774 0 -0.0030747223815352867 -0.029886280070930013 0 -0.0039106712706715157 -0.028415317204517176 0 -0.0049392705208512484 -0.027829686711554908 0 -0.0047586120210007165 -0.028739489941780702 0 -0.0039106712706715157 -0.028415317204517176 0 -0.0047586120210007165 -0.028739489941780702 0 -0.0040980317703540681 -0.029417208813856774 0 -0.0039106712706715157 -0.028415317204517176 0 -0.0030747223815352867 -0.029886280070930013 0 -0.0022702941726195991 -0.02847523328159229 0 -0.0030747223815352867 -0.029886280070930013 0 -0.0022995192840559843 -0.031633032390168798 0 -0.0033023584111464255 -0.033168102406093004 0 -0.0039874754339698677 -0.029992520170669359 0 -0.0030747223815352867 -0.029886280070930013 0 -0.003485849850866936 -0.03034361528901891 0 -0.0032633949323943286 -0.029826177380233139 0 -0.0027468500567123834 -0.032142029386917348 0 -0.0022995192840559843 -0.031633032390168798 0 -0.0014677176627260985 -0.030585832086761338 0 -0.0016057029034845412 -0.032057519952374186 0 -0.0030747223815352867 -0.029886280070930013 0 -0.0022995192840559843 -0.031633032390168798 0 -0.0014677176627260985 -0.030585832086761338 0 -0.0030747223815352867 -0.029886280070930013 0 -0.0022702941726195991 -0.02847523328159229 0 -0.0014677176627260985 -0.030585832086761338 0 -0.0022702941726195991 -0.02847523328159229 0 -0.00074261523657049233 -0.028196469562086171 0 -0.0014677176627260985 -0.030585832086761338 0 -0.0022702941726195991 -0.02847523328159229 0 -0.0017155140015986715 -0.026019589012572505 0 -0.00074261523657049233 -0.028196469562086171 0 -0.0039106712706715157 -0.028415317204517176 0 -0.0022702941726195991 -0.02847523328159229 0 -0.0030984140990242084 -0.027208681728336098 0 -0.0022702941726195991 -0.02847523328159229 0 -0.0030984140990242084 -0.027208681728336098 0 -0.0017155140015986715 -0.026019589012572505 0 -0.0034170790677178209 -0.026015818406823907 0 -0.0030984140990242084 -0.027208681728336098 0 -0.0017155140015986715 -0.026019589012572505 0 -0.0011004917220685483 -0.02973225149489795 0 -0.00046913593080066769 -0.031298903438039198 0 6.9989934964256696e-07 -0.034997913620453333 0 -2.5340658002973448e-07 -0.03500060868051047 0 3.7816156849147858e-05 -0.034919790027227317 0 0.00012828054558737556 -0.033771714869900375 0 -0.00049216520848951323 -0.033497230143936699 0 -0.00016861780831132022 -0.034446963511086205 0 0.00012828054558737556 -0.033771714869900375 0 -0.00016861780831132022 -0.034446963511086205 0 8.6087003908674048e-05 -0.034645170279963909 0 -0.00016861780831132022 -0.034446963511086205 0 -4.6369607762525774e-06 -0.034775840287866205 0 8.6087003908674048e-05 -0.034645170279963909 0 -0.00074261523657049233 -0.028196469562086171 0 -0.0014677176627260985 -0.030585832086761338 0 0.00019476858352630166 -0.030566504961391554 0 -0.0014677176627260985 -0.030585832086761338 0 -0.00063135388267025576 -0.032325087549337314 0 -0.0016057029034845412 -0.032057519952374186 0 -0.0014677176627260985 -0.030585832086761338 0 0.00019476858352630166 -0.030566504961391554 0 -0.00063135388267025576 -0.032325087549337314 0 0.00019476858352630166 -0.030566504961391554 0 0.00058291855892024448 -0.032974839005637614 0 -0.00063135388267025576 -0.032325087549337314 0 -0.00046913593080066769 -0.031298903438039198 0 5.554404039075775e-05 -0.032648183823269949 0 -4.6369607762525774e-06 -0.034775840287866205 0 8.6087003908674048e-05 -0.034645170279963909 0 3.7816156849147858e-05 -0.034919790027227317 0 5.554404039075775e-05 -0.032648183823269949 0 0.00023432303284477373 -0.033887111978259901 0 0.00012828054558737556 -0.033771714869900375 0 6.9989934964256696e-07 -0.034997913620453333 0 8.6087003908674048e-05 -0.034645170279963909 0 6.9989934964256696e-07 -0.034997913620453333 0 8.6087003908674048e-05 -0.034645170279963909 0 3.7816156849147858e-05 -0.034919790027227317 0 -1.8486979166783752e-05 -0.034981320571092427 0 -4.6041843634522853e-07 -0.035000422826478993 0 6.9074705130698561e-06 -0.035009528975556647 0 -1.8486979166783752e-05 -0.034981320571092427 0 -0.00011548651318902375 -0.035053669207804387 0 6.9074705130698561e-06 -0.035009528975556647 0 -1.8486979166783752e-05 -0.034981320571092427 0 -0.00012346859944737372 -0.034932626668109854 0 2.0515115480278466e-05 -0.034817042175716045 0 -1.8486979166783752e-05 -0.034981320571092427 0 -4.6041843634522853e-07 -0.035000422826478993 0 2.0515115480278466e-05 -0.034817042175716045 0 -1.8486979166783752e-05 -0.034981320571092427 0 -0.00011548651318902375 -0.035053669207804387 0 -0.00012346859944737372 -0.034932626668109854 0 -0.00011548651318902375 -0.035053669207804387 0 -0.00012346859944737372 -0.034932626668109854 0 -0.00029930998565898883 -0.035068656590092222 0 -0.00012346859944737372 -0.034932626668109854 0 2.0515115480278466e-05 -0.034817042175716045 0 -1.8579974335007046e-06 -0.034458211017250502 0 -0.00012346859944737372 -0.034932626668109854 0 -1.8579974335007046e-06 -0.034458211017250502 0 -0.00047819740976680645 -0.034886243728187584 0 2.0515115480278466e-05 -0.034817042175716045 0 1.9587486520041338e-06 -0.034997349789832322 0 -1.8579974335007046e-06 -0.034458211017250502 0 -4.6041843634522853e-07 -0.035000422826478993 0 2.0515115480278466e-05 -0.034817042175716045 0 1.9587486520041338e-06 -0.034997349789832322 0 1.9587486520041338e-06 -0.034997349789832322 0 0.00058291855892024448 -0.032974839005637614 0 -1.8579974335007046e-06 -0.034458211017250502 0 1.8644295097649273e-08 -0.034999498208199031 0 0.00023432303284477373 -0.033887111978259901 0 0.00058291855892024448 -0.032974839005637614 0 -1.8579974335007046e-06 -0.034458211017250502 0 -0.00052756082945382458 -0.033683497536725227 0 -1.8579974335007046e-06 -0.034458211017250502 0 -0.00052756082945382458 -0.033683497536725227 0 -0.00076945966626593555 -0.034329441410989703 0 0.00058291855892024448 -0.032974839005637614 0 -0.00052756082945382458 -0.033683497536725227 0 -0.00063135388267025576 -0.032325087549337314 0 -0.00063135388267025576 -0.032325087549337314 0 -0.0016057029034845412 -0.032057519952374186 0 -0.0014099978699906835 -0.033128989177606635 0 -0.00052756082945382458 -0.033683497536725227 0 -0.00063135388267025576 -0.032325087549337314 0 -0.0014099978699906835 -0.033128989177606635 0 -0.00052756082945382458 -0.033683497536725227 0 -0.0013875014662818527 -0.034014517005898803 0 -0.00076945966626593555 -0.034329441410989703 0 -0.0014099978699906835 -0.033128989177606635 0 -0.0013875014662818527 -0.034014517005898803 0 -0.0021320546492043478 -0.033668890840962536 0 -0.00052756082945382458 -0.033683497536725227 0 -0.0014099978699906835 -0.033128989177606635 0 -0.0013875014662818527 -0.034014517005898803 0 -0.0013875014662818527 -0.034014517005898803 0 -0.0012044901513492922 -0.034765921989703269 0 -0.001831097216641931 -0.034504888638605694 0 -0.0012044901513492922 -0.034765921989703269 0 -0.0017908959849278208 -0.035283307108258888 0 -0.001831097216641931 -0.034504888638605694 0 -0.0013875014662818527 -0.034014517005898803 0 -0.0012044901513492922 -0.034765921989703269 0 -0.00076945966626593555 -0.034329441410989703 0 -1.8579974335007046e-06 -0.034458211017250502 0 -0.00076945966626593555 -0.034329441410989703 0 -0.00047819740976680645 -0.034886243728187584 0 -0.0012044901513492922 -0.034765921989703269 0 -0.00076945966626593555 -0.034329441410989703 0 -0.00047819740976680645 -0.034886243728187584 0 -0.00012346859944737372 -0.034932626668109854 0 -0.00047819740976680645 -0.034886243728187584 0 -0.00029930998565898883 -0.035068656590092222 0 -0.00047819740976680645 -0.034886243728187584 0 -0.00029930998565898883 -0.035068656590092222 0 -0.00054489878823654476 -0.035095736573966717 0 -0.00077340134928363495 -0.035408713545238918 0 -3.4879963176102317e-06 -0.034152243806800486 0 -0.0012044901513492922 -0.034765921989703269 0 -0.0017908959849278208 -0.035283307108258888 0 -0.00098202311096510131 -0.035799681076274757 0 -0.0012044901513492922 -0.034765921989703269 0 -0.00047819740976680645 -0.034886243728187584 0 -0.00098202311096510131 -0.035799681076274757 0 0.0013513737163178081 -0.031858821806394044 0 0.0013766043292581403 -0.032169603763213012 0 0.001698490839715306 -0.032111370905895949 0 -0.00023419016442252123 -0.033571410248733148 0 -3.4879963176102317e-06 -0.034152243806800486 0 0.0013513737163178081 -0.031858821806394044 0 0.0010407886034985488 -0.032001721631611704 0 0.0010194576248199461 -0.0316368425959659 0 -0.00023419016442252123 -0.033571410248733148 0 -0.00025484598081289246 -0.032733739335863557 0 0.0013513737163178081 -0.031858821806394044 0 0.0010407886034985488 -0.032001721631611704 0 0.0013766043292581403 -0.032169603763213012 0 0.0010527331676425376 -0.031572729473902619 0 -0.00025484598081289246 -0.032733739335863557 0 0.00068262210484359997 -0.031892764974418265 0 0.0010251289444165779 -0.031500373119901004 0 0.00053680993107966103 -0.031541885575416179 0 0.0010407886034985488 -0.032001721631611704 0 0.00068262210484359997 -0.031892764974418265 0 0.0010251289444165779 -0.031500373119901004 0 0.0010251289444165779 -0.031500373119901004 0 0.00039393819993756204 -0.031033309269964789 0 0.00053680993107966103 -0.031541885575416179 0 -0.00025484598081289246 -0.032733739335863557 0 -0.001659300856364255 -0.030410670314993581 0 -0.002684465243345703 -0.034732236062624058 0 -0.001831097216641931 -0.034504888638605694 0 -0.0021320546492043478 -0.033668890840962536 0 -0.0017908959849278208 -0.035283307108258888 0 -0.002684465243345703 -0.034732236062624058 0 -0.001831097216641931 -0.034504888638605694 0 -0.0013875014662818527 -0.034014517005898803 0 -0.001831097216641931 -0.034504888638605694 0 -0.0021320546492043478 -0.033668890840962536 0 -0.002684465243345703 -0.034732236062624058 0 -0.0021320546492043478 -0.033668890840962536 0 -0.0028731670447674673 -0.033001483616222543 0 -0.0021320546492043478 -0.033668890840962536 0 -0.002352986942846001 -0.032671421536312133 0 -0.0028731670447674673 -0.033001483616222543 0 -0.0014099978699906835 -0.033128989177606635 0 -0.0021320546492043478 -0.033668890840962536 0 -0.002352986942846001 -0.032671421536312133 0 -0.0016057029034845412 -0.032057519952374186 0 -0.0014099978699906835 -0.033128989177606635 0 -0.002352986942846001 -0.032671421536312133 0 -0.0027291671160829781 -0.032577678032051555 0 -0.0027468500567123834 -0.032142029386917348 0 -0.0022995192840559843 -0.031633032390168798 0 -0.002352986942846001 -0.032671421536312133 0 -0.0033023584111464255 -0.033168102406093004 0 -0.0022995192840559843 -0.031633032390168798 0 -0.0016057029034845412 -0.032057519952374186 0 -0.002352986942846001 -0.032671421536312133 0 -0.0032497369722076699 -0.03045118345317218 0 -0.003485849850866936 -0.03034361528901891 0 -0.0036722758822657123 -0.030385662614886743 0 -0.0030747223815352867 -0.029886280070930013 0 -0.0032497369722076699 -0.03045118345317218 0 -0.003485849850866936 -0.03034361528901891 0 -0.0013581961610924405 -0.032161624524504828 0 -0.0013946834065185498 -0.031583683962332999 0 -0.001842104475459949 -0.031813015007457313 0 -0.00025484598081289246 -0.032733739335863557 0 -0.0027468500567123834 -0.032142029386917348 0 -0.0027468500567123834 -0.032142029386917348 0 -0.001659300856364255 -0.030410670314993581 0 -0.0032497369722076699 -0.03045118345317218 0 -0.0037985358935739995 -0.030671655934503682 0 -0.0036722758822657123 -0.030385662614886743 0 -0.001659300856364255 -0.030410670314993581 0 -0.0037566299232349117 -0.027161810800238478 0 -0.0037985358935739995 -0.030671655934503682 0 -0.0036722758822657123 -0.030385662614886743 0 -0.0041250753514336103 -0.030494157749118622 0 -0.0042077830530594749 -0.029386317446002196 0 -0.003485849850866936 -0.03034361528901891 0 -0.0039359794123095138 -0.029901584416596415 0 -0.0048341857040129594 -0.030272580902317232 0 -0.0039874754339698677 -0.029992520170669359 0 -0.003485849850866936 -0.03034361528901891 0 -0.003485849850866936 -0.03034361528901891 0 -0.0036722758822657123 -0.030385662614886743 0 -0.0039359794123095138 -0.029901584416596415 0 -0.0045498477512553193 -0.02981305767965263 0 -0.0035908312838882537 -0.030282865011643428 0 -0.0043860635677787302 -0.03067134110768711 0 -0.0037566299232349117 -0.027161810800238478 0 -0.0036722758822657123 -0.030385662614886743 0 -0.0039359794123095138 -0.029901584416596415 0 -0.0041250753514336103 -0.030494157749118622 0 -0.0042077830530594749 -0.029386317446002196 0 -0.0045732325962566239 -0.029406081120288051 0 -0.0042004817574421791 -0.02989482475114753 0 -0.0042077830530594749 -0.029386317446002196 0 -0.0039359794123095138 -0.029901584416596415 0 -0.0042004817574421791 -0.02989482475114753 0 -0.0042004817574421791 -0.02989482475114753 0 -0.0045705408756468932 -0.029834166054276145 0 -0.0040982331725892803 -0.030165388864425543 0 -0.0039359794123095138 -0.029901584416596415 0 -0.0042004817574421791 -0.02989482475114753 0 -0.0040982331725892803 -0.030165388864425543 0 -0.0044373687508272317 -0.025985255904293836 0 -0.0037566299232349117 -0.027161810800238478 0 -0.0045732325962566239 -0.029406081120288051 0 -0.0042004817574421791 -0.02989482475114753 0 -0.0045705408756468932 -0.029834166054276145 0 -0.0039123345865501435 -0.022266541650409255 0 -0.003971963125657365 -0.022074157025739498 0 -0.0041360323588177173 -0.022134177321730703 0 -0.003971963125657365 -0.022074157025739498 0 -0.0041360323588177173 -0.022134177321730703 0 -0.0040369872427932973 -0.021875544445134048 0 -0.0027683859387489457 -0.028206486497166391 0 -0.002329659886903456 -0.02851311988141832 0 -0.0020298917895838447 -0.027806981898898412 0 -0.0037566299232349117 -0.027161810800238478 0 -0.0017751903440553075 -0.026691741158692169 0 -0.001659300856364255 -0.030410670314993581 0 -0.0017751903440553075 -0.026691741158692169 0 -0.003971963125657365 -0.022074157025739498 0 -0.0040369872427932973 -0.021875544445134048 0 -0.00380388280247495 -0.022019412007108739 0 1.9352310810404507e-05 -0.031228512233273099 0 0.0002402860994088786 -0.031492235419088056 0 -0.00022393812447549672 -0.031897362869535081 0 -0.0017751903440553075 -0.026691741158692169 0 -0.00096992259171723393 -0.030017772865489116 0 0.00039393819993756204 -0.031033309269964789 0 1.9352310810404507e-05 -0.031228512233273099 0 0.0002402860994088786 -0.031492235419088056 0 0.00039393819993756204 -0.031033309269964789 0 0.0002402860994088786 -0.031492235419088056 0 0.00053680993107966103 -0.031541885575416179 0 0.00068262210484359997 -0.031892764974418265 0 0.00034859401375772578 -0.031788499382558399 0 0.0002721246793491061 -0.032183288123300846 0 0.0002402860994088786 -0.031492235419088056 0 0.00053680993107966103 -0.031541885575416179 0 0.00034859401375772578 -0.031788499382558399 0 0.00068262210484359997 -0.031892764974418265 0 0.00053680993107966103 -0.031541885575416179 0 0.00034859401375772578 -0.031788499382558399 0 0.0002402860994088786 -0.031492235419088056 0 0.00034859401375772578 -0.031788499382558399 0 -0.00022393812447549672 -0.031897362869535081 0 0.00034859401375772578 -0.031788499382558399 0 0.0002721246793491061 -0.032183288123300846 0 -0.00022393812447549672 -0.031897362869535081 0 0.0002721246793491061 -0.032183288123300846 0 -3.5822196443376936e-05 -0.032443529054575822 0 -0.00022393812447549672 -0.031897362869535081 0 0.0002721246793491061 -0.032183288123300846 0 0.00025041570210552913 -0.032480135587116696 0 -3.5822196443376936e-05 -0.032443529054575822 0 0.0002721246793491061 -0.032183288123300846 0 0.00044836566789477133 -0.032415345004878041 0 0.00067051875608132054 -0.032238294724620892 0 0.00068262210484359997 -0.031892764974418265 0 0.0002721246793491061 -0.032183288123300846 0 0.00067051875608132054 -0.032238294724620892 0 0.00044836566789477133 -0.032415345004878041 0 0.00067195150910416166 -0.032516334286106188 0 0.00067051875608132054 -0.032238294724620892 0 0.0002721246793491061 -0.032183288123300846 0 0.00044836566789477133 -0.032415345004878041 0 0.00025041570210552913 -0.032480135587116696 0 0.00044836566789477133 -0.032415345004878041 0 0.00042063179361460261 -0.032633259877368134 0 0.00025041570210552913 -0.032480135587116696 0 0.00044836566789477133 -0.032415345004878041 0 0.00042063179361460261 -0.032633259877368134 0 0.00067195150910416166 -0.032516334286106188 0 0.00042063179361460261 -0.032633259877368134 0 0.00067873042085920632 -0.032838254435335709 0 0.00067195150910416166 -0.032516334286106188 0 0.00042063179361460261 -0.032633259877368134 0 0.00037256254190063363 -0.032970552603896155 0 0.00067873042085920632 -0.032838254435335709 0 0.00042063179361460261 -0.032633259877368134 0 0.00014660966054738658 -0.032724262886245359 0 0.00037256254190063363 -0.032970552603896155 0 0.00042063179361460261 -0.032633259877368134 0 0.00014660966054738658 -0.032724262886245359 0 0.00025041570210552913 -0.032480135587116696 0 0.00014660966054738658 -0.032724262886245359 0 0.00025041570210552913 -0.032480135587116696 0 -3.5822196443376936e-05 -0.032443529054575822 0 0.00014660966054738658 -0.032724262886245359 0 -3.5822196443376936e-05 -0.032443529054575822 0 -0.00013578763156715012 -0.032786679431232028 0 0.00014660966054738658 -0.032724262886245359 0 8.4452349179535693e-05 -0.032997606456787093 0 -0.00013578763156715012 -0.032786679431232028 0 8.4452349179535693e-05 -0.032997606456787093 0 -0.00013578763156715012 -0.032786679431232028 0 -0.00015877877722469662 -0.033088783204041392 0 0.00014660966054738658 -0.032724262886245359 0 8.4452349179535693e-05 -0.032997606456787093 0 0.00037256254190063363 -0.032970552603896155 0 8.4452349179535693e-05 -0.032997606456787093 0 0.0002107803729474673 -0.033240658446227193 0 0.00037256254190063363 -0.032970552603896155 0 8.4452349179535693e-05 -0.032997606456787093 0 2.8300227752745716e-05 -0.033358043897980375 0 0.0002107803729474673 -0.033240658446227193 0 8.4452349179535693e-05 -0.032997606456787093 0 2.8300227752745716e-05 -0.033358043897980375 0 -0.00015877877722469662 -0.033088783204041392 0 2.8300227752745716e-05 -0.033358043897980375 0 0.0002107803729474673 -0.033240658446227193 0 0.00033965249135694089 -0.033470068319590762 0 2.8300227752745716e-05 -0.033358043897980375 0 0.00033965249135694089 -0.033470068319590762 0 0.00022012576959662568 -0.03363630561602575 0 0.00033965249135694089 -0.033470068319590762 0 0.00058597138225859665 -0.033444084143612843 0 0.00056519210020346538 -0.033685935064875092 0 0.00033965249135694089 -0.033470068319590762 0 0.00058597138225859665 -0.033444084143612843 0 0.00042248339378374571 -0.033255307639064112 0 0.0002107803729474673 -0.033240658446227193 0 0.00033965249135694089 -0.033470068319590762 0 0.00042248339378374571 -0.033255307639064112 0 0.00063949145395282667 -0.033111389984020245 0 0.00042248339378374571 -0.033255307639064112 0 0.00037256254190063363 -0.032970552603896155 0 0.00058597138225859665 -0.033444084143612843 0 0.00063949145395282667 -0.033111389984020245 0 0.00042248339378374571 -0.033255307639064112 0 0.0002107803729474673 -0.033240658446227193 0 0.00042248339378374571 -0.033255307639064112 0 0.00037256254190063363 -0.032970552603896155 0 0.00063949145395282667 -0.033111389984020245 0 0.00037256254190063363 -0.032970552603896155 0 0.00067873042085920632 -0.032838254435335709 0 0.00081419462680311914 -0.03303437019298635 0 0.00093741138216136373 -0.032890565711898218 0 0.00067873042085920632 -0.032838254435335709 0 0.00063949145395282667 -0.033111389984020245 0 0.00081419462680311914 -0.03303437019298635 0 0.00067873042085920632 -0.032838254435335709 0 0.00093741138216136373 -0.032890565711898218 0 0.0010755043988243339 -0.032941162485518725 0 0.0010475391265162316 -0.032781791058277623 0 0.00081419462680311914 -0.03303437019298635 0 0.00093741138216136373 -0.032890565711898218 0 0.00098764511019134248 -0.033069287664517971 0 0.00093741138216136373 -0.032890565711898218 0 0.00098764511019134248 -0.033069287664517971 0 0.0010755043988243339 -0.032941162485518725 0 0.00083799944887704043 -0.033271048016321053 0 0.00098764511019134248 -0.033069287664517971 0 0.0012013781781127252 -0.033123009214670186 0 0.00081419462680311914 -0.03303437019298635 0 0.00083799944887704043 -0.033271048016321053 0 0.00098764511019134248 -0.033069287664517971 0 0.00058597138225859665 -0.033444084143612843 0 0.00063949145395282667 -0.033111389984020245 0 0.00083799944887704043 -0.033271048016321053 0 0.00063949145395282667 -0.033111389984020245 0 0.00081419462680311914 -0.03303437019298635 0 0.00083799944887704043 -0.033271048016321053 0 0.00083799944887704043 -0.033271048016321053 0 0.0012013781781127252 -0.033123009214670186 0 0.00074601736720929376 -0.033812578381505143 0 0.00058597138225859665 -0.033444084143612843 0 0.00083799944887704043 -0.033271048016321053 0 0.00074601736720929376 -0.033812578381505143 0 0.0007459552050707969 -0.033774332364641266 0 0.00079225553416342861 -0.033848088238529937 0 0.00058597138225859665 -0.033444084143612843 0 0.00074601736720929376 -0.033812578381505143 0 0.00056519210020346538 -0.033685935064875092 0 0.00053692929671477017 -0.034229369755280722 0 0.00056630995406957104 -0.034564119865793629 0 0.00074601736720929376 -0.033812578381505143 0 0.00047737632287983263 -0.033980324419990861 0 0.0003941092840279456 -0.034355105806314158 0 0.00024267432013567487 -0.034210156143166214 0 0.00047737632287983263 -0.033980324419990861 0 0.00024267432013567487 -0.034210156143166214 0 0.00021712599146233745 -0.03389961703624858 0 0.00047737632287983263 -0.033980324419990861 0 0.00053692929671477017 -0.034229369755280722 0 0.00074601736720929376 -0.033812578381505143 0 0.00047737632287983263 -0.033980324419990861 0 0.00053692929671477017 -0.034229369755280722 0 0.0003941092840279456 -0.034355105806314158 0 0.00053692929671477017 -0.034229369755280722 0 0.0003941092840279456 -0.034355105806314158 0 0.00048680007945328246 -0.034458612768796276 0 0.0003941092840279456 -0.034355105806314158 0 0.00029220896375445777 -0.034461160904883006 0 0.00024267432013567487 -0.034210156143166214 0 0.0007459552050707969 -0.033774332364641266 0 0.0012233721001723057 -0.032984238585800747 0 0.0003941092840279456 -0.034355105806314158 0 0.00029220896375445777 -0.034461160904883006 0 0.00040664654033505836 -0.034512803223370594 0 0.00047283613073199595 -0.034552642891064522 0 0.00056630995406957104 -0.034564119865793629 0 0.00034497782073456305 -0.034636092052810756 0 0.00056630995406957104 -0.034564119865793629 0 0.00034497782073456305 -0.034636092052810756 0 -1.1175694435566985e-05 -0.034881472402271935 0 0.0003941092840279456 -0.034355105806314158 0 0.00040664654033505836 -0.034512803223370594 0 0.00048680007945328246 -0.034458612768796276 0 0.00040664654033505836 -0.034512803223370594 0 0.00047283613073199595 -0.034552642891064522 0 0.00048680007945328246 -0.034458612768796276 0 0.00040664654033505836 -0.034512803223370594 0 0.00047283613073199595 -0.034552642891064522 0 0.00034497782073456305 -0.034636092052810756 0 0.00029220896375445777 -0.034461160904883006 0 0.00034497782073456305 -0.034636092052810756 0 0.00023369539778412581 -0.034557144658556915 0 0.00029220896375445777 -0.034461160904883006 0 0.00040664654033505836 -0.034512803223370594 0 0.00034497782073456305 -0.034636092052810756 0 0.00053692929671477017 -0.034229369755280722 0 0.00048680007945328246 -0.034458612768796276 0 0.00056630995406957104 -0.034564119865793629 0 0.00047283613073199595 -0.034552642891064522 0 0.00048680007945328246 -0.034458612768796276 0 0.00052518048197631334 -0.034532920167816956 0 0.00047283613073199595 -0.034552642891064522 0 0.00052518048197631334 -0.034532920167816956 0 0.00056630995406957104 -0.034564119865793629 0 0.00048680007945328246 -0.034458612768796276 0 0.00052518048197631334 -0.034532920167816956 0 0.00056630995406957104 -0.034564119865793629 0 0.0012013781781127252 -0.033123009214670186 0 0.0010755043988243339 -0.032941162485518725 0 0.0012028494937227276 -0.032811587784087139 0 0.00098764511019134248 -0.033069287664517971 0 0.0012013781781127252 -0.033123009214670186 0 0.0010755043988243339 -0.032941162485518725 0 0.0010755043988243339 -0.032941162485518725 0 0.0012028494937227276 -0.032811587784087139 0 0.0010475391265162316 -0.032781791058277623 0 0.0011582391397482242 -0.032588247409799362 0 0.0012028494937227276 -0.032811587784087139 0 0.0014452716898398492 -0.032590483170327228 0 0.0012013781781127252 -0.033123009214670186 0 0.0012028494937227276 -0.032811587784087139 0 0.0014452716898398492 -0.032590483170327228 0 0.0011582391397482242 -0.032588247409799362 0 0.0011961584557879106 -0.032340969580600093 0 0.0014452716898398492 -0.032590483170327228 0 0.0011582391397482242 -0.032588247409799362 0 0.0012028494937227276 -0.032811587784087139 0 0.0010475391265162316 -0.032781791058277623 0 0.00093741138216136373 -0.032890565711898218 0 0.0010475391265162316 -0.032781791058277623 0 0.00090093522666350367 -0.032662512751101963 0 0.0011582391397482242 -0.032588247409799362 0 0.0010475391265162316 -0.032781791058277623 0 0.00090093522666350367 -0.032662512751101963 0 0.00090093522666350367 -0.032662512751101963 0 0.00067873042085920632 -0.032838254435335709 0 0.00067195150910416166 -0.032516334286106188 0 0.00093741138216136373 -0.032890565711898218 0 0.00090093522666350367 -0.032662512751101963 0 0.00067873042085920632 -0.032838254435335709 0 0.00090093522666350367 -0.032662512751101963 0 0.00067195150910416166 -0.032516334286106188 0 0.00093516903955816709 -0.03238352606139408 0 0.0011582391397482242 -0.032588247409799362 0 0.00090093522666350367 -0.032662512751101963 0 0.00093516903955816709 -0.03238352606139408 0 0.00067195150910416166 -0.032516334286106188 0 0.00093516903955816709 -0.03238352606139408 0 0.00067051875608132054 -0.032238294724620892 0 0.0010407886034985488 -0.032001721631611704 0 0.00068262210484359997 -0.031892764974418265 0 0.00067051875608132054 -0.032238294724620892 0 0.0010407886034985488 -0.032001721631611704 0 0.00093516903955816709 -0.03238352606139408 0 0.00067051875608132054 -0.032238294724620892 0 0.0010407886034985488 -0.032001721631611704 0 0.00093516903955816709 -0.03238352606139408 0 0.0011961584557879106 -0.032340969580600093 0 0.0013766043292581403 -0.032169603763213012 0 0.0011961584557879106 -0.032340969580600093 0 0.0014452716898398492 -0.032590483170327228 0 0.0010407886034985488 -0.032001721631611704 0 0.0013766043292581403 -0.032169603763213012 0 0.0011961584557879106 -0.032340969580600093 0 0.0011582391397482242 -0.032588247409799362 0 0.00093516903955816709 -0.03238352606139408 0 0.0011961584557879106 -0.032340969580600093 0 0.0013766043292581403 -0.032169603763213012 0 0.001698490839715306 -0.032111370905895949 0 0.0014452716898398492 -0.032590483170327228 0 -3.4879963176102317e-06 -0.034152243806800486 0 0.0012233721001723057 -0.032984238585800747 0 0.00032101266449837676 -0.034364651997962702 0 0.00035712034365885988 -0.034058738848317741 0 0.00056353233465134575 -0.033960358484529954 0 0.00032101266449837676 -0.034364651997962702 0 0.00020027625802089525 -0.034089398334891663 0 0.00035712034365885988 -0.034058738848317741 0 0.00032101266449837676 -0.034364651997962702 0 0.00020027625802089525 -0.034089398334891663 0 -0.00010294509116108947 -0.034071329695824278 0 -0.00029930998565898883 -0.035068656590092222 0 -0.00054489878823654476 -0.035095736573966717 0 -0.00022446266770207091 -0.035265352497697938 0 -3.4879963176102317e-06 -0.034152243806800486 0 -7.7350435261582524e-05 -0.034779223700784047 0 -1.1175694435566985e-05 -0.034881472402271935 0 -3.3731445669021814e-05 -0.034860196667487763 0 -3.3555344566375703e-05 -0.034885680533661603 0 0.00016331516512444253 -0.034348071711397386 0 -7.7350435261582524e-05 -0.034779223700784047 0 -3.3731445669021814e-05 -0.034860196667487763 0 -2.9296544478767091e-05 -0.034882970524505889 0 -3.3555344566375703e-05 -0.034885680533661603 0 0.00020027625802089525 -0.034089398334891663 0 0.00034345724700474123 -0.033819961199784587 0 -0.00010294509116108947 -0.034071329695824278 0 0.00079218490741083129 -0.033574423986148468 0 0.00034345724700474123 -0.033819961199784587 0 0.00056353233465134575 -0.033960358484529954 0 0.00020027625802089525 -0.034089398334891663 0 0.00034345724700474123 -0.033819961199784587 0 0.00035712034365885988 -0.034058738848317741 0 0.00034345724700474123 -0.033819961199784587 0 0.00035712034365885988 -0.034058738848317741 0 0.00056353233465134575 -0.033960358484529954 0 0.00034497782073456305 -0.034636092052810756 0 -1.1175694435566985e-05 -0.034881472402271935 0 0.00012327721055321801 -0.034737693871040962 0 0.0007459552050707969 -0.033774332364641266 0 0.00016331516512444253 -0.034348071711397386 0 0.00034497782073456305 -0.034636092052810756 0 0.00016741915613422957 -0.034677579459440902 0 0.00012327721055321801 -0.034737693871040962 0 0.00016741915613422957 -0.034677579459440902 0 0.00012327721055321801 -0.034737693871040962 0 -1.2759602157218511e-05 -0.034761268388024152 0 -1.1175694435566985e-05 -0.034881472402271935 0 0.00012327721055321801 -0.034737693871040962 0 -1.2759602157218511e-05 -0.034761268388024152 0 -1.1175694435566985e-05 -0.034881472402271935 0 -1.2759602157218511e-05 -0.034761268388024152 0 -3.3731445669021814e-05 -0.034860196667487763 0 0.00016741915613422957 -0.034677579459440902 0 -1.2759602157218511e-05 -0.034761268388024152 0 0.00013746210901362504 -0.0344591866182474 0 0.00016741915613422957 -0.034677579459440902 0 0.00023369539778412581 -0.034557144658556915 0 0.00013746210901362504 -0.0344591866182474 0 0.00034497782073456305 -0.034636092052810756 0 0.00016741915613422957 -0.034677579459440902 0 0.00023369539778412581 -0.034557144658556915 0 0.00029220896375445777 -0.034461160904883006 0 0.00023369539778412581 -0.034557144658556915 0 0.00013746210901362504 -0.0344591866182474 0 0.00029220896375445777 -0.034461160904883006 0 0.00013746210901362504 -0.0344591866182474 0 0.00024267432013567487 -0.034210156143166214 0 0.00013746210901362504 -0.0344591866182474 0 0.00024267432013567487 -0.034210156143166214 0 -0.00010551170326070461 -0.033963233655793977 0 -1.2759602157218511e-05 -0.034761268388024152 0 0.00013746210901362504 -0.0344591866182474 0 -0.00010551170326070461 -0.033963233655793977 0 3.8935988208381381e-06 -0.0347912942384829 0 -0.00011036191995438683 -0.034395675234825805 0 -1.2759602157218511e-05 -0.034761268388024152 0 -2.4226846858337811e-05 -0.034875853434422913 0 -5.1493372804883443e-05 -0.034957070169778344 0 -2.4226846858337811e-05 -0.034875853434422913 0 -4.9448808477719481e-06 -0.034949380149353525 0 -5.1493372804883443e-05 -0.034957070169778344 0 -1.2759602157218511e-05 -0.034761268388024152 0 -2.4226846858337811e-05 -0.034875853434422913 0 -3.3731445669021814e-05 -0.034860196667487763 0 -2.4226846858337811e-05 -0.034875853434422913 0 -3.3731445669021814e-05 -0.034860196667487763 0 -2.9296544478767091e-05 -0.034882970524505889 0 -2.4226846858337811e-05 -0.034875853434422913 0 -2.9296544478767091e-05 -0.034882970524505889 0 -1.7013118467794502e-05 -0.034919818751549717 0 -2.4226846858337811e-05 -0.034875853434422913 0 -1.7013118467794502e-05 -0.034919818751549717 0 -4.9448808477719481e-06 -0.034949380149353525 0 -2.9296544478767091e-05 -0.034882970524505889 0 -1.7013118467794502e-05 -0.034919818751549717 0 -1.360875687635713e-05 -0.034910466010777956 0 -4.9448808477719481e-06 -0.034949380149353525 0 2.6044865444934578e-08 -0.034999793308796476 0 8.5572020896136816e-10 -0.034999980557912057 0 -4.9448808477719481e-06 -0.034949380149353525 0 8.5572020896136816e-10 -0.034999980557912057 0 -9.2681079303867874e-06 -0.034977901856008999 0 -1.7013118467794502e-05 -0.034919818751549717 0 2.6044865444934578e-08 -0.034999793308796476 0 -1.360875687635713e-05 -0.034910466010777956 0 -1.7013118467794502e-05 -0.034919818751549717 0 -4.9448808477719481e-06 -0.034949380149353525 0 2.6044865444934578e-08 -0.034999793308796476 0 -2.4067755675453122e-08 -0.034999958433353198 0 1.055194455369951e-05 -0.034970948986286596 0 3.7220585669946557e-06 -0.034997647313417125 0 9.8794217979865799e-06 -0.034998538064210799 0 1.5840571304397031e-07 -0.034999934158445399 0 -7.5987450414240916e-08 -0.035000026280379903 0 3.7220585669946557e-06 -0.034997647313417125 0 1.5840571304397031e-07 -0.034999934158445399 0 -2.9296544478767091e-05 -0.034882970524505889 0 -1.360875687635713e-05 -0.034910466010777956 0 -3.3555344566375703e-05 -0.034885680533661603 0 1.055194455369951e-05 -0.034970948986286596 0 -7.7350435261582524e-05 -0.034779223700784047 0 -0.00011548651318902375 -0.035053669207804387 0 -0.00029930998565898883 -0.035068656590092222 0 -0.00022446266770207091 -0.035265352497697938 0 -0.00011548651318902375 -0.035053669207804387 0 -0.00022446266770207091 -0.035265352497697938 0 6.9074705130698561e-06 -0.035009528975556647 0 -7.7350435261582524e-05 -0.034779223700784047 0 -3.7779692555184342e-05 -0.035135524766669896 0 -4.6041843634522853e-07 -0.035000422826478993 0 1.5840571304397031e-07 -0.034999934158445399 0 6.9074705130698561e-06 -0.035009528975556647 0 9.8794217979865799e-06 -0.034998538064210799 0 1.5840571304397031e-07 -0.034999934158445399 0 6.9074705130698561e-06 -0.035009528975556647 0 0.00079589579775937442 -0.0064737326584813001 0 0.00088930210513963421 -0.0064956485950933979 0 0.00087790196229587368 -0.0064059078981379379 0 0.00079589579775937442 -0.0064737326584813001 0 0.00088930210513963421 -0.0064956485950933979 0 0.00078732674085886306 -0.0065111333545546744 0 0.00079589579775937442 -0.0064737326584813001 0 0.00078732674085886306 -0.0065111333545546744 0 0.00075538155437040219 -0.0065050873355339362 0 -0.0017075809825871965 -0.015664947747867679 0 -0.0018729397959103688 -0.018576107004369742 0 -0.00022320220019395187 -0.0097868655235331063 0 -0.0017075809825871965 -0.015664947747867679 0 0.0010908363330662373 -0.0065206395494418644 0 0.00088930210513963421 -0.0064956485950933979 0 0.00087790196229587368 -0.0064059078981379379 0 -0.001153047486407743 -0.01506508219958335 0 -0.0013992138083853474 -0.014756615689797126 0 -0.0010670958771348651 -0.015028207310926113 0 0.0010908363330662373 -0.0065206395494418644 0 0.00088930210513963421 -0.0064956485950933979 0 0.00096251993171283243 -0.0066391876897893805 0 0.00096251993171283243 -0.0066391876897893805 0 0.00073975198130108442 -0.0065132054815891889 0 0.00080946281014654333 -0.0069152057401986522 0 0.00088930210513963421 -0.0064956485950933979 0 0.00096251993171283243 -0.0066391876897893805 0 0.00078732674085886306 -0.0065111333545546744 0 0.00096251993171283243 -0.0066391876897893805 0 0.00078732674085886306 -0.0065111333545546744 0 0.00073975198130108442 -0.0065132054815891889 0 0.00075324925442017492 -0.0064495781095630931 0 0.00040948593519722344 -0.0058924468205875085 0 0.00078732674085886306 -0.0065111333545546744 0 0.00073975198130108442 -0.0065132054815891889 0 0.00075538155437040219 -0.0065050873355339362 0 0.00073975198130108442 -0.0065132054815891889 0 0.00031297136846282123 -0.0057159177500892321 0 0.00037249813069244203 -0.0054955440239721487 0 0.00073975198130108442 -0.0065132054815891889 0 0.00027137145511005561 -0.0062934952061947632 0 0.00041741157448852941 -0.0068261091066214637 0 0.00027137145511005561 -0.0062934952061947632 0 -7.3375396170613806e-05 -0.0065714605262196593 0 0.00041741157448852941 -0.0068261091066214637 0 0.00027137145511005561 -0.0062934952061947632 0 -7.3375396170613806e-05 -0.0065714605262196593 0 -0.00015552211457326096 -0.0061475463495652433 0 -7.3375396170613806e-05 -0.0065714605262196593 0 -0.00015552211457326096 -0.0061475463495652433 0 -0.00073224408879484892 -0.0065657368643312966 0 -0.00015552211457326096 -0.0061475463495652433 0 -9.3902184404818031e-05 -0.0057199169208549663 0 -0.00037916789444074014 -0.0053587798474413403 0 0.00073975198130108442 -0.0065132054815891889 0 0.00027137145511005561 -0.0062934952061947632 0 0.00031297136846282123 -0.0057159177500892321 0 0.00027137145511005561 -0.0062934952061947632 0 -9.3902184404818031e-05 -0.0057199169208549663 0 0.00031297136846282123 -0.0057159177500892321 0 0.00027137145511005561 -0.0062934952061947632 0 -0.00015552211457326096 -0.0061475463495652433 0 -9.3902184404818031e-05 -0.0057199169208549663 0 -0.00025273361429856541 -0.0060921123421437849 0 -0.0014420899486370358 -0.0057205626737842586 0 -0.00015552211457326096 -0.0061475463495652433 0 -0.0015151722759193015 -0.0057182794184335098 0 -0.00037916789444074014 -0.0053587798474413403 0 -0.00015552211457326096 -0.0061475463495652433 0 -0.00073224408879484892 -0.0065657368643312966 0 -0.001331118226911955 -0.00572233603373216 0 -0.0015997535670457484 -0.0064915953679242034 0 -0.00073224408879484892 -0.0065657368643312966 0 -0.001331118226911955 -0.00572233603373216 0 -0.0023842919978296776 -0.0046948627731671763 0 -0.0015151722759193015 -0.0057182794184335098 0 -0.00043516737654829583 -0.0045077397432688173 0 -0.0023842919978296776 -0.0046948627731671763 0 0.00068980670598470391 -0.0039757040108871263 0 -0.00099878659088577064 -0.0037481882324246849 0 -0.0021807003772082566 -0.0044229941211681991 0 1.0504004654817987e-05 -0.0052996349956089678 0 -0.0015151722759193015 -0.0057182794184335098 0 -0.00037916789444074014 -0.0053587798474413403 0 -0.00043516737654829583 -0.0045077397432688173 0 0.00079589579775937442 -0.0064737326584813001 0 0.00075538155437040219 -0.0065050873355339362 0 0.00069071374072405547 -0.0064466833706408331 0 0.00031297136846282123 -0.0057159177500892321 0 0.00037249813069244203 -0.0054955440239721487 0 -0.00039495800948156857 -0.0047830920077977183 0 0.00031297136846282123 -0.0057159177500892321 0 -0.00037916789444074014 -0.0053587798474413403 0 -0.00043516737654829583 -0.0045077397432688173 0 -9.3902184404818031e-05 -0.0057199169208549663 0 0.00031297136846282123 -0.0057159177500892321 0 -0.00037916789444074014 -0.0053587798474413403 0 8.2088666465040684e-05 -0.0053728274951004443 0 1.0504004654817987e-05 -0.0052996349956089678 0 0.00037249813069244203 -0.0054955440239721487 0 -0.00039495800948156857 -0.0047830920077977183 0 -0.00012952675143551926 -0.0047244817102198855 0 1.0504004654817987e-05 -0.0052996349956089678 0 5.3062551288296176e-05 -0.0071182203303388316 0 0.00040948593519722344 -0.0058924468205875085 0 5.3062551288296176e-05 -0.0071182203303388316 0 -0.0013270719368022278 -0.013040478759929419 0 -0.0014640503745402727 -0.01344963284469915 0 -0.00095736712002741464 -0.013609538304080465 0 -0.0013270719368022278 -0.013040478759929419 0 -0.0014640503745402727 -0.01344963284469915 0 -0.0020013678979765586 -0.013349019976209381 0 -0.001060418179667009 -0.0026583619134048103 0 -0.0011212002183375246 -0.0042764516762105994 0 -0.00048453165538513159 -0.0070190619602240965 0 -0.00048077333773282314 -0.0070204955361575774 0 -0.00050320067325355195 -0.0070220798577180056 0 -0.00048453165538513159 -0.0070190619602240965 0 -0.00051121799167472011 -0.0070177344658571257 0 -0.00050320067325355195 -0.0070220798577180056 0 1.0504004654817987e-05 -0.0052996349956089678 0 -0.0011212002183375246 -0.0042764516762105994 0 5.3062551288296176e-05 -0.0071182203303388316 0 -0.00083394077135682642 -0.011345543286322979 0 0.00068980670598470391 -0.0039757040108871263 0 -0.00099878659088577064 -0.0037481882324246849 0 -0.0011287060311655252 -0.0017493961665661722 0 -0.0012472693737030998 -0.0070255253022199144 0 -0.0011212002183375246 -0.0042764516762105994 0 -0.00051403137320874166 -0.0070165927870117764 0 -0.00051121799167472011 -0.0070177344658571257 0 -0.00050320067325355195 -0.0070220798577180056 0 -0.0012472693737030998 -0.0070255253022199144 0 -0.00083394077135682642 -0.011345543286322979 0 -0.0014796739680250216 -0.01100627229836785 0 -0.00083394077135682642 -0.011345543286322979 0 -0.0015336373198855759 -0.0099477084760110305 0 -0.0015228334316083878 -0.010043344146888102 0 -0.0014381617060084083 -0.010076148322939345 0 -0.00071368041472789077 -0.014232309494116767 0 -0.00093211165396234511 -0.01389013279577609 0 -0.0011546654147026594 -0.014096158549404932 0 -0.0013412312349059135 -0.01365054961896592 0 -0.00083394077135682642 -0.011345543286322979 0 -0.0014054367548397119 -0.013682345510467084 0 -0.00093211165396234511 -0.01389013279577609 0 -0.0011546654147026594 -0.014096158549404932 0 -0.0015425191616478227 -0.01434745928469062 0 -0.0011546654147026594 -0.014096158549404932 0 -0.0016394545270466813 -0.014042155986008841 0 -0.0014054367548397119 -0.013682345510467084 0 -0.0011546654147026594 -0.014096158549404932 0 -0.0016394545270466813 -0.014042155986008841 0 -0.0014054367548397119 -0.013682345510467084 0 -0.0016394545270466813 -0.014042155986008841 0 -0.0017513673044311205 -0.01366592980674949 0 -0.0030061804180078551 -0.020849275521812649 0 -0.0019503635390298163 -0.015786741699637358 0 -0.0015425191616478227 -0.01434745928469062 0 -0.0016394545270466813 -0.014042155986008841 0 -0.0020120731348507353 -0.013695647922130785 0 -0.0031173223817230209 -0.02227782892293137 0 -0.002855905987726557 -0.022255591889327089 0 -0.0030099298450223691 -0.022024120401519642 0 -0.0020192949010472512 -0.013503969824981189 0 -0.0019503635390298163 -0.015786741699637358 0 -0.0016394545270466813 -0.014042155986008841 0 -0.0017513673044311205 -0.01366592980674949 0 -0.0021403392940519354 -0.013484270751287974 0 -0.0013412312349059135 -0.01365054961896592 0 -0.0019994535058872331 -0.013347309151667366 0 5.3062551288296176e-05 -0.0071182203303388316 0 -0.0017075809825871965 -0.015664947747867679 0 -0.0013270719368022278 -0.013040478759929419 0 -0.0020013678979765586 -0.013349019976209381 0 -0.002222111917565466 -0.013384294695482189 0 0.00079589579775937442 -0.0064737326584813001 0 0.00069071374072405547 -0.0064466833706408331 0 0.00087790196229587368 -0.0064059078981379379 0 -0.0014054367548397119 -0.013682345510467084 0 -0.0017513673044311205 -0.01366592980674949 0 -0.0020013678979765586 -0.013349019976209381 0 -0.0017513673044311205 -0.01366592980674949 0 -0.0021403392940519354 -0.013484270751287974 0 -0.0020013678979765586 -0.013349019976209381 0 -0.0021403392940519354 -0.013484270751287974 0 -0.0020013678979765586 -0.013349019976209381 0 -0.002222111917565466 -0.013384294695482189 0 -0.0030380658615571684 -0.021992986461625272 0 -0.0031400026926690738 -0.0221321386347707 0 -0.0032696396737957822 -0.02211001108084459 0 -0.0017075809825871965 -0.015664947747867679 0 -0.003508166530915065 -0.022884868202076199 0 -0.0030099298450223691 -0.022024120401519642 0 -0.0030380658615571684 -0.021992986461625272 0 -0.0031400026926690738 -0.0221321386347707 0 -0.0019503635390298163 -0.015786741699637358 0 -0.0017075809825871965 -0.015664947747867679 0 -0.0031173223817230209 -0.02227782892293137 0 -0.0030099298450223691 -0.022024120401519642 0 -0.0031400026926690738 -0.0221321386347707 0 -0.0031400026926690738 -0.0221321386347707 0 -0.0033579793802287227 -0.02231915777860043 0 -0.0032696396737957822 -0.02211001108084459 0 -0.0031173223817230209 -0.02227782892293137 0 -0.0031400026926690738 -0.0221321386347707 0 -0.0033579793802287227 -0.02231915777860043 0 -0.003508166530915065 -0.022884868202076199 0 -0.0032828418027561076 -0.021991023277763509 0 -0.0033579793802287227 -0.02231915777860043 0 -0.0032696396737957822 -0.02211001108084459 0 -0.0035006447889419723 -0.022210880826364261 0 -0.0029546296182531013 -0.022058249267057774 0 -0.0033967613653125409 -0.022008555386600133 0 -0.0033004874677519808 -0.021823851451577697 0 -0.0029546296182531013 -0.022058249267057774 0 -0.0035006447889419723 -0.022210880826364261 0 -0.0033967613653125409 -0.022008555386600133 0 -0.0029546296182531013 -0.022058249267057774 0 -0.0033004874677519808 -0.021823851451577697 0 -0.0030985596985660347 -0.021595389306341702 0 -0.0024452165438301403 -0.021873944927801849 0 -0.0029546296182531013 -0.022058249267057774 0 -0.0027920316975122953 -0.021577764052678819 0 -0.0039123345865501435 -0.022266541650409255 0 -0.0036851936598034764 -0.022386612009132577 0 -0.0037123336337873589 -0.022192879662636642 0 -0.0045705408756468932 -0.029834166054276145 0 -0.004908031118641726 -0.029281346715366828 0 -0.0051786138343022431 -0.029235282306705676 0 -0.0045732325962566239 -0.029406081120288051 0 -0.0045705408756468932 -0.029834166054276145 0 -0.004908031118641726 -0.029281346715366828 0 -0.0044373687508272317 -0.025985255904293836 0 -0.0048643102313701177 -0.027141211882859888 0 -0.0048780796451492617 -0.027638228604540103 0 -0.0048643102313701177 -0.027141211882859888 0 -0.0042483715378064087 -0.024838059062406128 0 -0.0048643102313701177 -0.027141211882859888 0 -0.0033579793802287227 -0.02231915777860043 0 -0.0036851936598034764 -0.022386612009132577 0 -0.0035006447889419723 -0.022210880826364261 0 -0.0036851936598034764 -0.022386612009132577 0 -0.0037123336337873589 -0.022192879662636642 0 -0.0035006447889419723 -0.022210880826364261 0 -0.0035006447889419723 -0.022210880826364261 0 -0.0033967613653125409 -0.022008555386600133 0 -0.0036212113337952354 -0.022043950096623799 0 -0.0033967613653125409 -0.022008555386600133 0 -0.0035227474527363251 -0.021907341378177993 0 -0.0033004874677519808 -0.021823851451577697 0 -0.0033967613653125409 -0.022008555386600133 0 -0.0035227474527363251 -0.021907341378177993 0 -0.0036212113337952354 -0.022043950096623799 0 -0.0035227474527363251 -0.021907341378177993 0 -0.0036212113337952354 -0.022043950096623799 0 -0.0037074279286945901 -0.021887920914935566 0 -0.0037123336337873589 -0.022192879662636642 0 -0.0035006447889419723 -0.022210880826364261 0 -0.0036212113337952354 -0.022043950096623799 0 -0.0040369872427932973 -0.021875544445134048 0 -0.0037074279286945901 -0.021887920914935566 0 -0.00380388280247495 -0.022019412007108739 0 -0.0037123336337873589 -0.022192879662636642 0 -0.0036212113337952354 -0.022043950096623799 0 -0.00380388280247495 -0.022019412007108739 0 -0.0036212113337952354 -0.022043950096623799 0 -0.0037074279286945901 -0.021887920914935566 0 -0.00380388280247495 -0.022019412007108739 0 -0.0039123345865501435 -0.022266541650409255 0 -0.003971963125657365 -0.022074157025739498 0 -0.00380388280247495 -0.022019412007108739 0 -0.0039123345865501435 -0.022266541650409255 0 -0.0037123336337873589 -0.022192879662636642 0 -0.00380388280247495 -0.022019412007108739 0 -0.0015422154351126759 -0.026091660219592167 0 -0.0018529646645067401 -0.026239530041697968 0 -0.0016781553689030203 -0.026442874789712398 0 -0.0040369872427932973 -0.021875544445134048 0 -0.0037074279286945901 -0.021887920914935566 0 -0.0036475115247536394 -0.021688491460894511 0 -0.0040369872427932973 -0.021875544445134048 0 -0.0036475115247536394 -0.021688491460894511 0 -0.0036488702614311465 -0.021606907103993763 0 -0.0017751903440553075 -0.026691741158692169 0 -0.0027698053671339385 -0.023109574505584776 0 -0.0029611124869010699 -0.022282400255580953 0 -0.0027698053671339385 -0.023109574505584776 0 -0.0036475115247536394 -0.021688491460894511 0 -0.003653072695309293 -0.021578358218572739 0 -0.0033994599551911242 -0.021615979746328777 0 -0.0036475115247536394 -0.021688491460894511 0 -0.0035187535009438978 -0.021786157439112778 0 -0.0033994599551911242 -0.021615979746328777 0 -0.0035227474527363251 -0.021907341378177993 0 -0.0037074279286945901 -0.021887920914935566 0 -0.0035187535009438978 -0.021786157439112778 0 -0.0037074279286945901 -0.021887920914935566 0 -0.0036475115247536394 -0.021688491460894511 0 -0.0035187535009438978 -0.021786157439112778 0 -0.0035227474527363251 -0.021907341378177993 0 -0.0035187535009438978 -0.021786157439112778 0 -0.0033004874677519808 -0.021823851451577697 0 -0.0035187535009438978 -0.021786157439112778 0 -0.0033994599551911242 -0.021615979746328777 0 -0.0033004874677519808 -0.021823851451577697 0 -0.0011555182728104092 -0.021393839988007889 0 -0.0015197235559706282 -0.021559001962941266 0 -0.0011293813089853927 -0.021655265791119673 0 -0.0027698053671339385 -0.023109574505584776 0 -0.0018577772439665437 -0.019100713907271478 0 -0.003653072695309293 -0.021578358218572739 0 -0.0033994599551911242 -0.021615979746328777 0 -0.0031336747301483848 -0.021250076098944928 0 -0.0018529646645067401 -0.026239530041697968 0 -0.0016781553689030203 -0.026442874789712398 0 -0.0018345231646354988 -0.026520763450450981 0 -0.0027698053671339385 -0.023109574505584776 0 -0.0014612677678366662 -0.02370777062231201 0 -0.0029546296182531013 -0.022058249267057774 0 -0.0027920316975122953 -0.021577764052678819 0 -0.0030985596985660347 -0.021595389306341702 0 -0.0033994599551911242 -0.021615979746328777 0 -0.0033004874677519808 -0.021823851451577697 0 -0.0030985596985660347 -0.021595389306341702 0 -0.0033994599551911242 -0.021615979746328777 0 -0.0030985596985660347 -0.021595389306341702 0 -0.0031336747301483848 -0.021250076098944928 0 -0.0018577772439665437 -0.019100713907271478 0 0.00087784512534513372 -0.012335538728847907 0 -0.00022320220019395187 -0.0097868655235331063 0 0.00087784512534513372 -0.012335538728847907 0 -0.0027920316975122953 -0.021577764052678819 0 -0.0030985596985660347 -0.021595389306341702 0 -0.0031336747301483848 -0.021250076098944928 0 -0.0018729397959103688 -0.018576107004369742 0 -0.0018577772439665437 -0.019100713907271478 0 0.0010908363330662373 -0.0065206395494418644 0 0.00096251993171283243 -0.0066391876897893805 0 0.0013859709345903383 -0.0068658077554413595 0 -0.0010670958771348651 -0.015028207310926113 0 -0.00071798828237334836 -0.015376121067247887 0 -0.00088199192865316732 -0.015448671285555935 0 -0.001153047486407743 -0.01506508219958335 0 -0.0010670958771348651 -0.015028207310926113 0 -0.00088199192865316732 -0.015448671285555935 0 0.0017854724903525749 -0.012630903117673564 0 0.0018277320827489662 -0.012532174497821862 0 0.0016364989414913219 -0.012606847548152488 0 0.00087784512534513372 -0.012335538728847907 0 0.0016210607856788472 -0.0096276198859361721 0 0.0017854724903525749 -0.012630903117673564 0 0.0017737482809453771 -0.012739481732961539 0 0.0016364989414913219 -0.012606847548152488 0 0.0017854724903525749 -0.012630903117673564 0 0.0019021567743603854 -0.012645359072722497 0 0.0017737482809453771 -0.012739481732961539 0 0.0017854724903525749 -0.012630903117673564 0 0.0018277320827489662 -0.012532174497821862 0 0.0019021567743603854 -0.012645359072722497 0 0.00087784512534513372 -0.012335538728847907 0 0.00073663432769843469 -0.016815300215739876 0 -0.0018577772439665437 -0.019100713907271478 0 0.00073663432769843469 -0.016815300215739876 0 -0.0017594905417906211 -0.02121137059287518 0 -0.0015404507317427437 -0.021806102390884305 0 -0.0012437509226973452 -0.021840609999660456 0 -0.0017594905417906211 -0.02121137059287518 0 -0.0015404507317427437 -0.021806102390884305 0 -0.0018275705469972337 -0.021652379369544415 0 -0.00016066355509578126 -0.016315408081628052 0 0.00029575987530297088 -0.016068730019310914 0 -4.013116348329259e-05 -0.015587374128661829 0 -0.0018577772439665437 -0.019100713907271478 0 -0.00097150765041333336 -0.022566776738565993 0 0.00073663432769843469 -0.016815300215739876 0 0.0016993816480088157 -0.015318492534775583 0 0.0015669148090332579 -0.017551478031707056 0 0.0015879331554299893 -0.017580592127147313 0 0.0015826448397327356 -0.017574921503605824 0 0.00073663432769843469 -0.016815300215739876 0 1.2326963885284433e-05 -0.019862955162469585 0 -0.0015404507317427437 -0.021806102390884305 0 -0.0018275705469972337 -0.021652379369544415 0 -0.0015064134287242998 -0.022102541926731462 0 0.0019021567743603854 -0.012645359072722497 0 0.0017737482809453771 -0.012739481732961539 0 0.0018833511364118594 -0.012894980775332783 0 0.0017737482809453771 -0.012739481732961539 0 0.0018833511364118594 -0.012894980775332783 0 0.0016390031947935587 -0.012930586978400561 0 -0.0014612677678366662 -0.02370777062231201 0 -0.00098849637883143947 -0.02726505882535657 0 -0.00096992259171723393 -0.030017772865489116 0 -0.00098849637883143947 -0.02726505882535657 0 -0.0016781553689030203 -0.026442874789712398 0 -0.0018345231646354988 -0.026520763450450981 0 -0.0018034793665628092 -0.026811308593387439 0 -3.5822196443376936e-05 -0.032443529054575822 0 -0.00022393812447549672 -0.031897362869535081 0 -0.00045221433649071619 -0.032527231603330715 0 -0.0011293813089853927 -0.021655265791119673 0 -0.0012437509226973452 -0.021840609999660456 0 -0.0010552202100391611 -0.022002286109711378 0 -0.0015197235559706282 -0.021559001962941266 0 -0.0011293813089853927 -0.021655265791119673 0 -0.0012437509226973452 -0.021840609999660456 0 -0.0015064134287242998 -0.022102541926731462 0 -0.0012749071471263294 -0.022066930877757324 0 -0.0012160078733178738 -0.022481580226131292 0 -0.0012749071471263294 -0.022066930877757324 0 -0.0010552202100391611 -0.022002286109711378 0 -0.0012160078733178738 -0.022481580226131292 0 -0.00098849637883143947 -0.02726505882535657 0 0.0006608400085622104 -0.021863155818035999 0 -0.0015404507317427437 -0.021806102390884305 0 -0.0012437509226973452 -0.021840609999660456 0 -0.0012749071471263294 -0.022066930877757324 0 -0.0015404507317427437 -0.021806102390884305 0 -0.0015064134287242998 -0.022102541926731462 0 -0.0012749071471263294 -0.022066930877757324 0 -0.0012437509226973452 -0.021840609999660456 0 -0.0012749071471263294 -0.022066930877757324 0 -0.0010552202100391611 -0.022002286109711378 0 -3.5822196443376936e-05 -0.032443529054575822 0 -0.00045221433649071619 -0.032527231603330715 0 -0.00013578763156715012 -0.032786679431232028 0 -0.00045221433649071619 -0.032527231603330715 0 -0.00013578763156715012 -0.032786679431232028 0 -0.00041067424162371738 -0.032948186739857728 0 -0.00098849637883143947 -0.02726505882535657 0 -9.6520859703197917e-05 -0.030553954182835588 0 -9.6520859703197917e-05 -0.030553954182835588 0 0.0011422726061681369 -0.027699947314780274 0 -0.00015877877722469662 -0.033088783204041392 0 -0.00041067424162371738 -0.032948186739857728 0 -0.00036179128778590126 -0.033347726217734533 0 -0.00013578763156715012 -0.032786679431232028 0 -0.00015877877722469662 -0.033088783204041392 0 -0.00041067424162371738 -0.032948186739857728 0 0.00012383190841509862 -0.02681403106724662 0 0.00014039989389285813 -0.026690885734386171 0 0.00020549581294353894 -0.026658529738507589 0 0.00014039989389285813 -0.026690885734386171 0 0.00020549581294353894 -0.026658529738507589 0 0.00015891055929441599 -0.02658668728934703 0 0.0015879331554299893 -0.017580592127147313 0 0.0015949960663408863 -0.017608182568683579 0 0.0015923749323624855 -0.017589413056469275 0 1.2326963885284433e-05 -0.019862955162469585 0 0.0006608400085622104 -0.021863155818035999 0 0.0015949960663408863 -0.017608182568683579 0 0.0015986348368076568 -0.017598571087344451 0 0.0015923749323624855 -0.017589413056469275 0 0.0006608400085622104 -0.021863155818035999 0 0.0021336715825587406 -0.019869359112362161 0 0.0025874205982936763 -0.022408956408164028 0 0.0028170348470484617 -0.022410385892060611 0 0.0026921044251421631 -0.022551730476590211 0 0.0026643984402074895 -0.022206806752749716 0 0.0025874205982936763 -0.022408956408164028 0 0.0028170348470484617 -0.022410385892060611 0 0.0006608400085622104 -0.021863155818035999 0 0.0011422726061681369 -0.027699947314780274 0 2.8300227752745716e-05 -0.033358043897980375 0 -0.00036179128778590126 -0.033347726217734533 0 -5.0833553992411962e-05 -0.033718461706837767 0 2.8300227752745716e-05 -0.033358043897980375 0 -0.00015877877722469662 -0.033088783204041392 0 -0.00036179128778590126 -0.033347726217734533 0 0.0011422726061681369 -0.027699947314780274 0 0.00079778513949912869 -0.031445152388706619 0 0.0016993816480088157 -0.015318492534775583 0 0.0030576670221979544 -0.013249558986530574 0 0.0030576670221979544 -0.013249558986530574 0 0.0023113076687735108 -0.010927512805205321 0 0.0018833511364118594 -0.012894980775332783 0 0.001860832832719203 -0.01316066723786811 0 0.0016390031947935587 -0.012930586978400561 0 0.0015826448397327356 -0.017574921503605824 0 0.0015923749323624855 -0.017589413056469275 0 0.0015982337507794348 -0.017573078854019018 0 0.0015879331554299893 -0.017580592127147313 0 0.0015826448397327356 -0.017574921503605824 0 0.0015923749323624855 -0.017589413056469275 0 0.0015986348368076568 -0.017598571087344451 0 0.0015982337507794348 -0.017573078854019018 0 0.001606746258331462 -0.017598410952877085 0 0.0015986348368076568 -0.017598571087344451 0 0.0015923749323624855 -0.017589413056469275 0 0.0015982337507794348 -0.017573078854019018 0 0.0045644594441404986 -0.01077838502192344 0 0.0018642863754238471 -0.010691415564801307 0 0.0031447098920210151 -0.012006513921897801 0 0.0045644594441404986 -0.01077838502192344 0 0.0018642863754238471 -0.010691415564801307 0 0.0028827764198967073 -0.0090711363580351211 0 0.0018642863754238471 -0.010691415564801307 0 0.00028218707975595888 -0.010083669525507332 0 0.00067730694807073555 -0.011821083184365038 0 0.0018642863754238471 -0.010691415564801307 0 0.00081671204554911682 -0.009031879273822532 0 0.00028218707975595888 -0.010083669525507332 0 0.0018642863754238471 -0.010691415564801307 0 0.00081671204554911682 -0.009031879273822532 0 0.0028827764198967073 -0.0090711363580351211 0 0.00081671204554911682 -0.009031879273822532 0 0.0028827764198967073 -0.0090711363580351211 0 0.0011970022360607133 -0.0083456136862965456 0 0.0016390031947935587 -0.012930586978400561 0 0.0014246328566078193 -0.012692109797716825 0 0.0016364989414913219 -0.012606847548152488 0 0.0023113076687735108 -0.010927512805205321 0 0.00097422809968627686 -0.009465545046874746 0 0.0017737482809453771 -0.012739481732961539 0 0.0016390031947935587 -0.012930586978400561 0 0.0016364989414913219 -0.012606847548152488 0 0.0028827764198967073 -0.0090711363580351211 0 0.0011970022360607133 -0.0083456136862965456 0 0.0012642337031898159 -0.0074838689216429428 0 0.00081671204554911682 -0.009031879273822532 0 0.0011970022360607133 -0.0083456136862965456 0 0.00044780553719180922 -0.0079404266923384266 0 0.0011970022360607133 -0.0083456136862965456 0 0.0012642337031898159 -0.0074838689216429428 0 0.00044780553719180922 -0.0079404266923384266 0 0.00042880976786802908 -0.0075276269457373191 0 0.00099003253741643412 -0.0076180070706763211 0 0.00044780553719180922 -0.0079404266923384266 0 0.00097422809968627686 -0.009465545046874746 0 0.00099777502725244879 -0.0082995436505675438 0 0.00042880976786802908 -0.0075276269457373191 0 0.00099003253741643412 -0.0076180070706763211 0 0.0005844420822011812 -0.0072207508968117036 0 0.00097422809968627686 -0.009465545046874746 0 0.00021883857750073466 -0.0078020939562291284 0 0.00075772417074439701 -0.0073367292813991515 0 0.00080946281014654333 -0.0069152057401986522 0 0.0011142792644362239 -0.0070219664252204484 0 0.00075772417074439701 -0.0073367292813991515 0 0.0005844420822011812 -0.0072207508968117036 0 0.00080946281014654333 -0.0069152057401986522 0 0.00042880976786802908 -0.0075276269457373191 0 0.0005844420822011812 -0.0072207508968117036 0 0.00022190907566570545 -0.0072363896149764658 0 0.00073975198130108442 -0.0065132054815891889 0 0.00080946281014654333 -0.0069152057401986522 0 0.00041741157448852941 -0.0068261091066214637 0 0.0005844420822011812 -0.0072207508968117036 0 0.00080946281014654333 -0.0069152057401986522 0 0.00041741157448852941 -0.0068261091066214637 0 0.00097422809968627686 -0.009465545046874746 0 0.0016210607856788472 -0.0096276198859361721 0 0.00096251993171283243 -0.0066391876897893805 0 0.00080946281014654333 -0.0069152057401986522 0 0.0011142792644362239 -0.0070219664252204484 0 0.00096251993171283243 -0.0066391876897893805 0 0.0013859709345903383 -0.0068658077554413595 0 0.0011142792644362239 -0.0070219664252204484 0 -0.00073224408879484892 -0.0065657368643312966 0 -0.001155004873383995 -0.0072835798322258916 0 -0.00019638764735632779 -0.0070162825665778467 0 -0.0015997535670457484 -0.0064915953679242034 0 -0.00073224408879484892 -0.0065657368643312966 0 -0.001155004873383995 -0.0072835798322258916 0 -7.3375396170613806e-05 -0.0065714605262196593 0 -0.00073224408879484892 -0.0065657368643312966 0 -0.00019638764735632779 -0.0070162825665778467 0 -0.001155004873383995 -0.0072835798322258916 0 -0.00019638764735632779 -0.0070162825665778467 0 1.9787261340846318e-05 -0.0076591891482419433 0 -7.3375396170613806e-05 -0.0065714605262196593 0 -0.00019638764735632779 -0.0070162825665778467 0 0.00041741157448852941 -0.0068261091066214637 0 0.0005844420822011812 -0.0072207508968117036 0 0.00041741157448852941 -0.0068261091066214637 0 0.00022190907566570545 -0.0072363896149764658 0 -0.00019638764735632779 -0.0070162825665778467 0 0.00022190907566570545 -0.0072363896149764658 0 1.9787261340846318e-05 -0.0076591891482419433 0 -0.00019638764735632779 -0.0070162825665778467 0 0.00041741157448852941 -0.0068261091066214637 0 0.00022190907566570545 -0.0072363896149764658 0 0.00042880976786802908 -0.0075276269457373191 0 0.00022190907566570545 -0.0072363896149764658 0 1.9787261340846318e-05 -0.0076591891482419433 0 0.00042880976786802908 -0.0075276269457373191 0 1.9787261340846318e-05 -0.0076591891482419433 0 0.00044780553719180922 -0.0079404266923384266 0 0.00081671204554911682 -0.009031879273822532 0 -9.411025886822886e-05 -0.0083084739324406128 0 0.00044780553719180922 -0.0079404266923384266 0 1.9787261340846318e-05 -0.0076591891482419433 0 -9.411025886822886e-05 -0.0083084739324406128 0 0.00044780553719180922 -0.0079404266923384266 0 -9.411025886822886e-05 -0.0083084739324406128 0 -0.00076066668440984099 -0.008028263498797936 0 -0.00051693342989419275 -0.0089364416231561411 0 1.9787261340846318e-05 -0.0076591891482419433 0 -9.411025886822886e-05 -0.0083084739324406128 0 -0.00076066668440984099 -0.008028263498797936 0 -0.0016484800217367861 -0.0069813135247232035 0 1.9787261340846318e-05 -0.0076591891482419433 0 -0.00076066668440984099 -0.008028263498797936 0 -0.00076066668440984099 -0.008028263498797936 0 -0.001576464766848763 -0.0082540641105700221 0 -0.00051693342989419275 -0.0089364416231561411 0 -0.0016484800217367861 -0.0069813135247232035 0 -0.00076066668440984099 -0.008028263498797936 0 -0.001576464766848763 -0.0082540641105700221 0 -0.0014190147471823042 -0.007098605875467478 0 -7.5340448762462988e-05 -0.0076313757730279196 0 -0.001576464766848763 -0.0082540641105700221 0 -0.0011938203762903955 -0.0092190999948225574 0 -0.0019034397845057328 -0.0094704480958480164 0 -0.001576464766848763 -0.0082540641105700221 0 -0.0011938203762903955 -0.0092190999948225574 0 -0.00051693342989419275 -0.0089364416231561411 0 -0.0011938203762903955 -0.0092190999948225574 0 -0.0019034397845057328 -0.0094704480958480164 0 -0.00082434603478519642 -0.010037558883169201 0 -0.0011938203762903955 -0.0092190999948225574 0 -0.00051693342989419275 -0.0089364416231561411 0 -0.00082434603478519642 -0.010037558883169201 0 0.00081671204554911682 -0.009031879273822532 0 -0.00051693342989419275 -0.0089364416231561411 0 0.00028218707975595888 -0.010083669525507332 0 0.00081671204554911682 -0.009031879273822532 0 -9.411025886822886e-05 -0.0083084739324406128 0 -0.00051693342989419275 -0.0089364416231561411 0 -0.00051693342989419275 -0.0089364416231561411 0 0.00028218707975595888 -0.010083669525507332 0 -0.00082434603478519642 -0.010037558883169201 0 0.00028218707975595888 -0.010083669525507332 0 -0.00086434194082809427 -0.011883188670284792 0 0.00067730694807073555 -0.011821083184365038 0 0.00028218707975595888 -0.010083669525507332 0 -0.00082434603478519642 -0.010037558883169201 0 -0.00055058694315727552 -0.011364746531735795 0 -2.069752304772769e-05 -0.010669786010566935 0 -0.00039729205281488836 -0.010235247410147063 0 -0.0023272005829869883 -0.010066564433920457 0 -0.0019034397845057328 -0.0094704480958480164 0 -0.0011839756528788921 -0.010711341505254395 0 -0.0019034397845057328 -0.0094704480958480164 0 -0.00082434603478519642 -0.010037558883169201 0 -0.0010670662346618667 -0.011058418861364029 0 -0.00082434603478519642 -0.010037558883169201 0 -0.0010670662346618667 -0.011058418861364029 0 -0.00055058694315727552 -0.011364746531735795 0 0.0016093325009460505 -0.0020699866978540612 0 0.0029278140469093422 -0.0029417017354359943 0 0.0019784692534462328 -0.0030049850405886951 0 -0.0018241524515863177 -0.010191310771811445 0 -0.00022290141111046656 -0.0087842614099508456 0 -0.00032126576691028305 -0.0059595083846951278 0 -0.00022290141111046656 -0.0087842614099508456 0 0.0024802379892590381 -0.0035864128229921048 0 0.0024338990954704261 -0.0049200810516972027 0 0.0016480636912168071 -0.0036483832686303825 0 0.0024802379892590381 -0.0035864128229921048 0 0.0016480636912168071 -0.0036483832686303825 0 0.0019784692534462328 -0.0030049850405886951 0 0.0029278140469093422 -0.0029417017354359943 0 0.0024802379892590381 -0.0035864128229921048 0 0.0019784692534462328 -0.0030049850405886951 0 0.0024802379892590381 -0.0035864128229921048 0 0.0032662226242238658 -0.0035613815994960719 0 0.0024338990954704261 -0.0049200810516972027 0 -0.00010540439962363435 -0.0089170204853945036 0 0.00050242406393307792 -0.0092836465582021698 0 0.00029412776162762548 -0.0096228185025629756 0 0.0029278140469093422 -0.0029417017354359943 0 0.0024802379892590381 -0.0035864128229921048 0 0.0032662226242238658 -0.0035613815994960719 0 -0.00022290141111046656 -0.0087842614099508456 0 0.0006613532044628922 -0.0084826510288734374 0 -0.00022290141111046656 -0.0087842614099508456 0 -0.00039729205281488836 -0.010235247410147063 0 -0.0010898726245334924 -0.012250888045392596 0 0.00071733098889085491 -0.013155731835592382 0 0.00067730694807073555 -0.011821083184365038 0 -0.00086434194082809427 -0.011883188670284792 0 -0.0010898726245334924 -0.012250888045392596 0 0.00067730694807073555 -0.011821083184365038 0 -0.00039729205281488836 -0.010235247410147063 0 0.0006613532044628922 -0.0084826510288734374 0 0.00048959746333582168 -0.009277341055202195 0 0.00060713706007186848 -0.011082990059337739 0 0.001892876446094371 -0.011823526223784834 0 -0.0010898726245334924 -0.012250888045392596 0 0.00033334577902116797 -0.014794935711307286 0 0.00071733098889085491 -0.013155731835592382 0 0.0006613532044628922 -0.0084826510288734374 0 0.00045023483209324 -0.01462280143905524 0 0.00060713706007186848 -0.011082990059337739 0 0.00011740575712419821 -0.011188557553632307 0 0.001892876446094371 -0.011823526223784834 0 0.00048959746333582168 -0.009277341055202195 0 0.00060713706007186848 -0.011082990059337739 0 0.00012131989080631854 -0.011185561120789903 0 0.0006613532044628922 -0.0084826510288734374 0 0.0012917205811016962 -0.0083211155844031739 0 0.00048959746333582168 -0.009277341055202195 0 0.00012131989080631854 -0.011185561120789903 0 -0.00053407818527360213 -0.010950968229540494 0 0.00036151701529798445 -0.011170789292388864 0 0.00020581354455874654 -0.011215727280417037 0 0.00020581354455874654 -0.011215727280417037 0 0.0012917205811016962 -0.0083211155844031739 0 0.00044242951206892891 -0.010926269290977125 0 0.00077178093198286351 -0.011039876979575834 0 0.00090259498602448163 -0.010829519636986001 0 0.00020581354455874654 -0.011215727280417037 0 -0.00026563532194993412 -0.011990264430352403 0 0.0012917205811016962 -0.0083211155844031739 0 -0.00026563532194993412 -0.011990264430352403 0 -0.0006895060688107557 -0.014112142502180765 0 -0.0011292793001163863 -0.014221893620897747 0 -0.00093480599551465956 -0.014881956065127348 0 -0.0006895060688107557 -0.014112142502180765 0 -0.00093480599551465956 -0.014881956065127348 0 -0.00039541373026230533 -0.014619572547181913 0 -0.00093480599551465956 -0.014881956065127348 0 -0.00039541373026230533 -0.014619572547181913 0 -0.00013480365393796217 -0.015082758783312731 0 0.00020581354455874654 -0.011215727280417037 0 0.00045023483209324 -0.01462280143905524 0 -0.0006895060688107557 -0.014112142502180765 0 0.00018185081737310247 -0.014405326452930526 0 -0.00039541373026230533 -0.014619572547181913 0 0.00018185081737310247 -0.014405326452930526 0 -0.00039541373026230533 -0.014619572547181913 0 -0.00013480365393796217 -0.015082758783312731 0 -0.00017755112272018129 -0.015490350051363629 0 0.00026027791985557756 -0.015468929391429107 0 -7.5138302761175964e-05 -0.015949634592891036 0 -0.00020906772461171106 -0.015040708873411128 0 -0.00017755112272018129 -0.015490350051363629 0 0.00026027791985557756 -0.015468929391429107 0 -0.00020906772461171106 -0.015040708873411128 0 -0.00017755112272018129 -0.015490350051363629 0 -0.00060191389717641403 -0.015555164014717198 0 -0.00093480599551465956 -0.014881956065127348 0 -0.00060191389717641403 -0.015555164014717198 0 -0.0012574990007610651 -0.015683095611888485 0 -0.00093480599551465956 -0.014881956065127348 0 -0.00020906772461171106 -0.015040708873411128 0 -0.00060191389717641403 -0.015555164014717198 0 -0.00083628401810099007 -0.014905538111506264 0 -0.00020823789385971607 -0.015045372302129836 0 0.0015883802153609232 -0.018476548918743854 0 0.00017763844404866536 -0.018117488698745708 0 0.00085345596446348903 -0.017062823931412931 0 0.00085345596446348903 -0.017062823931412931 0 0.0024253112026399876 -0.017635407122700893 0 0.0021190906432574075 -0.018177043082592634 0 0.0016985740793245649 -0.016989745469337566 0 0.0006652461665946893 -0.016068038465271887 0 0.0015883802153609232 -0.018476548918743854 0 0.00085345596446348903 -0.017062823931412931 0 0.0021190906432574075 -0.018177043082592634 0 0.0017640411915166195 -0.015316996232489869 0 0.00076798218249635511 -0.015312377943306154 0 0.00065591712148126266 -0.015122721655301588 0 0.0017640411915166195 -0.015316996232489869 0 0.00076798218249635511 -0.015312377943306154 0 0.0012456686609257173 -0.015860441242333722 0 -0.00020823789385971607 -0.015045372302129836 0 0.0006652461665946893 -0.016068038465271887 0 -0.00020906772461171106 -0.015040708873411128 0 0.00026027791985557756 -0.015468929391429107 0 0.00067170759754411056 -0.015173441502451784 0 0.00059379916005326719 -0.015844006291154226 0 0.0006652461665946893 -0.016068038465271887 0 0.00076798218249635511 -0.015312377943306154 0 0.00026027791985557756 -0.015468929391429107 0 0.00061501749628563719 -0.015881152978014231 0 0.00076798218249635511 -0.015312377943306154 0 0.00026027791985557756 -0.015468929391429107 0 0.00067170759754411056 -0.015173441502451784 0 -0.00071184957239441113 -0.016496879934884027 0 0.00017763844404866536 -0.018117488698745708 0 0.00085345596446348903 -0.017062823931412931 0 0.00033334577902116797 -0.014794935711307286 0 0.002017841759270173 -0.015375565688371028 0 0.0018015898645933686 -0.014141463307562104 0 0.00045023483209324 -0.01462280143905524 0 0.0006652461665946893 -0.016068038465271887 0 0.00045023483209324 -0.01462280143905524 0 0.0014092870013800011 -0.016209613472790308 0 0.00018185081737310247 -0.014405326452930526 0 -0.00013480365393796217 -0.015082758783312731 0 0.00067191567722894559 -0.01527822740917612 0 0.002017841759270173 -0.015375565688371028 0 0.003170512094968294 -0.014915796369997028 0 0.0036741281788104591 -0.015962394199735684 0 0.0014092870013800011 -0.016209613472790308 0 0.0025266004309645435 -0.017927143939251808 0 0.002017841759270173 -0.015375565688371028 0 0.003170512094968294 -0.014915796369997028 0 0.0018015898645933686 -0.014141463307562104 0 0.003170512094968294 -0.014915796369997028 0 0.0029520879122690983 -0.013657785873848157 0 0.0018015898645933686 -0.014141463307562104 0 0.0029520879122690983 -0.013657785873848157 0 0.0018015898645933686 -0.014141463307562104 0 0.0018311153568190425 -0.012754757146489989 0 0.00033334577902116797 -0.014794935711307286 0 0.0018015898645933686 -0.014141463307562104 0 0.00071733098889085491 -0.013155731835592382 0 0.0018015898645933686 -0.014141463307562104 0 0.00071733098889085491 -0.013155731835592382 0 0.0018311153568190425 -0.012754757146489989 0 0.0018642863754238471 -0.010691415564801307 0 0.0018311153568190425 -0.012754757146489989 0 0.00067730694807073555 -0.011821083184365038 0 0.00071733098889085491 -0.013155731835592382 0 0.0018311153568190425 -0.012754757146489989 0 0.00067730694807073555 -0.011821083184365038 0 0.0029520879122690983 -0.013657785873848157 0 0.0018311153568190425 -0.012754757146489989 0 0.0031447098920210151 -0.012006513921897801 0 0.0018642863754238471 -0.010691415564801307 0 0.0018311153568190425 -0.012754757146489989 0 0.0031447098920210151 -0.012006513921897801 0 0.0029520879122690983 -0.013657785873848157 0 0.0031447098920210151 -0.012006513921897801 0 0.0041936918120540597 -0.013362389363125086 0 0.0045644594441404986 -0.01077838502192344 0 0.0031447098920210151 -0.012006513921897801 0 0.0041936918120540597 -0.013362389363125086 0 0.0030576670221979544 -0.013249558986530574 0 0.0046027361087957403 -0.012380575802067365 0 0.0044414044709857334 -0.011726908136079472 0 0.0054298611930595625 -0.012694788924933731 0 0.0041936918120540597 -0.013362389363125086 0 0.0030576670221979544 -0.013249558986530574 0 0.0027133239777905305 -0.018817958579236613 0 0.0021336715825587406 -0.019869359112362161 0 0.0027133239777905305 -0.018817958579236613 0 0.0027133239777905305 -0.018817958579236613 0 0.0037011839103225958 -0.018089572336135389 0 0.0054298611930595625 -0.012694788924933731 0 0.0049227338331945623 -0.014198206150988907 0 0.0041936918120540597 -0.013362389363125086 0 0.0022413287156429714 -0.022303874835977087 0 0.001964688537332125 -0.022999213966812565 0 0.0023619897919847834 -0.022924086875379793 0 0.001964688537332125 -0.022999213966812565 0 0.0023619897919847834 -0.022924086875379793 0 0.0024152491638393166 -0.023343443669422353 0 0.0049227338331945623 -0.014198206150988907 0 0.00385585761996217 -0.014255746866477929 0 0.0041936918120540597 -0.013362389363125086 0 0.0029520879122690983 -0.013657785873848157 0 0.00385585761996217 -0.014255746866477929 0 0.0041936918120540597 -0.013362389363125086 0 0.003170512094968294 -0.014915796369997028 0 0.0029520879122690983 -0.013657785873848157 0 0.00385585761996217 -0.014255746866477929 0 0.0028170348470484617 -0.022410385892060611 0 0.0026921044251421631 -0.022551730476590211 0 0.0028841963627327678 -0.022778575076946139 0 0.0012273420400871866 -0.028409191354925419 0 0.0013658168822767035 -0.028611978041726459 0 0.0012491256294088207 -0.028707509940409402 0 0.0011422726061681369 -0.027699947314780274 0 0.0021443267830233725 -0.025343294494441296 0 0.0024737551243145289 -0.022625043045953641 0 0.0026921044251421631 -0.022551730476590211 0 0.0028841963627327678 -0.022778575076946139 0 0.0025874205982936763 -0.022408956408164028 0 0.0024737551243145289 -0.022625043045953641 0 0.0026921044251421631 -0.022551730476590211 0 0.0027133239777905305 -0.018817958579236613 0 0.0030139124886316405 -0.0241861584671898 0 0.0022413287156429714 -0.022303874835977087 0 0.0023619897919847834 -0.022924086875379793 0 0.0028211969789325143 -0.023022638885148227 0 0.0024737551243145289 -0.022625043045953641 0 0.0028841963627327678 -0.022778575076946139 0 0.0028211969789325143 -0.023022638885148227 0 0.0023619897919847834 -0.022924086875379793 0 0.0028211969789325143 -0.023022638885148227 0 0.0024152491638393166 -0.023343443669422353 0 0.0013658168822767035 -0.028611978041726459 0 0.0012491256294088207 -0.028707509940409402 0 0.0013514248179537995 -0.028833886848674436 0 0.0028841963627327678 -0.022778575076946139 0 0.0028211969789325143 -0.023022638885148227 0 0.0029583413711883754 -0.023368674536896547 0 0.0012491256294088207 -0.028707509940409402 0 0.0013514248179537995 -0.028833886848674436 0 0.0012695777893746961 -0.028986510917616795 0 0.0021443267830233725 -0.025343294494441296 0 0.0021124301506326958 -0.025888202344433973 0 0.0013514248179537995 -0.028833886848674436 0 0.0012695777893746961 -0.028986510917616795 0 0.0013883596562287946 -0.029037617311675149 0 0.0029583413711883754 -0.023368674536896547 0 0.0024152491638393166 -0.023343443669422353 0 0.0026729293077387148 -0.023700124692635948 0 0.0028211969789325143 -0.023022638885148227 0 0.0029583413711883754 -0.023368674536896547 0 0.0024152491638393166 -0.023343443669422353 0 0.0020288418857299056 -0.024911356424612906 0 0.0020071740182150016 -0.028566077548555814 0 0.0018212631372323026 -0.025899461052101787 0 0.001805172096250675 -0.026475618171062174 0 0.0031352632195131053 -0.026431387237135059 0 0.0024152491638393166 -0.023343443669422353 0 0.0023327825365652621 -0.023910182713779728 0 0.0026729293077387148 -0.023700124692635948 0 0.0023327825365652621 -0.023910182713779728 0 0.0026729293077387148 -0.023700124692635948 0 0.0030020949971490446 -0.024195959462931745 0 0.0021124301506326958 -0.025888202344433973 0 0.0020071740182150016 -0.028566077548555814 0 0.0007373682863738816 -0.03410034713840724 0 0.00063558006033187606 -0.034119306717568597 0 0.00065439294073414375 -0.034127292500188727 0 0.0013055836941314768 -0.029261845333520994 0 0.0012900037431703914 -0.029255521284740172 0 0.0013883596562287946 -0.029037617311675149 0 0.0029583413711883754 -0.023368674536896547 0 0.0026729293077387148 -0.023700124692635948 0 0.0030020949971490446 -0.024195959462931745 0 0.0017137322505218888 -0.030275563463099325 0 0.00096023212946889274 -0.031719645832311155 0 0.0012695777893746961 -0.028986510917616795 0 0.0012900037431703914 -0.029255521284740172 0 0.0013883596562287946 -0.029037617311675149 0 0.00073191071498765112 -0.034106775451843506 0 0.0007373682863738816 -0.03410034713840724 0 0.00065439294073414375 -0.034127292500188727 0 0.0037011839103225958 -0.018089572336135389 0 0.0024485323466693874 -0.021063851846088517 0 0.0049227338331945623 -0.014198206150988907 0 0.0039641516172830545 -0.015078963552228552 0 0.0042012335602761523 -0.016123413759131934 0 0.003170512094968294 -0.014915796369997028 0 0.0039641516172830545 -0.015078963552228552 0 0.0036466911635776355 -0.015926216819015161 0 0.0027416931044767657 -0.0150794438298009 0 0.0025266004309645435 -0.017927143939251808 0 0.0039641516172830545 -0.015078963552228552 0 0.0042012335602761523 -0.016123413759131934 0 0.0036466911635776355 -0.015926216819015161 0 0.003170512094968294 -0.014915796369997028 0 0.00385585761996217 -0.014255746866477929 0 0.0039641516172830545 -0.015078963552228552 0 0.0049227338331945623 -0.014198206150988907 0 0.00385585761996217 -0.014255746866477929 0 0.0039641516172830545 -0.015078963552228552 0 0.001964688537332125 -0.022999213966812565 0 0.0024152491638393166 -0.023343443669422353 0 0.0016920885162991243 -0.023648684557467381 0 0.0018212631372323026 -0.025899461052101787 0 0.00052947168098238658 -0.026109521952974352 0 0.0005007800429323321 -0.025369330472936293 0 0.0024152491638393166 -0.023343443669422353 0 0.0023327825365652621 -0.023910182713779728 0 0.0016920885162991243 -0.023648684557467381 0 0.0020288418857299056 -0.024911356424612906 0 0.0024485323466693874 -0.021063851846088517 0 0.0018212631372323026 -0.025899461052101787 0 0.00052947168098238658 -0.026109521952974352 0 0.001805172096250675 -0.026475618171062174 0 0.0016985740793245649 -0.016989745469337566 0 0.0012724183292630578 -0.023132823421483338 0 0.00052947168098238658 -0.026109521952974352 0 0.00034888004040080459 -0.025725861574867656 0 0.0005007800429323321 -0.025369330472936293 0 0.0015883802153609232 -0.018476548918743854 0 0.0030001965701389553 -0.018859271703419608 0 0.0026241135338798249 -0.018637395004550694 0 0.0012724183292630578 -0.023132823421483338 0 0.0022655211350479081 -0.02111781205685773 0 0.0030001965701389553 -0.018859271703419608 0 0.0027473023556577516 -0.018345915268677231 0 0.0026241135338798249 -0.018637395004550694 0 0.0022655211350479081 -0.02111781205685773 0 0.0024485323466693874 -0.021063851846088517 0 0.0024485323466693874 -0.021063851846088517 0 0.0025266004309645435 -0.017927143939251808 0 0.0022655211350479081 -0.02111781205685773 0 0.0025266004309645435 -0.017927143939251808 0 0.0027144498918854169 -0.020481983155218951 0 0.0029923965393566878 -0.019819522896931795 0 0.0022641950096409678 -0.019563889920962526 0 0.0027577556478772555 -0.018323449155076891 0 0.0024253112026399876 -0.017635407122700893 0 0.0021190906432574075 -0.018177043082592634 0 0.0015883802153609232 -0.018476548918743854 0 0.0021190906432574075 -0.018177043082592634 0 0.0026241135338798249 -0.018637395004550694 0 0.0027577556478772555 -0.018323449155076891 0 0.0021190906432574075 -0.018177043082592634 0 0.0026241135338798249 -0.018637395004550694 0 0.0022655211350479081 -0.02111781205685773 0 0.0025924505939944292 -0.020132199295146393 0 0.0029597033226842653 -0.015601635259120361 0 0.0038678268466635591 -0.017401889913492546 0 0.002111106222810891 -0.01633524943016057 0 0.0017640411915166195 -0.015316996232489869 0 0.0029597033226842653 -0.015601635259120361 0 0.002111106222810891 -0.01633524943016057 0 0.0012724183292630578 -0.023132823421483338 0 0.0011786378539547678 -0.029829183337976326 0 0.0012724183292630578 -0.023132823421483338 0 0.0015982419026542576 -0.028339697154743666 0 0.00053243300039286902 -0.032785476400732004 0 0.00027689958900778248 -0.033328268182067404 0 0.00067413304694366818 -0.032978485846553988 0 -9.2541607402238295e-05 -0.032528776580421977 0 0.00053243300039286902 -0.032785476400732004 0 0.00027689958900778248 -0.033328268182067404 0 0.0015982419026542576 -0.028339697154743666 0 -0.00031612165568687994 -0.03439170309717908 0 0.00042639656502038373 -0.03355793837849521 0 0.00070022764998910029 -0.033531623432793957 0 0.00082844121660818665 -0.033896768600523916 0 0.00042639656502038373 -0.03355793837849521 0 0.00067413304694366818 -0.032978485846553988 0 0.00070022764998910029 -0.033531623432793957 0 0.0038678268466635591 -0.017401889913492546 0 0.0026644650127300522 -0.018882794824575767 0 0.001841114897678573 -0.017618807127129574 0 0.0038678268466635591 -0.017401889913492546 0 0.002111106222810891 -0.01633524943016057 0 0.001841114897678573 -0.017618807127129574 0 0.00079605037860075759 -0.03403216934016072 0 0.00083781481364096535 -0.03408698085123088 0 0.00081015810071877474 -0.033957134312065207 0 0.00079605037860075759 -0.03403216934016072 0 0.00074273884983396302 -0.034073223436966227 0 0.00074749688923267995 -0.034019870838838166 0 0.00079605037860075759 -0.03403216934016072 0 0.00079350606607118501 -0.034069265699247966 0 0.00074273884983396302 -0.034073223436966227 0 0.00079605037860075759 -0.03403216934016072 0 0.00079350606607118501 -0.034069265699247966 0 0.00083781481364096535 -0.03408698085123088 0 0.00079350606607118501 -0.034069265699247966 0 0.00074273884983396302 -0.034073223436966227 0 0.00078615442669361887 -0.034089893236402435 0 0.00079350606607118501 -0.034069265699247966 0 0.00078615442669361887 -0.034089893236402435 0 0.00083781481364096535 -0.03408698085123088 0 0.00074273884983396302 -0.034073223436966227 0 0.00073191071498765112 -0.034106775451843506 0 0.00078615442669361887 -0.034089893236402435 0 0.0015600530140342966 -0.031513177052182872 0 0.0017137322505218888 -0.030275563463099325 0 0.00073191071498765112 -0.034106775451843506 0 0.00078615442669361887 -0.034089893236402435 0 0.00081936345865274375 -0.034136783690038482 0 0.00078615442669361887 -0.034089893236402435 0 0.0008348975018106549 -0.034103535763168283 0 0.00081936345865274375 -0.034136783690038482 0 0.00078615442669361887 -0.034089893236402435 0 0.0008348975018106549 -0.034103535763168283 0 0.00083781481364096535 -0.03408698085123088 0 0.001866054369798124 -0.030516099140205741 0 0.0018629432847475922 -0.032040478343419262 0 0.001866054369798124 -0.030516099140205741 0 0.0017137322505218888 -0.030275563463099325 0 0.0025698949063142516 -0.030013944121647644 0 0.0026059356385170389 -0.029922483189163383 0 0.0025652465137143677 -0.029907791243405042 0 0.001866054369798124 -0.030516099140205741 0 0.0020071740182150016 -0.028566077548555814 0 0.0017137322505218888 -0.030275563463099325 0 0.0020071740182150016 -0.028566077548555814 0 0.001805172096250675 -0.026475618171062174 0 0.0031426009289315417 -0.026673314935352643 0 0.0031477854360102723 -0.026863305484505474 0 0.001805172096250675 -0.026475618171062174 0 0.0031426009289315417 -0.026673314935352643 0 0.0031352632195131053 -0.026431387237135059 0 0.00136992519222789 -0.033024750573596537 0 0.00088716311493276443 -0.033308280584363352 0 0.00067413304694366818 -0.032978485846553988 0 0.0011786378539547678 -0.029829183337976326 0 0.0018629432847475922 -0.032040478343419262 0 0.00053243300039286902 -0.032785476400732004 0 0.00136992519222789 -0.033024750573596537 0 0.00067413304694366818 -0.032978485846553988 0 0.00088716311493276443 -0.033308280584363352 0 0.00067413304694366818 -0.032978485846553988 0 0.00070022764998910029 -0.033531623432793957 0 0.00070022764998910029 -0.033531623432793957 0 0.00091793823771093403 -0.033751177620276226 0 0.00082844121660818665 -0.033896768600523916 0 0.00136992519222789 -0.033024750573596537 0 0.00088716311493276443 -0.033308280584363352 0 0.00091793823771093403 -0.033751177620276226 0 0.00088716311493276443 -0.033308280584363352 0 0.00070022764998910029 -0.033531623432793957 0 0.00091793823771093403 -0.033751177620276226 0 0.00088392178327630511 -0.033892596755421091 0 0.00091793823771093403 -0.033751177620276226 0 0.00086967053099414418 -0.033845713674233398 0 0.00083781481364096535 -0.03408698085123088 0 0.00086967053099414418 -0.033845713674233398 0 0.00081015810071877474 -0.033957134312065207 0 0.00091793823771093403 -0.033751177620276226 0 0.00086967053099414418 -0.033845713674233398 0 0.00087176875236973854 -0.033871988651881652 0 0.0018629432847475922 -0.032040478343419262 0 0.00069273619250938712 -0.03424637619805538 0 0.0018629432847475922 -0.032040478343419262 0 0.00090016545796864236 -0.034483900736394457 0 0.00086967053099414418 -0.033845713674233398 0 0.00082169079806870588 -0.033904890921647238 0 0.00077583379011084998 -0.033946903493383723 0 0.00086967053099414418 -0.033845713674233398 0 0.00081015810071877474 -0.033957134312065207 0 0.00077583379011084998 -0.033946903493383723 0 0.00081015810071877474 -0.033957134312065207 0 0.00074749688923267995 -0.034019870838838166 0 0.00077583379011084998 -0.033946903493383723 0 0.00079605037860075759 -0.03403216934016072 0 0.00081015810071877474 -0.033957134312065207 0 0.00074749688923267995 -0.034019870838838166 0 0.00086967053099414418 -0.033845713674233398 0 0.00087176875236973854 -0.033871988651881652 0 0.00082169079806870588 -0.033904890921647238 0 0.00087176875236973854 -0.033871988651881652 0 0.00082169079806870588 -0.033904890921647238 0 0.00084193185400368892 -0.033802645213329499 0 0.00091793823771093403 -0.033751177620276226 0 0.00087176875236973854 -0.033871988651881652 0 0.00082844121660818665 -0.033896768600523916 0 0.00087176875236973854 -0.033871988651881652 0 0.00082844121660818665 -0.033896768600523916 0 0.00093261875947787368 -0.033665076339819751 0 0.0010251623130042424 -0.034518434384709633 0 0.00081058141731754347 -0.033299691197280268 0 0.00097914563854928555 -0.033338557623423047 0 0.00090917012399285315 -0.033589482772385541 0 0.00093261875947787368 -0.033665076339819751 0 0.00082169079806870588 -0.033904890921647238 0 0.00084193185400368892 -0.033802645213329499 0 0.00076630632288763375 -0.033895273086425141 0 0.00087176875236973854 -0.033871988651881652 0 0.00084193185400368892 -0.033802645213329499 0 0.00093261875947787368 -0.033665076339819751 0 0.0015982419026542576 -0.028339697154743666 0 0.0020454992233675784 -0.025502449825790707 0 0.0015982419026542576 -0.028339697154743666 0 0.0010251623130042424 -0.034518434384709633 0 0.00091161863384651553 -0.033035979719337728 0 0.00097914563854928555 -0.033338557623423047 0 0.00077101403874993923 -0.033254678528450127 0 0.00097914563854928555 -0.033338557623423047 0 0.00083518761573723153 -0.033476739487343705 0 0.00090917012399285315 -0.033589482772385541 0 0.00097914563854928555 -0.033338557623423047 0 0.00077101403874993923 -0.033254678528450127 0 0.00083518761573723153 -0.033476739487343705 0 0.00077101403874993923 -0.033254678528450127 0 0.00067386326205981061 -0.033394413198523792 0 0.00083518761573723153 -0.033476739487343705 0 0.0020454992233675784 -0.025502449825790707 0 0.00059507179091650576 -0.02689307446634797 0 0.0026644650127300522 -0.018882794824575767 0 0.0013367998034731412 -0.020591612909255277 0 0.001483190588584971 -0.018811242790060537 0 0.0013367998034731412 -0.020591612909255277 0 0.001483190588584971 -0.018811242790060537 0 0.00092696859561429955 -0.019058528817388121 0 0.001483190588584971 -0.018811242790060537 0 0.00090358478818888235 -0.0181787489891089 0 0.00092696859561429955 -0.019058528817388121 0 0.001483190588584971 -0.018811242790060537 0 0.00090358478818888235 -0.0181787489891089 0 0.001841114897678573 -0.017618807127129574 0 0.0026644650127300522 -0.018882794824575767 0 0.001483190588584971 -0.018811242790060537 0 0.001841114897678573 -0.017618807127129574 0 -8.4692544845689376e-06 -0.018628294225678479 0 -0.00050312382951391184 -0.018968168539470701 0 0.00036507032048595033 -0.017006739684787772 0 -0.00021989154184120192 -0.018401489023623215 0 0.0003065091310542793 -0.017055538048676135 0 7.0121040214616984e-05 -0.017558679432560047 0 -1.6591007148914315e-05 -0.017114138967406 0 0.00036507032048595033 -0.017006739684787772 0 0.00090358478818888235 -0.0181787489891089 0 -8.4692544845689376e-06 -0.018628294225678479 0 0.00036507032048595033 -0.017006739684787772 0 0.00090358478818888235 -0.0181787489891089 0 0.00092696859561429955 -0.019058528817388121 0 -8.4692544845689376e-06 -0.018628294225678479 0 8.3753144847468014e-05 -0.019478312643859578 0 -8.4692544845689376e-06 -0.018628294225678479 0 0.00064482835429602488 -0.020139898852466576 0 8.3753144847468014e-05 -0.019478312643859578 0 -8.4692544845689376e-06 -0.018628294225678479 0 -0.00015796379030861418 -0.019164100996159599 0 -8.4692544845689376e-06 -0.018628294225678479 0 -0.00015796379030861418 -0.019164100996159599 0 -0.00050312382951391184 -0.018968168539470701 0 -0.00015796379030861418 -0.019164100996159599 0 -0.00021065694940821208 -0.019594890159187427 0 -0.00050312382951391184 -0.018968168539470701 0 8.3753144847468014e-05 -0.019478312643859578 0 -0.00015796379030861418 -0.019164100996159599 0 -0.00021065694940821208 -0.019594890159187427 0 -0.00021065694940821208 -0.019594890159187427 0 6.3293661142752909e-05 -0.020145737633614765 0 -0.00063455664635117103 -0.020341323717977557 0 0.0019789376671670153 -0.021490582155865075 0 -8.4692544845689376e-06 -0.018628294225678479 0 0.00064482835429602488 -0.020139898852466576 0 0.0013367998034731412 -0.020591612909255277 0 0.00092696859561429955 -0.019058528817388121 0 -8.4692544845689376e-06 -0.018628294225678479 0 -0.00021065694940821208 -0.019594890159187427 0 -0.00063455664635117103 -0.020341323717977557 0 -0.00050312382951391184 -0.018968168539470701 0 0.00059507179091650576 -0.02689307446634797 0 -7.3435349645290616e-05 -0.016632747345443802 0 8.3753144847468014e-05 -0.019478312643859578 0 -0.00021065694940821208 -0.019594890159187427 0 6.3293661142752909e-05 -0.020145737633614765 0 8.3753144847468014e-05 -0.019478312643859578 0 6.3293661142752909e-05 -0.020145737633614765 0 0.00064482835429602488 -0.020139898852466576 0 6.3293661142752909e-05 -0.020145737633614765 0 0.00064482835429602488 -0.020139898852466576 0 0.00043799147964539034 -0.020594237327363943 0 6.3293661142752909e-05 -0.020145737633614765 0 0.00011144070606397613 -0.020734851251972938 0 0.00043799147964539034 -0.020594237327363943 0 6.3293661142752909e-05 -0.020145737633614765 0 0.00011144070606397613 -0.020734851251972938 0 -0.00063455664635117103 -0.020341323717977557 0 0.00064482835429602488 -0.020139898852466576 0 0.00090673094848045077 -0.020914408547984979 0 0.00043799147964539034 -0.020594237327363943 0 0.0019789376671670153 -0.021490582155865075 0 0.00064482835429602488 -0.020139898852466576 0 0.00090673094848045077 -0.020914408547984979 0 0.0019789376671670153 -0.021490582155865075 0 0.00090673094848045077 -0.020914408547984979 0 0.0011249312487798416 -0.02140951567521529 0 0.00090673094848045077 -0.020914408547984979 0 0.00043799147964539034 -0.020594237327363943 0 0.00041047384593789841 -0.021091135137709445 0 0.00090673094848045077 -0.020914408547984979 0 0.00062096875966988999 -0.021518505351045793 0 0.00041047384593789841 -0.021091135137709445 0 0.00090673094848045077 -0.020914408547984979 0 0.00062096875966988999 -0.021518505351045793 0 0.0011249312487798416 -0.02140951567521529 0 -0.00044568117578088699 -0.020919397694824919 0 0.00011144070606397613 -0.020734851251972938 0 -0.00063455664635117103 -0.020341323717977557 0 -0.00044568117578088699 -0.020919397694824919 0 0.00011144070606397613 -0.020734851251972938 0 -2.2381836505999927e-05 -0.021246850284480135 0 0.00011144070606397613 -0.020734851251972938 0 0.00043799147964539034 -0.020594237327363943 0 0.00041047384593789841 -0.021091135137709445 0 0.00011144070606397613 -0.020734851251972938 0 -2.2381836505999927e-05 -0.021246850284480135 0 0.00041047384593789841 -0.021091135137709445 0 -2.2381836505999927e-05 -0.021246850284480135 0 0.00041047384593789841 -0.021091135137709445 0 0.00020684361223205936 -0.021734602505377246 0 0.00062096875966988999 -0.021518505351045793 0 0.00041047384593789841 -0.021091135137709445 0 0.00020684361223205936 -0.021734602505377246 0 -0.00044568117578088699 -0.020919397694824919 0 -2.2381836505999927e-05 -0.021246850284480135 0 -0.00049912910850598085 -0.021418071875732456 0 -2.2381836505999927e-05 -0.021246850284480135 0 -0.00049912910850598085 -0.021418071875732456 0 -0.00026162108392958233 -0.021939609544466471 0 -0.00019782081310541538 -0.018422673781740423 0 -0.00028630093202484719 -0.017844462098026242 0 -0.0010964593509331761 -0.017449670344699617 0 -0.00044568117578088699 -0.020919397694824919 0 -0.0014205969420123343 -0.021473259812299954 0 -0.00063455664635117103 -0.020341323717977557 0 -0.00044568117578088699 -0.020919397694824919 0 -0.00049912910850598085 -0.021418071875732456 0 -0.0014205969420123343 -0.021473259812299954 0 -0.0014205969420123343 -0.021473259812299954 0 -0.00063455664635117103 -0.020341323717977557 0 -0.00050312382951391184 -0.018968168539470701 0 -0.00097973943488395988 -0.019211551633957449 0 -0.00021989154184120192 -0.018401489023623215 0 -0.00019782081310541538 -0.018422673781740423 0 -0.00028630093202484719 -0.017844462098026242 0 7.0121040214616984e-05 -0.017558679432560047 0 -0.00089480514415710133 -0.017227301693165269 0 -0.0014863977782700259 -0.01708457416743054 0 -0.0014558389190247123 -0.016624074516041303 0 -0.00097973943488395988 -0.019211551633957449 0 -0.0012513876161622331 -0.01676753082690316 0 -0.00028630093202484719 -0.017844462098026242 0 -0.0010964593509331761 -0.017449670344699617 0 -0.00048652284604507875 -0.017455302190002044 0 -0.0010964593509331761 -0.017449670344699617 0 -0.00048652284604507875 -0.017455302190002044 0 -0.00095723705484065567 -0.016772902289563719 0 -0.00028630093202484719 -0.017844462098026242 0 -0.00021253583655928175 -0.017544139853665978 0 7.0121040214616984e-05 -0.017558679432560047 0 -0.00021253583655928175 -0.017544139853665978 0 7.0121040214616984e-05 -0.017558679432560047 0 -0.00016416834475044411 -0.017327269029532282 0 -0.00028630093202484719 -0.017844462098026242 0 -0.00021253583655928175 -0.017544139853665978 0 -0.00048652284604507875 -0.017455302190002044 0 -0.00048652284604507875 -0.017455302190002044 0 -0.00016416834475044411 -0.017327269029532282 0 -0.00033823266142563431 -0.016970961647455853 0 -0.00021253583655928175 -0.017544139853665978 0 -0.00048652284604507875 -0.017455302190002044 0 -0.00016416834475044411 -0.017327269029532282 0 7.0121040214616984e-05 -0.017558679432560047 0 -0.00016416834475044411 -0.017327269029532282 0 -1.6591007148914315e-05 -0.017114138967406 0 -1.6591007148914315e-05 -0.017114138967406 0 -0.00033823266142563431 -0.016970961647455853 0 -8.2645843497472531e-05 -0.016562888129858611 0 -0.00016416834475044411 -0.017327269029532282 0 -1.6591007148914315e-05 -0.017114138967406 0 -0.00033823266142563431 -0.016970961647455853 0 -0.00033823266142563431 -0.016970961647455853 0 -8.2645843497472531e-05 -0.016562888129858611 0 -0.00067214154140870521 -0.016243576841828856 0 -1.6591007148914315e-05 -0.017114138967406 0 -8.2645843497472531e-05 -0.016562888129858611 0 0.00036507032048595033 -0.017006739684787772 0 -0.00048652284604507875 -0.017455302190002044 0 -0.00033823266142563431 -0.016970961647455853 0 -0.00095723705484065567 -0.016772902289563719 0 -0.00033823266142563431 -0.016970961647455853 0 -0.00095723705484065567 -0.016772902289563719 0 -0.00067214154140870521 -0.016243576841828856 0 -0.00095723705484065567 -0.016772902289563719 0 -0.0012058086649123908 -0.016209717383886841 0 -0.00067214154140870521 -0.016243576841828856 0 -0.0012058086649123908 -0.016209717383886841 0 -0.00067214154140870521 -0.016243576841828856 0 -0.0012574990007610651 -0.015683095611888485 0 -0.00060191389717641403 -0.015555164014717198 0 -0.00067214154140870521 -0.016243576841828856 0 -0.0012574990007610651 -0.015683095611888485 0 -8.2645843497472531e-05 -0.016562888129858611 0 -7.5138302761175964e-05 -0.015949634592891036 0 0.00034759797988553057 -0.016379636429145375 0 -8.2645843497472531e-05 -0.016562888129858611 0 -0.00067214154140870521 -0.016243576841828856 0 -7.5138302761175964e-05 -0.015949634592891036 0 -0.00060191389717641403 -0.015555164014717198 0 -0.00067214154140870521 -0.016243576841828856 0 -7.5138302761175964e-05 -0.015949634592891036 0 -0.00017755112272018129 -0.015490350051363629 0 -0.00060191389717641403 -0.015555164014717198 0 -7.5138302761175964e-05 -0.015949634592891036 0 0.00026027791985557756 -0.015468929391429107 0 -7.5138302761175964e-05 -0.015949634592891036 0 0.00061501749628563719 -0.015881152978014231 0 -7.5138302761175964e-05 -0.015949634592891036 0 0.00034759797988553057 -0.016379636429145375 0 0.00061501749628563719 -0.015881152978014231 0 0.00034759797988553057 -0.016379636429145375 0 0.00061501749628563719 -0.015881152978014231 0 0.0010734961495913794 -0.016493276162181904 0 0.00061501749628563719 -0.015881152978014231 0 0.0012456686609257173 -0.015860441242333722 0 0.0010734961495913794 -0.016493276162181904 0 0.00076798218249635511 -0.015312377943306154 0 0.00061501749628563719 -0.015881152978014231 0 0.0012456686609257173 -0.015860441242333722 0 0.0017640411915166195 -0.015316996232489869 0 0.0012456686609257173 -0.015860441242333722 0 0.002111106222810891 -0.01633524943016057 0 0.0012456686609257173 -0.015860441242333722 0 0.002111106222810891 -0.01633524943016057 0 0.0010734961495913794 -0.016493276162181904 0 0.002111106222810891 -0.01633524943016057 0 0.0010734961495913794 -0.016493276162181904 0 0.001841114897678573 -0.017618807127129574 0 0.00090358478818888235 -0.0181787489891089 0 0.001841114897678573 -0.017618807127129574 0 0.00036507032048595033 -0.017006739684787772 0 0.0010734961495913794 -0.016493276162181904 0 0.001841114897678573 -0.017618807127129574 0 0.00036507032048595033 -0.017006739684787772 0 -8.2645843497472531e-05 -0.016562888129858611 0 0.00034759797988553057 -0.016379636429145375 0 0.00036507032048595033 -0.017006739684787772 0 0.00034759797988553057 -0.016379636429145375 0 0.0010734961495913794 -0.016493276162181904 0 0.00036507032048595033 -0.017006739684787772 0 1.8406671138349916e-08 -0.034999967249812976 0 2.724391065564098e-05 -0.035017315308663255 0 4.595585695124433e-05 -0.034957551547535069 0 9.0263272112391118e-05 -0.035036231453116032 0 2.724391065564098e-05 -0.035017315308663255 0 4.595585695124433e-05 -0.034957551547535069 0 9.0263272112391118e-05 -0.035036231453116032 0 0.000213160693450113 -0.034859023889153337 0 4.595585695124433e-05 -0.034957551547535069 0 9.0263272112391118e-05 -0.035036231453116032 0 5.8373720690841767e-05 -0.03503012603337053 0 2.724391065564098e-05 -0.035017315308663255 0 9.0263272112391118e-05 -0.035036231453116032 0 5.8373720690841767e-05 -0.03503012603337053 0 6.3746758045083081e-05 -0.03503140887506552 0 5.8373720690841767e-05 -0.03503012603337053 0 2.724391065564098e-05 -0.035017315308663255 0 4.0126489645710894e-05 -0.035028888671752453 0 0.00014291321611125318 -0.035206171546185369 0 6.7524089737199618e-05 -0.034571532325531132 0 5.8373720690841767e-05 -0.03503012603337053 0 4.0126489645710894e-05 -0.035028888671752453 0 6.3746758045083081e-05 -0.03503140887506552 0 1.8406671138349916e-08 -0.034999967249812976 0 2.724391065564098e-05 -0.035017315308663255 0 2.4253388246722169e-08 -0.035000061093332084 0 2.724391065564098e-05 -0.035017315308663255 0 2.4253388246722169e-08 -0.035000061093332084 0 4.0126489645710894e-05 -0.035028888671752453 0 2.4253388246722169e-08 -0.035000061093332084 0 3.4314986068359537e-06 -0.035002491239701984 0 4.0126489645710894e-05 -0.035028888671752453 0 2.4253388246722169e-08 -0.035000061093332084 0 3.4314986068359537e-06 -0.035002491239701984 0 8.5572020896136816e-10 -0.034999980557912057 0 1.8763832180504177e-05 -0.035002855137857357 0 -1.9063097230185963e-05 -0.035012655665481798 0 3.4314986068359537e-06 -0.035002491239701984 0 -3.6862114200382218e-06 -0.034993629152510516 0 -9.0607376992431882e-06 -0.035005054313744136 0 3.4314986068359537e-06 -0.035002491239701984 0 8.5572020896136816e-10 -0.034999980557912057 0 -3.6862114200382218e-06 -0.034993629152510516 0 8.5572020896136816e-10 -0.034999980557912057 0 -3.6862114200382218e-06 -0.034993629152510516 0 -9.2681079303867874e-06 -0.034977901856008999 0 -9.2681079303867874e-06 -0.034977901856008999 0 -1.8985905016006833e-05 -0.03498998774034856 0 -5.1493372804883443e-05 -0.034957070169778344 0 -4.9448808477719481e-06 -0.034949380149353525 0 -9.2681079303867874e-06 -0.034977901856008999 0 -5.1493372804883443e-05 -0.034957070169778344 0 -3.6862114200382218e-06 -0.034993629152510516 0 -9.2681079303867874e-06 -0.034977901856008999 0 -1.8985905016006833e-05 -0.03498998774034856 0 -3.6862114200382218e-06 -0.034993629152510516 0 -1.8985905016006833e-05 -0.03498998774034856 0 -9.0607376992431882e-06 -0.035005054313744136 0 -1.8985905016006833e-05 -0.03498998774034856 0 -9.0607376992431882e-06 -0.035005054313744136 0 -3.2391083855169474e-05 -0.03501429138208581 0 -1.9063097230185963e-05 -0.035012655665481798 0 6.7524089737199618e-05 -0.034571532325531132 0 -0.00011036191995438683 -0.034395675234825805 0 6.7524089737199618e-05 -0.034571532325531132 0 -0.00010551170326070461 -0.033963233655793977 0 0.00011381058028328454 -0.033659005573952343 0 -0.00017689746703668517 -0.033522210174900702 0 -1.8985905016006833e-05 -0.03498998774034856 0 -5.1493372804883443e-05 -0.034957070169778344 0 -3.2391083855169474e-05 -0.03501429138208581 0 -0.00010551170326070461 -0.033963233655793977 0 0.00021712599146233745 -0.03389961703624858 0 0.00011381058028328454 -0.033659005573952343 0 0.00024267432013567487 -0.034210156143166214 0 -0.00010551170326070461 -0.033963233655793977 0 0.00021712599146233745 -0.03389961703624858 0 0.00021712599146233745 -0.03389961703624858 0 0.00011381058028328454 -0.033659005573952343 0 0.0003518994788251066 -0.033750473704007411 0 0.00011381058028328454 -0.033659005573952343 0 0.00018816628852719408 -0.033406815465548023 0 -0.00017689746703668517 -0.033522210174900702 0 0.00011381058028328454 -0.033659005573952343 0 0.00018816628852719408 -0.033406815465548023 0 0.00042494202907707108 -0.033540033471678991 0 9.0263272112391118e-05 -0.035036231453116032 0 0.00014473155146282153 -0.035205795286724212 0 0.00028239965431989164 -0.035002918047082068 0 0.00038906103199033677 -0.035137482540448205 0 0.00014473155146282153 -0.035205795286724212 0 0.00028239965431989164 -0.035002918047082068 0 0.00029139748258049113 -0.034239664291798644 0 6.7524089737199618e-05 -0.034571532325531132 0 9.0263272112391118e-05 -0.035036231453116032 0 0.00028239965431989164 -0.035002918047082068 0 0.000213160693450113 -0.034859023889153337 0 0.00038906103199033677 -0.035137482540448205 0 0.00028239965431989164 -0.035002918047082068 0 0.00047457261934880757 -0.03499110571126237 0 0.00028239965431989164 -0.035002918047082068 0 0.00047457261934880757 -0.03499110571126237 0 0.00053320599177470503 -0.034821504469871215 0 0.00047457261934880757 -0.03499110571126237 0 0.00063591112940929683 -0.035047667976594213 0 0.00053320599177470503 -0.034821504469871215 0 0.00053587605622555266 -0.034273289666542382 0 0.00055784470696455346 -0.034600795775980145 0 0.00038906103199033677 -0.035137482540448205 0 0.00047457261934880757 -0.03499110571126237 0 0.00063591112940929683 -0.035047667976594213 0 0.00058313428077005328 -0.034201343611728309 0 0.0005949966993503646 -0.034192951994765505 0 0.00054950129335913525 -0.034242345063474462 0 0.00061683408658357486 -0.034181740974189002 0 0.00067768307509582203 -0.034166242125213075 0 0.00060947902121910038 -0.034145968654888635 0 0.00058313428077005328 -0.034201343611728309 0 0.00061683408658357486 -0.034181740974189002 0 0.00058522573939317937 -0.034185685328223581 0 0.00061683408658357486 -0.034181740974189002 0 0.00061714867636589936 -0.034162781107520468 0 0.00058522573939317937 -0.034185685328223581 0 0.00064880073597006998 -0.034188101026831792 0 0.00053587605622555266 -0.034273289666542382 0 0.00058313428077005328 -0.034201343611728309 0 0.00061683408658357486 -0.034181740974189002 0 0.0005949966993503646 -0.034192951994765505 0 0.000537874955304506 -0.033313093597104063 0 0.00065374131822019282 -0.033586361494914771 0 0.00042494202907707108 -0.033540033471678991 0 0.00053587605622555266 -0.034273289666542382 0 0.00062469358044318804 -0.033740096365476015 0 0.00067768307509582203 -0.034166242125213075 0 0.00067608344258657694 -0.034083317697443195 0 0.00060947902121910038 -0.034145968654888635 0 0.00018816628852719408 -0.033406815465548023 0 0.000537874955304506 -0.033313093597104063 0 0.00042494202907707108 -0.033540033471678991 0 0.00029139748258049113 -0.034239664291798644 0 0.00053587605622555266 -0.034273289666542382 0 0.00011381058028328454 -0.033659005573952343 0 0.00042494202907707108 -0.033540033471678991 0 0.0003518994788251066 -0.033750473704007411 0 0.00042494202907707108 -0.033540033471678991 0 0.0003518994788251066 -0.033750473704007411 0 0.00060104043020891272 -0.033756626122736021 0 0.00047737632287983263 -0.033980324419990861 0 0.0003518994788251066 -0.033750473704007411 0 0.00060104043020891272 -0.033756626122736021 0 0.00047737632287983263 -0.033980324419990861 0 0.00021712599146233745 -0.03389961703624858 0 0.0003518994788251066 -0.033750473704007411 0 0.00047737632287983263 -0.033980324419990861 0 0.00060104043020891272 -0.033756626122736021 0 0.00074601736720929376 -0.033812578381505143 0 0.00060104043020891272 -0.033756626122736021 0 0.00074601736720929376 -0.033812578381505143 0 0.00063166710129274539 -0.033826127765739032 0 0.00065374131822019282 -0.033586361494914771 0 0.00042494202907707108 -0.033540033471678991 0 0.00060104043020891272 -0.033756626122736021 0 0.00062469358044318804 -0.033740096365476015 0 0.00064730117284144436 -0.033842285483526642 0 0.00065374131822019282 -0.033586361494914771 0 0.00060104043020891272 -0.033756626122736021 0 0.00063166710129274539 -0.033826127765739032 0 0.00051739465911684532 -0.033991668999801584 0 0.00063166710129274539 -0.033826127765739032 0 0.00032869792534919844 -0.033893604298987023 0 0.00067608344258657694 -0.034083317697443195 0 0.00051739465911684532 -0.033991668999801584 0 0.00053989699345566864 -0.034116683138124645 0 0.00067608344258657694 -0.034083317697443195 0 0.00051739465911684532 -0.033991668999801584 0 0.00063166710129274539 -0.033826127765739032 0 0.00063166710129274539 -0.033826127765739032 0 0.0004311761130025392 -0.033719114771692177 0 0.00032869792534919844 -0.033893604298987023 0 0.00033965249135694089 -0.033470068319590762 0 0.0004311761130025392 -0.033719114771692177 0 0.00056519210020346538 -0.033685935064875092 0 0.00063166710129274539 -0.033826127765739032 0 0.0004311761130025392 -0.033719114771692177 0 0.00056519210020346538 -0.033685935064875092 0 0.00074601736720929376 -0.033812578381505143 0 0.00063166710129274539 -0.033826127765739032 0 0.00056519210020346538 -0.033685935064875092 0 2.8300227752745716e-05 -0.033358043897980375 0 -5.0833553992411962e-05 -0.033718461706837767 0 0.00022012576959662568 -0.03363630561602575 0 0.00033965249135694089 -0.033470068319590762 0 0.0004311761130025392 -0.033719114771692177 0 0.00022012576959662568 -0.03363630561602575 0 0.0004311761130025392 -0.033719114771692177 0 0.00022012576959662568 -0.03363630561602575 0 0.00032869792534919844 -0.033893604298987023 0 -5.0833553992411962e-05 -0.033718461706837767 0 0.00032869792534919844 -0.033893604298987023 0 0.00026513344889307833 -0.034048192581413159 0 -5.0833553992411962e-05 -0.033718461706837767 0 0.00022012576959662568 -0.03363630561602575 0 0.00032869792534919844 -0.033893604298987023 0 0.00079778513949912869 -0.031445152388706619 0 0.00059108397606528367 -0.032140188130820528 0 0.0013514248179537995 -0.028833886848674436 0 0.0014856532733205521 -0.028810647717138996 0 0.0013883596562287946 -0.029037617311675149 0 0.0013658168822767035 -0.028611978041726459 0 0.0013514248179537995 -0.028833886848674436 0 0.0014856532733205521 -0.028810647717138996 0 0.00051739465911684532 -0.033991668999801584 0 0.00032869792534919844 -0.033893604298987023 0 0.00033174378747271921 -0.03398161503303769 0 0.00016346522633370377 -0.033611174331829197 0 0.00059108397606528367 -0.032140188130820528 0 0.00051739465911684532 -0.033991668999801584 0 0.00033174378747271921 -0.03398161503303769 0 0.00053989699345566864 -0.034116683138124645 0 0.00059108397606528367 -0.032140188130820528 0 0.00089480899912122605 -0.03427357916829863 0 0.00059108397606528367 -0.032140188130820528 0 0.00096023212946889274 -0.031719645832311155 0 0.00053989699345566864 -0.034116683138124645 0 0.00061080923520998389 -0.034146846136089704 0 0.00065439294073414375 -0.034127292500188727 0 0.00056667795415089937 -0.034137110849863095 0 0.00063558006033187606 -0.034119306717568597 0 0.00053989699345566864 -0.034116683138124645 0 0.00063558006033187606 -0.034119306717568597 0 0.00053989699345566864 -0.034116683138124645 0 0.00065439294073414375 -0.034127292500188727 0 0.00053989699345566864 -0.034116683138124645 0 0.00060947902121910038 -0.034145968654888635 0 0.00061080923520998389 -0.034146846136089704 0 0.00067608344258657694 -0.034083317697443195 0 0.00053989699345566864 -0.034116683138124645 0 0.00060947902121910038 -0.034145968654888635 0 0.00060947902121910038 -0.034145968654888635 0 0.00061080923520998389 -0.034146846136089704 0 0.00061313895812766753 -0.034161259822859766 0 0.00061683408658357486 -0.034181740974189002 0 0.00060947902121910038 -0.034145968654888635 0 0.00061313895812766753 -0.034161259822859766 0 0.00061683408658357486 -0.034181740974189002 0 0.00061313895812766753 -0.034161259822859766 0 0.00061714867636589936 -0.034162781107520468 0 0.00061080923520998389 -0.034146846136089704 0 0.00061313895812766753 -0.034161259822859766 0 0.00061714867636589936 -0.034162781107520468 0 0.00061080923520998389 -0.034146846136089704 0 0.00061714867636589936 -0.034162781107520468 0 0.00063081619200110498 -0.0341447074301999 0 0.00061080923520998389 -0.034146846136089704 0 0.00063081619200110498 -0.0341447074301999 0 0.00065296409836405628 -0.034131964833633892 0 0.00061080923520998389 -0.034146846136089704 0 0.00065296409836405628 -0.034131964833633892 0 0.00065439294073414375 -0.034127292500188727 0 0.00065296409836405628 -0.034131964833633892 0 0.00065439294073414375 -0.034127292500188727 0 0.00068913748967895075 -0.034115469315352698 0 0.00073191071498765112 -0.034106775451843506 0 0.00065439294073414375 -0.034127292500188727 0 0.00068913748967895075 -0.034115469315352698 0 0.0006896813526833318 -0.034091829662438629 0 0.00064448559419418743 -0.034127493925634432 0 0.00068369441038647609 -0.034062075988840534 0 0.0006896813526833318 -0.034091829662438629 0 0.00068369441038647609 -0.034062075988840534 0 0.00074749688923267995 -0.034019870838838166 0 0.00074273884983396302 -0.034073223436966227 0 0.0006896813526833318 -0.034091829662438629 0 0.00074749688923267995 -0.034019870838838166 0 0.00074273884983396302 -0.034073223436966227 0 0.0006896813526833318 -0.034091829662438629 0 0.00068913748967895075 -0.034115469315352698 0 0.00065296409836405628 -0.034131964833633892 0 0.0006896813526833318 -0.034091829662438629 0 0.00068913748967895075 -0.034115469315352698 0 0.00074273884983396302 -0.034073223436966227 0 0.00073191071498765112 -0.034106775451843506 0 0.00068913748967895075 -0.034115469315352698 0 0.00063081619200110498 -0.0341447074301999 0 0.00065296409836405628 -0.034131964833633892 0 0.00064448559419418743 -0.034127493925634432 0 0.00065296409836405628 -0.034131964833633892 0 0.0006896813526833318 -0.034091829662438629 0 0.00064448559419418743 -0.034127493925634432 0 0.00061714867636589936 -0.034162781107520468 0 0.00063081619200110498 -0.0341447074301999 0 0.00064448559419418743 -0.034127493925634432 0 0.00061714867636589936 -0.034162781107520468 0 0.00064448559419418743 -0.034127493925634432 0 0.00062512758989619825 -0.03413615500825265 0 0.00061714867636589936 -0.034162781107520468 0 0.00062512758989619825 -0.03413615500825265 0 0.00058522573939317937 -0.034185685328223581 0 0.00062512758989619825 -0.03413615500825265 0 0.00062683608421511695 -0.034121818228634068 0 0.00058522573939317937 -0.034185685328223581 0 0.00064448559419418743 -0.034127493925634432 0 0.00062512758989619825 -0.03413615500825265 0 0.00068369441038647609 -0.034062075988840534 0 0.00062512758989619825 -0.03413615500825265 0 0.00062683608421511695 -0.034121818228634068 0 0.00068369441038647609 -0.034062075988840534 0 0.00062683608421511695 -0.034121818228634068 0 0.00068369441038647609 -0.034062075988840534 0 0.00073124928720879896 -0.03398747463179301 0 0.00068369441038647609 -0.034062075988840534 0 0.00074749688923267995 -0.034019870838838166 0 0.00077583379011084998 -0.033946903493383723 0 0.00068369441038647609 -0.034062075988840534 0 0.00077583379011084998 -0.033946903493383723 0 0.00073124928720879896 -0.03398747463179301 0 0.00073124928720879896 -0.03398747463179301 0 0.00076630632288763375 -0.033895273086425141 0 0.0006695593060562266 -0.03402730141054397 0 0.00082169079806870588 -0.033904890921647238 0 0.00073124928720879896 -0.03398747463179301 0 0.00076630632288763375 -0.033895273086425141 0 0.00082169079806870588 -0.033904890921647238 0 0.00077583379011084998 -0.033946903493383723 0 0.00073124928720879896 -0.03398747463179301 0 0.00076630632288763375 -0.033895273086425141 0 0.00068568661253192397 -0.033886763473787836 0 0.00081580298749770581 -0.033738352444623171 0 0.00084193185400368892 -0.033802645213329499 0 0.00076630632288763375 -0.033895273086425141 0 0.00081580298749770581 -0.033738352444623171 0 0.00076630632288763375 -0.033895273086425141 0 0.0006695593060562266 -0.03402730141054397 0 0.00068568661253192397 -0.033886763473787836 0 0.0006695593060562266 -0.03402730141054397 0 0.00059369361608427567 -0.034079038124253509 0 0.00068568661253192397 -0.033886763473787836 0 0.00062683608421511695 -0.034121818228634068 0 0.00073124928720879896 -0.03398747463179301 0 0.0006695593060562266 -0.03402730141054397 0 0.00062683608421511695 -0.034121818228634068 0 0.0006695593060562266 -0.03402730141054397 0 0.00060728069797783251 -0.034126240357662506 0 0.00060728069797783251 -0.034126240357662506 0 0.00059369361608427567 -0.034079038124253509 0 0.00054334940124459771 -0.034247514310931565 0 0.0006695593060562266 -0.03402730141054397 0 0.00060728069797783251 -0.034126240357662506 0 0.00059369361608427567 -0.034079038124253509 0 0.00059369361608427567 -0.034079038124253509 0 0.00047866596168616638 -0.034209573338002702 0 0.00054695599135592228 -0.033895620552875268 0 0.00047866596168616638 -0.034209573338002702 0 0.00054334940124459771 -0.034247514310931565 0 0.00041776489999524136 -0.034470394107833216 0 0.00059369361608427567 -0.034079038124253509 0 0.00047866596168616638 -0.034209573338002702 0 0.00054334940124459771 -0.034247514310931565 0 0.00054334940124459771 -0.034247514310931565 0 0.00054950129335913525 -0.034242345063474462 0 0.00041776489999524136 -0.034470394107833216 0 0.00054334940124459771 -0.034247514310931565 0 0.00058522573939317937 -0.034185685328223581 0 0.00054950129335913525 -0.034242345063474462 0 0.00062683608421511695 -0.034121818228634068 0 0.00060728069797783251 -0.034126240357662506 0 0.00054334940124459771 -0.034247514310931565 0 0.00062683608421511695 -0.034121818228634068 0 0.00054334940124459771 -0.034247514310931565 0 0.00058522573939317937 -0.034185685328223581 0 0.00058313428077005328 -0.034201343611728309 0 0.00058522573939317937 -0.034185685328223581 0 0.00054950129335913525 -0.034242345063474462 0 0.00028239965431989164 -0.035002918047082068 0 0.00053320599177470503 -0.034821504469871215 0 0.000213160693450113 -0.034859023889153337 0 0.000213160693450113 -0.034859023889153337 0 0.00041776489999524136 -0.034470394107833216 0 0.00010532376625996517 -0.034766382786859604 0 0.00055784470696455346 -0.034600795775980145 0 0.00041474739436992526 -0.03442413917094965 0 0.00053320599177470503 -0.034821504469871215 0 0.000213160693450113 -0.034859023889153337 0 0.00041776489999524136 -0.034470394107833216 0 0.00047866596168616638 -0.034209573338002702 0 0.00041776489999524136 -0.034470394107833216 0 0.00028832662456422655 -0.034424143546860013 0 0.00047866596168616638 -0.034209573338002702 0 0.00028832662456422655 -0.034424143546860013 0 0.0003716621268654528 -0.034110994124941091 0 0.00028832662456422655 -0.034424143546860013 0 0.00013956509161757949 -0.034415648460975994 0 0.0003716621268654528 -0.034110994124941091 0 0.00028832662456422655 -0.034424143546860013 0 9.3855709611684248e-05 -0.03466828924307102 0 0.00013956509161757949 -0.034415648460975994 0 0.00041776489999524136 -0.034470394107833216 0 0.00028832662456422655 -0.034424143546860013 0 0.00010532376625996517 -0.034766382786859604 0 0.00028832662456422655 -0.034424143546860013 0 9.3855709611684248e-05 -0.03466828924307102 0 0.00010532376625996517 -0.034766382786859604 0 9.3855709611684248e-05 -0.03466828924307102 0 1.9067673679943586e-05 -0.034878153768643456 0 0.00010532376625996517 -0.034766382786859604 0 8.5977775080857901e-05 -0.03463229759704476 0 2.4242496536168109e-07 -0.034861670662486438 0 9.3855709611684248e-05 -0.03466828924307102 0 0.00013956509161757949 -0.034415648460975994 0 -9.0478572585618378e-06 -0.034917962717034248 0 -1.764393059418682e-08 -0.034999956220324667 0 -3.0623221667172886e-05 -0.034892622211492752 0 -2.0484063309679344e-07 -0.034820252455047634 0 -9.0478572585618378e-06 -0.034917962717034248 0 -1.85111669339442e-05 -0.034853826395898291 0 -1.4221956164119688e-07 -0.034999071440617917 0 -7.2896896920582267e-05 -0.03478541463558802 0 -1.85111669339442e-05 -0.034853826395898291 0 -1.4221956164119688e-07 -0.034999071440617917 0 -9.0478572585618378e-06 -0.034917962717034248 0 -1.85111669339442e-05 -0.034853826395898291 0 -1.4221956164119688e-07 -0.034999071440617917 0 -9.0478572585618378e-06 -0.034917962717034248 0 1.9067673679943586e-05 -0.034878153768643456 0 9.3855709611684248e-05 -0.03466828924307102 0 -9.0478572585618378e-06 -0.034917962717034248 0 1.9067673679943586e-05 -0.034878153768643456 0 -1.4221956164119688e-07 -0.034999071440617917 0 1.9067673679943586e-05 -0.034878153768643456 0 1.8621861789179996e-08 -0.034999946261967368 0 1.9067673679943586e-05 -0.034878153768643456 0 1.8621861789179996e-08 -0.034999946261967368 0 0.00010532376625996517 -0.034766382786859604 0 1.8621861789179996e-08 -0.034999946261967368 0 0.00010532376625996517 -0.034766382786859604 0 4.595585695124433e-05 -0.034957551547535069 0 0.000213160693450113 -0.034859023889153337 0 0.00010532376625996517 -0.034766382786859604 0 4.595585695124433e-05 -0.034957551547535069 0 1.8406671138349916e-08 -0.034999967249812976 0 1.8621861789179996e-08 -0.034999946261967368 0 4.595585695124433e-05 -0.034957551547535069 0 -4.2301299986151684e-07 -0.035003635117402683 0 -1.4985296558064398e-08 -0.035000016443821384 0 5.380962750515564e-08 -0.03500000237885513 0 -4.5463197235816826e-06 -0.034729897790735653 0 3.3110430073317975e-05 -0.034738596516824601 0 -2.068953321278217e-05 -0.034722621131999261 0 -4.5463197235816826e-06 -0.034729897790735653 0 -1.4864717949985718e-05 -0.034741291002532794 0 -2.2995576227620431e-05 -0.034720021942208183 0 3.3110430073317975e-05 -0.034738596516824601 0 -1.4864717949985718e-05 -0.034741291002532794 0 -1.0714901383943414e-05 -0.034817874637562647 0 -4.5463197235816826e-06 -0.034729897790735653 0 3.3110430073317975e-05 -0.034738596516824601 0 -1.4864717949985718e-05 -0.034741291002532794 0 -2.9804926196055595e-05 -0.034717750170446572 0 -3.6989563351312202e-05 -0.034689545754402404 0 -3.0836049071222401e-05 -0.034717884584200859 0 -1.4864717949985718e-05 -0.034741291002532794 0 -2.9804926196055595e-05 -0.034717750170446572 0 -2.2860035938459245e-05 -0.03476898231688539 0 -2.9804926196055595e-05 -0.034717750170446572 0 -3.0836049071222401e-05 -0.034717884584200859 0 -2.2860035938459245e-05 -0.03476898231688539 0 -1.4864717949985718e-05 -0.034741291002532794 0 -2.9804926196055595e-05 -0.034717750170446572 0 -2.2995576227620431e-05 -0.034720021942208183 0 -2.9804926196055595e-05 -0.034717750170446572 0 -2.2995576227620431e-05 -0.034720021942208183 0 -2.9733691294077315e-05 -0.034717727183531173 0 -2.9804926196055595e-05 -0.034717750170446572 0 -2.9733691294077315e-05 -0.034717727183531173 0 -3.6989563351312202e-05 -0.034689545754402404 0 -2.2995576227620431e-05 -0.034720021942208183 0 -2.9733691294077315e-05 -0.034717727183531173 0 -2.7718579333305891e-05 -0.034728411207428374 0 -4.2301299986151684e-07 -0.035003635117402683 0 -1.4985296558064398e-08 -0.035000016443821384 0 -7.8110832566558411e-08 -0.034999518873492064 0 3.3110430073317975e-05 -0.034738596516824601 0 -2.068953321278217e-05 -0.034722621131999261 0 -3.6255462943252896e-05 -0.034722548558448987 0 -3.0030598808649901e-05 -0.034728947053811 0 -2.7718579333305891e-05 -0.034728411207428374 0 -2.068953321278217e-05 -0.034722621131999261 0 1.1966759983858706e-05 -0.034876939800634173 0 -1.6602722394590762e-05 -0.034865089806211745 0 -2.2995576227620431e-05 -0.034720021942208183 0 -2.7718579333305891e-05 -0.034728411207428374 0 -2.068953321278217e-05 -0.034722621131999261 0 -4.5463197235816826e-06 -0.034729897790735653 0 -2.2995576227620431e-05 -0.034720021942208183 0 -2.068953321278217e-05 -0.034722621131999261 0 -3.0030598808649901e-05 -0.034728947053811 0 -2.068953321278217e-05 -0.034722621131999261 0 -3.6255462943252896e-05 -0.034722548558448987 0 -3.0030598808649901e-05 -0.034728947053811 0 -3.6255462943252896e-05 -0.034722548558448987 0 -3.6150856961391285e-05 -0.034753703733056744 0 -3.6255462943252896e-05 -0.034722548558448987 0 -3.6150856961391285e-05 -0.034753703733056744 0 -7.2896896920582267e-05 -0.03478541463558802 0 -7.8110832566558411e-08 -0.034999518873492064 0 3.8815380489766614e-09 -0.034999991675689131 0 3.152195628911947e-09 -0.034999990031864915 0 -1.6602722394590762e-05 -0.034865089806211745 0 -3.0623221667172886e-05 -0.034892622211492752 0 -1.4985296558064398e-08 -0.035000016443821384 0 -7.8110832566558411e-08 -0.034999518873492064 0 3.8815380489766614e-09 -0.034999991675689131 0 -3.0030598808649901e-05 -0.034728947053811 0 -2.7718579333305891e-05 -0.034728411207428374 0 -3.6150856961391285e-05 -0.034753703733056744 0 -2.7718579333305891e-05 -0.034728411207428374 0 -3.6150856961391285e-05 -0.034753703733056744 0 -2.0332641359659864e-05 -0.034759271808329863 0 -3.6150856961391285e-05 -0.034753703733056744 0 -3.4817374830101042e-05 -0.034780482168179833 0 -2.0332641359659864e-05 -0.034759271808329863 0 -3.6150856961391285e-05 -0.034753703733056744 0 -7.2896896920582267e-05 -0.03478541463558802 0 -3.4817374830101042e-05 -0.034780482168179833 0 -2.1659252896952916e-09 -0.035000003626653314 0 3.8815380489766614e-09 -0.034999991675689131 0 3.152195628911947e-09 -0.034999990031864915 0 -7.2896896920582267e-05 -0.03478541463558802 0 -3.3534797480698131e-05 -0.034806375126614053 0 -3.4817374830101042e-05 -0.034780482168179833 0 -3.4817374830101042e-05 -0.034780482168179833 0 -1.7783450324789444e-05 -0.034800654568296709 0 -2.0332641359659864e-05 -0.034759271808329863 0 -3.3534797480698131e-05 -0.034806375126614053 0 -3.4817374830101042e-05 -0.034780482168179833 0 -1.7783450324789444e-05 -0.034800654568296709 0 -3.3534797480698131e-05 -0.034806375126614053 0 -1.7783450324789444e-05 -0.034800654568296709 0 -1.85111669339442e-05 -0.034853826395898291 0 -7.2896896920582267e-05 -0.03478541463558802 0 -3.3534797480698131e-05 -0.034806375126614053 0 -1.85111669339442e-05 -0.034853826395898291 0 -2.0484063309679344e-07 -0.034820252455047634 0 -2.0332641359659864e-05 -0.034759271808329863 0 -2.1731987029199224e-05 -0.034737556680289841 0 -2.0484063309679344e-07 -0.034820252455047634 0 -1.7783450324789444e-05 -0.034800654568296709 0 -1.85111669339442e-05 -0.034853826395898291 0 -2.0484063309679344e-07 -0.034820252455047634 0 -1.7783450324789444e-05 -0.034800654568296709 0 -2.0332641359659864e-05 -0.034759271808329863 0 -2.9733691294077315e-05 -0.034717727183531173 0 -2.7718579333305891e-05 -0.034728411207428374 0 -2.0332641359659864e-05 -0.034759271808329863 0 -2.9733691294077315e-05 -0.034717727183531173 0 -2.0332641359659864e-05 -0.034759271808329863 0 -2.1731987029199224e-05 -0.034737556680289841 0 -2.0484063309679344e-07 -0.034820252455047634 0 -2.1731987029199224e-05 -0.034737556680289841 0 1.3817884673682903e-05 -0.034812815806617145 0 8.5977775080857901e-05 -0.03463229759704476 0 0.00020225003722492256 -0.034462169650002171 0 -2.1731987029199224e-05 -0.034737556680289841 0 1.3817884673682903e-05 -0.034812815806617145 0 1.9403475132011782e-05 -0.034692295198888334 0 -2.1731987029199224e-05 -0.034737556680289841 0 -3.7503428104797804e-05 -0.034651712578723015 0 1.9403475132011782e-05 -0.034692295198888334 0 -2.1731987029199224e-05 -0.034737556680289841 0 -3.6989563351312202e-05 -0.034689545754402404 0 -3.7503428104797804e-05 -0.034651712578723015 0 -2.9733691294077315e-05 -0.034717727183531173 0 -2.1731987029199224e-05 -0.034737556680289841 0 -3.6989563351312202e-05 -0.034689545754402404 0 -3.6989563351312202e-05 -0.034689545754402404 0 -3.8189946776627437e-05 -0.034645864776451818 0 -3.0836049071222401e-05 -0.034717884584200859 0 -3.6989563351312202e-05 -0.034689545754402404 0 -3.8189946776627437e-05 -0.034645864776451818 0 -3.7503428104797804e-05 -0.034651712578723015 0 -3.8189946776627437e-05 -0.034645864776451818 0 -3.7503428104797804e-05 -0.034651712578723015 0 -6.7595401554272559e-05 -0.034482887451075694 0 -3.7503428104797804e-05 -0.034651712578723015 0 1.9403475132011782e-05 -0.034692295198888334 0 -6.7595401554272559e-05 -0.034482887451075694 0 9.5261663388623299e-05 -0.034507709738748782 0 1.9403475132011782e-05 -0.034692295198888334 0 -6.7595401554272559e-05 -0.034482887451075694 0 9.5261663388623299e-05 -0.034507709738748782 0 0.00031600576261907272 -0.034366586075618211 0 0.00013005030857732468 -0.034211499887183645 0 9.5261663388623299e-05 -0.034507709738748782 0 0.00019072835151969861 -0.034669032348786058 0 0.00031600576261907272 -0.034366586075618211 0 9.5261663388623299e-05 -0.034507709738748782 0 0.00019072835151969861 -0.034669032348786058 0 1.9403475132011782e-05 -0.034692295198888334 0 0.00019072835151969861 -0.034669032348786058 0 1.9403475132011782e-05 -0.034692295198888334 0 0.00012760503585881964 -0.03484014069276669 0 1.3817884673682903e-05 -0.034812815806617145 0 1.9403475132011782e-05 -0.034692295198888334 0 0.00012760503585881964 -0.03484014069276669 0 0.00020225003722492256 -0.034462169650002171 0 0.00035149210744987128 -0.034365681415576367 0 0.00047866596168616638 -0.034209573338002702 0 0.0003716621268654528 -0.034110994124941091 0 0.00054695599135592228 -0.033895620552875268 0 0.00059369361608427567 -0.034079038124253509 0 0.00054695599135592228 -0.033895620552875268 0 0.00068568661253192397 -0.033886763473787836 0 0.00035149210744987128 -0.034365681415576367 0 0.00057269074941894242 -0.034286545502293417 0 0.00019072835151969861 -0.034669032348786058 0 0.00012760503585881964 -0.03484014069276669 0 0.00043244078281099623 -0.034852398531328758 0 0.00054695599135592228 -0.033895620552875268 0 0.00070360029317262927 -0.033715980642538543 0 0.00068568661253192397 -0.033886763473787836 0 0.00070360029317262927 -0.033715980642538543 0 0.00068568661253192397 -0.033886763473787836 0 0.00081580298749770581 -0.033738352444623171 0 0.00057269074941894242 -0.034286545502293417 0 0.0008894717906813293 -0.034148793345720872 0 0.00070360029317262927 -0.033715980642538543 0 0.00081580298749770581 -0.033738352444623171 0 0.00085028722759699737 -0.033600837728331064 0 0.00043244078281099623 -0.034852398531328758 0 0.00062284172320668243 -0.034520930990242706 0 0.00088198259482588008 -0.034772021474853761 0 0.00019072835151969861 -0.034669032348786058 0 0.00043244078281099623 -0.034852398531328758 0 0.00062284172320668243 -0.034520930990242706 0 0.00031600576261907272 -0.034366586075618211 0 0.00062284172320668243 -0.034520930990242706 0 0.00062684285470508737 -0.034157872929192958 0 0.00019072835151969861 -0.034669032348786058 0 0.00031600576261907272 -0.034366586075618211 0 0.00062284172320668243 -0.034520930990242706 0 0.00062284172320668243 -0.034520930990242706 0 0.00062684285470508737 -0.034157872929192958 0 0.0009371412564888864 -0.034235482206082204 0 0.00062684285470508737 -0.034157872929192958 0 0.00066590475154865852 -0.033790130273600727 0 0.00091776346329112838 -0.033914060024022336 0 0.00062684285470508737 -0.034157872929192958 0 0.0003742835480517349 -0.033999175039959549 0 0.00066590475154865852 -0.033790130273600727 0 0.00031600576261907272 -0.034366586075618211 0 0.00062684285470508737 -0.034157872929192958 0 0.0003742835480517349 -0.033999175039959549 0 0.00031600576261907272 -0.034366586075618211 0 0.0003742835480517349 -0.033999175039959549 0 0.00013005030857732468 -0.034211499887183645 0 0.0003742835480517349 -0.033999175039959549 0 0.00053627271963512446 -0.033557572731008616 0 0.00013535340201787348 -0.033863068847108997 0 0.0003742835480517349 -0.033999175039959549 0 0.00053627271963512446 -0.033557572731008616 0 0.00066590475154865852 -0.033790130273600727 0 0.00066590475154865852 -0.033790130273600727 0 0.00091776346329112838 -0.033914060024022336 0 0.00083096489381204273 -0.033566607179652971 0 0.00053627271963512446 -0.033557572731008616 0 0.00066590475154865852 -0.033790130273600727 0 0.00083096489381204273 -0.033566607179652971 0 0.00053627271963512446 -0.033557572731008616 0 0.00078288990007807061 -0.032951026511646886 0 0.00083096489381204273 -0.033566607179652971 0 0.00053627271963512446 -0.033557572731008616 0 0.00078288990007807061 -0.032951026511646886 0 0.00042649775513383742 -0.033068900435475543 0 0.00037013822873188543 -0.033459762209202638 0 0.00024488905096632933 -0.033526188184594026 0 0.00073064660848859962 -0.032890953933907452 0 0.00078288990007807061 -0.032951026511646886 0 0.00042649775513383742 -0.033068900435475543 0 2.5855992783080468e-05 -0.034012692356864084 0 2.9348710757722633e-05 -0.03398663263260053 0 3.1568480307557886e-05 -0.033934092737989321 0 3.3615010325618449e-05 -0.034001187225071901 0 2.9348710757722633e-05 -0.03398663263260053 0 7.2584221320144213e-05 -0.033935693003808678 0 2.9348710757722633e-05 -0.03398663263260053 0 3.1568480307557886e-05 -0.033934092737989321 0 7.2584221320144213e-05 -0.033935693003808678 0 3.1568480307557886e-05 -0.033934092737989321 0 7.2584221320144213e-05 -0.033935693003808678 0 0.00013535340201787348 -0.033863068847108997 0 0.00024488905096632933 -0.033526188184594026 0 0.00013098067565975703 -0.033812879911175667 0 0.00053627271963512446 -0.033557572731008616 0 0.00042649775513383742 -0.033068900435475543 0 0.00013535340201787348 -0.033863068847108997 0 7.2584221320144213e-05 -0.033935693003808678 0 -1.8396060249147463e-05 -0.033949371309774809 0 0.00013535340201787348 -0.033863068847108997 0 5.1226314597386933e-05 -0.034011121230441643 0 7.2584221320144213e-05 -0.033935693003808678 0 6.3796798770488403e-05 -0.03394530498535283 0 2.5568343859387558e-05 -0.034373900473671448 0 -4.6104747212212959e-05 -0.034364042585588908 0 7.2584221320144213e-05 -0.033935693003808678 0 6.3796798770488403e-05 -0.03394530498535283 0 -1.8396060249147463e-05 -0.033949371309774809 0 0.0003742835480517349 -0.033999175039959549 0 0.00013535340201787348 -0.033863068847108997 0 0.00013005030857732468 -0.034211499887183645 0 -1.8396060249147463e-05 -0.033949371309774809 0 0.00013535340201787348 -0.033863068847108997 0 0.00013005030857732468 -0.034211499887183645 0 -4.6104747212212959e-05 -0.034364042585588908 0 -6.6153034357193497e-05 -0.034476771109463032 0 9.5261663388623299e-05 -0.034507709738748782 0 0.00013005030857732468 -0.034211499887183645 0 -6.7595401554272559e-05 -0.034482887451075694 0 -1.8396060249147463e-05 -0.033949371309774809 0 0.00013005030857732468 -0.034211499887183645 0 -6.7595401554272559e-05 -0.034482887451075694 0 -3.8189946776627437e-05 -0.034645864776451818 0 -6.7595401554272559e-05 -0.034482887451075694 0 -2.2610314423794576e-05 -0.034727713210864049 0 -3.8189946776627437e-05 -0.034645864776451818 0 -2.170886254184611e-05 -0.034763866754126911 0 -2.2610314423794576e-05 -0.034727713210864049 0 -3.8189946776627437e-05 -0.034645864776451818 0 -3.0836049071222401e-05 -0.034717884584200859 0 -2.170886254184611e-05 -0.034763866754126911 0 -1.0846198286651747e-05 -0.034815624387255321 0 -2.2610314423794576e-05 -0.034727713210864049 0 -2.0521302783167969e-05 -0.034809867987430854 0 -2.170886254184611e-05 -0.034763866754126911 0 -1.0846198286651747e-05 -0.034815624387255321 0 -2.2610314423794576e-05 -0.034727713210864049 0 -8.6034469145372232e-05 -0.034762612567524921 0 -6.7595401554272559e-05 -0.034482887451075694 0 -2.2610314423794576e-05 -0.034727713210864049 0 -8.6034469145372232e-05 -0.034762612567524921 0 -2.2610314423794576e-05 -0.034727713210864049 0 -2.0521302783167969e-05 -0.034809867987430854 0 -9.9523931353380474e-06 -0.034805880513772827 0 -8.6034469145372232e-05 -0.034762612567524921 0 -2.0521302783167969e-05 -0.034809867987430854 0 -9.9523931353380474e-06 -0.034805880513772827 0 -2.0521302783167969e-05 -0.034809867987430854 0 -1.9615183140162558e-05 -0.034795839742765816 0 -2.0257898645415303e-05 -0.034765344410084435 0 -9.9523931353380474e-06 -0.034805880513772827 0 -1.9615183140162558e-05 -0.034795839742765816 0 -2.0521302783167969e-05 -0.034809867987430854 0 -1.9615183140162558e-05 -0.034795839742765816 0 -2.1005582857462354e-05 -0.034797305203213648 0 -2.0521302783167969e-05 -0.034809867987430854 0 -2.1005582857462354e-05 -0.034797305203213648 0 -9.4773612671410609e-06 -0.034846557741415617 0 -2.0257898645415303e-05 -0.034765344410084435 0 -1.9615183140162558e-05 -0.034795839742765816 0 -2.1005582857462354e-05 -0.034797305203213648 0 -1.0846198286651747e-05 -0.034815624387255321 0 -2.0521302783167969e-05 -0.034809867987430854 0 -9.4773612671410609e-06 -0.034846557741415617 0 -1.0846198286651747e-05 -0.034815624387255321 0 -9.4773612671410609e-06 -0.034846557741415617 0 -7.8218886069239783e-06 -0.034885165364241411 0 -9.4773612671410609e-06 -0.034846557741415617 0 -5.8417592296779626e-06 -0.034925039228226526 0 -7.8218886069239783e-06 -0.034885165364241411 0 -2.1005582857462354e-05 -0.034797305203213648 0 -9.4773612671410609e-06 -0.034846557741415617 0 -2.5245497844341696e-05 -0.034803036961431486 0 -9.4773612671410609e-06 -0.034846557741415617 0 -2.1586428429870004e-05 -0.034832786442729677 0 -2.0896851931378326e-05 -0.034866837345455745 0 -9.4773612671410609e-06 -0.034846557741415617 0 -2.1586428429870004e-05 -0.034832786442729677 0 -2.5245497844341696e-05 -0.034803036961431486 0 -2.1586428429870004e-05 -0.034832786442729677 0 -2.5245497844341696e-05 -0.034803036961431486 0 -3.8071197627149158e-05 -0.034800275326657075 0 -3.7900389091808428e-05 -0.034772767436129802 0 -2.5245497844341696e-05 -0.034803036961431486 0 -3.8071197627149158e-05 -0.034800275326657075 0 -3.5435279899879216e-05 -0.034761692948608973 0 -2.1005582857462354e-05 -0.034797305203213648 0 -2.5245497844341696e-05 -0.034803036961431486 0 -3.39754844791149e-05 -0.034888785104916074 0 -1.7486356745656083e-08 -0.034999955494628587 0 -8.1245039384028101e-05 -0.034779136994837104 0 -2.0896851931378326e-05 -0.034866837345455745 0 -1.1044064585887063e-07 -0.034999452912880563 0 -7.5541540112883043e-09 -0.034999977645528112 0 -2.8464126444969743e-07 -0.034999537546680712 0 3.8724406276233753e-09 -0.035000011313495845 0 -8.1245039384028101e-05 -0.034779136994837104 0 -3.8071197627149158e-05 -0.034800275326657075 0 -2.0896851931378326e-05 -0.034866837345455745 0 -2.1586428429870004e-05 -0.034832786442729677 0 -3.8071197627149158e-05 -0.034800275326657075 0 -2.0896851931378326e-05 -0.034866837345455745 0 -2.0896851931378326e-05 -0.034866837345455745 0 -5.8417592296779626e-06 -0.034925039228226526 0 -1.1044064585887063e-07 -0.034999452912880563 0 -9.4773612671410609e-06 -0.034846557741415617 0 -2.0896851931378326e-05 -0.034866837345455745 0 -5.8417592296779626e-06 -0.034925039228226526 0 -1.1044064585887063e-07 -0.034999452912880563 0 1.0640270514151691e-05 -0.034974194377559671 0 5.380962750515564e-08 -0.03500000237885513 0 1.0640270514151691e-05 -0.034974194377559671 0 -7.8218886069239783e-06 -0.034885165364241411 0 -1.8410849970839668e-05 -0.0348358054608238 0 -5.8417592296779626e-06 -0.034925039228226526 0 1.0640270514151691e-05 -0.034974194377559671 0 -7.8218886069239783e-06 -0.034885165364241411 0 -5.8417592296779626e-06 -0.034925039228226526 0 -1.1044064585887063e-07 -0.034999452912880563 0 1.0640270514151691e-05 -0.034974194377559671 0 -2.170886254184611e-05 -0.034763866754126911 0 -1.0846198286651747e-05 -0.034815624387255321 0 -1.8410849970839668e-05 -0.0348358054608238 0 -1.0846198286651747e-05 -0.034815624387255321 0 -7.8218886069239783e-06 -0.034885165364241411 0 -1.8410849970839668e-05 -0.0348358054608238 0 -1.8410849970839668e-05 -0.0348358054608238 0 -2.2860035938459245e-05 -0.03476898231688539 0 -1.0714901383943414e-05 -0.034817874637562647 0 -3.0836049071222401e-05 -0.034717884584200859 0 -2.170886254184611e-05 -0.034763866754126911 0 -1.8410849970839668e-05 -0.0348358054608238 0 -3.0836049071222401e-05 -0.034717884584200859 0 -1.8410849970839668e-05 -0.0348358054608238 0 -2.2860035938459245e-05 -0.03476898231688539 0 1.0640270514151691e-05 -0.034974194377559671 0 -1.8410849970839668e-05 -0.0348358054608238 0 -1.0714901383943414e-05 -0.034817874637562647 0 -4.2301299986151684e-07 -0.035003635117402683 0 1.0640270514151691e-05 -0.034974194377559671 0 5.380962750515564e-08 -0.03500000237885513 0 3.3110430073317975e-05 -0.034738596516824601 0 1.0640270514151691e-05 -0.034974194377559671 0 -1.0714901383943414e-05 -0.034817874637562647 0 -1.4864717949985718e-05 -0.034741291002532794 0 -2.2860035938459245e-05 -0.03476898231688539 0 -1.0714901383943414e-05 -0.034817874637562647 0 1.1966759983858706e-05 -0.034876939800634173 0 1.2273913037045057e-05 -0.034963514783854781 0 0.00011266872413749999 -0.028387769330618314 0 0.00071260474043359522 -0.028076391402008977 0 -0.00013648944618237368 -0.027758502671446261 0 0.00011266872413749999 -0.028387769330618314 0 -0.00035703948283870524 -0.028167128212049759 0 -0.00044477551255891898 -0.028692734805563704 0 0.00011266872413749999 -0.028387769330618314 0 -0.00035703948283870524 -0.028167128212049759 0 -0.00013648944618237368 -0.027758502671446261 0 0.00071260474043359522 -0.028076391402008977 0 0.00063865695972092711 -0.028660935515664315 0 0.0011904256279686972 -0.028862624396999929 0 0.00011266872413749999 -0.028387769330618314 0 0.00071260474043359522 -0.028076391402008977 0 0.00063865695972092711 -0.028660935515664315 0 0.00063865695972092711 -0.028660935515664315 0 0.00082569649583003112 -0.029016518194042995 0 0.00026776474549876242 -0.028974534990390755 0 0.00011266872413749999 -0.028387769330618314 0 0.00063865695972092711 -0.028660935515664315 0 0.00026776474549876242 -0.028974534990390755 0 0.00063865695972092711 -0.028660935515664315 0 0.00082569649583003112 -0.029016518194042995 0 0.0011904256279686972 -0.028862624396999929 0 0.00082569649583003112 -0.029016518194042995 0 0.0012613093424436908 -0.029308048062117401 0 0.00074864904456536485 -0.029407677038901972 0 0.00082569649583003112 -0.029016518194042995 0 0.00026776474549876242 -0.028974534990390755 0 0.00074864904456536485 -0.029407677038901972 0 0.00026776474549876242 -0.028974534990390755 0 0.00014919071966564549 -0.029534109697731771 0 0.00074864904456536485 -0.029407677038901972 0 0.00026776474549876242 -0.028974534990390755 0 -0.00024547897972178036 -0.029168340180915502 0 0.00014919071966564549 -0.029534109697731771 0 0.00011266872413749999 -0.028387769330618314 0 0.00026776474549876242 -0.028974534990390755 0 -0.00044477551255891898 -0.028692734805563704 0 0.00026776474549876242 -0.028974534990390755 0 -0.00024547897972178036 -0.029168340180915502 0 -0.00044477551255891898 -0.028692734805563704 0 -0.0015248711180479006 -0.028697749761441654 0 -0.00095518065804320231 -0.028571991929705384 0 -0.00071612810578169548 -0.029482398825122373 0 -0.00044477551255891898 -0.028692734805563704 0 -0.00095518065804320231 -0.028571991929705384 0 -0.00071612810578169548 -0.029482398825122373 0 -0.00024547897972178036 -0.029168340180915502 0 -0.00044477551255891898 -0.028692734805563704 0 -0.00071612810578169548 -0.029482398825122373 0 -0.0022919276851443879 -0.025129006222489012 0 -0.00027268348444996746 -0.026882322423147014 0 -0.0015248711180479006 -0.028697749761441654 0 -0.0016780449579543097 -0.028776237157942773 0 -0.00071612810578169548 -0.029482398825122373 0 -0.0021546585615658553 -0.022950924025902153 0 -0.0031384978322577615 -0.02179508362118153 0 2.2993661810700983e-05 -0.024445466438877198 0 -0.0021546585615658553 -0.022950924025902153 0 -0.0031384978322577615 -0.02179508362118153 0 -0.002881308630977479 -0.022890479761842188 0 -0.0028381959730506678 -0.022716887975218619 0 -0.002881308630977479 -0.022890479761842188 0 -0.0029458465297453025 -0.022757163996863394 0 -0.0022919276851443879 -0.025129006222489012 0 -0.0025029079672131325 -0.022192298470844512 0 -0.0022919276851443879 -0.025129006222489012 0 -0.0026068852492944512 -0.023144184268648074 0 -0.0015248711180479006 -0.028697749761441654 0 -0.00047010235268729627 -0.027389214603430863 0 -0.0011248550118581264 -0.026930746867951612 0 -0.0022919276851443879 -0.025129006222489012 0 -0.0015724323088591695 -0.024556236394872553 0 -0.0021364466827127424 -0.024388809655937531 0 -0.0020402037709380972 -0.024125177573242774 0 -0.0022527142133754274 -0.024296103287113624 0 -0.0015724323088591695 -0.024556236394872553 0 -0.0026068852492944512 -0.023144184268648074 0 -0.0015248711180479006 -0.028697749761441654 0 -0.0016780449579543097 -0.028776237157942773 0 -0.0011248550118581264 -0.026930746867951612 0 -0.0014467450579933613 -0.028610862795465999 0 -0.00069382059914304154 -0.027766613867576721 0 -0.00035703948283870524 -0.028167128212049759 0 -0.00087095975528030806 -0.028051898971969549 0 -0.00013648944618237368 -0.027758502671446261 0 -0.00044477551255891898 -0.028692734805563704 0 -0.00065813476250702226 -0.028368750626487062 0 -0.00095518065804320231 -0.028571991929705384 0 -0.00035703948283870524 -0.028167128212049759 0 -0.00044477551255891898 -0.028692734805563704 0 -0.00065813476250702226 -0.028368750626487062 0 -0.00065813476250702226 -0.028368750626487062 0 -0.00095518065804320231 -0.028571991929705384 0 -0.00087095975528030806 -0.028051898971969549 0 -0.0015248711180479006 -0.028697749761441654 0 -0.00095518065804320231 -0.028571991929705384 0 -0.00087095975528030806 -0.028051898971969549 0 -0.00035703948283870524 -0.028167128212049759 0 -0.00065813476250702226 -0.028368750626487062 0 -0.00087095975528030806 -0.028051898971969549 0 -0.00047010235268729627 -0.027389214603430863 0 -5.678918806642398e-05 -0.026017653004761481 0 -0.0011248550118581264 -0.026930746867951612 0 -0.00069382059914304154 -0.027766613867576721 0 4.3169869837530827e-05 -0.026453195657738935 0 -0.00047010235268729627 -0.027389214603430863 0 -5.678918806642398e-05 -0.026017653004761481 0 0.00062932926181226423 -0.02608342011094961 0 -0.0011131698736741582 -0.020763870474899318 0 -0.0015724323088591695 -0.024556236394872553 0 -0.00094278508528548009 -0.023117970475547419 0 -0.00027988665204299373 -0.023195474681050168 0 -0.001258278493670177 -0.024023558997635655 0 -0.0011131698736741582 -0.020763870474899318 0 -0.0003146739856038299 -0.024170991640209711 0 -0.0011131698736741582 -0.020763870474899318 0 -0.00089481134431592063 -0.021246643186155028 0 -0.0003146739856038299 -0.024170991640209711 0 -0.0015724323088591695 -0.024556236394872553 0 -0.0003146739856038299 -0.024170991640209711 0 4.3169869837530827e-05 -0.026453195657738935 0 -0.0010819625268227442 -0.021705861662364278 0 -0.00071648807347192325 -0.021754035862382906 0 -0.00069421211320383871 -0.021640123243687182 0 -0.0017026782262656039 -0.02191313597941575 0 -0.0023926989244160146 -0.022491056475282659 0 -0.0024422975050780926 -0.021600900963242568 0 -0.0011838252891297604 -0.019142965966702404 0 -0.0020533906623314822 -0.019031483646796455 0 -0.0021038872733815687 -0.019278537358249324 0 -0.0015365739421522829 -0.021438720858900751 0 -0.0017026782262656039 -0.02191313597941575 0 -0.0024422975050780926 -0.021600900963242568 0 -0.0011131698736741582 -0.020763870474899318 0 -0.0023625049857178121 -0.020434038011896152 0 -0.0011131698736741582 -0.020763870474899318 0 -0.0019935079955738537 -0.017915020361952531 0 -0.0016826679321664589 -0.016690085230067056 0 -0.001192276277646135 -0.019030611603747933 0 -0.0013376098779718292 -0.017211678296973319 0 -0.0015635491797106986 -0.016970639261796476 0 -0.0018082719241657849 -0.017142905724966861 0 -0.0017157551724611244 -0.016688074532957425 0 -0.0015635491797106986 -0.016970639261796476 0 -0.0012475807424044902 -0.016965997157129948 0 -0.0015635491797106986 -0.016970639261796476 0 -0.0018691898669170866 -0.016858674644595548 0 -0.0018082719241657849 -0.017142905724966861 0 -0.0013376098779718292 -0.017211678296973319 0 -0.0015635491797106986 -0.016970639261796476 0 -0.0013748177665404084 -0.017090479534377177 0 -0.0015635491797106986 -0.016970639261796476 0 -0.0013748177665404084 -0.017090479534377177 0 -0.0012475807424044902 -0.016965997157129948 0 -0.0017157551724611244 -0.016688074532957425 0 -0.0015635491797106986 -0.016970639261796476 0 -0.0018691898669170866 -0.016858674644595548 0 -0.00089480514415710133 -0.017227301693165269 0 -0.0014863977782700259 -0.01708457416743054 0 -0.00096239873738085467 -0.017423861493695528 0 -0.001192276277646135 -0.019030611603747933 0 -0.00020584039446969215 -0.024035432350445109 0 -0.0018307237641228215 -0.021161813812425205 0 0.00055074538998938307 -0.021979528759552936 0 0.00012977897589977231 -0.022333908469868578 0 -0.00069421211320383871 -0.021640123243687182 0 -0.00092845343158575919 -0.021259688746192527 0 -0.00046462238098508049 -0.021545956755040556 0 -0.0003146739856038299 -0.024170991640209711 0 -0.00020584039446969215 -0.024035432350445109 0 -0.00071648807347192325 -0.021754035862382906 0 -0.00069421211320383871 -0.021640123243687182 0 -0.00046462238098508049 -0.021545956755040556 0 -0.0011131698736741582 -0.020763870474899318 0 -0.001192276277646135 -0.019030611603747933 0 -0.001083177709359119 -0.021704970189285272 0 -0.00069421211320383871 -0.021640123243687182 0 -0.00092845343158575919 -0.021259688746192527 0 -0.0013376098779718292 -0.017211678296973319 0 -0.0013748177665404084 -0.017090479534377177 0 -0.0012475807424044902 -0.016965997157129948 0 -0.00097973943488395988 -0.019211551633957449 0 -0.001192276277646135 -0.019030611603747933 0 -0.00097973943488395988 -0.019211551633957449 0 -9.5594359783510526e-05 -0.024039877754834349 0 -0.0014205969420123343 -0.021473259812299954 0 -0.00026162108392958233 -0.021939609544466471 0 -5.7809474795502619e-05 -0.022934158001683573 0 -0.00049912910850598085 -0.021418071875732456 0 -0.0014205969420123343 -0.021473259812299954 0 -0.00026162108392958233 -0.021939609544466471 0 -0.0013861879692723138 -0.019890631905226663 0 -0.0018307237641228215 -0.021161813812425205 0 0.00055074538998938307 -0.021979528759552936 0 0.00062096875966988999 -0.021518505351045793 0 0.00020684361223205936 -0.021734602505377246 0 -5.7809474795502619e-05 -0.022934158001683573 0 -0.00026162108392958233 -0.021939609544466471 0 0.00020684361223205936 -0.021734602505377246 0 -5.7809474795502619e-05 -0.022934158001683573 0 0.0019789376671670153 -0.021490582155865075 0 0.0011249312487798416 -0.02140951567521529 0 -5.7809474795502619e-05 -0.022934158001683573 0 0.00059507179091650576 -0.02689307446634797 0 -9.5594359783510526e-05 -0.024039877754834349 0 -9.9501007715641001e-05 -0.026201426750749858 0 0.00039265022671853054 -0.025841113186261099 0 0.00028845404478706625 -0.025731968726456684 0 -2.2381836505999927e-05 -0.021246850284480135 0 -0.00026162108392958233 -0.021939609544466471 0 0.00020684361223205936 -0.021734602505377246 0 0.00059507179091650576 -0.02689307446634797 0 -0.00016510008234946471 -0.027194538762973675 0 0.00062096875966988999 -0.021518505351045793 0 0.0011249312487798416 -0.02140951567521529 0 -5.7809474795502619e-05 -0.022934158001683573 0 -0.001151784879286409 -0.031964525115243357 0 -0.00092952329043514091 -0.032208495375391243 0 -0.00041732726904110889 -0.031855458066471498 0 -0.00035747494811173429 -0.031026907817969764 0 -0.001151784879286409 -0.031964525115243357 0 -0.00041732726904110889 -0.031855458066471498 0 -0.00035476646103677723 -0.025361075785491325 0 -0.0002014954580123269 -0.025530279969013449 0 -0.00045952509587315692 -0.025448479785920939 0 -0.00016510008234946471 -0.027194538762973675 0 -0.00020584039446969215 -0.024035432350445109 0 -0.00020394509848208539 -0.025538743720193536 0 -8.4365350433151555e-05 -0.025569014879536139 0 -0.00013109623660149749 -0.025450900255451943 0 -9.5594359783510526e-05 -0.024039877754834349 0 -0.00016510008234946471 -0.027194538762973675 0 -9.5594359783510526e-05 -0.024039877754834349 0 -0.00020584039446969215 -0.024035432350445109 0 0.00071260474043359522 -0.028076391402008977 0 5.4604015039834789e-05 -0.027361705369625601 0 -0.00013648944618237368 -0.027758502671446261 0 -0.00026623171257683843 -0.02737084668155193 0 -5.1190200801902852e-05 -0.027392817666231192 0 -0.00013648944618237368 -0.027758502671446261 0 -0.00087095975528030806 -0.028051898971969549 0 -0.00026623171257683843 -0.02737084668155193 0 -0.00013648944618237368 -0.027758502671446261 0 3.8165190222908732e-05 -0.025461159976357742 0 -8.4365350433151555e-05 -0.025569014879536139 0 -0.00013109623660149749 -0.025450900255451943 0 4.3169869837530827e-05 -0.026453195657738935 0 -1.7603074725319808e-05 -0.026635187522311671 0 -0.00010785874490979953 -0.027190181682257446 0 -0.0002619760241763182 -0.027370303848183713 0 -5.1190200801902852e-05 -0.027392817666231192 0 -0.00016510008234946471 -0.027194538762973675 0 4.3169869837530827e-05 -0.026453195657738935 0 -0.00092952329043514091 -0.032208495375391243 0 -0.00061779608767397614 -0.032178518842570177 0 -0.00041732726904110889 -0.031855458066471498 0 -0.00010785874490979953 -0.027190181682257446 0 -5.1190200801902852e-05 -0.027392817666231192 0 5.4604015039834789e-05 -0.027361705369625601 0 -5.1190200801902852e-05 -0.027392817666231192 0 5.4604015039834789e-05 -0.027361705369625601 0 -0.00013648944618237368 -0.027758502671446261 0 -0.00016510008234946471 -0.027194538762973675 0 5.6407726138353057e-05 -0.02910447782958784 0 -6.6098712590013218e-05 -0.033098045897931201 0 -0.00021543018569826711 -0.032428790786104215 0 0.00046757882152082989 -0.032429634415834026 0 -6.6098712590013218e-05 -0.033098045897931201 0 -0.00092952329043514091 -0.032208495375391243 0 -0.00021543018569826711 -0.032428790786104215 0 0.00023922412124437721 -0.03052754383900394 0 5.6407726138353057e-05 -0.02910447782958784 0 -0.00092952329043514091 -0.032208495375391243 0 -0.00021543018569826711 -0.032428790786104215 0 -0.00061779608767397614 -0.032178518842570177 0 -0.00021543018569826711 -0.032428790786104215 0 -0.00061779608767397614 -0.032178518842570177 0 -0.00041732726904110889 -0.031855458066471498 0 -0.00021543018569826711 -0.032428790786104215 0 -0.00041732726904110889 -0.031855458066471498 0 0.00046757882152082989 -0.032429634415834026 0 -0.00035747494811173429 -0.031026907817969764 0 -0.00041732726904110889 -0.031855458066471498 0 0.00046757882152082989 -0.032429634415834026 0 0.00059507179091650576 -0.02689307446634797 0 0.00082972927200128431 -0.034002634892104699 0 0.00083518761573723153 -0.033476739487343705 0 0.00088705572964746992 -0.033576391135531673 0 0.00079930908669409244 -0.033563949354948608 0 0.00067386326205981061 -0.033394413198523792 0 0.00083518761573723153 -0.033476739487343705 0 0.00079930908669409244 -0.033563949354948608 0 0.00083518761573723153 -0.033476739487343705 0 0.00090917012399285315 -0.033589482772385541 0 0.00088705572964746992 -0.033576391135531673 0 0.00088705572964746992 -0.033576391135531673 0 0.00088765147657758885 -0.033563485148493596 0 0.00092335020381446333 -0.033607120057343204 0 0.00088705572964746992 -0.033576391135531673 0 0.00088765147657758885 -0.033563485148493596 0 0.00079930908669409244 -0.033563949354948608 0 -6.6098712590013218e-05 -0.033098045897931201 0 0.00046757882152082989 -0.032429634415834026 0 0.00048322074505219992 -0.0332166454877642 0 0.00081580298749770581 -0.033738352444623171 0 0.00093261875947787368 -0.033665076339819751 0 0.00092335020381446333 -0.033607120057343204 0 0.00084193185400368892 -0.033802645213329499 0 0.00081580298749770581 -0.033738352444623171 0 0.00093261875947787368 -0.033665076339819751 0 0.00090917012399285315 -0.033589482772385541 0 0.00093261875947787368 -0.033665076339819751 0 0.00092335020381446333 -0.033607120057343204 0 0.00090917012399285315 -0.033589482772385541 0 0.00088705572964746992 -0.033576391135531673 0 0.00092335020381446333 -0.033607120057343204 0 0.00081580298749770581 -0.033738352444623171 0 0.00092335020381446333 -0.033607120057343204 0 0.00085028722759699737 -0.033600837728331064 0 0.00088198259482588008 -0.034772021474853761 0 0.0013840425370494221 -0.034605815617819773 0 0.0010182503187650667 -0.034482905234981931 0 0.00062284172320668243 -0.034520930990242706 0 0.00088198259482588008 -0.034772021474853761 0 0.0010182503187650667 -0.034482905234981931 0 0.00092335020381446333 -0.033607120057343204 0 0.00085028722759699737 -0.033600837728331064 0 0.00096733091823726701 -0.033565733491015756 0 0.00088765147657758885 -0.033563485148493596 0 0.00092335020381446333 -0.033607120057343204 0 0.00096733091823726701 -0.033565733491015756 0 0.0008894717906813293 -0.034148793345720872 0 0.0011168586938348863 -0.034356383968523564 0 0.0013840425370494221 -0.034605815617819773 0 0.0012770928356113601 -0.034280383103247089 0 0.0015274582900950725 -0.03433394009945212 0 0.0013840425370494221 -0.034605815617819773 0 0.0012770928356113601 -0.034280383103247089 0 0.0010182503187650667 -0.034482905234981931 0 0.0012770928356113601 -0.034280383103247089 0 0.0015274582900950725 -0.03433394009945212 0 0.0014223447560983873 -0.03416438155767143 0 0.00062284172320668243 -0.034520930990242706 0 0.0009371412564888864 -0.034235482206082204 0 0.0010182503187650667 -0.034482905234981931 0 0.0012770928356113601 -0.034280383103247089 0 0.0009371412564888864 -0.034235482206082204 0 0.0010182503187650667 -0.034482905234981931 0 0.00082972927200128431 -0.034002634892104699 0 0.00067026225520385797 -0.033125536138563123 0 0.00046757882152082989 -0.032429634415834026 0 0.00048322074505219992 -0.0332166454877642 0 0.00082477366898328131 -0.033567316090671165 0 0.00071260474043359522 -0.028076391402008977 0 0.0013668126292366053 -0.028807601028965346 0 0.0011904256279686972 -0.028862624396999929 0 0.00088765147657758885 -0.033563485148493596 0 0.00079930908669409244 -0.033563949354948608 0 0.00082477366898328131 -0.033567316090671165 0 0.00048322074505219992 -0.0332166454877642 0 0.00082477366898328131 -0.033567316090671165 0 0.00065445431891175546 -0.033654741565224015 0 0.00023922412124437721 -0.03052754383900394 0 0.0011665024034368918 -0.03192291621970178 0 -6.6098712590013218e-05 -0.033098045897931201 0 0.00048322074505219992 -0.0332166454877642 0 0.00065445431891175546 -0.033654741565224015 0 0.0011168586938348863 -0.034356383968523564 0 0.0011665024034368918 -0.03192291621970178 0 0.00096733091823726701 -0.033565733491015756 0 0.00082477366898328131 -0.033567316090671165 0 0.00065445431891175546 -0.033654741565224015 0 0.00088765147657758885 -0.033563485148493596 0 0.00096733091823726701 -0.033565733491015756 0 0.00082477366898328131 -0.033567316090671165 0 0.0015274582900950725 -0.03433394009945212 0 0.0018329608491512096 -0.034414325273322416 0 0.0014899015131144815 -0.034048853984416455 0 0.0013840425370494221 -0.034605815617819773 0 0.0015274582900950725 -0.03433394009945212 0 0.0018329608491512096 -0.034414325273322416 0 0.0011665024034368918 -0.03192291621970178 0 0.001546066352286548 -0.031853341561237633 0 0.0013601048237309294 -0.028811079026014305 0 0.0012613093424436908 -0.029308048062117401 0 0.0022361826671275903 -0.029783723113011765 0 0.0013601048237309294 -0.028811079026014305 0 0.0011904256279686972 -0.028862624396999929 0 0.0012613093424436908 -0.029308048062117401 0 0.0011665024034368918 -0.03192291621970178 0 0.0014889618399940435 -0.031367154676566873 0 0.00082569649583003112 -0.029016518194042995 0 0.0011904256279686972 -0.028862624396999929 0 0.0012613093424436908 -0.029308048062117401 0 0.0012613093424436908 -0.029308048062117401 0 0.0011954508086699557 -0.029963343151319818 0 0.00074864904456536485 -0.029407677038901972 0 0.0012613093424436908 -0.029308048062117401 0 0.0011954508086699557 -0.029963343151319818 0 0.0022361826671275903 -0.029783723113011765 0 0.0015274582900950725 -0.03433394009945212 0 0.0014899015131144815 -0.034048853984416455 0 0.0014223447560983873 -0.03416438155767143 0 0.00022933045169056318 -0.032079049789433607 0 0.00036729619467155023 -0.032060556560019014 0 0.00031591951015022931 -0.032132600290325081 0 0.00046254944123082535 -0.031078867602171534 0 0.001546066352286548 -0.031853341561237633 0 0.00018322447576324865 -0.032311828994011332 0 0.00043363832858428622 -0.032241466868255943 0 0.00030518038192999029 -0.032381033552745547 0 0.00018333349628017951 -0.032313403272502192 0 0.0004477419710898248 -0.032216333818644874 0 0.00031591951015022931 -0.032132600290325081 0 0.0002677152146550771 -0.032165613936550548 0 0.00043363832858428622 -0.032241466868255943 0 0.00036729619467155023 -0.032060556560019014 0 0.00031591951015022931 -0.032132600290325081 0 0.00043363832858428622 -0.032241466868255943 0 0.00018333349628017951 -0.032313403272502192 0 0.00026839464768709865 -0.031502275501302995 0 0.00022933045169056318 -0.032079049789433607 0 0.0002677152146550771 -0.032165613936550548 0 0.00018689901983793834 -0.03210424483678799 0 0.00022933045169056318 -0.032079049789433607 0 0.00031591951015022931 -0.032132600290325081 0 0.0002677152146550771 -0.032165613936550548 0 0.00062684285470508737 -0.034157872929192958 0 0.0009371412564888864 -0.034235482206082204 0 0.00091776346329112838 -0.033914060024022336 0 0.0009371412564888864 -0.034235482206082204 0 0.00091776346329112838 -0.033914060024022336 0 0.0012132619284696672 -0.034030748062273783 0 0.0012770928356113601 -0.034280383103247089 0 0.0009371412564888864 -0.034235482206082204 0 0.0012132619284696672 -0.034030748062273783 0 0.0014899015131144815 -0.034048853984416455 0 0.0012132619284696672 -0.034030748062273783 0 0.0012383545819982277 -0.033653894825315341 0 0.0014899015131144815 -0.034048853984416455 0 0.0012132619284696672 -0.034030748062273783 0 0.0013467041035797565 -0.03413112171178357 0 0.0012770928356113601 -0.034280383103247089 0 0.0012132619284696672 -0.034030748062273783 0 0.0013467041035797565 -0.03413112171178357 0 0.0014899015131144815 -0.034048853984416455 0 0.0013467041035797565 -0.03413112171178357 0 0.0014223447560983873 -0.03416438155767143 0 0.0012770928356113601 -0.034280383103247089 0 0.0013467041035797565 -0.03413112171178357 0 0.0014223447560983873 -0.03416438155767143 0 0.001546066352286548 -0.031853341561237633 0 0.00084966321715031006 -0.033160378244220287 0 0.00036729619467155023 -0.032060556560019014 0 0.00043363832858428622 -0.032241466868255943 0 0.00057024985278061901 -0.032320339621394328 0 0.00043363832858428622 -0.032241466868255943 0 0.00042992245713851601 -0.032467338642144482 0 0.00030518038192999029 -0.032381033552745547 0 0.00043363832858428622 -0.032241466868255943 0 0.00057024985278061901 -0.032320339621394328 0 0.00042992245713851601 -0.032467338642144482 0 0.00091776346329112838 -0.033914060024022336 0 0.0012383545819982277 -0.033653894825315341 0 0.00083096489381204273 -0.033566607179652971 0 0.00091776346329112838 -0.033914060024022336 0 0.0012132619284696672 -0.034030748062273783 0 0.0012383545819982277 -0.033653894825315341 0 0.00078288990007807061 -0.032951026511646886 0 0.00056630435491244373 -0.032614944340940609 0 0.00049662263672170385 -0.03269865837727591 0 0.00078288990007807061 -0.032951026511646886 0 0.00057024985278061901 -0.032320339621394328 0 0.00056630435491244373 -0.032614944340940609 0 0.00078288990007807061 -0.032951026511646886 0 0.0012383545819982277 -0.033653894825315341 0 0.00083096489381204273 -0.033566607179652971 0 0.00077619943164442332 -0.032874165030803461 0 0.00084966321715031006 -0.033160378244220287 0 0.00056630435491244373 -0.032614944340940609 0 0.00042992245713851601 -0.032467338642144482 0 0.00049662263672170385 -0.03269865837727591 0 0.00057024985278061901 -0.032320339621394328 0 0.00056630435491244373 -0.032614944340940609 0 0.00042992245713851601 -0.032467338642144482 0 0.00042992245713851601 -0.032467338642144482 0 0.00049662263672170385 -0.03269865837727591 0 0.00034552614825968494 -0.032561842210290549 0 0.00058954167786508423 -0.032890397962706742 0 0.00049662263672170385 -0.03269865837727591 0 0.00027677860735829033 -0.032727441098147049 0 0.00049662263672170385 -0.03269865837727591 0 0.00034552614825968494 -0.032561842210290549 0 0.00027677860735829033 -0.032727441098147049 0 0.00058954167786508423 -0.032890397962706742 0 0.00073064660848859962 -0.032890953933907452 0 0.00078288990007807061 -0.032951026511646886 0 0.00058954167786508423 -0.032890397962706742 0 0.00078288990007807061 -0.032951026511646886 0 0.00049662263672170385 -0.03269865837727591 0 0.00018322447576324865 -0.032311828994011332 0 0.00014162142963243811 -0.032363266139961953 0 6.6073167926717795e-05 -0.032330990151727086 0 -3.3115538886807279e-05 -0.031994681794946869 0 0.00023961990641949054 -0.032394649685952639 0 -1.1582932609436067e-05 -0.03260799379073076 0 -3.3115538886807279e-05 -0.031994681794946869 0 -1.1582932609436067e-05 -0.03260799379073076 0 -0.00028376426638111036 -0.032037505154642473 0 -4.0053912394759833e-06 -0.032132037350392911 0 0.00021667423661121348 -0.032324939883002772 0 0.00018322447576324865 -0.032311828994011332 0 0.00014162142963243811 -0.032363266139961953 0 0.00023961990641949054 -0.032394649685952639 0 0.00018322447576324865 -0.032311828994011332 0 0.00030518038192999029 -0.032381033552745547 0 0.00023961990641949054 -0.032394649685952639 0 0.00042992245713851601 -0.032467338642144482 0 0.00030518038192999029 -0.032381033552745547 0 0.00034552614825968494 -0.032561842210290549 0 0.00030518038192999029 -0.032381033552745547 0 0.00034552614825968494 -0.032561842210290549 0 0.00023961990641949054 -0.032394649685952639 0 0.00034552614825968494 -0.032561842210290549 0 0.00023961990641949054 -0.032394649685952639 0 0.00027677860735829033 -0.032727441098147049 0 0.00023961990641949054 -0.032394649685952639 0 0.00027677860735829033 -0.032727441098147049 0 -1.1582932609436067e-05 -0.03260799379073076 0 -0.00033711900343610674 -0.032850518423517938 0 -1.1582932609436067e-05 -0.03260799379073076 0 -0.000585420827678727 -0.032148819223637409 0 -1.1582932609436067e-05 -0.03260799379073076 0 -0.000585420827678727 -0.032148819223637409 0 -0.00028376426638111036 -0.032037505154642473 0 -0.001548247031205052 -0.032952276219865087 0 -0.000585420827678727 -0.032148819223637409 0 -0.0013995469338204686 -0.031897744072134589 0 -0.00033711900343610674 -0.032850518423517938 0 -0.001548247031205052 -0.032952276219865087 0 -0.000585420827678727 -0.032148819223637409 0 -0.000585420827678727 -0.032148819223637409 0 -0.0010205964071685906 -0.03136786204440993 0 -0.00043008587275495503 -0.031556252083336886 0 -0.000585420827678727 -0.032148819223637409 0 -0.0010205964071685906 -0.03136786204440993 0 -0.0013995469338204686 -0.031897744072134589 0 5.592893376968922e-05 -0.030474166666275393 0 0.0018797378001717273 -0.030073417630606121 0 -5.5472724234262968e-05 -0.029397975994012532 0 -0.00047334669760198912 -0.030924806802628685 0 0.00026839464768709865 -0.031502275501302995 0 -0.000585420827678727 -0.032148819223637409 0 -0.00028376426638111036 -0.032037505154642473 0 -0.00043008587275495503 -0.031556252083336886 0 -4.0053912394759833e-06 -0.032132037350392911 0 0.00026839464768709865 -0.031502275501302995 0 -3.3115538886807279e-05 -0.031994681794946869 0 -0.00028376426638111036 -0.032037505154642473 0 -0.00043008587275495503 -0.031556252083336886 0 0.00022933045169056318 -0.032079049789433607 0 0.00011695966112607942 -0.032043064696322808 0 0.00012607884088739781 -0.03205521051314638 0 0.00022933045169056318 -0.032079049789433607 0 0.00018689901983793834 -0.03210424483678799 0 0.00012607884088739781 -0.03205521051314638 0 0.0002677152146550771 -0.032165613936550548 0 0.00016268245675036153 -0.0321492861071319 0 0.00018689901983793834 -0.03210424483678799 0 0.00018689901983793834 -0.03210424483678799 0 0.00012835624625788479 -0.032099023760860275 0 0.00012607884088739781 -0.03205521051314638 0 0.00016268245675036153 -0.0321492861071319 0 0.00018689901983793834 -0.03210424483678799 0 0.00012835624625788479 -0.032099023760860275 0 0.0037623143103224718 -0.027380945962260213 0 0.0012641659779562828 -0.026773315206134751 0 -0.00079990822117372256 -0.028241175983765961 0 8.4185555520441111e-05 -0.032076485002514074 0 0.00010987114877603506 -0.032031191999172141 0 -0.00011492588172180165 -0.03202186245792886 0 4.3028200675211917e-05 -0.032106597249905326 0 8.4185555520441111e-05 -0.032076485002514074 0 -0.00011492588172180165 -0.03202186245792886 0 0.00012835624625788479 -0.032099023760860275 0 4.3028200675211917e-05 -0.032106597249905326 0 8.4185555520441111e-05 -0.032076485002514074 0 0.0010972775466332276 -0.02980899758305253 0 -0.001024862541855575 -0.029415538689712809 0 0.00026839464768709865 -0.031502275501302995 0 0.00012356756660530322 -0.030788732044646026 0 0.00016268245675036153 -0.0321492861071319 0 0.00012835624625788479 -0.032099023760860275 0 4.3028200675211917e-05 -0.032106597249905326 0 5.592893376968922e-05 -0.030474166666275393 0 -5.5472724234262968e-05 -0.029397975994012532 0 -0.0013249829704804388 -0.029859538926898941 0 0.00012835624625788479 -0.032099023760860275 0 8.4185555520441111e-05 -0.032076485002514074 0 0.00012607884088739781 -0.03205521051314638 0 8.4185555520441111e-05 -0.032076485002514074 0 0.00010987114877603506 -0.032031191999172141 0 0.00012607884088739781 -0.03205521051314638 0 0.0010972775466332276 -0.02980899758305253 0 0.0011110631452303122 -0.030016904188122286 0 0.0010972775466332276 -0.02980899758305253 0 -0.00027268348444996746 -0.026882322423147014 0 -0.00024547897972178036 -0.029168340180915502 0 0.00014919071966564549 -0.029534109697731771 0 -0.00071612810578169548 -0.029482398825122373 0 0.00014486460639836045 -0.030151926492065561 0 0.00014919071966564549 -0.029534109697731771 0 -0.00071612810578169548 -0.029482398825122373 0 0.0037623143103224718 -0.027380945962260213 0 2.2993661810700983e-05 -0.024445466438877198 0 0.0012641659779562828 -0.026773315206134751 0 0.00046254944123082535 -0.031078867602171534 0 0.0010972775466332276 -0.02980899758305253 0 0.0011954508086699557 -0.029963343151319818 0 0.00014486460639836045 -0.030151926492065561 0 0.00074864904456536485 -0.029407677038901972 0 0.00014486460639836045 -0.030151926492065561 0 0.00014919071966564549 -0.029534109697731771 0 0.00074864904456536485 -0.029407677038901972 0 -0.0021546585615658553 -0.022950924025902153 0 -0.00307840798656667 -0.022948023140117339 0 -0.0029523394189247586 -0.02292161430714609 0 -0.0023117796496003153 -0.023040988339658581 0 -0.0036723960557455315 -0.02508213260577382 0 -0.0020748248552410159 -0.025495949538851759 0 -0.00079990822117372256 -0.028241175983765961 0 -0.0038158400068648464 -0.027406371728889357 0 -0.0021546585615658553 -0.022950924025902153 0 -0.0045602070471819373 -0.027353232789831143 0 -0.0020748248552410159 -0.025495949538851759 0 -0.0045602070471819373 -0.027353232789831143 0 -0.0020748248552410159 -0.025495949538851759 0 -0.0038158400068648464 -0.027406371728889357 0 -0.0021546585615658553 -0.022950924025902153 0 -0.0029523394189247586 -0.02292161430714609 0 -0.002881308630977479 -0.022890479761842188 0 -0.0021546585615658553 -0.022950924025902153 0 -0.0020748248552410159 -0.025495949538851759 0 2.2993661810700983e-05 -0.024445466438877198 0 -0.0020748248552410159 -0.025495949538851759 0 2.2993661810700983e-05 -0.024445466438877198 0 -0.00041215632946777696 -0.026241424506565331 0 0.0012641659779562828 -0.026773315206134751 0 -0.00041215632946777696 -0.026241424506565331 0 -0.00079990822117372256 -0.028241175983765961 0 2.2993661810700983e-05 -0.024445466438877198 0 0.0012641659779562828 -0.026773315206134751 0 -0.00041215632946777696 -0.026241424506565331 0 -0.0020748248552410159 -0.025495949538851759 0 -0.00041215632946777696 -0.026241424506565331 0 -0.00079990822117372256 -0.028241175983765961 0 0.00012356756660530322 -0.030788732044646026 0 -0.001024862541855575 -0.029415538689712809 0 -5.5472724234262968e-05 -0.029397975994012532 0 -0.0020096925757055128 -0.028700762884434624 0 -0.0013249829704804388 -0.029859538926898941 0 -0.0020096925757055128 -0.028700762884434624 0 -0.0013249829704804388 -0.029859538926898941 0 -0.0026198762330300503 -0.029885972708364621 0 -0.0020096925757055128 -0.028700762884434624 0 -0.0034962544655207221 -0.028791616761391421 0 -0.0026198762330300503 -0.029885972708364621 0 -0.0034962544655207221 -0.028791616761391421 0 -0.0034209641310994233 -0.029959224077027558 0 -0.0026198762330300503 -0.029885972708364621 0 -0.001024862541855575 -0.029415538689712809 0 -0.0035938704861251947 -0.02749001225641879 0 -0.0011438967914095468 -0.028345188150499426 0 -0.0038158400068648464 -0.027406371728889357 0 -0.0034962544655207221 -0.028791616761391421 0 -0.001024862541855575 -0.029415538689712809 0 -0.0032618511955323031 -0.028948945322009242 0 -0.0038158400068648464 -0.027406371728889357 0 -0.0044622197079521647 -0.028788733239921638 0 -0.0034962544655207221 -0.028791616761391421 0 -0.0045602070471819373 -0.027353232789831143 0 -0.0038158400068648464 -0.027406371728889357 0 -0.0044622197079521647 -0.028788733239921638 0 -0.0034962544655207221 -0.028791616761391421 0 -0.0042321793647615846 -0.030059932198099163 0 -0.0034209641310994233 -0.029959224077027558 0 -0.0044622197079521647 -0.028788733239921638 0 -0.0034962544655207221 -0.028791616761391421 0 -0.0042321793647615846 -0.030059932198099163 0 -0.0042321793647615846 -0.030059932198099163 0 -0.0034209641310994233 -0.029959224077027558 0 -0.0033636027251141691 -0.031030090412358269 0 -0.0026198762330300503 -0.029885972708364621 0 -0.0033636027251141691 -0.031030090412358269 0 -0.0019082687659398763 -0.03097087972360334 0 -0.0034209641310994233 -0.029959224077027558 0 -0.0026198762330300503 -0.029885972708364621 0 -0.0033636027251141691 -0.031030090412358269 0 -0.0042321793647615846 -0.030059932198099163 0 -0.0033636027251141691 -0.031030090412358269 0 -0.0046001651390272314 -0.031290656436489338 0 -0.00047334669760198912 -0.030924806802628685 0 -0.0017694188567963266 -0.031043203792147398 0 5.592893376968922e-05 -0.030474166666275393 0 -0.0013249829704804388 -0.029859538926898941 0 -0.0019082687659398763 -0.03097087972360334 0 -0.0013249829704804388 -0.029859538926898941 0 -0.0026198762330300503 -0.029885972708364621 0 -0.0019082687659398763 -0.03097087972360334 0 -0.0033636027251141691 -0.031030090412358269 0 -0.0019082687659398763 -0.03097087972360334 0 -0.0023742134479047164 -0.031983059401316162 0 -0.0019082687659398763 -0.03097087972360334 0 -0.0013995469338204686 -0.031897744072134589 0 -0.0023742134479047164 -0.031983059401316162 0 -0.0010205964071685906 -0.03136786204440993 0 -0.0019082687659398763 -0.03097087972360334 0 -0.0013995469338204686 -0.031897744072134589 0 -0.001548247031205052 -0.032952276219865087 0 -0.0013995469338204686 -0.031897744072134589 0 -0.0023742134479047164 -0.031983059401316162 0 -0.001548247031205052 -0.032952276219865087 0 -0.0023742134479047164 -0.031983059401316162 0 -0.0040105013978852834 -0.032990275118352813 0 -0.0010450993721507153 -0.032838865526148973 0 -0.0023513690018549414 -0.033476446305510901 0 -0.0033636027251141691 -0.031030090412358269 0 -0.0023742134479047164 -0.031983059401316162 0 -0.0040105013978852834 -0.032990275118352813 0 -0.0033636027251141691 -0.031030090412358269 0 -0.0040105013978852834 -0.032990275118352813 0 -0.0046001651390272314 -0.031290656436489338 0 -0.0040105013978852834 -0.032990275118352813 0 -0.0053324220413864427 -0.032020695930916498 0 -0.006758949744807276 -0.032639329691036861 0 -0.00037096558068097803 -0.032943448463694812 0 -0.00055942722200566584 -0.032919719128544848 0 -0.00017985483659856439 -0.03319356154577964 0 -0.0040105013978852834 -0.032990275118352813 0 -0.0053324220413864427 -0.032020695930916498 0 -0.0046001651390272314 -0.031290656436489338 0 -0.0023513690018549414 -0.033476446305510901 0 -0.0028386964942445272 -0.028124615593120145 0 -0.0053324220413864427 -0.032020695930916498 0 -0.006758949744807276 -0.032639329691036861 0 -0.005649580570794949 -0.030447139257764797 0 -0.0027827853737425645 -0.02200861419826965 0 -0.0027439517254591885 -0.022225316788340051 0 -0.0030378909597983915 -0.022712088061281138 0 -0.0028386964942445272 -0.028124615593120145 0 -0.0045586662275549058 -0.026488218004509449 0 -0.0027011426137479788 -0.021985042824480265 0 -0.0025442489449992345 -0.02211546507102119 0 -0.0022578845446415423 -0.021751027044036069 0 -0.0028386964942445272 -0.028124615593120145 0 -0.0029323453942384859 -0.027733699733161348 0 -0.0027827853737425645 -0.02200861419826965 0 -0.0027011426137479788 -0.021985042824480265 0 -0.0026966045248147377 -0.022084085002288523 0 -0.0027011426137479788 -0.021985042824480265 0 -0.0025442489449992345 -0.02211546507102119 0 -0.0026966045248147377 -0.022084085002288523 0 -0.0025442489449992345 -0.02211546507102119 0 -0.0025322112300547785 -0.022330432450674464 0 -0.0022894696828226224 -0.022085953077324808 0 -0.0027827853737425645 -0.02200861419826965 0 -0.0026966045248147377 -0.022084085002288523 0 -0.0027439517254591885 -0.022225316788340051 0 -0.0025442489449992345 -0.02211546507102119 0 -0.0026966045248147377 -0.022084085002288523 0 -0.0027439517254591885 -0.022225316788340051 0 -0.0025442489449992345 -0.02211546507102119 0 -0.0027439517254591885 -0.022225316788340051 0 -0.0025322112300547785 -0.022330432450674464 0 -0.0029987864562394315 -0.022862294002666282 0 -0.0034119838053698628 -0.019925719482654206 0 -0.0030441759212432719 -0.022653269901284447 0 -0.0030211851119673686 -0.022529987866912977 0 -0.0030172853497338948 -0.022610105065955805 0 -0.0027439517254591885 -0.022225316788340051 0 -0.0027132715771982646 -0.022540738467739189 0 -0.0030378909597983915 -0.022712088061281138 0 -0.0027132715771982646 -0.022540738467739189 0 -0.0028534003994908079 -0.022811117157685662 0 -0.0022670467523127394 -0.02258951641780229 0 -0.0027439517254591885 -0.022225316788340051 0 -0.0025322112300547785 -0.022330432450674464 0 -0.0027132715771982646 -0.022540738467739189 0 -0.0025322112300547785 -0.022330432450674464 0 -0.0027132715771982646 -0.022540738467739189 0 -0.0022670467523127394 -0.02258951641780229 0 -0.0027132715771982646 -0.022540738467739189 0 -0.0028534003994908079 -0.022811117157685662 0 -0.0030378909597983915 -0.022712088061281138 0 -0.0042321793647615846 -0.030059932198099163 0 -0.005649580570794949 -0.030447139257764797 0 -0.0046001651390272314 -0.031290656436489338 0 -0.0044622197079521647 -0.028788733239921638 0 -0.0042321793647615846 -0.030059932198099163 0 -0.005649580570794949 -0.030447139257764797 0 -0.0053324220413864427 -0.032020695930916498 0 -0.005649580570794949 -0.030447139257764797 0 -0.0046001651390272314 -0.031290656436489338 0 -0.0018201225048254037 -0.013109495782176262 0 -0.00048402048207424076 -0.012573348998348294 0 -0.001672807875879625 -0.014448989298048547 0 -0.0012397735430821448 -0.011966457651342147 0 0.0011480116055884 -0.0071871985744888208 0 -0.00048402048207424076 -0.012573348998348294 0 -0.001672807875879625 -0.014448989298048547 0 0.00093198267249199127 -0.013278671876866243 0 -0.0014341216830877578 -0.014768678371866906 0 -0.001672807875879625 -0.014448989298048547 0 0.00093198267249199127 -0.013278671876866243 0 -0.0012397735430821448 -0.011966457651342147 0 -0.00095296261245211844 -0.012806726219810341 0 -0.0017019056513788572 -0.017241319435688848 0 -0.0034119838053698628 -0.019925719482654206 0 -0.0018201225048254037 -0.013109495782176262 0 -0.001672807875879625 -0.014448989298048547 0 -0.0026662738058400256 -0.015540466237996259 0 -0.0017723154318118263 -0.021571064403280493 0 -0.0022894696828226224 -0.022085953077324808 0 -0.0022670467523127394 -0.02258951641780229 0 -0.0014272605615818063 -0.014785894351657143 0 -0.001672807875879625 -0.014448989298048547 0 -0.0026662738058400256 -0.015540466237996259 0 -0.0017723154318118263 -0.021571064403280493 0 -0.0022578845446415423 -0.021751027044036069 0 -0.0022894696828226224 -0.022085953077324808 0 -0.0025442489449992345 -0.02211546507102119 0 -0.0022578845446415423 -0.021751027044036069 0 -0.0022894696828226224 -0.022085953077324808 0 -0.0025322112300547785 -0.022330432450674464 0 -0.0022894696828226224 -0.022085953077324808 0 -0.0022670467523127394 -0.02258951641780229 0 -0.0029782746828322464 -0.022457685849971133 0 -0.0030211851119673686 -0.022529987866912977 0 -0.0030008994400528553 -0.022563267486428545 0 -0.0030211851119673686 -0.022529987866912977 0 -0.0030008994400528553 -0.022563267486428545 0 -0.0030172853497338948 -0.022610105065955805 0 -0.0012397735430821448 -0.011966457651342147 0 -0.0034119838053698628 -0.019925719482654206 0 -0.0011003217412091728 -0.0033475614479991029 0 0.00016343381619602797 -0.0051735238479562896 0 0.00077475745780239175 -0.0036188477950572003 0 -0.0012397735430821448 -0.011966457651342147 0 -0.0014888161533658146 -0.014783326556075222 0 -0.0029782746828322464 -0.022457685849971133 0 -0.0030008994400528553 -0.022563267486428545 0 -0.0030377260282101652 -0.022610650774825818 0 -0.0030008994400528553 -0.022563267486428545 0 -0.0030008204053294783 -0.022525460808110253 0 -0.0030377260282101652 -0.022610650774825818 0 -0.0030008204053294783 -0.022525460808110253 0 -0.0030524749437023666 -0.022317213125147266 0 -0.0030377260282101652 -0.022610650774825818 0 -0.0030008204053294783 -0.022525460808110253 0 -0.0030315452350670024 -0.022488218313187584 0 -0.0030524749437023666 -0.022317213125147266 0 -0.0030008204053294783 -0.022525460808110253 0 -0.0030189663912475058 -0.022584017724133525 0 -0.0030315452350670024 -0.022488218313187584 0 -0.0030008994400528553 -0.022563267486428545 0 -0.0030008204053294783 -0.022525460808110253 0 -0.0030189663912475058 -0.022584017724133525 0 -0.0030008994400528553 -0.022563267486428545 0 -0.0030189663912475058 -0.022584017724133525 0 -0.0030172853497338948 -0.022610105065955805 0 -0.0030189663912475058 -0.022584017724133525 0 -0.0030172853497338948 -0.022610105065955805 0 -0.0030260199861212021 -0.022687748218486389 0 -0.0030189663912475058 -0.022584017724133525 0 -0.0030417735088182811 -0.022640669144761313 0 -0.0030260199861212021 -0.022687748218486389 0 -0.0030189663912475058 -0.022584017724133525 0 -0.0030417735088182811 -0.022640669144761313 0 -0.0030445096160498114 -0.022556157218873558 0 -0.0030189663912475058 -0.022584017724133525 0 -0.0030445096160498114 -0.022556157218873558 0 -0.0030315452350670024 -0.022488218313187584 0 -0.0030445096160498114 -0.022556157218873558 0 -0.0030315452350670024 -0.022488218313187584 0 -0.003059282693655593 -0.022499164404943636 0 -0.0030315452350670024 -0.022488218313187584 0 -0.003059282693655593 -0.022499164404943636 0 -0.0030524749437023666 -0.022317213125147266 0 -0.0036723960557455315 -0.02508213260577382 0 -0.0045586662275549058 -0.026488218004509449 0 -0.0030441759212432719 -0.022653269901284447 0 -0.0030380490097110021 -0.022776771195212698 0 -0.0030617535282236445 -0.022871973446626916 0 -0.0029987864562394315 -0.022862294002666282 0 -0.0030082437947948956 -0.022812922839058079 0 -0.0028534003994908079 -0.022811117157685662 0 -0.0030378909597983915 -0.022712088061281138 0 -0.0030617535282236445 -0.022871973446626916 0 -0.00307840798656667 -0.022948023140117339 0 -0.0030378909597983915 -0.022712088061281138 0 -0.0030617535282236445 -0.022871973446626916 0 -0.0045602070471819373 -0.027353232789831143 0 -0.0044622197079521647 -0.028788733239921638 0 -0.005649580570794949 -0.030447139257764797 0 -0.0030380490097110021 -0.022776771195212698 0 -0.0030617535282236445 -0.022871973446626916 0 -0.0030320582111634732 -0.022863690348135526 0 -0.00307840798656667 -0.022948023140117339 0 -0.0030617535282236445 -0.022871973446626916 0 -0.0030320582111634732 -0.022863690348135526 0 -0.0030441759212432719 -0.022653269901284447 0 -0.0030172853497338948 -0.022610105065955805 0 -0.0030260199861212021 -0.022687748218486389 0 -0.0030441759212432719 -0.022653269901284447 0 -0.0030380490097110021 -0.022776771195212698 0 -0.0030260199861212021 -0.022687748218486389 0 -0.0030380490097110021 -0.022776771195212698 0 -0.0030260199861212021 -0.022687748218486389 0 -0.0030276377005760864 -0.022765323566119156 0 -0.0030417735088182811 -0.022640669144761313 0 -0.0030276377005760864 -0.022765323566119156 0 -0.0030160526313530792 -0.022685115307361621 0 -0.0030417735088182811 -0.022640669144761313 0 -0.0030260199861212021 -0.022687748218486389 0 -0.0030276377005760864 -0.022765323566119156 0 -0.0030276377005760864 -0.022765323566119156 0 -0.0029894351169592187 -0.022842345394693701 0 -0.0030160526313530792 -0.022685115307361621 0 -0.0030380490097110021 -0.022776771195212698 0 -0.0030276377005760864 -0.022765323566119156 0 -0.0030320582111634732 -0.022863690348135526 0 -0.0030276377005760864 -0.022765323566119156 0 -0.0030320582111634732 -0.022863690348135526 0 -0.0029894351169592187 -0.022842345394693701 0 -0.0029523394189247586 -0.02292161430714609 0 -0.0030320582111634732 -0.022863690348135526 0 -0.0029894351169592187 -0.022842345394693701 0 -0.00307840798656667 -0.022948023140117339 0 -0.0029523394189247586 -0.02292161430714609 0 -0.0030320582111634732 -0.022863690348135526 0 -0.0029523394189247586 -0.02292161430714609 0 -0.002881308630977479 -0.022890479761842188 0 -0.0029894351169592187 -0.022842345394693701 0 -0.0029167948271677149 -0.022590302482834123 0 -0.0030043063279821956 -0.022584379749892872 0 -0.0030160526313530792 -0.022685115307361621 0 -0.002881308630977479 -0.022890479761842188 0 -0.0029894351169592187 -0.022842345394693701 0 -0.0029458465297453025 -0.022757163996863394 0 -0.0029894351169592187 -0.022842345394693701 0 -0.0029458465297453025 -0.022757163996863394 0 -0.0030160526313530792 -0.022685115307361621 0 -0.0029458465297453025 -0.022757163996863394 0 -0.0029340728766511252 -0.022670241989062687 0 -0.0030160526313530792 -0.022685115307361621 0 -0.0026068852492944512 -0.023144184268648074 0 -0.0030168489824382379 -0.02262635677292359 0 -0.0028381959730506678 -0.022716887975218619 0 -0.0029458465297453025 -0.022757163996863394 0 -0.0029340728766511252 -0.022670241989062687 0 -0.0026068852492944512 -0.023144184268648074 0 -0.002929699955682786 -0.020278357481385841 0 -0.0030043063279821956 -0.022584379749892872 0 -0.0030427104993315593 -0.022576245778227068 0 -0.0030302884511570383 -0.022509814429846512 0 -0.0029167948271677149 -0.022590302482834123 0 -0.0030043063279821956 -0.022584379749892872 0 -0.0030302884511570383 -0.022509814429846512 0 -0.0030417735088182811 -0.022640669144761313 0 -0.0030427104993315593 -0.022576245778227068 0 -0.0030160526313530792 -0.022685115307361621 0 -0.0030043063279821956 -0.022584379749892872 0 -0.0030427104993315593 -0.022576245778227068 0 -0.0030160526313530792 -0.022685115307361621 0 -0.0030417735088182811 -0.022640669144761313 0 -0.0030427104993315593 -0.022576245778227068 0 -0.0030565432264524676 -0.022556396857787962 0 -0.0030417735088182811 -0.022640669144761313 0 -0.0030445096160498114 -0.022556157218873558 0 -0.0030565432264524676 -0.022556396857787962 0 -0.0030565432264524676 -0.022556396857787962 0 -0.0030441639685909591 -0.022529413108640484 0 -0.0030423220859575524 -0.02251976755839491 0 -0.003059282693655593 -0.022499164404943636 0 -0.0030441639685909591 -0.022529413108640484 0 -0.0030123298619129562 -0.022524194009123481 0 -0.003059282693655593 -0.022499164404943636 0 -0.0030565432264524676 -0.022556396857787962 0 -0.0030441639685909591 -0.022529413108640484 0 -0.0030445096160498114 -0.022556157218873558 0 -0.003059282693655593 -0.022499164404943636 0 -0.0030565432264524676 -0.022556396857787962 0 -0.0030565432264524676 -0.022556396857787962 0 -0.0030423220859575524 -0.02251976755839491 0 -0.0030563114743173696 -0.022520042716717113 0 -0.0033332589171079959 -0.020494557762622618 0 -0.0033706903098186221 -0.015899207788500892 0 -0.0030423220859575524 -0.02251976755839491 0 -0.0030563114743173696 -0.022520042716717113 0 -0.0030452819094115738 -0.022484526601418257 0 -0.0030427104993315593 -0.022576245778227068 0 -0.0030563114743173696 -0.022520042716717113 0 -0.0030302884511570383 -0.022509814429846512 0 -0.0030427104993315593 -0.022576245778227068 0 -0.0030565432264524676 -0.022556396857787962 0 -0.0030563114743173696 -0.022520042716717113 0 -0.0033332589171079959 -0.020494557762622618 0 -0.002929699955682786 -0.020278357481385841 0 -0.0034048205175389156 -0.017675710764798857 0 -0.0032662042341560019 -0.017191343116608648 0 -0.0027830662914498025 -0.01759134711575195 0 -0.0035770828113194483 -0.017154408914397699 0 -0.002929699955682786 -0.020278357481385841 0 -0.0037629889484304467 -0.018827640718358716 0 -0.0029026508749360512 -0.018929305454867464 0 -0.0030049670948008749 -0.019432234412024775 0 -0.0034048205175389156 -0.017675710764798857 0 -0.0036924910665871984 -0.01744332296546864 0 -0.0032662042341560019 -0.017191343116608648 0 -0.0034048205175389156 -0.017675710764798857 0 -0.0036924910665871984 -0.01744332296546864 0 -0.00400705205134226 -0.017755696961861148 0 -0.0035770828113194483 -0.017154408914397699 0 -0.0048078197320017679 -0.015071764091967499 0 -0.0041633767471795889 -0.015906902183834708 0 -0.0037487180504534442 -0.015854702207273814 0 -0.0045165439769259425 -0.015164174287520796 0 -0.0036924910665871984 -0.01744332296546864 0 -0.0036513524497032482 -0.017141743529830555 0 -0.0032662042341560019 -0.017191343116608648 0 -0.0037487180504534442 -0.015854702207273814 0 -0.003467925268290495 -0.015982553359232415 0 -0.0045165439769259425 -0.015164174287520796 0 -0.0040051383508602602 -0.016043371036789773 0 -0.0038731497464259846 -0.015944405941480388 0 -0.0040051383508602602 -0.016043371036789773 0 -0.0041450256628300262 -0.01601083409985252 0 -0.0041646502260264291 -0.015912453575288671 0 -0.0037487180504534442 -0.015854702207273814 0 -0.003467925268290495 -0.015982553359232415 0 -0.0040051383508602602 -0.016043371036789773 0 -0.0035770828113194483 -0.017154408914397699 0 -0.0036068471392164399 -0.017011172156494062 0 -0.0028603211939326801 -0.016717362708563506 0 -0.0033819290984777586 -0.015936801193533461 0 -0.0035770828113194483 -0.017154408914397699 0 -0.0026805367251590698 -0.018077106700637221 0 -0.0036068471392164399 -0.017011172156494062 0 -0.0028603211939326801 -0.016717362708563506 0 -0.0024364662775769237 -0.017121347930203683 0 -0.0028603211939326801 -0.016717362708563506 0 -0.0021190694636121989 -0.016845779462867892 0 -0.0033819290984777586 -0.015936801193533461 0 -0.0028603211939326801 -0.016717362708563506 0 -0.0024364662775769237 -0.017121347930203683 0 -0.0021190694636121989 -0.016845779462867892 0 -0.0024364662775769237 -0.017121347930203683 0 -0.0021190694636121989 -0.016845779462867892 0 -0.0018082719241657849 -0.017142905724966861 0 -0.0026805367251590698 -0.018077106700637221 0 -0.0019935079955738537 -0.017915020361952531 0 -0.0021190694636121989 -0.016845779462867892 0 -0.0018691898669170866 -0.016858674644595548 0 -0.0018082719241657849 -0.017142905724966861 0 -0.0029026508749360512 -0.018929305454867464 0 -0.0020533906623314822 -0.019031483646796455 0 -0.0021038872733815687 -0.019278537358249324 0 -0.0023926989244160146 -0.022491056475282659 0 -0.0024422975050780926 -0.021600900963242568 0 -0.0033225018294412039 -0.021752512463086206 0 -0.0023625049857178121 -0.020434038011896152 0 -0.002929699955682786 -0.020278357481385841 0 -0.0029026508749360512 -0.018929305454867464 0 -0.0021038872733815687 -0.019278537358249324 0 -0.0030049670948008749 -0.019432234412024775 0 -0.0023232448562776416 -0.0074036437325423069 0 -0.0020296769511931574 -0.0073930659902944826 0 -0.002057792904755201 -0.0078232882736237758 0 -0.0005240417787264344 -0.0024922665801937133 0 -0.00071264247751595482 -0.0066690438682603737 0 -0.0020296769511931574 -0.0073930659902944826 0 -0.0018560038485999208 -0.0076052493351077026 0 -0.002057792904755201 -0.0078232882736237758 0 -0.0005240417787264344 -0.0024922665801937133 0 -0.0024878131370535388 -0.0041036756445530257 0 0.0016797338665746041 -0.00044492070020245766 0 0.0019218369903368985 -0.00076813288124503488 0 0.0017335134930629408 -0.00064455264642625904 0 0.0016797338665746041 -0.00044492070020245766 0 0.0016100728285601896 -0.00062385228775133778 0 0.0017335134930629408 -0.00064455264642625904 0 0.0016797338665746041 -0.00044492070020245766 0 0.0016100728285601896 -0.00062385228775133778 0 0.0015158207678791077 -0.00052115113253053198 0 -0.00079682927614384638 -0.00045383228129709769 0 0.00054280597134263777 -0.00063670704236973199 0 -5.6409942379420052e-05 -0.0016742397439112196 0 -0.0009663815546839421 -0.00050779825589462868 0 -0.0010031749887700423 -0.001817992443484881 0 -0.0019377679093549251 -0.0018585528804051607 0 -0.0005240417787264344 -0.0024922665801937133 0 -0.00051784648854922102 -0.0011022291315410265 0 -0.0009663815546839421 -0.00050779825589462868 0 -0.0010031749887700423 -0.001817992443484881 0 -5.6409942379420052e-05 -0.0016742397439112196 0 -0.0010031749887700423 -0.001817992443484881 0 -5.6409942379420052e-05 -0.0016742397439112196 0 -0.0006719769274618685 -0.002737658298767617 0 -0.0010031749887700423 -0.001817992443484881 0 -0.0019377679093549251 -0.0018585528804051607 0 -0.0014462673882392522 -0.0027593828803599302 0 -0.0009663815546839421 -0.00050779825589462868 0 -0.0019377679093549251 -0.0018585528804051607 0 -0.002680242553463942 -0.000780335717695477 0 -0.0019377679093549251 -0.0018585528804051607 0 -0.002680242553463942 -0.000780335717695477 0 -0.0030436612071387341 -0.0019827273119703294 0 -0.0024878131370535388 -0.0041036756445530257 0 -0.0030208086450365748 -0.0081588132820894534 0 -0.002680242553463942 -0.000780335717695477 0 -0.0030436612071387341 -0.0019827273119703294 0 -0.0043965485028790267 -0.0010727801665357788 0 -0.0030208086450365748 -0.0081588132820894534 0 -0.0041479049776784694 -0.008351561156497914 0 -0.0030436612071387341 -0.0019827273119703294 0 -0.0043965485028790267 -0.0010727801665357788 0 -0.0038726899508933449 -0.003018066957557785 0 -0.0043480616241752621 -0.013363493588200567 0 -0.0046573627197388431 -0.014135014715115185 0 -0.0040798653042349231 -0.014550903956866101 0 -0.0044114135040302059 -0.014419554198968499 0 -0.0048078197320017679 -0.015071764091967499 0 -0.0046573627197388431 -0.014135014715115185 0 -0.0050367032268215451 -0.013470266725658384 0 -0.005202815460880585 -0.014524781012848384 0 -0.004645893224542192 -0.015968757812617793 0 -0.0043569490727782077 -0.015885460494938091 0 -0.0045165439769259425 -0.015164174287520796 0 -0.0041633767471795889 -0.015906902183834708 0 -0.0043569490727782077 -0.015885460494938091 0 -0.0045165439769259425 -0.015164174287520796 0 -0.0030208086450365748 -0.0081588132820894534 0 -0.0044114135040302059 -0.014419554198968499 0 -0.0043480616241752621 -0.013363493588200567 0 -0.0046573627197388431 -0.014135014715115185 0 -0.0050367032268215451 -0.013470266725658384 0 -0.0036924910665871984 -0.01744332296546864 0 -0.0036513524497032482 -0.017141743529830555 0 -0.0039168185034164152 -0.017172180166551941 0 -0.0040051383508602602 -0.016043371036789773 0 -0.0044114135040302059 -0.014419554198968499 0 -0.0041633350113098686 -0.015905240875061975 0 -0.004645893224542192 -0.015968757812617793 0 -0.0043569490727782077 -0.015885460494938091 0 -0.0041285992926072875 -0.011876132318963225 0 -0.0028453784252272856 -0.011706171541261256 0 -0.0032639338637075409 -0.014307538083726069 0 -0.0036924910665871984 -0.01744332296546864 0 -0.0039168185034164152 -0.017172180166551941 0 -0.00400705205134226 -0.017755696961861148 0 -0.0044114135040302059 -0.014419554198968499 0 -0.0033706903098186221 -0.015899207788500892 0 -0.0041285992926072875 -0.011876132318963225 0 -0.0032639338637075409 -0.014307538083726069 0 -0.0034300441953112829 -0.014337575427192243 0 -0.0030208086450365748 -0.0081588132820894534 0 -0.0026297583390349735 -0.01397956341812078 0 -0.0020296769511931574 -0.0073930659902944826 0 -0.0017335622641915342 -0.0073767460459994638 0 -0.0018560038485999208 -0.0076052493351077026 0 -0.0017335622641915342 -0.0073767460459994638 0 -0.0018560038485999208 -0.0076052493351077026 0 -0.0016230595789180704 -0.0077878097282637095 0 -0.0017158834555805946 -0.011477410938883523 0 -0.0020911846104057063 -0.011914597750938696 0 -0.00093734319129912074 -0.011637995628164218 0 -0.0018560038485999208 -0.0076052493351077026 0 -0.0016230595789180704 -0.0077878097282637095 0 -0.002057792904755201 -0.0078232882736237758 0 -0.0017158834555805946 -0.011477410938883523 0 -0.0014150419862047742 -0.011006448760801058 0 -0.00093734319129912074 -0.011637995628164218 0 -0.0026297583390349735 -0.01397956341812078 0 -0.00071264247751595482 -0.0066690438682603737 0 -0.0017158834555805946 -0.011477410938883523 0 -0.0021338376746002133 -0.011769023246811866 0 -0.0020065524193298104 -0.01106367885679474 0 -0.0030423220859575524 -0.02251976755839491 0 -0.0030462578947429739 -0.022489600624158539 0 -0.0030123298619129562 -0.022524194009123481 0 -0.0030423220859575524 -0.02251976755839491 0 -0.0030452819094115738 -0.022484526601418257 0 -0.0030462578947429739 -0.022489600624158539 0 -0.0017158834555805946 -0.011477410938883523 0 -0.0020911846104057063 -0.011914597750938696 0 -0.0021338376746002133 -0.011769023246811866 0 -0.0033706903098186221 -0.015899207788500892 0 -0.0028008340288301447 -0.01709474534574849 0 -0.0033706903098186221 -0.015899207788500892 0 -0.0026297583390349735 -0.01397956341812078 0 -0.0019183898451630198 -0.014560954422648228 0 -0.0025527396840018721 -0.01467851117574144 0 -0.0021613602354700668 -0.016053542082186328 0 -0.0026297583390349735 -0.01397956341812078 0 -0.0028008340288301447 -0.01709474534574849 0 -0.0028008340288301447 -0.01709474534574849 0 -0.0028859743065839712 -0.016742383565122282 0 -0.0028008340288301447 -0.01709474534574849 0 -0.0029782677613329547 -0.022603616578726064 0 -0.0035107186574357425 -0.019769421188685504 0 -0.0037060395727359866 -0.020885036096169981 0 -0.0031817088077713941 -0.021212564517398256 0 -0.0030441639685909591 -0.022529413108640484 0 -0.0030423220859575524 -0.02251976755839491 0 -0.0030123298619129562 -0.022524194009123481 0 -0.0037060395727359866 -0.020885036096169981 0 -0.0031817088077713941 -0.021212564517398256 0 -0.0037538527139738655 -0.021848369868500479 0 0.0020969774046617662 -0.0010131516205859174 0 0.0019501400920993984 -0.0011520747181168827 0 0.0022750463780672634 -0.0012741229471088962 0 -0.0017158834555805946 -0.011477410938883523 0 -0.0020065524193298104 -0.01106367885679474 0 -0.0014150419862047742 -0.011006448760801058 0 8.2577148941019503e-05 -0.0055918468914205842 0 -4.7317111060662085e-06 -0.0099284994898102049 0 -0.0020065524193298104 -0.01106367885679474 0 -0.0014150419862047742 -0.011006448760801058 0 -0.0018732553334179893 -0.010363915752734215 0 -0.0028859743065839712 -0.016742383565122282 0 -4.7317111060662085e-06 -0.0099284994898102049 0 0.0020969774046617662 -0.0010131516205859174 0 0.0019049029872529565 -0.00095440255229003101 0 0.0019501400920993984 -0.0011520747181168827 0 0.0019049029872529565 -0.00095440255229003101 0 0.0017269120822540561 -0.0010483496106089526 0 0.0019501400920993984 -0.0011520747181168827 0 0.0019049029872529565 -0.00095440255229003101 0 0.0017464257319064066 -0.00083755051981466099 0 0.0017269120822540561 -0.0010483496106089526 0 0.0020969774046617662 -0.0010131516205859174 0 0.0019049029872529565 -0.00095440255229003101 0 0.0019218369903368985 -0.00076813288124503488 0 8.2577148941019503e-05 -0.0055918468914205842 0 -0.00071264247751595482 -0.0066690438682603737 0 0.0019049029872529565 -0.00095440255229003101 0 0.0018698818582762677 -0.00082249289403422032 0 0.0017464257319064066 -0.00083755051981466099 0 0.0018355387923928593 -0.00079175450379223946 0 0.0018698818582762677 -0.00082249289403422032 0 0.0017464257319064066 -0.00083755051981466099 0 0.0019049029872529565 -0.00095440255229003101 0 0.0018698818582762677 -0.00082249289403422032 0 0.0019218369903368985 -0.00076813288124503488 0 0.0018355387923928593 -0.00079175450379223946 0 0.0018074496109536781 -0.00073699555927878588 0 0.0017464257319064066 -0.00083755051981466099 0 0.0018355387923928593 -0.00079175450379223946 0 0.0018074496109536781 -0.00073699555927878588 0 0.0019218369903368985 -0.00076813288124503488 0 0.0018355387923928593 -0.00079175450379223946 0 0.0018698818582762677 -0.00082249289403422032 0 0.0019218369903368985 -0.00076813288124503488 0 0.0018074496109536781 -0.00073699555927878588 0 0.0019218369903368985 -0.00076813288124503488 0 0.0017335134930629408 -0.00064455264642625904 0 0.0016100728285601896 -0.00062385228775133778 0 0.0017002405738029481 -0.0007272508341526953 0 0.001593518189403153 -0.00078191791159527748 0 0.0016100728285601896 -0.00062385228775133778 0 0.0017335134930629408 -0.00064455264642625904 0 0.0017002405738029481 -0.0007272508341526953 0 0.0018074496109536781 -0.00073699555927878588 0 0.0017335134930629408 -0.00064455264642625904 0 0.0017002405738029481 -0.0007272508341526953 0 0.0017002405738029481 -0.0007272508341526953 0 0.0017464257319064066 -0.00083755051981466099 0 0.001593518189403153 -0.00078191791159527748 0 0.0018074496109536781 -0.00073699555927878588 0 0.0017002405738029481 -0.0007272508341526953 0 0.0017464257319064066 -0.00083755051981466099 0 0.0017464257319064066 -0.00083755051981466099 0 0.001593518189403153 -0.00078191791159527748 0 0.0016091842459109058 -0.00092401569064837316 0 0.0017464257319064066 -0.00083755051981466099 0 0.0016091842459109058 -0.00092401569064837316 0 0.0017269120822540561 -0.0010483496106089526 0 0.0016091842459109058 -0.00092401569064837316 0 0.0017269120822540561 -0.0010483496106089526 0 0.0015460252509970514 -0.0010528271067010975 0 0.0017269120822540561 -0.0010483496106089526 0 0.0016221643237537594 -0.001191168772987588 0 0.0015460252509970514 -0.0010528271067010975 0 0.0017740060844833134 -0.0012339235904773121 0 0.0019424924098088358 -0.0013912857082019033 0 0.0016318645698667111 -0.0013929453923663129 0 0.0016221643237537594 -0.001191168772987588 0 0.0016318645698667111 -0.0013929453923663129 0 0.0014551852542883884 -0.001230458730572133 0 0.0016221643237537594 -0.001191168772987588 0 0.0017740060844833134 -0.0012339235904773121 0 0.0016318645698667111 -0.0013929453923663129 0 0.0017269120822540561 -0.0010483496106089526 0 0.0016221643237537594 -0.001191168772987588 0 0.0017740060844833134 -0.0012339235904773121 0 0.0017269120822540561 -0.0010483496106089526 0 0.0017740060844833134 -0.0012339235904773121 0 0.0019501400920993984 -0.0011520747181168827 0 0.0017740060844833134 -0.0012339235904773121 0 0.0019501400920993984 -0.0011520747181168827 0 0.0019424924098088358 -0.0013912857082019033 0 0.0019424924098088358 -0.0013912857082019033 0 0.0018241406682226757 -0.0016478796344233271 0 0.0016318645698667111 -0.0013929453923663129 0 0.0019424924098088358 -0.0013912857082019033 0 0.0018241406682226757 -0.0016478796344233271 0 0.0022289460314293573 -0.0016845026601531175 0 0.0016318645698667111 -0.0013929453923663129 0 0.0015680293263380617 -0.0016858940443560955 0 0.0014469626133140436 -0.0014344212132597536 0 0.0018241406682226757 -0.0016478796344233271 0 0.0016318645698667111 -0.0013929453923663129 0 0.0015680293263380617 -0.0016858940443560955 0 -0.003059282693655593 -0.022499164404943636 0 -0.0030123298619129562 -0.022524194009123481 0 -0.0030524749437023666 -0.022317213125147266 0 -0.0030524749437023666 -0.022317213125147266 0 -0.0037538527139738655 -0.021848369868500479 0 -0.0030377260282101652 -0.022610650774825818 0 -0.0031817088077713941 -0.021212564517398256 0 -0.0030524749437023666 -0.022317213125147266 0 -0.0037538527139738655 -0.021848369868500479 0 -0.0029782677613329547 -0.022603616578726064 0 -0.0031141140977671128 -0.021990663861962335 0 0.0019501400920993984 -0.0011520747181168827 0 0.0019424924098088358 -0.0013912857082019033 0 0.0022750463780672634 -0.0012741229471088962 0 0.0019424924098088358 -0.0013912857082019033 0 0.0022750463780672634 -0.0012741229471088962 0 0.0022289460314293573 -0.0016845026601531175 0 -4.7317111060662085e-06 -0.0099284994898102049 0 0.0023741264787222713 -0.001874876580842965 0 0.001530956125991371 -0.0071578067171394451 0 0.0019057943757970824 -0.0047470585340345485 0 0.00016343381619602797 -0.0051735238479562896 0 -4.7317111060662085e-06 -0.0099284994898102049 0 -0.0014888161533658146 -0.014783326556075222 0 0.0019057943757970824 -0.0047470585340345485 0 0.00016343381619602797 -0.0051735238479562896 0 0.00077475745780239175 -0.0036188477950572003 0 0.0022289460314293573 -0.0016845026601531175 0 0.0019621004926915439 -0.0023922004533485828 0 0.0019471939644342539 -0.0019554180853300403 0 0.0019057943757970824 -0.0047470585340345485 0 0.00077475745780239175 -0.0036188477950572003 0 0.0019621004926915439 -0.0023922004533485828 0 0.0023741264787222713 -0.001874876580842965 0 0.0018826887570621436 -0.0030201068691673165 0 0.00077475745780239175 -0.0036188477950572003 0 0.0019621004926915439 -0.0023922004533485828 0 0.00098504564668407645 -0.002160086593526562 0 -0.0011003217412091728 -0.0033475614479991029 0 0.00077475745780239175 -0.0036188477950572003 0 0.00098504564668407645 -0.002160086593526562 0 0.0018241406682226757 -0.0016478796344233271 0 0.0015680293263380617 -0.0016858940443560955 0 0.0017912634698798893 -0.0019278926502351427 0 0.0018241406682226757 -0.0016478796344233271 0 0.0022289460314293573 -0.0016845026601531175 0 0.0019471939644342539 -0.0019554180853300403 0 0.0018241406682226757 -0.0016478796344233271 0 0.0017912634698798893 -0.0019278926502351427 0 0.0019471939644342539 -0.0019554180853300403 0 0.0017912634698798893 -0.0019278926502351427 0 0.0019376612141425913 -0.0021700165417567786 0 0.0018552174767443523 -0.002106655827935794 0 0.0017912634698798893 -0.0019278926502351427 0 0.0019471939644342539 -0.0019554180853300403 0 0.0019376612141425913 -0.0021700165417567786 0 0.0019621004926915439 -0.0023922004533485828 0 0.0019471939644342539 -0.0019554180853300403 0 0.0019376612141425913 -0.0021700165417567786 0 0.0020542590247826461 -0.0021416777150263149 0 0.0019621004926915439 -0.0023922004533485828 0 0.0019376612141425913 -0.0021700165417567786 0 0.0020542590247826461 -0.0021416777150263149 0 0.0019376612141425913 -0.0021700165417567786 0 0.0018552174767443523 -0.002106655827935794 0 0.0015680293263380617 -0.0016858940443560955 0 0.0017912634698798893 -0.0019278926502351427 0 0.0016424648867704391 -0.0020174232885579119 0 0.0017912634698798893 -0.0019278926502351427 0 0.0018552174767443523 -0.002106655827935794 0 0.0016424648867704391 -0.0020174232885579119 0 0.0011532833300620204 -0.0020463921879183972 0 0.0015252811987288926 -0.0021975865524963578 0 0.0014115919213516627 -0.0018806688226167042 0 0.0015252811987288926 -0.0021975865524963578 0 0.0016424648867704391 -0.0020174232885579119 0 0.0014115919213516627 -0.0018806688226167042 0 0.0015680293263380617 -0.0016858940443560955 0 0.0016424648867704391 -0.0020174232885579119 0 0.0014115919213516627 -0.0018806688226167042 0 0.0015680293263380617 -0.0016858940443560955 0 0.0011903289555238266 -0.0015251550468787975 0 0.0014469626133140436 -0.0014344212132597536 0 0.0015680293263380617 -0.0016858940443560955 0 0.0014115919213516627 -0.0018806688226167042 0 0.0011903289555238266 -0.0015251550468787975 0 0.0011903289555238266 -0.0015251550468787975 0 0.0011835686290882661 -0.0012751721756435223 0 0.0011645970836885978 -0.0012384413364450295 0 0.0013013252079225762 -0.0012801644580456096 0 0.00081061156167493685 -0.0022763666236424213 0 0.0011903289555238266 -0.0015251550468787975 0 0.0012088773056921508 -0.0018557800612440754 0 0.0010374299217790579 -0.0019627319583245461 0 0.0014115919213516627 -0.0018806688226167042 0 0.0011903289555238266 -0.0015251550468787975 0 0.0012088773056921508 -0.0018557800612440754 0 0.0011532833300620204 -0.0020463921879183972 0 0.0012088773056921508 -0.0018557800612440754 0 0.0010374299217790579 -0.0019627319583245461 0 0.0011532833300620204 -0.0020463921879183972 0 0.0014115919213516627 -0.0018806688226167042 0 0.0012088773056921508 -0.0018557800612440754 0 0.0011532833300620204 -0.0020463921879183972 0 0.0010893654853175569 -0.0020931163800637087 0 0.0010374299217790579 -0.0019627319583245461 0 0.0011835686290882661 -0.0012751721756435223 0 0.0010763813356869441 -0.0012622846096435772 0 0.0011645970836885978 -0.0012384413364450295 0 0.0010763813356869441 -0.0012622846096435772 0 0.0011645970836885978 -0.0012384413364450295 0 0.00090908272740597646 -0.0010685663390867163 0 0.0010763813356869441 -0.0012622846096435772 0 0.00090908272740597646 -0.0010685663390867163 0 0.0007842849026976046 -0.0012784010010543573 0 0.0011645970836885978 -0.0012384413364450295 0 0.00090908272740597646 -0.0010685663390867163 0 0.0010388700431947385 -0.00060991430619156172 0 0.00090908272740597646 -0.0010685663390867163 0 0.0010388700431947385 -0.00060991430619156172 0 0.00065187477425267867 -0.00080297644738369178 0 0.0011446524477653314 -0.0012095929059312911 0 0.0010238042971043632 -0.00099014875203706776 0 0.0011903289555238266 -0.0015251550468787975 0 0.0011645970836885978 -0.0012384413364450295 0 0.0011214039593274183 -0.0013934758595710785 0 0.0011645970836885978 -0.0012384413364450295 0 0.0011214039593274183 -0.0013934758595710785 0 0.0010227507101756514 -0.0013862183456133826 0 0.0011214039593274183 -0.0013934758595710785 0 0.0011383433466161546 -0.0013070529400644897 0 0.0010227507101756514 -0.0013862183456133826 0 0.0011383433466161546 -0.0013070529400644897 0 0.0010227507101756514 -0.0013862183456133826 0 0.00081045363852146795 -0.0011124796987128003 0 0.0010388700431947385 -0.00060991430619156172 0 0.00080696876343480531 -0.00017853130635358015 0 0.00069436062946753245 -0.00044694375630817493 0 0.0010238042971043632 -0.00099014875203706776 0 0.00080859675877143617 -0.00064980978824004637 0 0.0010388700431947385 -0.00060991430619156172 0 0.00065187477425267867 -0.00080297644738369178 0 0.00069436062946753245 -0.00044694375630817493 0 0.0011383433466161546 -0.0013070529400644897 0 0.00081045363852146795 -0.0011124796987128003 0 0.0011236176547446738 -0.0010221840625747923 0 0.0011383433466161546 -0.0013070529400644897 0 0.0012787207792990061 -0.00115418210721851 0 0.0011236176547446738 -0.0010221840625747923 0 0.0011383433466161546 -0.0013070529400644897 0 0.0012787207792990061 -0.00115418210721851 0 0.0012896328179583477 -0.0013401565192510249 0 0.0012787207792990061 -0.00115418210721851 0 0.0014551852542883884 -0.001230458730572133 0 0.0014063860353295894 -0.001048781492749547 0 0.0016221643237537594 -0.001191168772987588 0 0.0014551852542883884 -0.001230458730572133 0 0.0015460252509970514 -0.0010528271067010975 0 0.0014551852542883884 -0.001230458730572133 0 0.0015460252509970514 -0.0010528271067010975 0 0.0014063860353295894 -0.001048781492749547 0 0.0012787207792990061 -0.00115418210721851 0 0.0014551852542883884 -0.001230458730572133 0 0.0012896328179583477 -0.0013401565192510249 0 0.0011903289555238266 -0.0015251550468787975 0 0.0014469626133140436 -0.0014344212132597536 0 0.0012896328179583477 -0.0013401565192510249 0 0.0014551852542883884 -0.001230458730572133 0 0.0014469626133140436 -0.0014344212132597536 0 0.0012896328179583477 -0.0013401565192510249 0 0.0016318645698667111 -0.0013929453923663129 0 0.0014551852542883884 -0.001230458730572133 0 0.0014469626133140436 -0.0014344212132597536 0 0.0011903289555238266 -0.0015251550468787975 0 0.0011383433466161546 -0.0013070529400644897 0 0.0012896328179583477 -0.0013401565192510249 0 0.0011903289555238266 -0.0015251550468787975 0 0.0011214039593274183 -0.0013934758595710785 0 0.0011383433466161546 -0.0013070529400644897 0 0.0040431182215902271 0.0069514554878405844 0 0.0039933912751531934 0.0070172093142895908 0 0.0039986610666549087 0.0070084885721790457 0 0.0040431182215902271 0.0069514554878405844 0 0.0039933912751531934 0.0070172093142895908 0 0.0040509662134321552 0.0069359075562424868 0 0.0040431182215902271 0.0069514554878405844 0 0.0040612315188703228 0.0069032002394052447 0 0.0040509662134321552 0.0069359075562424868 0 -0.00011639474053556834 -0.00062816950669882345 0 0.00029298996292667222 -0.00092847211102617194 0 0.00010725532702810477 -0.0003732182690762291 0 0.0020180659913966153 0.003152296466884686 0 0.0021565369682072203 0.0029878607267670096 0 0.00029298996292667222 -0.00092847211102617194 0 0.00065187477425267867 -0.00080297644738369178 0 0.00042134515053548897 -0.0004568171743556954 0 0.0040612315188703228 0.0069032002394052447 0 0.0040509662134321552 0.0069359075562424868 0 0.0040585830971417245 0.0068576519514816523 0 0.0021565369682072203 0.0029878607267670096 0 0.0024463221609197371 0.0029403377582822706 0 0.00029298996292667222 -0.00092847211102617194 0 0.0007842849026976046 -0.0012784010010543573 0 0.00065187477425267867 -0.00080297644738369178 0 0.00090908272740597646 -0.0010685663390867163 0 0.0007842849026976046 -0.0012784010010543573 0 0.00065187477425267867 -0.00080297644738369178 0 0.00065187477425267867 -0.00080297644738369178 0 0.00069436062946753245 -0.00044694375630817493 0 0.00042134515053548897 -0.0004568171743556954 0 0.00080696876343480531 -0.00017853130635358015 0 0.00069436062946753245 -0.00044694375630817493 0 0.00051346930572113581 -0.00013822506961413353 0 0.00069436062946753245 -0.00044694375630817493 0 0.00051346930572113581 -0.00013822506961413353 0 0.00042134515053548897 -0.0004568171743556954 0 0.00051346930572113581 -0.00013822506961413353 0 0.00029609331134983468 -0.00015362378508699452 0 0.0003186581716629255 4.4568584721762705e-05 0 0.00051346930572113581 -0.00013822506961413353 0 0.00029609331134983468 -0.00015362378508699452 0 0.00042134515053548897 -0.0004568171743556954 0 0.00029609331134983468 -0.00015362378508699452 0 0.00042134515053548897 -0.0004568171743556954 0 0.00010725532702810477 -0.0003732182690762291 0 0.00029298996292667222 -0.00092847211102617194 0 0.00042134515053548897 -0.0004568171743556954 0 0.00010725532702810477 -0.0003732182690762291 0 0.00029609331134983468 -0.00015362378508699452 0 0.00010725532702810477 -0.0003732182690762291 0 8.2564795480300626e-05 6.80994355342676e-05 0 -0.00025977279122499011 -0.00020147823984583465 0 0.00010725532702810477 -0.0003732182690762291 0 8.2564795480300626e-05 6.80994355342676e-05 0 1.1969809965948043e-05 0.00028057306054690272 0 -4.2653185766152298e-06 0.00030226837467988072 0 8.2564795480300626e-05 6.80994355342676e-05 0 -0.00062333172107777147 -0.00050547905391904965 0 0.00029230159651808896 0.00027280761354754227 0 -0.00025977279122499011 -0.00020147823984583465 0 -0.00011639474053556834 -0.00062816950669882345 0 0.00010725532702810477 -0.0003732182690762291 0 -4.2653185766152298e-06 0.00030226837467988072 0 1.3792656252762384e-05 0.00032652127340766074 0 0.00013494922007476262 0.00019620457853827778 0 -4.2653185766152298e-06 0.00030226837467988072 0 8.2564795480300626e-05 6.80994355342676e-05 0 0.00013494922007476262 0.00019620457853827778 0 0.00029609331134983468 -0.00015362378508699452 0 8.2564795480300626e-05 6.80994355342676e-05 0 0.0003186581716629255 4.4568584721762705e-05 0 8.2564795480300626e-05 6.80994355342676e-05 0 0.00013494922007476262 0.00019620457853827778 0 0.0003186581716629255 4.4568584721762705e-05 0 0.00013494922007476262 0.00019620457853827778 0 0.00033694226020233544 0.00010743431939271981 0 0.0003186581716629255 4.4568584721762705e-05 0 0.00013494922007476262 0.00019620457853827778 0 0.00033694226020233544 0.00010743431939271981 0 0.00020558005214386699 0.0002010620397596982 0 0.00033694226020233544 0.00010743431939271981 0 0.0003186581716629255 4.4568584721762705e-05 0 0.00055708695754247623 6.0983479755499198e-05 0 0.00080696876343480531 -0.00017853130635358015 0 0.00051346930572113581 -0.00013822506961413353 0 0.00055708695754247623 6.0983479755499198e-05 0 0.00051346930572113581 -0.00013822506961413353 0 0.0003186581716629255 4.4568584721762705e-05 0 0.00055708695754247623 6.0983479755499198e-05 0 0.00059051509160602377 -0.00031948429933147208 0 0.00045828829442280157 -5.4468532544501201e-05 0 0.00033694226020233544 0.00010743431939271981 0 0.00055708695754247623 6.0983479755499198e-05 0 0.00044099245568610432 -2.521410274278027e-05 0 0.00044099245568610432 -2.521410274278027e-05 0 0.00054359860623820542 0.00018144006969149113 0 0.00076864983445858821 5.1233048855360013e-05 0 0.00044099245568610432 -2.521410274278027e-05 0 0.00054359860623820542 0.00018144006969149113 0 0.00038918386235895327 0.00019290476257247596 0 0.00054359860623820542 0.00018144006969149113 0 0.00038918386235895327 0.00019290476257247596 0 0.0004863666965270645 0.00037306175891680429 0 0.00038918386235895327 0.00019290476257247596 0 0.00035764936502303922 0.00027524264903349218 0 0.00029830573261962719 0.00023788017165738781 0 0.00035764936502303922 0.00027524264903349218 0 0.00029830573261962719 0.00023788017165738781 0 0.00027609292939700909 0.00031705020033361031 0 0.00038918386235895327 0.00019290476257247596 0 0.00029830573261962719 0.00023788017165738781 0 0.0002905387414179281 0.00016792503762814008 0 0.00044099245568610432 -2.521410274278027e-05 0 0.00038918386235895327 0.00019290476257247596 0 0.0002905387414179281 0.00016792503762814008 0 0.00033694226020233544 0.00010743431939271981 0 0.00044099245568610432 -2.521410274278027e-05 0 0.0002905387414179281 0.00016792503762814008 0 0.00013494922007476262 0.00019620457853827778 0 0.00020558005214386699 0.0002010620397596982 0 0.0001461754299121976 0.00026224435448195179 0 0.0002905387414179281 0.00016792503762814008 0 0.00020558005214386699 0.0002010620397596982 0 0.0001461754299121976 0.00026224435448195179 0 0.00033694226020233544 0.00010743431939271981 0 0.0002905387414179281 0.00016792503762814008 0 0.00020558005214386699 0.0002010620397596982 0 0.0005589307104979102 0.0019764928690986154 0 0.00058473188833792471 0.0031602964627052859 0 0.00029830573261962719 0.00023788017165738781 0 0.0002905387414179281 0.00016792503762814008 0 0.0001461754299121976 0.00026224435448195179 0 0.00097207025296418368 0.0039501902093876011 0 0.0010228983244464692 0.0043731139259427978 0 0.0012910345554640313 0.0044309646943288504 0 0.00029830573261962719 0.00023788017165738781 0 0.0001461754299121976 0.00026224435448195179 0 0.00027609292939700909 0.00031705020033361031 0 0.00097207025296418368 0.0039501902093876011 0 0.0012910345554640313 0.0044309646943288504 0 0.0013994461682561891 0.0044666909897932957 0 0.00051208637562395298 0.0039605518922231978 0 0.00097207025296418368 0.0039501902093876011 0 0.00068804028949848606 0.0044182515637734617 0 0.00097207025296418368 0.0039501902093876011 0 0.00068804028949848606 0.0044182515637734617 0 0.0010228983244464692 0.0043731139259427978 0 1.3792656252762384e-05 0.00032652127340766074 0 0.00013494922007476262 0.00019620457853827778 0 0.0001461754299121976 0.00026224435448195179 0 0.00027624267338465143 0.0017943900955730671 0 0.0005589307104979102 0.0019764928690986154 0 0.0013313996092045538 -0.00071447246243667517 0 0.0012184685263315644 -0.00054699075442572796 0 0.0011945494747698511 -0.00079831665770421366 0 0.0013313996092045538 -0.00071447246243667517 0 0.0014041848852894047 -0.00059591003934956219 0 0.0013249395791679157 -0.0005403592190093376 0 0.0013313996092045538 -0.00071447246243667517 0 0.0012184685263315644 -0.00054699075442572796 0 0.0013249395791679157 -0.0005403592190093376 0 0.0013313996092045538 -0.00071447246243667517 0 0.0014041848852894047 -0.00059591003934956219 0 0.0014864486519974227 -0.00068408191702707885 0 0.0014041848852894047 -0.00059591003934956219 0 0.0014864486519974227 -0.00068408191702707885 0 0.0015158207678791077 -0.00052115113253053198 0 0.0016100728285601896 -0.00062385228775133778 0 0.0014864486519974227 -0.00068408191702707885 0 0.0015158207678791077 -0.00052115113253053198 0 0.0016100728285601896 -0.00062385228775133778 0 0.001593518189403153 -0.00078191791159527748 0 0.0014864486519974227 -0.00068408191702707885 0 0.001593518189403153 -0.00078191791159527748 0 0.0014864486519974227 -0.00068408191702707885 0 0.0014632779149214522 -0.0008822651363725307 0 0.0013313996092045538 -0.00071447246243667517 0 0.0014864486519974227 -0.00068408191702707885 0 0.0014632779149214522 -0.0008822651363725307 0 0.0013313996092045538 -0.00071447246243667517 0 0.0014632779149214522 -0.0008822651363725307 0 0.0013016054246143384 -0.00093693895484385048 0 0.0016091842459109058 -0.00092401569064837316 0 0.0014632779149214522 -0.0008822651363725307 0 0.0015460252509970514 -0.0010528271067010975 0 0.001593518189403153 -0.00078191791159527748 0 0.0016091842459109058 -0.00092401569064837316 0 0.0014632779149214522 -0.0008822651363725307 0 0.0014632779149214522 -0.0008822651363725307 0 0.0015460252509970514 -0.0010528271067010975 0 0.0014063860353295894 -0.001048781492749547 0 0.0014632779149214522 -0.0008822651363725307 0 0.0014063860353295894 -0.001048781492749547 0 0.0013016054246143384 -0.00093693895484385048 0 0.0012787207792990061 -0.00115418210721851 0 0.0014063860353295894 -0.001048781492749547 0 0.0013016054246143384 -0.00093693895484385048 0 0.0013313996092045538 -0.00071447246243667517 0 0.0013016054246143384 -0.00093693895484385048 0 0.0011945494747698511 -0.00079831665770421366 0 0.0012787207792990061 -0.00115418210721851 0 0.0013016054246143384 -0.00093693895484385048 0 0.0011236176547446738 -0.0010221840625747923 0 0.0013016054246143384 -0.00093693895484385048 0 0.0011945494747698511 -0.00079831665770421366 0 0.0011236176547446738 -0.0010221840625747923 0 0.00081045363852146795 -0.0011124796987128003 0 0.0011236176547446738 -0.0010221840625747923 0 0.00098812968975136835 -0.00076341564044594577 0 0.0011945494747698511 -0.00079831665770421366 0 0.0011236176547446738 -0.0010221840625747923 0 0.00098812968975136835 -0.00076341564044594577 0 0.00080859675877143617 -0.00064980978824004637 0 0.00059051509160602377 -0.00031948429933147208 0 0.00081045363852146795 -0.0011124796987128003 0 0.00060705338490793655 -0.0006931315013893294 0 0.00098812968975136835 -0.00076341564044594577 0 0.00060705338490793655 -0.0006931315013893294 0 0.00044099245568610432 -2.521410274278027e-05 0 0.00093329394478855682 -0.00030492577056751572 0 0.00060705338490793655 -0.0006931315013893294 0 0.00098812968975136835 -0.00076341564044594577 0 0.00093329394478855682 -0.00030492577056751572 0 0.0012184685263315644 -0.00054699075442572796 0 0.00098812968975136835 -0.00076341564044594577 0 0.00093329394478855682 -0.00030492577056751572 0 0.0012184685263315644 -0.00054699075442572796 0 0.0011945494747698511 -0.00079831665770421366 0 0.00098812968975136835 -0.00076341564044594577 0 0.00085070815320884832 -0.00040676659136147268 0 0.0016031241711625406 -5.0593449507608139e-05 0 0.00093329394478855682 -0.00030492577056751572 0 0.00076864983445858821 5.1233048855360013e-05 0 0.0011203616878860715 -0.0001431312373060589 0 0.00093329394478855682 -0.00030492577056751572 0 0.0011203616878860715 -0.0001431312373060589 0 0.0014628658584328424 -0.00026946146001749748 0 0.00044099245568610432 -2.521410274278027e-05 0 0.00093329394478855682 -0.00030492577056751572 0 0.00076864983445858821 5.1233048855360013e-05 0 0.00054359860623820542 0.00018144006969149113 0 0.00076864983445858821 5.1233048855360013e-05 0 0.00066862931222631036 0.00035264024089422095 0 0.00076864983445858821 5.1233048855360013e-05 0 0.0010614461291828269 5.5556793821200445e-05 0 0.00088612030684541291 0.00023985322814124062 0 0.00076864983445858821 5.1233048855360013e-05 0 0.0011203616878860715 -0.0001431312373060589 0 0.0010614461291828269 5.5556793821200445e-05 0 0.0011203616878860715 -0.0001431312373060589 0 0.0010614461291828269 5.5556793821200445e-05 0 0.0013036457929508029 -0.00016072915390110261 0 0.0010614461291828269 5.5556793821200445e-05 0 0.0013036457929508029 -0.00016072915390110261 0 0.0013144360323599292 0.00012962049796115825 0 0.0014067336346628813 -0.0001046284278546099 0 0.0013036457929508029 -0.00016072915390110261 0 0.0013144360323599292 0.00012962049796115825 0 0.0015087750682668836 1.5985470141070558e-05 0 0.0014446812578161386 -0.0003356859138387357 0 0.0017160822925727447 8.4168071329755333e-05 0 0.0015087750682668836 1.5985470141070558e-05 0 0.0014067336346628813 -0.0001046284278546099 0 0.0013144360323599292 0.00012962049796115825 0 0.0015087750682668836 1.5985470141070558e-05 0 0.0014067336346628813 -0.0001046284278546099 0 0.0014446812578161386 -0.0003356859138387357 0 0.0014067336346628813 -0.0001046284278546099 0 0.0013036457929508029 -0.00016072915390110261 0 0.0014446812578161386 -0.0003356859138387357 0 0.0011203616878860715 -0.0001431312373060589 0 0.0013036457929508029 -0.00016072915390110261 0 0.0014628658584328424 -0.00026946146001749748 0 0.0012184685263315644 -0.00054699075442572796 0 0.00093329394478855682 -0.00030492577056751572 0 0.0013302196534735816 -0.00043870456861347975 0 0.0013036457929508029 -0.00016072915390110261 0 0.0014446812578161386 -0.0003356859138387357 0 0.0014628658584328424 -0.00026946146001749748 0 0.0014446812578161386 -0.0003356859138387357 0 0.0014628658584328424 -0.00026946146001749748 0 0.0010267662279899736 -0.00056889424066985548 0 0.0012184685263315644 -0.00054699075442572796 0 0.0013302196534735816 -0.00043870456861347975 0 0.0013249395791679157 -0.0005403592190093376 0 0.0013302196534735816 -0.00043870456861347975 0 0.0013249395791679157 -0.0005403592190093376 0 0.0013934822708288434 -0.00052373308831679146 0 -0.0005240417787264344 -0.0024922665801937133 0 0.0016031241711625406 -5.0593449507608139e-05 0 0.0016797338665746041 -0.00044492070020245766 0 0.0013302196534735816 -0.00043870456861347975 0 0.0015158207678791077 -0.00052115113253053198 0 -0.00079682927614384638 -0.00045383228129709769 0 0.0014628658584328424 -0.00026946146001749748 0 0.00054280597134263777 -0.00063670704236973199 0 0.0013302196534735816 -0.00043870456861347975 0 0.0015158207678791077 -0.00052115113253053198 0 0.0013934822708288434 -0.00052373308831679146 0 0.0014041848852894047 -0.00059591003934956219 0 0.0015158207678791077 -0.00052115113253053198 0 0.0013934822708288434 -0.00052373308831679146 0 0.0014041848852894047 -0.00059591003934956219 0 0.0013249395791679157 -0.0005403592190093376 0 0.0013934822708288434 -0.00052373308831679146 0 0.0014628658584328424 -0.00026946146001749748 0 0.0010267662279899736 -0.00056889424066985548 0 0.00054280597134263777 -0.00063670704236973199 0 0.00054280597134263777 -0.00063670704236973199 0 0.0007833472031169718 -0.0010445482753905539 0 -5.6409942379420052e-05 -0.0016742397439112196 0 0.0007932592239113834 -0.0019995119962016141 0 -5.6409942379420052e-05 -0.0016742397439112196 0 -0.0006719769274618685 -0.002737658298767617 0 0.0014446812578161386 -0.0003356859138387357 0 0.0007833472031169718 -0.0010445482753905539 0 0.0007932592239113834 -0.0019995119962016141 0 0.0014180822305598115 -0.0004857613992332847 0 0.0012821262924683238 -0.00087525172016464099 0 0.0014446812578161386 -0.0003356859138387357 0 0.0010267662279899736 -0.00056889424066985548 0 0.0007833472031169718 -0.0010445482753905539 0 0.0010267662279899736 -0.00056889424066985548 0 0.00054280597134263777 -0.00063670704236973199 0 0.0007833472031169718 -0.0010445482753905539 0 0.0007833472031169718 -0.0010445482753905539 0 0.0007932592239113834 -0.0019995119962016141 0 -5.6409942379420052e-05 -0.0016742397439112196 0 0.0012821262924683238 -0.00087525172016464099 0 0.00043189568445642671 -0.0019111609300896922 0 0.0007932592239113834 -0.0019995119962016141 0 -0.0006719769274618685 -0.002737658298767617 0 -0.00022583123061808112 -0.0035145761217403987 0 0.0017160822925727447 8.4168071329755333e-05 0 0.0016389622084651875 0.00037652897679615524 0 0.0015149829923296746 0.00022378092695111789 0 0.0015087750682668836 1.5985470141070558e-05 0 0.0017160822925727447 8.4168071329755333e-05 0 0.0015149829923296746 0.00022378092695111789 0 0.0017160822925727447 8.4168071329755333e-05 0 0.0016389622084651875 0.00037652897679615524 0 0.0019195196171677123 0.00038994078963865039 0 0.00098442410676290236 0.0016023334407771826 0 0.0014344970132208158 0.0017138464198511139 0 0.0011147913719154047 0.0013792539647809038 0 0.00077562843300502051 -0.00020431621301320065 0 0.00043189568445642671 -0.0019111609300896922 0 0.0016389622084651875 0.00037652897679615524 0 0.0018042231096314946 0.00060030485233721661 0 0.0019195196171677123 0.00038994078963865039 0 0.00077562843300502051 -0.00020431621301320065 0 0.0015310194089067702 0.0011945368281840599 0 0.0016389622084651875 0.00037652897679615524 0 0.0018042231096314946 0.00060030485233721661 0 0.0013331407945260715 0.00052131565789221884 0 -0.00047428733302017783 -0.00088516559144937172 0 -0.00062054718327651565 -0.00062216560985616594 0 -0.00035149151352476525 -0.00067528401707602512 0 0.00077562843300502051 -0.00020431621301320065 0 0.00065111048253146877 0.0016858277024598617 0 0.0022542573603802065 0.0035123351393098112 0 0.00065111048253146877 0.0016858277024598617 0 0.0014977211959745788 0.0016048806663733445 0 0.0014344970132208158 0.0017138464198511139 0 0.0011147913719154047 0.0013792539647809038 0 0.0013331407945260715 0.00052131565789221884 0 0.0013144360323599292 0.00012962049796115825 0 0.0010901919912962431 0.00027706672856215323 0 0.0013331407945260715 0.00052131565789221884 0 0.0015149829923296746 0.00022378092695111789 0 0.0013144360323599292 0.00012962049796115825 0 0.0016389622084651875 0.00037652897679615524 0 0.0013331407945260715 0.00052131565789221884 0 0.0015149829923296746 0.00022378092695111789 0 0.0015087750682668836 1.5985470141070558e-05 0 0.0015149829923296746 0.00022378092695111789 0 0.0013144360323599292 0.00012962049796115825 0 0.0013331407945260715 0.00052131565789221884 0 0.0010901919912962431 0.00027706672856215323 0 0.00087251832062932482 0.00044449304713306965 0 0.0010614461291828269 5.5556793821200445e-05 0 0.0013144360323599292 0.00012962049796115825 0 0.0010901919912962431 0.00027706672856215323 0 0.0010901919912962431 0.00027706672856215323 0 0.00088612030684541291 0.00023985322814124062 0 0.00087251832062932482 0.00044449304713306965 0 0.0010614461291828269 5.5556793821200445e-05 0 0.0010901919912962431 0.00027706672856215323 0 0.00088612030684541291 0.00023985322814124062 0 0.0015482553175504585 0.0042644525188663658 0 0.00078398922766459954 0.0040727791239155032 0 0.0010413489775282149 0.00443087647282018 0 0.00066862931222631036 0.00035264024089422095 0 0.00085890094068885971 0.00047437880144589881 0 0.0004863666965270645 0.00037306175891680429 0 0.00076864983445858821 5.1233048855360013e-05 0 0.00066862931222631036 0.00035264024089422095 0 0.00088612030684541291 0.00023985322814124062 0 0.0013007539064195544 0.0017591689693262158 0 0.00052351497122518024 0.0021725979847281129 0 0.00066862931222631036 0.00035264024089422095 0 0.00088612030684541291 0.00023985322814124062 0 0.00087251832062932482 0.00044449304713306965 0 0.0004094457410579364 0.00043529522249937899 0 0.0013007539064195544 0.0017591689693262158 0 0.0015482553175504585 0.0042644525188663658 0 0.0013496424396687698 0.004667877678300565 0 0.0010413489775282149 0.00443087647282018 0 0.0015482553175504585 0.0042644525188663658 0 0.0013496424396687698 0.004667877678300565 0 0.0017435319499156938 0.0047867755029200234 0 0.0013496424396687698 0.004667877678300565 0 0.0017435319499156938 0.0047867755029200234 0 0.0015072969705748399 0.0050563797096316049 0 0.0013496424396687698 0.004667877678300565 0 0.0010413489775282149 0.00443087647282018 0 0.0010090990764356539 0.0048037115275697756 0 0.0013496424396687698 0.004667877678300565 0 0.0015072969705748399 0.0050563797096316049 0 0.0010090990764356539 0.0048037115275697756 0 0.0014977211959745788 0.0016048806663733445 0 0.0014344970132208158 0.0017138464198511139 0 0.0018487797714807695 0.0018086397015265913 0 0.0021777409051055088 0.0046774626451785862 0 0.0015482553175504585 0.0042644525188663658 0 0.0017435319499156938 0.0047867755029200234 0 0.0022542573603802065 0.0035123351393098112 0 0.0013007539064195544 0.0017591689693262158 0 0.0015310194089067702 0.0011945368281840599 0 0.0013007539064195544 0.0017591689693262158 0 0.0021777409051055088 0.0046774626451785862 0 0.0017435319499156938 0.0047867755029200234 0 0.0020106662849826138 0.0052957015401705306 0 0.0017435319499156938 0.0047867755029200234 0 0.0020106662849826138 0.0052957015401705306 0 0.0015072969705748399 0.0050563797096316049 0 0.0020106662849826138 0.0052957015401705306 0 0.0017481634370738683 0.0052485518550942044 0 0.0018408436435739363 0.0054451603962965252 0 0.0019680634782428433 0.0052915278325326442 0 0.001617440865924876 0.0051356554820693925 0 0.0017481634370738683 0.0052485518550942044 0 0.0017126953620718707 0.0053252737687030293 0 0.0014635965031225395 0.0051028171897247272 0 0.001617440865924876 0.0051356554820693925 0 0.0014154727891378535 0.004943641997374554 0 0.0017306138952101961 0.0053424685443502797 0 0.0014154727891378535 0.004943641997374554 0 0.0017126953620718707 0.0053252737687030293 0 0.0015081702961796228 0.005169631155866803 0 0.0014779827229202561 0.0053885822349542698 0 0.0017126953620718707 0.0053252737687030293 0 0.0016441609960426045 0.0055119040203743591 0 0.0018408436435739363 0.0054451603962965252 0 0.0017481634370738683 0.0052485518550942044 0 0.0017126953620718707 0.0053252737687030293 0 0.0018408436435739363 0.0054451603962965252 0 0.0017126953620718707 0.0053252737687030293 0 0.0016441609960426045 0.0055119040203743591 0 0.0014779827229202561 0.0053885822349542698 0 0.0016441609960426045 0.0055119040203743591 0 0.0017569105819359432 0.0057211412997077776 0 0.0014550935043852228 0.0056721981144752451 0 0.0016441609960426045 0.0055119040203743591 0 0.0017569105819359432 0.0057211412997077776 0 0.0018408436435739363 0.0054451603962965252 0 0.0017569105819359432 0.0057211412997077776 0 0.0018408436435739363 0.0054451603962965252 0 0.0022797117899467974 0.0056841961234914452 0 0.0020106662849826138 0.0052957015401705306 0 0.0018408436435739363 0.0054451603962965252 0 0.0022797117899467974 0.0056841961234914452 0 0.00075805342964196194 0.0027612579679224692 0 0.00065111048253146877 0.0016858277024598617 0 -0.00091714643511147612 2.1752708854997541e-07 0 -0.00053740868793961648 -0.0002050275012061551 0 -0.00044345661868278708 0.00010310211944117878 0 -0.00091714643511147612 2.1752708854997541e-07 0 -0.00053740868793961648 -0.0002050275012061551 0 -0.00060810758524404332 -0.00055636105922261261 0 0.00065111048253146877 0.0016858277024598617 0 -0.00086366668896929743 -0.0010248474640464735 0 -0.00053740868793961648 -0.0002050275012061551 0 -0.00060810758524404332 -0.00055636105922261261 0 -0.00017532380541805957 -0.00036135456549590925 0 0.0021777409051055088 0.0046774626451785862 0 0.0020106662849826138 0.0052957015401705306 0 0.0026958595065979091 0.0050114423566252515 0 0.0020106662849826138 0.0052957015401705306 0 0.0022797117899467974 0.0056841961234914452 0 0.0026958595065979091 0.0050114423566252515 0 0.00073496809124403209 0.0051758322666451652 0 0.00055233834424333412 0.0050464102953128431 0 0.00055838675150034277 0.0053405218300367477 0 0.00073496809124403209 0.0051758322666451652 0 0.00055233834424333412 0.0050464102953128431 0 0.00079192964635237323 0.0049720258826658403 0 0.00055233834424333412 0.0050464102953128431 0 0.00068381167772166556 0.0047669865019549455 0 0.00079192964635237323 0.0049720258826658403 0 0.00032074350764810418 0.0046509296356444354 0 0.00055233834424333412 0.0050464102953128431 0 0.00068381167772166556 0.0047669865019549455 0 0.00068804028949848606 0.0044182515637734617 0 0.0010228983244464692 0.0043731139259427978 0 0.0012049426872073061 0.0045781855597929553 0 0.00068381167772166556 0.0047669865019549455 0 0.00068804028949848606 0.0044182515637734617 0 0.00092103011786783733 0.0047873282993246072 0 0.00069945398589368391 0.004444154606184688 0 0.0010368175635531872 0.0046617815859897032 0 0.00032074350764810418 0.0046509296356444354 0 0.00068381167772166556 0.0047669865019549455 0 0.00068804028949848606 0.0044182515637734617 0 0.00068381167772166556 0.0047669865019549455 0 0.00092103011786783733 0.0047873282993246072 0 0.00079192964635237323 0.0049720258826658403 0 0.0010228983244464692 0.0043731139259427978 0 0.0012049426872073061 0.0045781855597929553 0 0.0012910345554640313 0.0044309646943288504 0 0.0012049426872073061 0.0045781855597929553 0 0.0012910345554640313 0.0044309646943288504 0 0.0013344136819579691 0.0045478466664619459 0 0.0011206229278636485 0.0035223481056363528 0 0.00058473188833792471 0.0031602964627052859 0 0.0012910345554640313 0.0044309646943288504 0 0.0013344136819579691 0.0045478466664619459 0 0.0013539141469256655 0.0044613716531234941 0 0.0010202870142941747 0.0050126527996766802 0 0.00091725421811839091 0.0049392040111021218 0 0.00093946588918993371 0.0051373498584362642 0 0.00092103011786783733 0.0047873282993246072 0 0.0010202870142941747 0.0050126527996766802 0 0.00091725421811839091 0.0049392040111021218 0 0.00079192964635237323 0.0049720258826658403 0 0.00091725421811839091 0.0049392040111021218 0 0.00093946588918993371 0.0051373498584362642 0 0.00092103011786783733 0.0047873282993246072 0 0.00079192964635237323 0.0049720258826658403 0 0.00091725421811839091 0.0049392040111021218 0 0.00073496809124403209 0.0051758322666451652 0 0.00079192964635237323 0.0049720258826658403 0 0.00093946588918993371 0.0051373498584362642 0 0.00092103011786783733 0.0047873282993246072 0 0.0010202870142941747 0.0050126527996766802 0 0.001196259955607864 0.0050013990164106516 0 0.0010202870142941747 0.0050126527996766802 0 0.00093946588918993371 0.0051373498584362642 0 0.0011252921451340358 0.0051954433684600707 0 0.0010202870142941747 0.0050126527996766802 0 0.0011252921451340358 0.0051954433684600707 0 0.001196259955607864 0.0050013990164106516 0 0.0011252921451340358 0.0051954433684600707 0 0.001196259955607864 0.0050013990164106516 0 0.0013134355908727175 0.0052358262865729562 0 0.0015308406225193378 0.0046465191016491067 0 0.0014782442942676045 0.0046815269526302326 0 0.0014245648901563056 0.0045854560078886046 0 0.00058473188833792471 0.0031602964627052859 0 0.00052351497122518024 0.0021725979847281129 0 0.0012049426872073061 0.0045781855597929553 0 0.0013344136819579691 0.0045478466664619459 0 0.0014782442942676045 0.0046815269526302326 0 0.0013344136819579691 0.0045478466664619459 0 0.0014245648901563056 0.0045854560078886046 0 0.0013539141469256655 0.0044613716531234941 0 0.0010368175635531872 0.0046617815859897032 0 0.0013695202175597319 0.0048530303483518087 0 0.0013344136819579691 0.0045478466664619459 0 0.0014782442942676045 0.0046815269526302326 0 0.0014245648901563056 0.0045854560078886046 0 0.0015308406225193378 0.0046465191016491067 0 0.0014245648901563056 0.0045854560078886046 0 0.0013539141469256655 0.0044613716531234941 0 0.00051356804055015877 0.0043456898505586242 0 2.2945998336248161e-05 0.0038868469897108205 0 0.00078398922766459954 0.0040727791239155032 0 0.00035764936502303922 0.00027524264903349218 0 0.00027609292939700909 0.00031705020033361031 0 0.0004863666965270645 0.00037306175891680429 0 0.0010893456152091703 0.0045803790407965778 0 0.00058473188833792471 0.0031602964627052859 0 0.00038918386235895327 0.00019290476257247596 0 0.00035764936502303922 0.00027524264903349218 0 0.0004863666965270645 0.00037306175891680429 0 0.00051356804055015877 0.0043456898505586242 0 0.00078398922766459954 0.0040727791239155032 0 0.0010413489775282149 0.00443087647282018 0 0.00054359860623820542 0.00018144006969149113 0 0.00066862931222631036 0.00035264024089422095 0 0.0004863666965270645 0.00037306175891680429 0 0.001196259955607864 0.0050013990164106516 0 0.0015081702961796228 0.005169631155866803 0 0.0013134355908727175 0.0052358262865729562 0 0.00051356804055015877 0.0043456898505586242 0 0.0010413489775282149 0.00443087647282018 0 0.0010090990764356539 0.0048037115275697756 0 0.0015308406225193378 0.0046465191016491067 0 0.0014782442942676045 0.0046815269526302326 0 0.0016736819971928838 0.0047841600523681835 0 0.0013695202175597319 0.0048530303483518087 0 0.0014154727891378535 0.004943641997374554 0 0.0010893456152091703 0.0045803790407965778 0 0.0014154727891378535 0.004943641997374554 0 0.0015081702961796228 0.005169631155866803 0 0.0013134355908727175 0.0052358262865729562 0 0.0014779827229202561 0.0053885822349542698 0 0.0013134355908727175 0.0052358262865729562 0 0.0014779827229202561 0.0053885822349542698 0 0.0012234114482063793 0.0054366522587531163 0 0.0014550935043852228 0.0056721981144752451 0 0.0011551165088708637 0.0057357593464375427 0 0.0012341010521074931 0.0060168347603436001 0 0.0016441609960426045 0.0055119040203743591 0 0.0014779827229202561 0.0053885822349542698 0 0.0014550935043852228 0.0056721981144752451 0 0.0014550935043852228 0.0056721981144752451 0 0.0011551165088708637 0.0057357593464375427 0 0.0012234114482063793 0.0054366522587531163 0 0.0014779827229202561 0.0053885822349542698 0 0.0014550935043852228 0.0056721981144752451 0 0.0012234114482063793 0.0054366522587531163 0 0.0011551165088708637 0.0057357593464375427 0 0.0009228595063705522 0.0056297936393720155 0 0.00076468301124903181 0.0060180818248120084 0 0.0011551165088708637 0.0057357593464375427 0 0.0012234114482063793 0.0054366522587531163 0 0.0009228595063705522 0.0056297936393720155 0 0.00099614342243990565 0.0053723447525501761 0 0.0012234114482063793 0.0054366522587531163 0 0.0009228595063705522 0.0056297936393720155 0 0.0011252921451340358 0.0051954433684600707 0 0.0013134355908727175 0.0052358262865729562 0 0.0012234114482063793 0.0054366522587531163 0 0.00093946588918993371 0.0051373498584362642 0 0.0011252921451340358 0.0051954433684600707 0 0.00099614342243990565 0.0053723447525501761 0 0.0011252921451340358 0.0051954433684600707 0 0.00099614342243990565 0.0053723447525501761 0 0.0012234114482063793 0.0054366522587531163 0 0.00093946588918993371 0.0051373498584362642 0 0.00099614342243990565 0.0053723447525501761 0 0.00080728917135862747 0.0053864461183595128 0 0.00073496809124403209 0.0051758322666451652 0 0.00093946588918993371 0.0051373498584362642 0 0.00080728917135862747 0.0053864461183595128 0 0.00099614342243990565 0.0053723447525501761 0 0.00080728917135862747 0.0053864461183595128 0 0.0009228595063705522 0.0056297936393720155 0 0.0009228595063705522 0.0056297936393720155 0 0.00059481723891808885 0.0057203496538458416 0 0.00076468301124903181 0.0060180818248120084 0 0.00080728917135862747 0.0053864461183595128 0 0.0009228595063705522 0.0056297936393720155 0 0.00059481723891808885 0.0057203496538458416 0 0.00032613323686020478 0.0055879731791619175 0 0.00059481723891808885 0.0057203496538458416 0 0.00041360955945544096 0.0060298727698049901 0 0.00032613323686020478 0.0055879731791619175 0 0.00059481723891808885 0.0057203496538458416 0 0.00055838675150034277 0.0053405218300367477 0 0.00080728917135862747 0.0053864461183595128 0 0.00059481723891808885 0.0057203496538458416 0 0.00055838675150034277 0.0053405218300367477 0 0.00073496809124403209 0.0051758322666451652 0 0.00080728917135862747 0.0053864461183595128 0 0.00055838675150034277 0.0053405218300367477 0 0.00024949405363763747 0.0064231259227040174 0 0.00041360955945544096 0.0060298727698049901 0 0.00055500993604961984 0.0063048447881035473 0 0.00024949405363763747 0.0064231259227040174 0 0.00055500993604961984 0.0063048447881035473 0 0.00051159286554375554 0.0065660196785551758 0 0.00059481723891808885 0.0057203496538458416 0 0.00041360955945544096 0.0060298727698049901 0 0.00076468301124903181 0.0060180818248120084 0 0.00041360955945544096 0.0060298727698049901 0 0.00076468301124903181 0.0060180818248120084 0 0.00055500993604961984 0.0063048447881035473 0 0.00076468301124903181 0.0060180818248120084 0 0.00055500993604961984 0.0063048447881035473 0 0.00075582576557188996 0.0062793403709521097 0 0.00055500993604961984 0.0063048447881035473 0 0.00075582576557188996 0.0062793403709521097 0 0.00067425178009763867 0.0064680173649996663 0 0.00055500993604961984 0.0063048447881035473 0 0.00067425178009763867 0.0064680173649996663 0 0.00051159286554375554 0.0065660196785551758 0 0.00075582576557188996 0.0062793403709521097 0 0.00081899917896413089 0.0062879612138215454 0 0.00080497448109633602 0.0063974393279487068 0 0.00075582576557188996 0.0062793403709521097 0 0.00080497448109633602 0.0063974393279487068 0 0.00067425178009763867 0.0064680173649996663 0 0.00076468301124903181 0.0060180818248120084 0 0.00075582576557188996 0.0062793403709521097 0 0.00081899917896413089 0.0062879612138215454 0 0.0011551165088708637 0.0057357593464375427 0 0.00076468301124903181 0.0060180818248120084 0 0.0012341010521074931 0.0060168347603436001 0 0.00078480273141443545 0.0060395145042364193 0 0.00094483646203362014 0.0061173063046821149 0 0.0014550935043852228 0.0056721981144752451 0 0.0012341010521074931 0.0060168347603436001 0 0.0015953449877128035 0.0060724106618638262 0 0.00094483646203362014 0.0061173063046821149 0 0.0014586856026543927 0.0064270651463250094 0 0.00080497448109633602 0.0063974393279487068 0 0.00080921006278959577 0.0064053722182951557 0 0.00078967950321315458 0.0064163588637457698 0 0.00081899917896413089 0.0062879612138215454 0 0.00080497448109633602 0.0063974393279487068 0 0.00080921006278959577 0.0064053722182951557 0 0.00080497448109633602 0.0063974393279487068 0 0.0008095788835029528 0.0064429268982293363 0 0.00078967950321315458 0.0064163588637457698 0 0.00080497448109633602 0.0063974393279487068 0 0.0008095788835029528 0.0064429268982293363 0 0.00070663566479577144 0.0065413199020542389 0 0.0008095788835029528 0.0064429268982293363 0 0.00079073139731900899 0.0065657800880598201 0 0.00076053918964712913 0.0062713082119264666 0 0.00054018739016384472 0.0057511326223594183 0 2.1568309167926165e-05 0.0055690233650998299 0 0.0008095788835029528 0.0064429268982293363 0 0.00079073139731900899 0.0065657800880598201 0 0.00070663566479577144 0.0065413199020542389 0 0.00079073139731900899 0.0065657800880598201 0 0.00070663566479577144 0.0065413199020542389 0 0.00037268141499330782 0.0067968485884380113 0 -6.3195612750213613e-05 0.0056024157795837625 0 0.00059080806493013675 0.0062123743568718894 0 0.00031565568602300487 0.0048239804627833241 0 0.00025308437318506493 0.0050006330392459407 0 0.00098655160910623638 0.0050601136378056613 0 0.00054018739016384472 0.0057511326223594183 0 0.00059080806493013675 0.0062123743568718894 0 0.00080497448109633602 0.0063974393279487068 0 0.00070663566479577144 0.0065413199020542389 0 0.00067425178009763867 0.0064680173649996663 0 0.00051159286554375554 0.0065660196785551758 0 0.00054398928072420456 0.0066838792518810527 0 0.00045158762956587907 0.0069971286563412158 0 0.00067425178009763867 0.0064680173649996663 0 0.00051159286554375554 0.0065660196785551758 0 0.00054398928072420456 0.0066838792518810527 0 0.00070663566479577144 0.0065413199020542389 0 0.00067425178009763867 0.0064680173649996663 0 0.00054398928072420456 0.0066838792518810527 0 0.00070663566479577144 0.0065413199020542389 0 0.00054398928072420456 0.0066838792518810527 0 0.00037268141499330782 0.0067968485884380113 0 0.00054398928072420456 0.0066838792518810527 0 0.00037268141499330782 0.0067968485884380113 0 0.00045158762956587907 0.0069971286563412158 0 0.00083282622990357735 0.0073988433905454861 0 0.00041942974019500124 0.0068358401086433419 0 0.00072056679280558546 0.006903834475212537 0 0.00054523762912233372 0.0065787005751818802 0 0.00041942974019500124 0.0068358401086433419 0 0.00072056679280558546 0.006903834475212537 0 0.00076870158324096561 0.0074892248858501303 0 0.00059080806493013675 0.0062123743568718894 0 0.00083282622990357735 0.0073988433905454861 0 0.00068372933373140883 0.0078579186789968745 0 0.00045158762956587907 0.0069971286563412158 0 0.00083282622990357735 0.0073988433905454861 0 0.00037268141499330782 0.0067968485884380113 0 0.00045158762956587907 0.0069971286563412158 0 0.00068372933373140883 0.0078579186789968745 0 0.00031382663681635281 0.0085548435250552887 0 0.00045158762956587907 0.0069971286563412158 0 0.00031748608026474192 0.0075109697565480726 0 0.00042058088808734427 0.007079469572263678 0 0.00024949405363763747 0.0064231259227040174 0 0.00051159286554375554 0.0065660196785551758 0 0.00045158762956587907 0.0069971286563412158 0 -0.00091714643511147612 2.1752708854997541e-07 0 -0.00067740079352120001 0.00071639776452319748 0 -0.00044345661868278708 0.00010310211944117878 0 -0.00091714643511147612 2.1752708854997541e-07 0 -0.00067740079352120001 0.00071639776452319748 0 -0.0012128105953226412 0.00058338999467064329 0 -0.00067740079352120001 0.00071639776452319748 0 -0.00044345661868278708 0.00010310211944117878 0 -0.00014394361507773457 0.00086180018078746098 0 4.5464834661032459e-05 0.0038899673100900897 0 0.00036895214798013371 0.004237252603400174 0 0.00025523280927138389 0.0064683296038456073 0 0.0006457378667039848 0.0065649089370913242 0 0.00048650029947893894 0.0063913282695689444 0 0.00075805342964196194 0.0027612579679224692 0 0.00036895214798013371 0.004237252603400174 0 0.0017569105819359432 0.0057211412997077776 0 0.0022797117899467974 0.0056841961234914452 0 0.0018953551442156601 0.0059148396103454841 0 0.0022797117899467974 0.0056841961234914452 0 0.0018953551442156601 0.0059148396103454841 0 0.0019723308512130484 0.0061716343416215414 0 0.0017569105819359432 0.0057211412997077776 0 0.0014550935043852228 0.0056721981144752451 0 0.0015953449877128035 0.0060724106618638262 0 0.0017569105819359432 0.0057211412997077776 0 0.0018953551442156601 0.0059148396103454841 0 0.0015953449877128035 0.0060724106618638262 0 0.00080921006278959577 0.0064053722182951557 0 0.00078967950321315458 0.0064163588637457698 0 0.00071616546850041625 0.0064404747160217921 0 0.0014586856026543927 0.0064270651463250094 0 0.00036895214798013371 0.004237252603400174 0 0.0018953551442156601 0.0059148396103454841 0 0.0015953449877128035 0.0060724106618638262 0 0.0019723308512130484 0.0061716343416215414 0 0.00078967950321315458 0.0064163588637457698 0 0.00071616546850041625 0.0064404747160217921 0 0.00071928973750045569 0.006431483034060121 0 0.0006457378667039848 0.0065649089370913242 0 0.00071928973750045569 0.006431483034060121 0 0.00048650029947893894 0.0063913282695689444 0 0.00036895214798013371 0.004237252603400174 0 0.00015179029985737928 0.0063468871650350263 0 0.00071928973750045569 0.006431483034060121 0 0.00064192684633330749 0.0063062389360329305 0 0.00048650029947893894 0.0063913282695689444 0 0.00071928973750045569 0.006431483034060121 0 0.00064192684633330749 0.0063062389360329305 0 0.00075848930397010928 0.006380813156998383 0 0.0008095788835029528 0.0064429268982293363 0 0.00078967950321315458 0.0064163588637457698 0 0.00075848930397010928 0.006380813156998383 0 0.00078967950321315458 0.0064163588637457698 0 0.00071928973750045569 0.006431483034060121 0 0.00075848930397010928 0.006380813156998383 0 0.0008095788835029528 0.0064429268982293363 0 0.00075848930397010928 0.006380813156998383 0 0.00076053918964712913 0.0062713082119264666 0 0.00064192684633330749 0.0063062389360329305 0 0.00075848930397010928 0.006380813156998383 0 0.00076053918964712913 0.0062713082119264666 0 -0.0011462484733698569 0.0047504901139357554 0 -0.00052626091465078216 0.0049521200598310246 0 -0.0013884055603911292 0.0049130025492321611 0 2.1568309167926165e-05 0.0055690233650998299 0 -0.00015919868495464296 0.0058777922200926392 0 0.00064192684633330749 0.0063062389360329305 0 0.00076053918964712913 0.0062713082119264666 0 0.00040471633284243277 0.0060528657801381539 0 0.00064192684633330749 0.0063062389360329305 0 0.00040471633284243277 0.0060528657801381539 0 0.00048650029947893894 0.0063913282695689444 0 0.00040471633284243277 0.0060528657801381539 0 0.00048650029947893894 0.0063913282695689444 0 0.00011998127894382208 0.0062200578061272858 0 0.00025523280927138389 0.0064683296038456073 0 0.00011998127894382208 0.0062200578061272858 0 -0.00018763666057862896 0.0063092825875071716 0 4.5464834661032459e-05 0.0038899673100900897 0 -0.0017985159244026457 0.00068030959685240391 0 0.00025523280927138389 0.0064683296038456073 0 0.00048650029947893894 0.0063913282695689444 0 0.00011998127894382208 0.0062200578061272858 0 -0.00015919868495464296 0.0058777922200926392 0 -0.0027255783295561621 0.0023525865392664603 0 0.00040471633284243277 0.0060528657801381539 0 0.00011998127894382208 0.0062200578061272858 0 -7.7829721732980146e-05 0.0059413893338860577 0 0.00011998127894382208 0.0062200578061272858 0 -7.7829721732980146e-05 0.0059413893338860577 0 -0.00018763666057862896 0.0063092825875071716 0 -0.0046203977889023176 -0.00092301850649264975 0 -0.0032205974725548927 -0.00091536304824264684 0 -0.0042299080423968249 -0.0023450834581741392 0 -0.0027255783295561621 0.0023525865392664603 0 -0.0017985159244026457 0.00068030959685240391 0 -0.0032205974725548927 -0.00091536304824264684 0 -0.0042299080423968249 -0.0023450834581741392 0 -0.0028500982246166566 -0.0019982239718964552 0 -0.0027255783295561621 0.0023525865392664603 0 -0.0033545991094504116 -0.0010973602293665008 0 -0.0017985159244026457 0.00068030959685240391 0 -0.0041317699990975378 -0.002775837093415918 0 -0.0031976008888596596 -0.002811169984141344 0 -0.0045255312467097448 -0.0024730880777005439 0 -0.0028500982246166566 -0.0019982239718964552 0 -0.00044345661868278708 0.00010310211944117878 0 -0.00014394361507773457 0.00086180018078746098 0 2.7123963681967983e-05 0.00024991817034409946 0 -0.0017985159244026457 0.00068030959685240391 0 -0.0020006388302337367 -0.0017132473857829954 0 -0.0031976008888596596 -0.002811169984141344 0 -0.0045255312467097448 -0.0024730880777005439 0 -0.0033013283777033942 -0.0036852704880001867 0 -0.0045255312467097448 -0.0024730880777005439 0 -0.0033013283777033942 -0.0036852704880001867 0 -0.0039813365065304541 -0.0044911065731039531 0 -0.0039813365065304541 -0.0044911065731039531 0 -0.0030996218842807024 -0.0047464977449981167 0 -0.0032429625515904646 -0.0059753095245457851 0 -0.0033013283777033942 -0.0036852704880001867 0 -0.0039813365065304541 -0.0044911065731039531 0 -0.0030996218842807024 -0.0047464977449981167 0 -0.0026853249667579565 -0.015053644733233389 0 -0.0026249638577808638 -0.015065671463554054 0 -0.0026608895171542496 -0.015098494052703835 0 -0.0026853249667579565 -0.015053644733233389 0 -0.0026328311701286009 -0.015125950220282382 0 -0.0026608895171542496 -0.015098494052703835 0 -0.0022969195297698496 -0.0077146509538586179 0 -0.0018321319157735311 -0.0076086555560678963 0 -0.0031339948059957018 -0.0088644664047107125 0 -0.0018751698364740971 -0.0055577075660817321 0 -0.0026966748643740368 -0.0085451866081439135 0 -0.0030996218842807024 -0.0047464977449981167 0 -0.0024195531634376597 -0.005182004655288933 0 -0.0032429625515904646 -0.0059753095245457851 0 -0.0030996218842807024 -0.0047464977449981167 0 -0.0024195531634376597 -0.005182004655288933 0 -0.0025507250650617787 -0.0044185800189012739 0 -0.0033013283777033942 -0.0036852704880001867 0 -0.0030996218842807024 -0.0047464977449981167 0 -0.0025507250650617787 -0.0044185800189012739 0 -0.0017347277504576718 -0.0042489543461159294 0 -0.0024195531634376597 -0.005182004655288933 0 -0.0025507250650617787 -0.0044185800189012739 0 -0.0018751698364740971 -0.0055577075660817321 0 -0.0022218534921200901 -0.0047662588861987617 0 -0.0018751698364740971 -0.0055577075660817321 0 -0.0031265348818060833 -0.0093482642633106426 0 -0.0026966748643740368 -0.0085451866081439135 0 -0.0031265348818060833 -0.0093482642633106426 0 -0.0017762363287569536 -0.0042161032335070719 0 -0.0025507250650617787 -0.0044185800189012739 0 -0.0023149186139088443 -0.0037414436374367957 0 -0.0017762363287569536 -0.0042161032335070719 0 -0.0023149186139088443 -0.0037414436374367957 0 -0.0017395450366011248 -0.0033207197612637649 0 -0.0033013283777033942 -0.0036852704880001867 0 -0.0025507250650617787 -0.0044185800189012739 0 -0.0023149186139088443 -0.0037414436374367957 0 -0.0033013283777033942 -0.0036852704880001867 0 -0.0023149186139088443 -0.0037414436374367957 0 -0.0023311965619116485 -0.0029089015689176758 0 -0.0031976008888596596 -0.002811169984141344 0 -0.0033013283777033942 -0.0036852704880001867 0 -0.0023311965619116485 -0.0029089015689176758 0 -0.0023149186139088443 -0.0037414436374367957 0 -0.0017395450366011248 -0.0033207197612637649 0 -0.0023311965619116485 -0.0029089015689176758 0 -0.0018751698364740971 -0.0055577075660817321 0 -0.00078220654859430944 -0.0027043415559612509 0 -0.0020005817628327757 -0.0045574316047380702 0 -0.0015588051054805888 -0.004454750452399606 0 -0.00084489522710001438 -0.0029635075668246768 0 -0.0017762363287569536 -0.0042161032335070719 0 -0.0017395450366011248 -0.0033207197612637649 0 -0.00084489522710001438 -0.0029635075668246768 0 -0.00084489522710001438 -0.0029635075668246768 0 -0.0014701699036549199 -0.0026454670942619172 0 -0.00052942407385531576 -0.0018266733832890596 0 -0.0014701699036549199 -0.0026454670942619172 0 -0.0017834906323464816 -0.0019549326803499001 0 -0.00052942407385531576 -0.0018266733832890596 0 -0.0017395450366011248 -0.0033207197612637649 0 -0.00084489522710001438 -0.0029635075668246768 0 -0.0014701699036549199 -0.0026454670942619172 0 -0.0017395450366011248 -0.0033207197612637649 0 -0.0014701699036549199 -0.0026454670942619172 0 -0.0023311965619116485 -0.0029089015689176758 0 -0.0014701699036549199 -0.0026454670942619172 0 -0.0017834906323464816 -0.0019549326803499001 0 -0.0023311965619116485 -0.0029089015689176758 0 -0.0031976008888596596 -0.002811169984141344 0 -0.0023311965619116485 -0.0029089015689176758 0 -0.0028500982246166566 -0.0019982239718964552 0 -0.0017834906323464816 -0.0019549326803499001 0 -0.0023311965619116485 -0.0029089015689176758 0 -0.0028500982246166566 -0.0019982239718964552 0 -0.0032205974725548927 -0.00091536304824264684 0 -0.0023661973485233187 -0.0013194088099823904 0 -0.0016586992941619205 -0.00081875296197624027 0 -0.0033545991094504116 -0.0010973602293665008 0 -0.00160931637856826 -0.00076892914634869121 0 -0.0032205974725548927 -0.00091536304824264684 0 -0.0028500982246166566 -0.0019982239718964552 0 -0.0023661973485233187 -0.0013194088099823904 0 -0.0017834906323464816 -0.0019549326803499001 0 -0.0023661973485233187 -0.0013194088099823904 0 -0.0018300987719585802 -0.0013526286269306906 0 -0.0017834906323464816 -0.0019549326803499001 0 -0.0028500982246166566 -0.0019982239718964552 0 -0.0023661973485233187 -0.0013194088099823904 0 -0.0023661973485233187 -0.0013194088099823904 0 -0.0018300987719585802 -0.0013526286269306906 0 -0.0016586992941619205 -0.00081875296197624027 0 -0.0017834906323464816 -0.0019549326803499001 0 -0.001380612010285463 -0.0013721011056667606 0 -0.00052942407385531576 -0.0018266733832890596 0 -0.001380612010285463 -0.0013721011056667606 0 -0.0010497150102927444 -0.00084159660183130063 0 -0.00052942407385531576 -0.0018266733832890596 0 -0.0017834906323464816 -0.0019549326803499001 0 -0.0018300987719585802 -0.0013526286269306906 0 -0.001380612010285463 -0.0013721011056667606 0 -0.0016972699310593103 -0.00064274721114015868 0 -0.0016586992941619205 -0.00081875296197624027 0 -0.0010497150102927444 -0.00084159660183130063 0 -0.0018300987719585802 -0.0013526286269306906 0 -0.001380612010285463 -0.0013721011056667606 0 -0.0016586992941619205 -0.00081875296197624027 0 -0.0017961603553877366 -0.0015868962713038272 0 -0.0023478883501804764 -0.0027210419649948327 0 -0.001380612010285463 -0.0013721011056667606 0 -0.0016586992941619205 -0.00081875296197624027 0 -0.0010497150102927444 -0.00084159660183130063 0 -0.0016462869132947279 -0.0026165850228018579 0 -0.0029359054223594572 -0.0029587113074504129 0 -0.0011970529695418644 -0.0035819361687367268 0 -0.0023478883501804764 -0.0027210419649948327 0 -0.0016242651855536052 -0.0049785290280803668 0 -0.0028650946204681949 -0.0063260859265522676 0 -0.0018541199802527377 -0.0060148779253800088 0 -0.0023018639664356823 -0.0065569377293741779 0 -0.0032771273075144162 -0.0054743514781050388 0 -0.0028650946204681949 -0.0063260859265522676 0 -0.0018541199802527377 -0.0060148779253800088 0 -0.0023478883501804764 -0.0027210419649948327 0 -0.0016911569618404017 -0.0041285803726837864 0 -0.0016462869132947279 -0.0026165850228018579 0 -0.0011970529695418644 -0.0035819361687367268 0 0.00023569330642591601 -0.0033547220817662631 0 -0.0018031692533458513 -0.0026427964821655013 0 0.00018826159950840603 -0.0032904217857304577 0 -0.0018541199802527377 -0.0060148779253800088 0 -0.0017681056042874786 -0.006530637713352468 0 -0.0023018639664356823 -0.0065569377293741779 0 -0.0018541199802527377 -0.0060148779253800088 0 -0.0017681056042874786 -0.006530637713352468 0 -0.001152163665479408 -0.0067749524205959625 0 -0.0017681056042874786 -0.006530637713352468 0 -0.0016326400963338026 -0.0073487717350579317 0 -0.001152163665479408 -0.0067749524205959625 0 -0.0022966353285368323 -0.0069597213259895135 0 -0.0016095416894380253 -0.0054028265356804916 0 -0.0017681056042874786 -0.006530637713352468 0 -0.0016326400963338026 -0.0073487717350579317 0 -0.0020025577115233813 -0.0072498435101835939 0 -0.0017681056042874786 -0.006530637713352468 0 -0.0020025577115233813 -0.0072498435101835939 0 -0.0024857305249457672 -0.0072172559615128803 0 -0.00084489522710001438 -0.0029635075668246768 0 -0.00052942407385531576 -0.0018266733832890596 0 5.3751635682252565e-05 -0.0028613623541004006 0 -0.0016911569618404017 -0.0041285803726837864 0 -0.0016095416894380253 -0.0054028265356804916 0 -0.0028650946204681949 -0.0063260859265522676 0 -0.0024485661737063636 -0.007138899134175411 0 -0.0023018639664356823 -0.0065569377293741779 0 -0.0017681056042874786 -0.006530637713352468 0 -0.0024485661737063636 -0.007138899134175411 0 -0.0023018639664356823 -0.0065569377293741779 0 0.0012208644414906425 -0.0027782097477352702 0 0.0016480636912168071 -0.0036483832686303825 0 0.0019784692534462328 -0.0030049850405886951 0 0.0012208644414906425 -0.0027782097477352702 0 0.0016480636912168071 -0.0036483832686303825 0 0.00092578113447109494 -0.0035060226493775814 0 0.0016480636912168071 -0.0036483832686303825 0 0.00092578113447109494 -0.0035060226493775814 0 0.00059993120134560322 -0.0042363543005412042 0 -0.0016242651855536052 -0.0049785290280803668 0 0.00011600738197437376 -0.005132260180310648 0 -0.0011970529695418644 -0.0035819361687367268 0 0.00023569330642591601 -0.0033547220817662631 0 0.00059993120134560322 -0.0042363543005412042 0 0.00092578113447109494 -0.0035060226493775814 0 0.00023569330642591601 -0.0033547220817662631 0 0.00059993120134560322 -0.0042363543005412042 0 0.0012208644414906425 -0.0027782097477352702 0 0.00092578113447109494 -0.0035060226493775814 0 0.00023569330642591601 -0.0033547220817662631 0 0.0012208644414906425 -0.0027782097477352702 0 0.00055836993038549192 -0.0022785109988070948 0 0.00023569330642591601 -0.0033547220817662631 0 -0.001152163665479408 -0.0067749524205959625 0 -0.00041576028005052009 -0.0065700130408805173 0 -0.00064517668542502871 -0.007684999727403545 0 -0.0018541199802527377 -0.0060148779253800088 0 -0.001152163665479408 -0.0067749524205959625 0 -0.00041576028005052009 -0.0065700130408805173 0 -0.0016326400963338026 -0.0073487717350579317 0 -0.001152163665479408 -0.0067749524205959625 0 -0.00064517668542502871 -0.007684999727403545 0 0.0024338990954704261 -0.0049200810516972027 0 0.0016480636912168071 -0.0036483832686303825 0 0.00059993120134560322 -0.0042363543005412042 0 0.00083317784963357719 -0.0073788794864559039 0 -0.00041576028005052009 -0.0065700130408805173 0 -0.00064517668542502871 -0.007684999727403545 0 0.0010016626987857462 -0.0071059314578055064 0 0.00083317784963357719 -0.0073788794864559039 0 -0.00041576028005052009 -0.0065700130408805173 0 0.0012917205811016962 -0.0083211155844031739 0 0.00011600738197437376 -0.005132260180310648 0 -0.00026563532194993412 -0.011990264430352403 0 -0.0021124721353347302 -0.016077881818495648 0 -0.00026563532194993412 -0.011990264430352403 0 -0.0012414643133983785 -0.011040679593553055 0 -0.0012475484803595093 -0.014505022075466688 0 -0.0020009307380622855 -0.014718377742770912 0 -0.0016758557623813364 -0.015183771587172983 0 -0.0011292793001163863 -0.014221893620897747 0 -0.00093480599551465956 -0.014881956065127348 0 -0.0016758557623813364 -0.015183771587172983 0 -0.0020009307380622855 -0.014718377742770912 0 -0.0016758557623813364 -0.015183771587172983 0 -0.0023708685383619396 -0.015426905904094212 0 -0.00093480599551465956 -0.014881956065127348 0 -0.0016758557623813364 -0.015183771587172983 0 -0.0012574990007610651 -0.015683095611888485 0 -0.0034770942604694186 -0.0082995010138376697 0 -0.002187655966566992 -0.0077920977913105141 0 -0.0021419849407041665 -0.0080026179326334358 0 -0.0034770942604694186 -0.0082995010138376697 0 -0.0024332513434868266 -0.0072908636989092489 0 -0.002187655966566992 -0.0077920977913105141 0 -0.0026966748643740368 -0.0085451866081439135 0 -0.0025010156928411235 -0.011839572457841655 0 -0.0026966748643740368 -0.0085451866081439135 0 -0.0016095416894380253 -0.0054028265356804916 0 -0.0015588051054805888 -0.004454750452399606 0 -0.00084489522710001438 -0.0029635075668246768 0 5.3751635682252565e-05 -0.0028613623541004006 0 -0.0020025577115233813 -0.0072498435101835939 0 -0.0024857305249457672 -0.0072172559615128803 0 -0.002187655966566992 -0.0077920977913105141 0 -0.0016095416894380253 -0.0054028265356804916 0 -0.0016493288619607372 -0.0074777479980018781 0 -0.0016326400963338026 -0.0073487717350579317 0 -0.0020025577115233813 -0.0072498435101835939 0 -0.002187655966566992 -0.0077920977913105141 0 -0.0016326400963338026 -0.0073487717350579317 0 -0.002187655966566992 -0.0077920977913105141 0 -0.0021419849407041665 -0.0080026179326334358 0 -0.0016326400963338026 -0.0073487717350579317 0 -0.00064517668542502871 -0.007684999727403545 0 -0.0021419849407041665 -0.0080026179326334358 0 -0.0012414643133983785 -0.011040679593553055 0 -0.0025010156928411235 -0.011839572457841655 0 -0.0025591404002268756 -0.014933054208102177 0 -0.0026328311701286009 -0.015125950220282382 0 -0.0023708685383619396 -0.015426905904094212 0 -0.0020009307380622855 -0.014718377742770912 0 -0.0025591404002268756 -0.014933054208102177 0 -0.0023708685383619396 -0.015426905904094212 0 -0.0026853249667579565 -0.015053644733233389 0 -0.0025591404002268756 -0.014933054208102177 0 -0.0026328311701286009 -0.015125950220282382 0 -0.0026328311701286009 -0.015125950220282382 0 -0.0026214374987285375 -0.015208365818467426 0 -0.0026608895171542496 -0.015098494052703835 0 -0.0026328311701286009 -0.015125950220282382 0 -0.0026214374987285375 -0.015208365818467426 0 -0.0023708685383619396 -0.015426905904094212 0 -0.0028656993123598448 -0.015782729796236489 0 -0.0023708685383619396 -0.015426905904094212 0 -0.0024883917321950359 -0.015987433215933756 0 -0.002659982769329829 -0.015439940659653725 0 -0.0024083055840717162 -0.015422624089153684 0 -0.0024883917321950359 -0.015987433215933756 0 -0.0028511847219580347 -0.016263244981032071 0 -0.0024351581133231323 -0.016394718640971723 0 -0.0028656993123598448 -0.015782729796236489 0 -0.0028511847219580347 -0.016263244981032071 0 -0.0030606065394841774 -0.016119484225105823 0 -0.0028656993123598448 -0.015782729796236489 0 -0.0024883917321950359 -0.015987433215933756 0 -0.0028511847219580347 -0.016263244981032071 0 -0.0028511847219580347 -0.016263244981032071 0 -0.0030458373393039023 -0.016340210591670543 0 -0.0030606065394841774 -0.016119484225105823 0 -0.0016758557623813364 -0.015183771587172983 0 -0.0012574990007610651 -0.015683095611888485 0 -0.0019155755623396866 -0.016146639323645094 0 -0.0012058086649123908 -0.016209717383886841 0 -0.0012574990007610651 -0.015683095611888485 0 -0.0019155755623396866 -0.016146639323645094 0 -0.0016758557623813364 -0.015183771587172983 0 -0.0023708685383619396 -0.015426905904094212 0 -0.0019155755623396866 -0.016146639323645094 0 -0.0023708685383619396 -0.015426905904094212 0 -0.0024883917321950359 -0.015987433215933756 0 -0.0019155755623396866 -0.016146639323645094 0 -0.0024883917321950359 -0.015987433215933756 0 -0.0019155755623396866 -0.016146639323645094 0 -0.0024351581133231323 -0.016394718640971723 0 -0.0010964593509331761 -0.017449670344699617 0 -0.00095723705484065567 -0.016772902289563719 0 -0.0019155755623396866 -0.016146639323645094 0 -0.00095723705484065567 -0.016772902289563719 0 -0.0012058086649123908 -0.016209717383886841 0 -0.0019155755623396866 -0.016146639323645094 0 -0.0012513876161622331 -0.01676753082690316 0 -0.0018766054327110653 -0.016302471296471371 0 -0.0014558389190247123 -0.016624074516041303 0 -0.0019155755623396866 -0.016146639323645094 0 -0.0019477481510727925 -0.01675032373524693 0 -0.002011044215407157 -0.016661531019444356 0 -0.002414096144095294 -0.016406890337540482 0 -0.0019155755623396866 -0.016146639323645094 0 -0.0019477481510727925 -0.01675032373524693 0 -0.0024351581133231323 -0.016394718640971723 0 -0.0021190694636121989 -0.016845779462867892 0 -0.0021327830550789966 -0.0165176489425846 0 -0.0025415467234545662 -0.016735188162900091 0 -0.0021447528815121629 -0.016825041328789436 0 -0.0030274719030724991 -0.016242571231486383 0 -0.0021190694636121989 -0.016845779462867892 0 -0.0018691898669170866 -0.016858674644595548 0 -0.0021327830550789966 -0.0165176489425846 0 -0.0016826679321664589 -0.016690085230067056 0 -0.002011044215407157 -0.016661531019444356 0 -0.0017157551724611244 -0.016688074532957425 0 -0.0018691898669170866 -0.016858674644595548 0 -0.0021327830550789966 -0.0165176489425846 0 -0.0014863977782700259 -0.01708457416743054 0 -0.0014558389190247123 -0.016624074516041303 0 -0.0019477481510727925 -0.01675032373524693 0 -0.0027624441406433713 -0.016550714800837477 0 -0.0028511847219580347 -0.016263244981032071 0 -0.0024351581133231323 -0.016394718640971723 0 -0.0027624441406433713 -0.016550714800837477 0 -0.0029504671912795747 -0.016447408112150178 0 -0.0028511847219580347 -0.016263244981032071 0 -0.0027624441406433713 -0.016550714800837477 0 -0.0029504671912795747 -0.016447408112150178 0 -0.0030885154414853648 -0.016562977361260358 0 -0.0029504671912795747 -0.016447408112150178 0 -0.0028511847219580347 -0.016263244981032071 0 -0.0030458373393039023 -0.016340210591670543 0 -0.0021327830550789966 -0.0165176489425846 0 -0.0024351581133231323 -0.016394718640971723 0 -0.0025415467234545662 -0.016735188162900091 0 -0.0027624441406433713 -0.016550714800837477 0 -0.0024351581133231323 -0.016394718640971723 0 -0.0025415467234545662 -0.016735188162900091 0 -0.0027624441406433713 -0.016550714800837477 0 -0.0025415467234545662 -0.016735188162900091 0 -0.0030885154414853648 -0.016562977361260358 0 -0.0036068471392164399 -0.017011172156494062 0 -0.0033819290984777586 -0.015936801193533461 0 -0.005068360410258487 -0.015767358106108416 0 -0.0033819290984777586 -0.015936801193533461 0 -0.005068360410258487 -0.015767358106108416 0 -0.0049632167646022473 -0.015137557674426689 0 -0.0030274719030724991 -0.016242571231486383 0 -0.0039424145587377861 -0.016435041592872738 0 -0.0033819290984777586 -0.015936801193533461 0 -0.0049632167646022473 -0.015137557674426689 0 -0.0050330708282811595 -0.015034819994349632 0 -0.0046573627197388431 -0.014135014715115185 0 -0.005202815460880585 -0.014524781012848384 0 -0.004746206847852992 -0.014865388825018484 0 -0.004746206847852992 -0.014865388825018484 0 -0.0050330708282811595 -0.015034819994349632 0 -0.004396443718397449 -0.015031012399943987 0 -0.0048078197320017679 -0.015071764091967499 0 -0.0049085030769433352 -0.014868650542539028 0 -0.004746206847852992 -0.014865388825018484 0 -0.0049632167646022473 -0.015137557674426689 0 -0.0050330708282811595 -0.015034819994349632 0 -0.0048078197320017679 -0.015071764091967499 0 -0.0049003413954805232 -0.015189275888289782 0 -0.0049441370367792441 -0.014788003245950464 0 -0.004746206847852992 -0.014865388825018484 0 -0.0049632167646022473 -0.015137557674426689 0 -0.0029504671912795747 -0.016447408112150178 0 -0.0030612308001539933 -0.016450921506754996 0 -0.0030885154414853648 -0.016562977361260358 0 -0.0030612308001539933 -0.016450921506754996 0 -0.0030885154414853648 -0.016562977361260358 0 -0.0032524961541994593 -0.016412102378293218 0 -0.0029504671912795747 -0.016447408112150178 0 -0.0030612308001539933 -0.016450921506754996 0 -0.0030458373393039023 -0.016340210591670543 0 -0.0030612308001539933 -0.016450921506754996 0 -0.0032524961541994593 -0.016412102378293218 0 -0.0032282185597154295 -0.016357089644413344 0 -0.0032282185597154295 -0.016357089644413344 0 -0.0032758234787020261 -0.016227833593610564 0 -0.0030458373393039023 -0.016340210591670543 0 -0.0030612308001539933 -0.016450921506754996 0 -0.0032282185597154295 -0.016357089644413344 0 -0.0030458373393039023 -0.016340210591670543 0 -0.0032758234787020261 -0.016227833593610564 0 -0.0030458373393039023 -0.016340210591670543 0 -0.0030606065394841774 -0.016119484225105823 0 -0.0039424145587377861 -0.016435041592872738 0 -0.0034512827887038123 -0.011442855597076569 0 -0.0032524961541994593 -0.016412102378293218 0 -0.0032282185597154295 -0.016357089644413344 0 -0.0036320072069106874 -0.016273587440206343 0 -0.0030885154414853648 -0.016562977361260358 0 -0.0032524961541994593 -0.016412102378293218 0 -0.0036320072069106874 -0.016273587440206343 0 -0.0050330708282811595 -0.015034819994349632 0 -0.0038824674041188067 -0.015486238708397397 0 -0.004396443718397449 -0.015031012399943987 0 -0.0032282185597154295 -0.016357089644413344 0 -0.0032758234787020261 -0.016227833593610564 0 -0.0036320072069106874 -0.016273587440206343 0 -0.0038824674041188067 -0.015486238708397397 0 -0.004396443718397449 -0.015031012399943987 0 -0.0040798653042349231 -0.014550903956866101 0 -0.0032758234787020261 -0.016227833593610564 0 -0.0036320072069106874 -0.016273587440206343 0 -0.0035430315956160932 -0.016151453176257751 0 -0.0033381220870378862 -0.0050785789960355078 0 -0.0038726899508933449 -0.003018066957557785 0 -0.002669615133377541 -0.0043559864747386252 0 -0.0034512827887038123 -0.011442855597076569 0 -0.0041479049776784694 -0.008351561156497914 0 -0.0036320072069106874 -0.016273587440206343 0 -0.0036613341832821538 -0.01616336433920303 0 -0.0035430315956160932 -0.016151453176257751 0 -0.0034512827887038123 -0.011442855597076569 0 -0.0034384987721809783 -0.01142151652152512 0 -0.004746206847852992 -0.014865388825018484 0 -0.004396443718397449 -0.015031012399943987 0 -0.0040798653042349231 -0.014550903956866101 0 -0.0046573627197388431 -0.014135014715115185 0 -0.004746206847852992 -0.014865388825018484 0 -0.0040798653042349231 -0.014550903956866101 0 -0.0030436612071387341 -0.0019827273119703294 0 -0.0038726899508933449 -0.003018066957557785 0 -0.0023120256359413813 -0.003219142663182665 0 -0.0019377679093549251 -0.0018585528804051607 0 -0.0030436612071387341 -0.0019827273119703294 0 -0.0023120256359413813 -0.003219142663182665 0 -0.0019377679093549251 -0.0018585528804051607 0 -0.0023120256359413813 -0.003219142663182665 0 -0.0014462673882392522 -0.0027593828803599302 0 -0.0023120256359413813 -0.003219142663182665 0 -0.0012305891452180618 -0.0037107592004796183 0 -0.0018604512566815132 -0.004303650161806314 0 -0.0023120256359413813 -0.003219142663182665 0 -0.0014462673882392522 -0.0027593828803599302 0 -0.0012305891452180618 -0.0037107592004796183 0 -0.0038726899508933449 -0.003018066957557785 0 -0.0023120256359413813 -0.003219142663182665 0 -0.002669615133377541 -0.0043559864747386252 0 -0.0010031749887700423 -0.001817992443484881 0 -0.0006719769274618685 -0.002737658298767617 0 -0.0014462673882392522 -0.0027593828803599302 0 -0.0006719769274618685 -0.002737658298767617 0 -0.0014462673882392522 -0.0027593828803599302 0 -0.0012305891452180618 -0.0037107592004796183 0 -0.0012305891452180618 -0.0037107592004796183 0 -0.00013448775217745091 -0.0036500638607959825 0 -0.0011999784499215703 -0.0042653154511263528 0 2.7542342747376035e-05 -0.002753433862637468 0 0.00043189568445642671 -0.0019111609300896922 0 -0.0006719769274618685 -0.002737658298767617 0 -0.0012305891452180618 -0.0037107592004796183 0 -0.00013448775217745091 -0.0036500638607959825 0 0.00077562843300502051 -0.00020431621301320065 0 1.7808189134162419e-05 -0.0035443885537358236 0 0.00081345799880416217 -0.0022383131846365999 0 -0.00024190405227251599 -0.0024860874886916107 0 -0.00014802947919139792 -0.0023591729133056656 0 -0.00047428733302017783 -0.00088516559144937172 0 -0.00013120121772108577 -0.00082639429587699374 0 -0.00035149151352476525 -0.00067528401707602512 0 0.00081345799880416217 -0.0022383131846365999 0 0.00043627884381679683 -0.0015733359357491283 0 -0.00014802947919139792 -0.0023591729133056656 0 0.00043189568445642671 -0.0019111609300896922 0 -0.00036174583212141698 -0.004148651513533861 0 -0.00013448775217745091 -0.0036500638607959825 0 -0.0011999784499215703 -0.0042653154511263528 0 -0.001047877502959266 -0.0049112536874105816 0 -0.0012305891452180618 -0.0037107592004796183 0 -0.0011999784499215703 -0.0042653154511263528 0 -0.0018604512566815132 -0.004303650161806314 0 -0.0011999784499215703 -0.0042653154511263528 0 -0.0018604512566815132 -0.004303650161806314 0 -0.0016824303062500095 -0.0047663764519565747 0 -0.0011999784499215703 -0.0042653154511263528 0 -0.001047877502959266 -0.0049112536874105816 0 -0.0016824303062500095 -0.0047663764519565747 0 -0.00036174583212141698 -0.004148651513533861 0 -0.001126953408972338 -0.0062199872204072694 0 2.3462676660979131e-05 -0.0049335504727842198 0 0.00031140596543013872 -0.004547338825441288 0 -0.0012655674379636235 -0.0052253366591032257 0 -0.001047877502959266 -0.0049112536874105816 0 -0.0016824303062500095 -0.0047663764519565747 0 -0.0018466693677922329 -0.0052708745515914679 0 1.7808189134162419e-05 -0.0035443885537358236 0 -0.001126953408972338 -0.0062199872204072694 0 1.7808189134162419e-05 -0.0035443885537358236 0 -0.00036174583212141698 -0.004148651513533861 0 -0.002669615133377541 -0.0043559864747386252 0 -0.0018604512566815132 -0.004303650161806314 0 -0.0023322894831360888 -0.0048852459489278815 0 -0.0023120256359413813 -0.003219142663182665 0 -0.002669615133377541 -0.0043559864747386252 0 -0.0018604512566815132 -0.004303650161806314 0 -0.0018604512566815132 -0.004303650161806314 0 -0.0023322894831360888 -0.0048852459489278815 0 -0.0016824303062500095 -0.0047663764519565747 0 -0.0023322894831360888 -0.0048852459489278815 0 -0.0018466693677922329 -0.0052708745515914679 0 -0.0028196267915158715 -0.0052968265561948152 0 -0.0023322894831360888 -0.0048852459489278815 0 -0.0016824303062500095 -0.0047663764519565747 0 -0.0018466693677922329 -0.0052708745515914679 0 -0.0033381220870378862 -0.0050785789960355078 0 -0.002669615133377541 -0.0043559864747386252 0 -0.0028196267915158715 -0.0052968265561948152 0 -0.001126953408972338 -0.0062199872204072694 0 -0.0034384987721809783 -0.01142151652152512 0 -0.0018466693677922329 -0.0052708745515914679 0 -0.0028196267915158715 -0.0052968265561948152 0 -0.0031889747803913698 -0.0056165841598889276 0 -0.002669615133377541 -0.0043559864747386252 0 -0.0023322894831360888 -0.0048852459489278815 0 -0.0028196267915158715 -0.0052968265561948152 0 -0.0033289625303779924 -0.005116229632557227 0 -0.0028196267915158715 -0.0052968265561948152 0 -0.0031889747803913698 -0.0056165841598889276 0 -0.0034512827887038123 -0.011442855597076569 0 -0.0040699908329333767 -0.0096452006837036662 0 -0.00031797804991358277 -0.0060651355348185576 0 -0.0011854921743423737 -0.0062654504638909167 0 -0.0023634358796575145 -0.0088051434782179996 0 1.7808189134162419e-05 -0.0035443885537358236 0 -0.0023083351233963265 -0.0069308102777998299 0 -0.0006742546428859926 -0.0087593139625172147 0 -0.0036105753450218947 -0.0094494159150112465 0 -0.0034346637112328392 -0.010068373388987676 0 -0.001126953408972338 -0.0062199872204072694 0 -0.0029573679618010648 -0.012062653470556597 0 -0.00013120121772108577 -0.00082639429587699374 0 -0.00017532380541805957 -0.00036135456549590925 0 0.00019399080062974276 -0.00039278969249115198 0 -0.0034384987721809783 -0.01142151652152512 0 -0.0029573679618010648 -0.012062653470556597 0 -0.0011854921743423737 -0.0062654504638909167 0 -0.002862057333050734 -0.0070537411157280292 0 -0.0023634358796575145 -0.0088051434782179996 0 -0.0029573679618010648 -0.012062653470556597 0 -0.0023083351233963265 -0.0069308102777998299 0 -0.00062054718327651565 -0.00062216560985616594 0 -0.00017532380541805957 -0.00036135456549590925 0 -0.00035149151352476525 -0.00067528401707602512 0 -0.00013120121772108577 -0.00082639429587699374 0 -0.00017532380541805957 -0.00036135456549590925 0 -0.00035149151352476525 -0.00067528401707602512 0 -0.00053740868793961648 -0.0002050275012061551 0 -0.00044345661868278708 0.00010310211944117878 0 -0.00017532380541805957 -0.00036135456549590925 0 -0.00044345661868278708 0.00010310211944117878 0 2.7123963681967983e-05 0.00024991817034409946 0 -0.00017532380541805957 -0.00036135456549590925 0 2.7123963681967983e-05 0.00024991817034409946 0 -0.00017532380541805957 -0.00036135456549590925 0 0.00019399080062974276 -0.00039278969249115198 0 -0.0039813365065304541 -0.0044911065731039531 0 -0.0034063674274243875 -0.0065315804172087098 0 -0.0032429625515904646 -0.0059753095245457851 0 -0.0020006388302337367 -0.0017132473857829954 0 -0.0023083351233963265 -0.0069308102777998299 0 -0.0031265348818060833 -0.0093482642633106426 0 -0.0023083351233963265 -0.0069308102777998299 0 -0.0026249638577808638 -0.015065671463554054 0 -0.0025224283114672671 -0.014956688952646957 0 -0.0026171644691208697 -0.015021740171310022 0 -0.0031265348818060833 -0.0093482642633106426 0 -0.002258719883499927 -0.0054005614343806069 0 -0.0024501504225894416 -0.005231913651413349 0 -0.0034063674274243875 -0.0065315804172087098 0 -0.0032429625515904646 -0.0059753095245457851 0 -0.0025224283114672671 -0.014956688952646957 0 -0.0026171644691208697 -0.015021740171310022 0 -0.002590298782091546 -0.014966494818522179 0 -0.0026249638577808638 -0.015065671463554054 0 -0.0026171644691208697 -0.015021740171310022 0 -0.0026608895171542496 -0.015098494052703835 0 -0.002659982769329829 -0.015439940659653725 0 -0.0031479974313901814 -0.015842496287155696 0 -0.0026214374987285375 -0.015208365818467426 0 -0.0026608895171542496 -0.015098494052703835 0 -0.0026602551557071909 -0.015022032701334315 0 -0.0026171644691208697 -0.015021740171310022 0 -0.0026608895171542496 -0.015098494052703835 0 -0.0026602551557071909 -0.015022032701334315 0 -0.0028656993123598448 -0.015782729796236489 0 -0.0032537383944897546 -0.015972926225161152 0 -0.0030606065394841774 -0.016119484225105823 0 -0.0032758234787020261 -0.016227833593610564 0 -0.0032537383944897546 -0.015972926225161152 0 -0.0030606065394841774 -0.016119484225105823 0 -0.0029573679618010648 -0.012062653470556597 0 -0.0031479974313901814 -0.015842496287155696 0 -0.0032758234787020261 -0.016227833593610564 0 -0.0032537383944897546 -0.015972926225161152 0 -0.0035430315956160932 -0.016151453176257751 0 -0.0036639653669631399 -0.016107787916395135 0 -0.0032537383944897546 -0.015972926225161152 0 -0.0035430315956160932 -0.016151453176257751 0 -0.0025491684307484578 -0.01486717627961948 0 -0.0026602551557071909 -0.015022032701334315 0 -0.002590298782091546 -0.014966494818522179 0 -0.0034384987721809783 -0.01142151652152512 0 -0.0039524901495901063 -0.01271612802031848 0 -0.00364826805910056 -0.016158963885544924 0 -0.0036639653669631399 -0.016107787916395135 0 -0.0035430315956160932 -0.016151453176257751 0 -0.0025491684307484578 -0.01486717627961948 0 -0.0025224283114672671 -0.014956688952646957 0 -0.002590298782091546 -0.014966494818522179 0 -0.0026171644691208697 -0.015021740171310022 0 -0.0026602551557071909 -0.015022032701334315 0 -0.002590298782091546 -0.014966494818522179 0 
</DataArray>
</PointData>
<CellData Scalars="region_id,cross_section_updated," Vectors="" Tensors="stress,">
<DataArray type="Float64" Name="region_id" format="ascii">
5 5 5 5 6 5 6 5 6 6 5 5 6 5 6 5 5 5 5 5 5 5 5 5 5 5 5 5 5 5 5 6 5 5 6 5 5 5 5 5 5 5 5 5 5 5 5 5 5 5 5 5 5 5 5 5 5 6 6 5 5 5 5 5 5 5 5 5 5 5 5 5 5 5 6 5 5 5 6 5 5 6 5 6 5 6 5 5 5 5 5 5 5 5 5 5 5 5 5 5 5 5 5 5 5 5 5 5 5 5 5 5 5 5 5 5 5 5 5 5 5 5 5 5 5 5 5 5 5 5 5 5 5 5 5 5 5 5 5 5 5 5 5 5 5 5 6 5 5 5 5 5 5 5 5 5 5 5 5 5 5 6 5 5 5 5 5 6 5 5 5 5 5 5 5 5 5 5 5 5 5 5 5 5 5 5 5 5 5 5 5 5 5 5 6 5 5 5 5 5 6 5 5 6 5 5 5 5 5 5 5 5 5 5 5 5 5 5 5 5 5 5 5 5 5 5 6 6 5 6 5 6 5 5 5 5 5 6 5 5 5 5 5 5 5 5 5 5 5 5 5 5 5 5 5 5 5 5 5 5 5 5 5 5 5 5 5 5 5 5 5 6 5 5 5 5 5 5 6 5 5 5 5 5 5 5 5 5 5 5 5 5 5 5 5 5 5 5 6 5 5 5 5 6 5 5 5 5 5 6 5 5 6 6 5 5 5 5 5 5 5 5 5 5 6 5 5 5 5 5 5 5 5 5 5 5 5 5 5 5 5 5 5 5 5 5 5 5 5 5 5 5 5 5 5 5 5 5 5 5 5 5 5 5 5 6 5 5 5 5 6 5 5 5 5 5 5 6 6 5 5 5 5 5 5 5 5 5 5 6 5 5 5 5 5 6 5 5 5 5 5 5 5 5 5 5 5 5 5 5 5 5 5 5 5 6 5 5 5 5 5 5 6 5 5 5 5 5 5 5 5 5 5 5 5 5 5 6 5 6 5 5 5 5 5 5 5 5 5 6 5 5 5 5 5 5 5 5 5 5 6 5 5 5 5 5 5 5 5 6 5 5 5 6 5 5 6 5 5 5 5 5 5 5 5 5 5 5 5 5 5 5 5 5 5 5 5 5 6 5 6 5 5 5 5 5 5 5 5 5 5 6 5 5 5 5 5 5 5 5 5 5 5 5 5 5 5 5 5 5 5 6 5 5 5 5 5 5 5 5 5 5 5 6 5 6 5 5 5 6 6 6 5 5 5 5 5 6 6 5 5 5 5 6 5 5 6 5 5 5 5 5 6 5 5 6 6 5 6 5 5 5 5 5 5 5 6 5 5 5 6 5 5 5 6 5 5 5 6 5 5 6 5 5 5 5 5 5 5 5 5 5 5 5 5 5 6 5 5 5 5 5 5 5 5 5 5 5 5 5 6 5 5 5 6 5 5 5 5 5 5 5 5 5 5 5 5 6 5 5 5 5 5 5 5 6 5 5 6 5 5 5 5 6 5 5 5 5 5 6 5 6 5 5 5 5 5 5 5 5 5 5 5 5 5 5 5 5 5 5 6 5 5 5 5 5 6 5 5 6 5 5 5 5 5 5 5 6 5 6 5 6 5 6 5 5 5 5 5 5 5 5 5 6 5 5 5 6 5 5 5 6 5 5 6 5 5 6 5 6 5 5 6 5 5 5 5 6 5 6 5 6 5 5 6 6 5 5 5 5 6 5 5 5 5 6 5 5 5 5 5 5 5 5 5 5 6 5 5 5 5 5 5 5 5 5 5 5 5 5 5 6 6 5 5 5 5 5 5 5 5 5 5 5 5 5 6 5 6 6 5 5 5 5 6 5 5 5 5 6 5 5 5 5 6 5 5 6 5 5 5 5 5 5 5 5 5 5 5 5 5 5 5 5 6 5 6 5 5 5 5 5 5 5 5 5 5 5 6 5 5 5 6 5 5 5 5 5 6 5 5 5 5 5 6 5 6 6 5 5 6 5 5 5 5 5 5 5 5 5 5 5 5 5 5 6 5 6 5 6 5 5 5 5 5 5 6 5 5 5 5 5 6 5 5 5 5 5 5 5 6 5 5 5 5 5 5 5 5 5 5 5 6 6 5 5 6 6 5 5 5 5 5 5 5 5 5 5 5 5 5 5 5 5 5 5 5 5 5 5 5 5 5 5 5 5 5 5 5 5 5 6 6 5 5 5 5 5 5 5 5 5 5 6 5 5 5 5 5 5 5 5 5 5 5 5 5 5 5 5 5 5 5 5 5 5 5 5 5 5 5 5 5 5 5 5 5 5 5 5 5 5 5 5 5 5 5 5 5 5 5 5 5 5 5 5 5 5 5 5 5 5 5 5 5 5 5 5 5 5 5 5 5 5 5 5 5 5 5 5 5 6 5 5 5 5 5 5 5 5 5 5 5 5 5 5 5 5 5 5 5 5 5 5 5 5 5 6 6 5 5 5 5 5 5 5 5 5 6 5 5 6 5 5 5 5 5 5 5 5 5 5 6 5 5 5 5 6 5 5 5 5 5 5 5 6 5 5 5 5 5 5 5 5 5 6 5 5 5 5 5 5 5 5 5 5 5 5 5 5 6 5 5 5 5 5 5 5 5 5 5 5 5 5 5 5 5 5 5 5 5 5 5 5 5 5 5 5 5 5 5 5 5 5 5 6 5 5 5 5 5 5 6 5 5 5 5 5 5 5 5 5 5 5 5 5 5 5 5 6 5 5 5 5 5 5 5 5 5 5 5 5 5 5 5 5 5 5 5 5 5 6 5 5 5 5 5 5 5 5 5 5 5 5 6 5 5 5 6 5 5 5 5 5 5 5 5 5 5 5 5 5 6 5 5 5 5 5 5 5 5 6 5 5 5 5 5 5 5 5 5 5 5 5 5 5 5 5 5 5 5 5 5 5 5 5 5 5 5 5 5 5 5 5 5 5 5 5 5 5 5 5 5 5 5 5 5 5 6 5 5 5 5 5 5 5 5 5 5 5 5 5 6 5 5 5 6 5 5 5 5 5 5 6 5 5 5 6 5 5 5 5 5 5 5 5 5 6 5 5 5 6 5 5 5 5 6 5 5 5 6 5 5 5 6 5 5 5 5 5 5 5 5 5 6 5 5 5 6 5 6 5 5 5 5 5 6 5 5 6 5 5 5 5 5 5 5 5 5 5 5 5 5 5 5 5 5 5 5 5 5 5 5 5 5 5 5 5 5 5 5 5 5 6 5 5 5 6 5 6 5 5 6 5 5 5 6 6 5 5 6 6 5 5 6 5 5 5 5 5 5 5 5 6 6 5 5 5 5 5 5 5 5 5 6 5 5 5 6 5 5 6 5 6 5 6 5 5 5 6 6 5 5 5 5 5 5 6 5 5 5 6 5 6 5 5 5 5 6 5 5 6 5 6 5 6 5 5 5 6 6 5 5 6 5 5 6 5 5 6 5 5 5 6 5 6 5 6 5 5 5 5 6 5 5 6 5 5 5 5 5 5 6 5 5 5 5 5 5 5 6 5 5 5 5 5 5 5 5 6 5 5 5 5 5 5 6 5 5 5 5 6 6 5 6 5 6 5 6 5 5 5 6 6 5 6 5 5 6 5 5 5 5 6 5 5 5 5 5 5 5 5 5 6 5 5 5 6 5 5 6 5 5 5 5 5 5 5 5 6 5 5 6 5 5 5 5 6 6 6 5 6 5 6 5 5 5 5 5 6 5 5 6 5 5 5 5 5 6 5 6 5 6 5 6 6 5 6 5 6 5 5 5 6 5 6 5 6 6 5 6 5 6 5 5 6 5 6 6 6 5 5 6 5 5 6 5 5 5 6 5 5 6 5 6 5 5 5 6 5 6 5 5 5 5 6 6 5 5 5 5 5 6 6 5 5 5 6 5 5 6 5 5 6 5 5 5 6 6 6 5 5 5 5 5 5 5 5 5 5 6 6 5 5 5 6 5 5 5 5 5 5 6 5 5 5 5 5 5 5 5 6 5 5 5 5 6 5 5 5 6 5 5 5 5 6 6 5 5 5 5 6 5 5 5 5 5 6 5 5 5 5 5 5 5 5 6 5 5 5 6 5 5 6 5 5 5 5 5 5 5 5 5 5 5 5 5 5 5 5 5 5 5 5 5 6 5 5 5 5 5 5 5 5 5 5 5 5 5 6 5 5 5 5 5 5 5 5 5 5 5 5 5 5 5 5 5 5 5 6 5 5 5 5 5 5 5 5 5 5 5 5 5 6 5 5 5 5 6 5 5 5 5 6 5 5 5 5 5 5 5 5 5 5 5 5 5 5 5 5 5 5 5 6 5 5 5 5 5 5 5 6 6 5 5 6 5 5 5 5 5 5 6 5 5 5 5 5 5 5 5 5 5 5 5 5 5 5 5 5 5 5 5 5 5 5 5 5 5 5 5 5 5 5 5 5 5 5 5 5 5 5 5 5 5 5 5 5 5 5 5 5 5 5 5 5 5 5 5 5 5 5 5 5 5 5 5 5 5 5 6 5 5 5 5 6 5 5 5 6 5 5 6 5 5 5 5 5 5 5 5 5 5 6 5 5 5 5 5 5 5 5 5 5 5 5 5 5 5 5 5 5 5 5 5 5 5 5 5 6 5 5 6 5 5 5 5 5 5 5 5 5 5 5 5 5 5 5 5 5 5 5 5 6 5 5 5 5 5 5 5 5 5 5 5 5 6 5 5 5 5 5 5 5 5 5 5 5 5 5 5 5 5 5 5 5 5 5 5 5 5 5 5 5 5 5 6 5 5 5 6 5 5 5 5 6 5 5 5 5 6 5 5 5 5 5 5 5 5 5 5 5 5 5 5 5 5 5 5 5 5 5 5 5 5 5 5 5 5 5 5 5 5 5 5 5 5 5 6 5 5 6 5 5 5 5 5 6 6 5 5 5 6 5 5 6 6 5 6 5 5 6 5 5 5 6 5 6 5 5 5 5 5 5 6 6 5 5 5 6 6 5 6 5 6 5 6 5 5 5 6 5 5 5 5 5 5 5 5 5 6 5 5 5 5 5 6 5 5 5 5 5 5 6 5 5 5 5 5 5 5 5 5 5 5 5 6 5 5 5 5 5 6 5 5 5 5 5 5 6 5 5 5 5 5 5 6 5 5 5 5 5 6 5 6 5 5 5 5 6 5 5 5 5 5 5 5 5 5 6 6 6 5 5 5 5 6 5 6 5 5 5 5 6 5 6 5 5 5 6 6 5 5 5 5 6 5 6 6 6 5 5 5 5 6 6 5 6 5 5 5 5 6 5 6 5 5 5 5 5 5 5 5 5 5 6 6 5 5 5 5 5 5 5 6 5 5 5 5 5 5 5 5 5 5 5 5 6 5 5 5 5 5 5 5 5 5 5 5 5 5 5 6 5 6 5 5 5 5 5 5 5 5 5 6 5 5 5 5 5 5 5 5 6 5 5 5 5 6 5 5 5 5 6 5 5 5 5 5 5 6 5 5 5 5 5 5 5 5 6 5 5 5 5 6 5 5 5 6 5 5 5 5 5 5 5 5 5 5 5 5 5 5 5 5 5 5 5 5 5 5 6 5 5 6 5 5 5 5 6 5 5 5 5 5 5 5 5 5 5 5 5 5 5 6 5 5 5 5 5 6 5 5 5 5 5 5 6 5 5 5 5 5 5 5 5 5 5 6 5 5 5 5 5 5 5 5 5 5 5 5 5 5 5 5 5 5 5 5 5 5 5 5 5 5 5 5 5 5 5 5 5 5 6 5 5 5 5 5 5 5 5 5 5 6 5 5 5 5 5 5 5 5 5 5 6 5 5 5 5 5 5 5 6 5 6 5 5 5 5 5 6 5 5 5 5 6 5 5 5 5 5 5 5 5 5 6 5 5 6 5 5 5 5 6 6 6 5 6 5 6 5 5 5 5 5 5 5 5 5 6 5 5 5 5 6 5 5 5 5 5 5 5 5 5 5 5 6 6 5 5 5 5 5 6 5 6 6 5 6 5 5 5 5 5 5 5 6 5 5 5 5 5 6 6 5 6 5 5 5 5 5 5 6 5 5 6 5 5 6 5 5 5 5 5 5 5 5 5 6 5 6 5 5 5 5 5 6 5 5 6 5 5 5 5 6 5 5 6 5 5 5 5 5 6 5 5 5 5 5 5 5 6 5 6 5 5 5 5 6 6 5 5 6 6 5 5 5 6 6 5 5 5 6 5 5 6 6 5 5 5 5 5 5 5 5 5 5 5 5 5 6 5 5 6 5 5 6 5 6 5 5 5 5 6 5 6 5 6 5 5 5 6 5 5 5 5 5 5 5 5 5 5 5 5 5 5 5 6 5 5 5 5 5 5 5 5 6 5 5 5 5 5 6 6 5 5 5 5 6 5 6 6 5 5 5 5 5 5 6 5 5 5 6 5 5 5 5 5 5 6 5 5 5 5 5 5 5 5 5 5 5 5 6 5 5 5 5 5 5 5 5 5 5 6 5 5 5 5 5 5 5 5 5 5 6 5 5 5 5 5 5 5 5 6 5 5 5 5 5 5 5 5 5 5 5 5 5 5 5 5 6 5 6 5 5 6 5 5 5 5 5 5 5 5 5 5 5 5 5 5 5 5 6 5 5 5 5 5 6 5 5 6 5 5 5 6 6 5 5 6 5 5 5 5 5 5 6 5 5 5 5 5 5 5 5 6 5 5 5 5 5 5 6 5 5 6 5 5 5 5 6 6 5 5 6 5 6 5 5 5 5 5 6 5 5 5 5 5 5 6 5 5 5 5 5 5 5 6 5 5 5 6 5 5 5 6 5 5 5 6 5 6 5 5 5 5 5 5 5 5 5 5 5 5 5 6 5 5 6 5 6 5 6 5 5 5 5 6 5 5 6 5 5 5 6 5 5 5 5 5 5 5 5 5 5 5 5 5 5 5 5 5 5 5 5 5 5 5 5 6 5 5 5 5 5 5 6 5 5 6 5 5 5 5 6 5 6 5 5 5 5 5 5 5 5 5 6 5 6 5 6 5 5 5 5 5 5 6 5 5 6 5 5 5 6 5 5 5 5 5 5 5 5 6 5 5 6 5 5 6 5 6 5 5 5 5 6 5 6 6 5 5 6 5 5 5 5 5 6 5 5 5 6 5 5 5 5 5 5 6 5 5 5 5 6 5 5 5 6 5 5 5 5 5 6 5 5 5 5 5 6 5 5 6 5 5 5 5 5 5 5 5 5 5 5 5 5 6 5 5 5 5 5 5 5 6 5 5 5 5 6 5 5 5 5 5 5 5 5 5 5 6 5 5 5 5 6 5 5 6 5 6 5 5 6 5 5 5 5 5 5 5 5 5 5 5 5 5 5 5 5 5 5 5 6 5 5 5 5 5 5 5 5 5 5 5 5 5 5 5 5 5 5 5 5 6 5 5 5 5 5 5 5 5 6 5 5 5 5 5 6 5 5 5 5 5 6 5 5 5 6 5 5 6 5 5 5 6 5 6 5 5 5 6 6 5 6 5 5 6 5 6 5 6 6 5 5 6 5 5 5 5 6 5 5 6 5 5 6 6 5 5 5 5 6 5 6 5 5 5 6 6 5 5 5 6 6 5 6 5 5 5 5 5 5 6 6 5 5 5 6 5 5 5 5 6 5 5 5 5 6 6 5 6 6 5 6 5 5 6 6 5 6 5 5 6 5 5 6 5 6 5 5 5 6 5 5 6 5 5 5 5 5 5 5 5 5 5 5 6 5 5 5 6 5 6 5 5 5 6 6 5 5 6 6 5 5 6 5 5 5 5 6 5 5 6 5 6 5 5 5 5 5 5 6 5 5 5 5 5 5 5 5 5 5 5 6 5 5 5 5 5 6 5 5 6 5 6 5 6 5 6 5 5 6 5 5 6 5 5 5 6 5 6 5 6 5 6 5 5 5 6 5 5 5 6 5 5 5 5 5 6 6 6 5 5 5 5 5 5 5 5 5 5 5 5 5 5 5 5 5 5 5 5 5 5 5 5 5 5 5 5 5 5 5 5 5 5 5 6 5 6 5 5 5 5 6 5 5 5 5 5 5 5 5 5 6 5 6 5 5 5 5 5 5 5 6 5 6 5 5 5 5 5 5 5 5 5 5 5 5 5 5 6 5 5 5 5 5 5 5 6 5 5 5 5 6 5 5 5 5 6 5 5 5 5 5 5 6 5 5 5 5 5 5 5 5 6 5 5 5 5 5 5 5 5 5 5 5 5 5 5 5 6 5 5 5 5 5 6 5 5 5 5 6 5 5 5 5 5 5 5 5 5 5 5 5 6 5 5 5 5 5 5 5 5 5 5 5 5 5 5 5 5 5 5 5 5 5 5 5 5 5 5 5 5 5 5 5 5 5 5 5 5 5 5 5 5 5 5 5 6 5 5 5 5 5 5 5 5 5 5 5 5 6 5 6 5 5 5 6 5 5 5 5 5 5 6 5 5 5 5 5 5 6 5 5 6 6 5 5 6 5 5 6 6 6 5 5 5 5 5 5 5 5 5 5 6 5 5 5 5 6 5 5 5 5 6 5 6 5 5 5 5 6 5 5 5 5 6 5 5 5 5 6 5 5 5 6 5 5 5 5 5 5 5 5 5 5 5 5 5 5 5 5 5 5 5 5 5 5 5 5 5 5 5 5 5 5 5 5 5 5 5 5 5 5 5 5 6 5 5 5 5 5 5 5 5 6 5 5 5 5 6 5 5 5 5 5 5 6 5 5 5 6 5 5 5 5 5 5 5 5 5 5 6 5 5 5 5 5 5 5 5 5 5 6 5 5 5 6 6 5 6 6 5 5 5 5 5 6 5 5 5 5 5 5 5 5 6 5 5 5 5 5 5 5 5 5 6 5 5 5 6 5 6 5 6 5 5 5 5 5 5 5 5 5 5 5 5 5 5 6 6 5 5 5 5 5 6 5 5 5 5 5 5 5 5 5 5 5 5 5 5 5 5 5 5 6 5 5 5 6 5 5 5 5 5 5 5 6 5 5 5 5 6 5 5 5 5 6 5 5 5 6 5 6 5 5 5 6 5 5 5 5 5 5 5 5 5 5 5 5 5 5 5 5 5 5 5 5 5 5 5 5 5 6 5 5 5 5 5 5 5 6 5 5 5 5 5 6 5 5 5 6 5 6 5 5 5 5 5 5 6 5 5 5 5 5 5 6 5 5 5 5 5 5 5 6 5 5 6 5 5 5 6 5 5 5 5 5 5 5 5 5 5 5 5 5 5 5 5 6 5 5 5 5 5 5 5 5 5 6 5 5 5 6 5 5 5 5 5 5 5 5 5 5 6 5 5 5 5 5 5 6 5 5 6 5 6 5 5 5 5 5 5 5 5 6 5 5 5 6 5 5 5 6 5 5 5 5 6 5 5 6 5 6 6 6 5 5 6 6 5 5 5 6 5 5 5 6 5 5 5 5 5 5 5 5 5 6 5 5 6 6 6 6 6 5 5 6 5 5 5 5 5 5 5 5 5 5 5 5 5 5 5 5 5 5 6 5 5 5 5 5 5 5 5 6 5 5 5 5 5 6 5 6 6 5 5 5 5 6 5 5 5 6 5 5 5 6 5 6 5 5 5 6 6 6 5 5 6 5 6 6 5 6 5 5 5 6 5 6 5 5 5 5 5 5 5 5 5 5 5 5 5 5 5 5 5 5 5 5 5 5 5 5 5 6 5 5 5 5 5 5 6 5 5 5 5 5 5 6 6 5 5 5 5 6 5 5 5 6 5 5 5 5 6 5 6 5 6 5 5 6 6 5 5 6 5 5 6 6 6 5 5 6 5 5 5 5 5 5 5 5 5 5 5 5 5 5 5 5 5 5 5 5 5 5 5 5 5 5 5 5 5 5 5 5 6 6 5 5 5 5 5 6 5 5 6 5 5 6 5 5 5 5 5 5 5 5 5 5 5 5 5 5 5 6 5 5 6 6 5 5 5 5 6 6 5 6 6 5 6 5 5 5 5 6 5 6 5 5 6 6 5 6 6 5 5 6 6 6 5 6 5 5 5 5 5 5 6 5 5 5 5 5 5 5 6 6 5 5 5 6 5 5 5 5 6 6 5 5 5 6 5 5 5 5 5 5 5 5 5 5 5 5 5 5 5 5 5 5 5 5 5 5 5 5 5 5 5 5 5 5 5 5 5 5 6 5 5 5 5 5 5 5 5 5 6 5 5 5 5 5 5 5 5 6 5 5 5 5 5 5 5 5 5 5 6 6 5 6 5 5 6 5 5 5 5 5 5 5 5 6 5 5 5 5 5 5 6 5 5 5 5 5 5 5 5 5 5 5 5 5 5 5 5 5 6 5 5 6 5 5 6 5 6 5 5 5 5 6 5 5 5 5 6 5 5 5 5 5 6 5 5 5 5 5 5 5 5 5 6 5 5 5 5 5 5 5 6 5 5 5 6 5 5 5 5 5 5 5 6 5 5 5 6 5 5 5 5 5 5 5 5 5 5 6 5 5 5 6 5 5 6 5 5 5 6 5 5 5 5 5 6 5 5 5 5 6 5 5 5 5 5 5 5 5 5 5 5 5 5 5 5 5 5 6 5 5 5 5 6 5 5 5 5 5 6 5 5 5 5 5 5 6 5 5 5 5 5 5 5 5 5 5 5 5 5 6 5 5 5 6 5 6 5 6 5 5 6 5 5 5 6 5 5 5 5 5 5 5 5 6 5 5 5 5 5 6 5 5 5 5 5 5 5 5 5 6 5 5 5 6 5 5 5 5 5 5 5 5 5 5 5 5 5 5 5 6 5 5 5 5 5 5 5 5 5 5 6 5 5 5 6 5 5 5 5 5 5 5 5 5 5 5 5 5 5 5 5 5 5 5 5 5 6 5 6 5 5 5 5 5 5 5 5 5 5 5 5 5 6 5 5 5 5 5 5 5 5 5 5 5 5 6 5 6 5 5 5 5 5 5 5 6 5 5 5 5 5 6 6 6 5 5 5 6 5 5 5 5 5 5 5 5 5 5 5 5 5 5 5 5 5 5 5 5 5 5 5 5 5 5 5 5 5 5 5 5 5 6 5 6 5 5 5 5 5 5 5 5 5 5 5 5 5 5 5 5 5 5 5 5 5 6 5 5 5 5 5 5 6 5 5 5 5 5 5 5 6 6 5 5 5 5 5 5 5 5 5 5 6 5 5 5 5 5 5 5 5 5 5 6 5 5 5 5 5 5 5 5 5 5 5 5 5 5 5 5 5 5 5 5 5 5 5 5 5 5 5 5 5 5 5 6 5 5 5 6 5 5 5 5 5 6 5 5 6 5 6 6 5 5 5 5 5 6 5 5 5 6 5 5 5 5 5 5 5 5 5 5 5 5 5 5 5 6 5 5 5 5 6 5 5 5 5 5 5 6 5 5 5 5 5 5 5 5 5 5 5 5 5 5 5 5 5 5 5 5 5 5 6 5 5 5 5 5 5 5 5 5 5 5 5 5 5 5 5 5 5 5 5 5 5 5 5 5 5 5 5 5 5 5 5 5 5 5 5 5 5 5 6 5 5 5 5 5 5 5 5 5 5 5 5 5 5 5 5 6 5 5 5 5 5 5 6 6 5 5 5 5 6 5 6 5 5 6 5 5 5 5 5 5 6 5 5 5 6 5 5 5 5 5 6 5 5 5 5 6 6 5 6 5 5 5 5 5 5 5 5 5 5 5 6 5 5 5 6 5 5 5 5 5 6 5 5 6 5 5 5 5 5 5 6 5 6 5 5 5 5 5 5 5 5 5 5 5 5 5 6 5 5 5 5 5 5 5 5 5 5 5 5 5 5 5 5 5 5 5 5 6 6 5 5 5 5 5 5 5 5 5 5 5 5 6 5 5 6 5 6 5 5 5 5 5 5 5 5 5 5 6 5 6 5 6 6 5 5 5 5 6 5 5 6 5 5 5 5 5 6 5 5 5 5 5 5 5 5 5 5 6 5 5 5 5 5 5 5 5 5 5 5 5 5 5 5 5 6 5 5 5 5 6 5 5 6 5 5 5 5 5 6 5 6 5 6 5 5 5 5 5 5 5 6 5 6 6 5 5 6 5 5 5 5 6 5 5 6 5 5 5 5 5 5 6 5 5 5 5 5 6 5 5 5 5 5 6 5 5 5 5 6 6 5 6 5 5 5 5 6 5 6 5 5 5 5 5 5 6 5 5 5 5 5 5 5 5 5 6 5 6 5 5 5 5 5 5 5 5 6 5 6 5 5 5 6 5 6 5 5 5 5 5 5 5 5 5 6 5 5 6 5 5 5 5 5 5 5 5 6 6 6 5 5 5 5 5 5 5 5 5 5 5 5 5 5 5 5 5 5 5 6 5 5 5 6 6 5 5 5 5 5 5 5 6 5 5 5 5 5 5 5 5 5 5 5 6 5 5 5 5 5 5 5 5 5 5 6 5 5 5 5 5 5 6 5 5 5 5 5 5 5 5 5 5 5 5 5 5 5 6 5 5 5 5 6 5 5 5 5 5 5 5 6 5 6 5 5 6 5 5 5 6 5 6 5 6 6 5 5 5 6 6 5 5 5 5 5 5 5 5 5 5 5 5 5 5 5 5 5 5 5 5 5 5 6 5 5 5 5 5 5 5 5 5 5 6 6 5 5 5 5 5 5 5 6 5 5 5 6 5 5 5 5 5 5 6 6 5 5 5 5 6 5 5 5 5 5 6 5 5 5 5 5 6 5 5 5 5 5 5 5 5 5 5 5 6 5 5 5 6 5 5 5 5 5 5 5 5 5 5 5 5 5 5 5 5 6 5 5 6 5 5 5 6 6 5 5 5 6 6 6 5 5 5 5 6 5 5 5 5 5 6 6 5 5 6 5 6 5 6 5 5 5 6 5 5 6 5 5 5 5 5 6 5 5 5 5 5 5 5 5 5 5 5 5 5 5 5 5 5 5 5 5 5 5 5 6 5 5 5 5 5 5 5 5 5 5 5 5 5 5 5 5 5 5 5 5 5 5 5 5 5 5 5 5 5 5 5 5 5 5 5 6 5 5 5 5 5 5 5 6 5 5 5 5 6 5 5 6 5 5 5 5 5 6 5 5 5 5 5 5 5 5 5 5 6 6 5 5 5 5 5 5 5 5 5 6 5 5 5 5 5 6 5 5 5 5 5 5 5 5 5 5 5 5 5 5 5 5 5 5 5 5 6 5 6 5 6 5 5 5 5 5 5 5 5 6 5 5 5 5 5 5 5 5 5 5 5 5 5 5 5 6 5 5 5 5 5 5 5 5 5 5 5 5 5 5 5 5 5 5 5 5 5 5 6 5 5 5 5 5 6 5 6 5 6 5 5 5 6 6 5 5 5 5 5 5 6 6 6 5 6 5 6 5 5 5 5 5 5 6 5 5 5 5 5 5 5 5 6 5 5 5 6 5 6 5 5 6 5 5 5 5 5 5 5 5 5 5 5 5 5 5 5 6 5 5 5 5 5 5 5 6 5 5 5 5 5 5 5 6 5 6 5 5 6 5 5 5 5 5 5 5 5 5 6 5 5 5 5 6 5 5 6 6 5 5 5 5 5 5 5 5 6 5 5 5 5 5 5 5 5 5 5 5 5 5 5 5 5 5 5 5 5 5 5 5 5 5 5 5 5 5 5 6 5 5 5 5 5 5 5 5 5 5 5 6 5 5 6 5 5 5 5 5 5 5 5 5 5 6 6 5 5 5 5 6 6 5 5 5 5 6 5 5 5 6 5 5 5 5 5 5 5 5 5 5 5 5 5 6 5 6 5 5 5 5 5 6 5 5 6 5 5 5 5 5 5 5 5 5 6 5 5 5 5 5 5 5 5 5 5 6 5 5 5 6 5 5 5 5 5 5 5 5 5 5 5 5 5 6 6 6 5 5 6 5 5 5 5 5 5 5 5 5 5 5 5 5 5 6 5 5 5 5 5 5 5 6 5 5 5 5 5 5 5 5 5 5 5 5 5 5 5 5 6 5 5 5 5 5 5 5 6 5 5 5 6 5 5 5 5 5 5 5 5 5 5 5 5 5 5 5 5 6 5 5 5 5 6 5 6 5 5 5 5 6 5 5 5 5 5 5 5 5 5 5 5 5 5 5 5 5 5 6 6 5 5 5 5 5 5 5 5 5 5 5 5 5 5 5 5 5 5 6 5 6 5 5 5 5 5 5 5 5 6 5 5 6 5 6 5 5 5 5 5 5 5 5 5 5 5 5 5 5 5 5 5 5 5 5 5 5 5 5 5 5 5 5 5 5 5 5 5 5 5 5 5 5 5 5 5 5 5 5 5 5 5 5 5 5 6 5 5 5 5 6 6 5 5 5 5 5 5 5 5 6 5 5 5 5 5 5 5 5 6 5 5 5 5 6 5 6 6 6 5 5 5 5 5 5 5 5 5 6 5 5 5 5 5 5 5 5 5 5 5 6 5 5 5 5 5 5 5 5 5 5 5 5 6 5 5 6 5 5 5 5 5 6 5 6 5 5 5 5 5 5 5 5 5 5 5 5 5 5 5 5 5 5 5 5 5 5 5 6 5 5 5 5 5 5 5 5 5 5 5 5 5 5 5 5 5 5 5 5 6 5 5 5 5 5 5 5 5 5 5 5 5 5 5 5 5 5 6 5 5 6 5 5 5 5 5 5 5 5 5 6 6 5 5 5 5 5 5 5 5 5 6 5 6 6 5 5 6 5 6 5 5 5 5 5 5 5 5 5 5 5 5 5 5 5 5 5 5 5 5 5 5 5 5 5 5 5 5 5 5 5 5 5 5 5 5 5 5 5 5 5 5 5 5 5 5 5 5 5 5 5 5 5 5 5 5 6 5 6 5 5 5 5 5 5 5 6 5 5 6 5 5 5 5 5 5 6 5 5 5 5 5 5 5 5 5 5 5 5 5 5 6 5 5 5 6 5 5 6 5 5 5 5 6 5 5 5 5 5 5 5 5 6 6 5 5 5 5 5 6 5 5 6 5 5 6 5 5 5 5 5 6 5 6 5 6 5 5 5 6 5 5 5 5 5 6 5 5 5 6 5 5 5 5 5 5 5 5 5 5 5 5 6 6 5 5 5 6 5 5 5 5 6 5 5 5 5 5 5 6 5 5 5 5 5 5 5 5 5 5 5 5 5 6 5 5 5 6 5 5 5 5 5 5 5 5 6 6 5 5 6 5 5 6 5 5 6 5 5 6 5 6 5 5 5 5 5 5 5 5 5 6 5 5 5 5 5 5 5 5 5 6 5 5 5 5 5 5 5 5 5 5 6 5 5 5 5 5 5 5 5 6 5 5 5 5 5 5 5 6 5 6 5 6 6 6 6 5 6 5 5 5 5 6 6 5 6 5 5 6 5 5 5 5 6 5 5 5 5 5 5 5 5 5 5 5 5 5 5 5 5 5 5 6 5 5 5 5 6 6 5 5 5 6 5 6 5 5 6 5 5 6 5 5 5 5 5 5 5 6 5 5 5 5 5 5 5 6 6 6 6 5 5 5 5 5 5 5 5 5 5 5 5 5 5 5 5 5 5 5 5 5 5 5 5 5 5 5 5 5 5 5 5 5 5 5 5 5 5 5 5 5 5 5 5 5 5 5 5 5 5 5 5 5 5 5 6 5 5 5 5 5 5 5 5 5 5 5 5 6 5 5 5 5 5 5 5 5 5 5 5 5 5 5 5 5 5 5 5 5 5 5 5 5 5 5 5 5 5 5 5 5 6 5 5 5 6 5 5 5 5 5 5 5 5 5 5 6 5 5 5 5 5 5 5 5 5 5 5 5 5 5 5 5 5 6 5 5 5 5 6 5 5 5 5 5 5 5 6 5 5 5 6 5 5 5 5 5 5 5 5 5 5 5 5 5 5 5 5 5 5 5 5 5 5 5 5 5 5 5 5 5 5 5 5 5 5 5 5 5 5 5 5 5 5 5 5 5 5 5 5 6 6 6 5 5 6 6 5 5 5 5 5 5 5 5 6 5 5 6 5 6 5 5 5 6 5 6 5 5 5 5 5 6 5 5 5 5 5 5 5 5 5 5 5 5 5 5 5 5 5 5 5 5 5 5 5 5 5 5 5 5 5 5 5 5 6 5 5 6 5 6 5 5 5 5 5 5 6 5 5 6 5 5 5 5 5 5 5 6 5 6 5 6 5 5 5 5 6 5 6 5 5 5 5 5 5 5 6 6 6 5 5 5 5 5 5 5 5 5 5 5 5 5 5 5 5 5 5 5 5 5 5 5 5 5 5 5 6 5 5 6 5 5 5 5 5 5 5 5 5 5 5 5 5 5 5 5 5 5 5 5 5 5 5 5 5 5 5 5 5 5 5 5 5 5 6 5 6 5 6 5 5 5 5 6 5 5 5 5 6 6 5 5 5 5 6 5 5 6 6 5 5 6 5 5 5 5 5 5 6 5 5 5 5 5 5 5 6 6 5 5 5 6 5 5 6 5 5 5 5 5 5 5 5 5 5 5 5 6 5 5 5 6 5 5 5 5 5 5 5 6 5 6 5 5 6 6 6 5 5 5 5 5 5 5 5 5 5 5 5 5 5 6 5 5 5 5 6 5 5 5 5 5 5 5 5 6 5 5 5 6 5 5 5 5 5 5 5 5 5 5 5 5 5 5 5 5 5 5 5 5 6 5 5 5 5 6 5 6 5 5 5 5 5 5 5 5 5 5 5 5 5 5 5 5 5 5 5 5 5 5 5 5 5 5 5 5 5 5 5 5 6 5 5 5 5 5 5 6 5 5 5 5 6 5 5 5 6 5 6 5 5 5 5 5 5 5 6 5 5 5 5 5 5 5 5 6 5 5 5 6 5 5 5 6 5 5 5 5 5 5 5 5 5 5 6 5 5 6 5 5 5 5 5 5 5 5 5 5 5 5 5 5 5 5 5 5 5 5 5 5 5 5 5 6 5 5 5 5 5 6 6 5 6 6 5 6 5 6 5 5 5 5 5 6 5 6 6 6 5 5 6 5 5 5 6 5 5 5 5 5 5 6 5 5 5 5 5 5 5 5 5 5 5 5 6 5 5 5 5 5 5 5 5 5 5 5 5 5 5 5 5 5 5 5 5 6 5 6 5 5 5 6 5 5 6 5 5 5 5 5 5 5 5 5 5 5 5 5 5 5 5 5 5 5 6 6 5 5 5 5 5 5 6 5 6 5 5 6 5 5 5 6 5 6 5 5 5 5 5 5 6 5 6 5 5 5 5 5 5 5 5 5 5 5 5 5 5 5 5 5 5 5 5 5 5 5 5 5 5 5 5 5 5 5 5 5 5 5 5 5 5 5 5 5 5 5 5 5 5 5 5 5 5 5 6 5 5 5 5 5 5 5 5 5 6 5 5 6 5 5 5 5 5 6 5 5 5 5 6 5 5 5 5 5 6 5 5 5 5 5 5 6 5 6 5 5 6 5 6 5 5 5 5 5 5 6 5 5 5 5 5 5 5 5 6 5 5 5 5 5 6 5 5 5 6 5 5 6 5 5 5 5 5 5 5 5 5 5 5 6 5 5 5 5 5 5 5 5 5 5 5 5 5 5 6 5 5 5 5 5 5 5 5 5 5 5 5 6 5 5 5 5 5 5 5 5 5 6 5 5 5 5 5 6 5 5 5 6 5 5 6 5 6 5 6 5 5 5 5 5 5 5 5 5 5 5 5 5 5 5 5 5 5 5 5 5 5 5 6 5 5 5 5 5 5 5 5 5 5 5 5 5 5 6 5 5 5 5 6 5 5 6 6 5 5 5 5 6 5 6 6 5 5 6 5 6 6 6 5 6 5 5 5 5 5 6 5 5 5 5 5 6 6 5 5 5 6 5 5 6 5 5 5 5 6 5 5 5 5 5 6 5 5 5 5 5 5 5 5 5 5 5 5 5 5 5 5 5 5 5 6 5 5 5 5 5 5 5 5 5 5 5 6 5 5 5 5 5 5 5 5 5 5 6 5 5 5 5 5 5 5 6 5 5 5 5 5 5 5 5 6 5 5 5 6 6 6 5 5 6 5 6 6 5 6 6 6 5 5 5 5 5 5 5 5 5 6 5 5 5 5 5 5 6 5 5 5 6 5 5 5 6 5 5 5 5 5 5 5 5 5 5 5 5 5 5 5 5 6 5 5 5 5 5 5 5 5 5 5 5 5 5 5 5 5 5 5 5 5 5 5 5 5 5 6 5 5 6 6 5 6 6 5 5 5 5 5 5 5 5 5 5 5 5 5 5 5 5 5 5 6 5 5 5 5 5 5 5 5 5 5 5 5 5 6 5 5 5 5 5 5 5 5 5 5 5 5 5 5 5 5 5 5 5 5 5 5 5 5 6 5 5 5 5 5 5 5 5 5 5 6 5 5 5 5 5 5 5 5 5 5 5 5 5 6 5 5 5 5 5 5 5 5 5 5 5 6 5 5 5 5 5 5 5 5 5 5 5 5 5 5 5 5 5 5 5 5 5 5 5 5 6 5 6 5 5 5 5 5 5 5 5 5 5 6 6 5 5 5 5 6 5 5 5 6 5 5 5 5 5 5 5 5 5 6 5 6 6 5 5 5 5 6 5 5 5 5 5 5 5 5 5 5 5 5 6 5 5 5 5 6 5 5 6 5 5 5 5 5 5 6 5 5 5 5 5 5 5 6 5 6 5 5 5 5 5 5 5 5 5 5 5 5 5 5 5 5 5 5 5 5 5 5 5 5 5 6 5 6 5 5 5 5 5 6 5 5 6 5 5 5 6 5 6 5 6 5 5 5 5 6 5 5 6 5 5 5 6 5 5 5 5 5 5 5 5 5 5 5 5 5 5 5 5 5 5 5 5 6 5 6 5 5 6 6 5 5 6 6 6 5 6 5 5 6 6 6 5 5 5 5 6 5 6 5 5 6 6 5 5 6 5 6 5 5 5 5 5 5 6 5 5 5 5 5 6 5 5 6 6 5 5 5 5 5 5 5 6 5 6 5 5 5 6 5 5 6 5 5 6 6 6 5 5 6 5 5 5 5 5 5 5 5 5 5 5 5 5 5 5 5 5 5 5 5 5 5 5 6 5 6 5 5 5 5 5 5 5 5 5 5 5 5 5 5 6 5 5 5 6 5 6 5 5 5 5 6 5 5 5 5 6 5 6 5 5 5 6 5 5 5 6 5 5 6 5 5 5 5 6 5 5 5 5 5 5 5 5 6 5 6 5 5 5 6 5 5 6 5 5 6 5 5 6 5 6 5 5 5 5 5 5 5 5 6 6 5 6 5 5 6 5 6 5 5 5 5 6 5 5 5 5 5 5 5 5 5 5 5 5 5 5 5 5 5 5 5 5 5 5 5 5 5 5 5 5 5 5 5 5 5 5 5 5 5 5 5 5 5 5 5 5 5 5 5 5 5 5 5 5 5 5 5 5 5 6 5 6 5 5 5 5 5 5 5 5 5 5 5 5 5 5 5 5 5 5 5 5 5 5 5 5 5 5 5 6 5 5 6 5 5 5 5 5 5 5 5 5 6 5 5 5 6 5 5 6 5 5 5 5 5 5 5 6 5 5 5 5 5 5 5 5 5 5 5 5 5 5 5 5 5 6 6 5 5 6 5 5 5 5 5 5 6 5 5 5 5 5 5 5 6 5 5 5 5 5 6 5 5 6 5 5 6 5 5 6 5 5 5 5 5 5 6 5 5 5 5 6 6 5 5 5 5 6 5 5 5 5 6 5 5 5 5 5 6 5 5 6 5 5 6 5 5 5 5 5 5 5 5 5 6 5 5 5 5 5 5 5 5 5 5 6 5 5 5 5 6 5 6 5 5 5 5 5 5 5 6 5 5 5 5 5 5 5 5 5 5 5 5 5 5 5 5 5 5 5 5 5 5 5 5 5 5 5 5 5 5 5 6 5 5 5 5 5 5 5 5 6 5 5 5 5 5 5 5 5 6 5 6 5 5 5 5 5 5 5 5 5 5 5 5 5 6 5 5 5 5 5 5 5 5 5 5 5 5 5 5 5 6 5 5 5 6 5 6 5 6 5 5 5 6 5 5 5 5 5 5 5 6 5 5 5 5 5 6 6 5 6 5 5 5 5 6 6 5 5 5 5 5 6 5 5 5 5 6 6 5 5 6 5 5 5 5 5 5 5 5 5 5 5 5 5 5 5 5 5 5 5 5 5 5 5 5 5 5 5 5 5 5 5 5 5 5 5 5 5 5 5 5 5 5 5 5 5 5 5 6 5 5 5 5 5 5 5 5 6 5 5 5 5 5 5 5 5 5 5 5 5 5 5 5 5 5 5 5 5 5 5 5 5 5 5 5 5 5 5 5 5 5 6 5 5 5 5 6 5 6 5 5 5 5 5 5 6 5 5 5 5 5 5 5 5 5 5 5 6 5 5 5 5 5 5 5 5 5 5 5 6 5 5 5 6 5 5 6 5 5 5 5 5 6 6 5 5 5 5 5 5 6 5 5 5 5 5 5 5 5 5 5 6 5 5 5 5 5 6 5 5 5 5 5 6 5 6 6 5 5 6 5 5 6 6 5 6 5 6 6 5 5 6 5 5 5 5 6 5 5 6 5 6 6 5 5 5 5 5 5 6 5 6 5 5 5 6 5 5 5 5 5 5 5 5 6 6 6 5 5 5 5 5 5 5 5 5 5 5 5 5 5 5 6 6 5 5 5 5 5 5 5 6 5 5 6 5 5 5 6 6 5 6 5 5 5 5 6 5 5 5 6 6 5 5 5 6 6 5 6 5 5 5 6 6 5 5 5 5 5 5 6 5 5 5 5 5 6 6 5 5 5 5 5 6 5 6 5 5 6 5 5 6 6 6 5 5 5 5 5 5 5 5 5 5 5 5 6 5 5 5 5 5 6 5 6 5 5 5 5 5 6 5 5 5 5 5 5 5 5 5 5 5 5 5 5 5 5 5 5 5 6 5 5 5 5 5 5 5 5 5 6 5 5 5 5 6 6 5 5 5 5 5 5 6 6 5 5 6 5 5 6 5 5 6 5 6 6 5 6 6 5 5 5 6 5 5 5 5 5 5 5 6 5 5 6 5 5 5 6 5 6 5 5 5 5 6 6 5 5 6 5 5 5 5 5 5 5 5 5 5 5 6 5 6 6 6 5 5 5 5 5 5 5 5 6 5 5 6 5 5 5 5 5 5 6 5 5 5 6 5 5 5 6 5 5 5 6 5 5 6 5 5 6 5 5 5 5 5 5 6 5 6 5 5 6 5 6 6 6 5 5 5 5 6 5 5 6 6 5 5 6 5 5 5 5 5 5 5 5 5 5 5 6 5 5 5 6 6 5 6 6 5 5 5 6 5 5 5 5 5 5 5 5 6 6 5 5 5 5 5 5 5 5 6 5 5 5 6 6 5 5 5 5 6 5 5 5 5 5 5 6 5 5 5 5 5 5 5 5 5 5 5 5 6 5 5 5 5 5 5 5 5 5 5 5 5 5 5 5 5 5 5 5 5 5 5 5 6 5 5 6 5 5 5 5 5 5 5 5 5 5 5 5 5 5 5 5 5 5 5 5 5 5 5 5 5 5 5 5 5 5 5 5 5 5 5 5 5 5 5 6 5 5 5 5 5 6 5 5 5 5 5 5 5 5 6 6 5 5 5 5 5 5 5 5 5 6 5 5 5 5 6 5 5 5 5 5 6 5 5 6 5 5 6 5 5 5 5 5 5 5 6 5 5 5 5 5 5 5 5 5 5 5 5 5 6 5 5 5 6 5 6 6 5 5 5 5 5 5 5 5 5 5 5 5 5 5 5 5 5 5 5 5 5 5 5 5 5 5 5 5 5 5 5 5 5 5 5 5 5 5 5 5 5 5 5 5 5 5 5 5 5 5 5 5 6 5 5 5 5 5 5 5 5 6 5 6 5 5 5 5 5 5 5 5 5 5 5 5 5 5 5 5 5 5 5 5 5 5 5 5 5 6 5 5 5 5 5 5 6 5 5 5 5 5 5 5 5 5 5 5 5 5 5 5 5 5 6 5 5 5 5 5 5 5 5 5 5 5 5 5 5 6 5 5 6 5 5 5 6 5 5 5 5 5 5 5 5 5 5 5 5 5 5 5 5 6 5 5 5 5 5 6 5 5 5 6 5 5 5 6 5 5 5 5 5 5 5 5 5 5 5 5 5 5 5 5 5 5 5 5 5 5 5 5 6 5 5 5 5 5 5 5 5 5 5 5 5 5 5 5 5 5 5 5 6 5 5 5 5 5 5 5 5 5 5 5 5 5 5 5 5 5 6 5 5 5 5 6 6 5 6 5 6 5 6 5 5 5 5 5 5 5 6 5 6 5 6 6 6 6 5 5 5 5 6 6 6 5 5 5 5 5 5 5 6 5 5 6 5 6 5 5 6 6 5 5 5 5 5 5 6 5 5 6 5 5 5 5 6 5 6 6 5 5 5 5 6 5 6 5 5 5 6 5 5 6 5 5 5 5 6 5 5 5 5 5 5 5 5 5 5 5 5 5 5 5 6 5 5 5 5 5 6 5 5 5 5 6 5 6 5 5 5 5 6 5 5 6 5 5 5 5 5 6 5 6 5 5 6 5 5 5 5 5 5 5 5 5 5 6 5 5 5 5 5 5 5 5 6 5 5 5 5 5 5 5 5 5 5 6 5 5 5 5 5 5 5 5 5 5 5 5 5 6 5 6 5 5 5 5 5 5 5 5 5 5 6 6 5 5 5 5 6 6 5 5 5 6 5 5 5 6 5 5 5 5 5 5 5 5 5 6 5 5 5 5 6 5 6 5 5 5 5 5 5 5 5 6 5 5 5 5 5 5 5 6 5 5 5 5 5 6 5 5 6 5 6 5 5 5 5 5 5 6 5 5 5 5 5 5 5 5 5 5 6 5 5 6 6 5 5 5 5 5 5 5 5 6 5 6 5 5 5 5 5 5 5 5 5 5 5 5 5 6 5 6 5 5 5 5 5 5 5 5 5 5 5 5 5 5 5 5 5 5 5 5 6 5 6 5 5 5 5 5 5 5 5 5 5 5 6 5 5 5 6 5 6 5 5 5 6 5 5 5 6 6 5 6 5 6 5 5 5 5 6 5 5 5 6 5 5 6 5 6 5 5 5 5 5 6 5 5 5 5 5 6 5 6 5 5 6 5 5 5 6 5 5 6 5 5 5 6 5 6 5 5 5 5 5 6 5 5 5 5 6 6 5 6 6 6 5 5 5 5 5 6 5 6 5 5 5 5 6 5 5 5 5 5 5 5 5 5 5 5 5 5 5 5 5 5 5 5 5 5 5 5 5 5 5 5 5 5 6 5 5 6 5 6 5 5 5 6 5 5 5 5 5 5 5 5 5 5 5 5 5 5 5 5 5 5 6 5 5 5 5 5 5 5 5 5 5 6 5 5 5 5 5 6 5 5 5 5 5 5 5 5 5 5 5 5 5 5 5 5 5 6 5 5 6 5 5 5 5 5 5 5 5 5 5 5 5 6 5 5 5 5 5 5 5 5 5 5 6 5 5 5 5 5 5 5 5 5 5 5 5 6 5 5 5 5 5 5 5 6 5 5 5 5 5 5 5 5 5 5 5 5 5 5 5 5 5 5 5 5 6 5 5 5 5 5 6 5 5 5 5 5 5 5 5 5 5 5 5 5 5 5 5 5 5 5 6 5 5 5 5 5 5 5 5 5 6 5 5 5 6 5 5 5 5 5 6 5 6 5 5 6 6 5 5 5 5 5 5 5 5 5 5 5 5 6 5 6 5 5 5 5 5 5 5 6 6 5 5 5 6 5 6 6 5 5 5 5 5 5 5 5 6 5 5 6 5 5 5 5 5 5 5 5 5 6 5 5 5 5 6 5 5 5 5 5 5 5 5 5 5 5 6 5 5 6 5 5 5 5 6 5 5 5 5 5 5 6 6 5 5 5 5 5 5 5 5 5 5 5 5 5 5 5 5 5 5 5 5 5 5 5 5 5 5 5 5 5 5 5 5 6 5 6 5 5 5 5 5 6 5 5 6 5 6 5 5 5 5 5 5 5 5 6 5 5 5 6 5 5 5 5 6 5 6 5 5 5 5 5 6 5 5 5 6 5 5 5 5 5 5 5 6 5 5 5 5 6 5 6 5 5 5 6 5 6 6 5 5 6 5 5 5 5 5 5 5 6 5 5 5 5 6 6 6 5 5 5 5 5 5 6 5 5 5 5 5 5 5 5 5 5 6 5 5 5 5 5 5 5 5 5 6 5 5 6 5 5 6 5 6 5 5 5 6 5 5 5 6 5 5 5 5 5 6 5 5 5 5 5 5 5 5 5 5 6 6 6 5 5 5 5 5 5 6 6 5 5 6 5 5 5 6 5 5 5 5 5 5 6 5 5 5 5 5 5 5 5 5 5 5 6 5 6 5 5 6 5 6 5 5 5 5 5 5 5 5 5 5 5 6 5 5 5 6 5 6 5 5 5 5 5 5 5 5 6 5 5 5 5 5 5 5 6 5 6 5 5 5 5 5 5 5 5 5 5 5 6 5 6 5 5 5 6 5 5 5 5 6 5 5 6 6 5 5 5 5 5 5 6 5 5 5 6 5 6 5 6 5 6 5 6 5 5 5 5 5 5 6 6 5 6 5 5 5 6 5 5 5 5 6 5 5 5 6 5 5 5 
</DataArray>
<DataArray type="Float64" Name="stress" NumberOfComponents="9" format="ascii">
0.6697624167709032 -4.7478326213276887 0 -4.7478326213276887 308.78397241732455 0 0 0 0 92.014819458816916 -1375.8239188585867 0 -1375.8239188585867 3484.6523582091741 0 0 0 0 -8.8658984891398518 31.489178437390365 0 31.489178437390365 784.31306510503782 0 0 0 0 1368.72762303066 1603.5077523180207 0 1603.5077523180207 1405.4187123644951 0 0 0 0 1.3760819199737533 2.0022396398297548 0 2.0022396398297548 16.625211020464064 0 0 0 0 173.87124511674477 -137.09067269326624 0 -137.09067269326624 242.3800989111769 0 0 0 0 1.020782392649163 6.5074093220165423 0 6.5074093220165423 27.249006369696637 0 0 0 0 4.7967887244044363 107.83578754402151 0 107.83578754402151 145.50943053462834 0 0 0 0 20.221662783951018 44.070977849486837 0 44.070977849486837 4.6461204268966867 0 0 0 0 5.5166109691249678 12.451048427368967 0 12.451048427368967 37.149765650983113 0 0 0 0 -109.95859988524353 178.04185156143649 0 178.04185156143649 38.684485512640094 0 0 0 0 -231.37889972963012 259.37928511794235 0 259.37928511794235 -5.7328741498931777 0 0 0 0 1.2057919371740458 22.096495843414278 0 22.096495843414278 132.42441358498488 0 0 0 0 -2.0312547990485363 24.845557147840736 0 24.845557147840736 127.55025099001068 0 0 0 0 29.058956403151523 40.373441764765147 0 40.373441764765147 -17.606834064886556 0 0 0 0 175.65024420652298 81.351071585020691 0 81.351071585020691 -424.10155635119736 0 0 0 0 72.933368389865791 146.55410483318701 0 146.55410483318701 -389.09753457412444 0 0 0 0 63.219911589309049 90.520220312100719 0 90.520220312100719 -293.24838156388432 0 0 0 0 188.04100611609829 69.971444226670428 0 69.971444226670428 -344.91503775882302 0 0 0 0 170.536855197362 161.93499099868313 0 161.93499099868313 -257.09242715485743 0 0 0 0 -27.260960248237097 226.13922595000622 0 226.13922595000622 -159.36633267477737 0 0 0 0 75.746310740256376 113.96036167231068 0 113.96036167231068 -84.33549951382156 0 0 0 0 71.565840820923768 56.396392884969828 0 56.396392884969828 -329.53149598473829 0 0 0 0 91.974350116847859 -45.685849745510495 0 -45.685849745510495 -87.589243147689558 0 0 0 0 -147.40280772092609 198.1664626678612 0 198.1664626678612 953.85755431023426 0 0 0 0 -67.685883917135882 -12.9781542665296 0 -12.9781542665296 127.27755627071019 0 0 0 0 268.16072466182385 46.530165868767654 0 46.530165868767654 124.99119983843821 0 0 0 0 119.96804165369576 303.14533410268632 0 303.14533410268632 -203.26664664506097 0 0 0 0 28.056109551665941 -43.357363694813102 0 -43.357363694813102 557.18033944489434 0 0 0 0 -191.13414005558298 -71.010018419328844 0 -71.010018419328844 147.66068289024406 0 0 0 0 186.8627513376025 423.88106348608562 0 423.88106348608562 -2.8768093939579558 0 0 0 0 3.7137357855630651 -1.0632823796690332 0 -1.0632823796690332 -1.3450782866078583 0 0 0 0 59.58274331521352 50.585438207315747 0 50.585438207315747 210.86184255200351 0 0 0 0 14.646377319824808 526.14927187944522 0 526.14927187944522 912.314145757191 0 0 0 0 -6.2475920851789297 -1.3395080987275776 0 -1.3395080987275776 8.274459260057526 0 0 0 0 441.68984970860015 316.50542382918502 0 316.50542382918502 147.78445563190326 0 0 0 0 -145.26380964111416 582.17072549423028 0 582.17072549423028 1187.8585337161494 0 0 0 0 -187.26963555900056 9.004193321467028 0 9.004193321467028 1141.8573613266799 0 0 0 0 19.023790689286812 3.5828212411724962 0 3.5828212411724962 354.81303034376469 0 0 0 0 259.86586834592703 74.278948193066753 0 74.278948193066753 314.23115407767909 0 0 0 0 -360.00498572410783 -68.605329821148189 0 -68.605329821148189 529.6821720834123 0 0 0 0 267.38048357227467 114.61514564744721 0 114.61514564744721 -331.80566535048274 0 0 0 0 299.49469281295262 794.92325934226392 0 794.92325934226392 1289.6960228385287 0 0 0 0 -535.85324432667528 1019.9654740673868 0 1019.9654740673868 3493.2963792734663 0 0 0 0 -548.59710652090143 264.1903056356241 0 264.1903056356241 3500.8389671613986 0 0 0 0 -411.44416182332202 409.45691875345074 0 409.45691875345074 2332.6142748817074 0 0 0 0 -538.83290472650617 668.01316414457688 0 668.01316414457688 2397.2943089219189 0 0 0 0 342.85568155875188 75.423150748916669 0 75.423150748916669 2864.4471940530339 0 0 0 0 -285.19274505584593 -85.503359208105394 0 -85.503359208105394 2861.6530413545115 0 0 0 0 -164.89776303644419 122.09847594844177 0 122.09847594844177 3523.1576759486197 0 0 0 0 -39.449505585262962 -295.27964809466357 0 -295.27964809466357 3328.8284028212656 0 0 0 0 -406.98454349359179 -421.48506523541437 0 -421.48506523541437 3498.9488831077833 0 0 0 0 -119.99339970309933 -157.79900405881926 0 -157.79900405881926 3118.7540461098979 0 0 0 0 72.10408619841472 -407.50477722393043 0 -407.50477722393043 1921.2957913885475 0 0 0 0 34.119960091963435 -243.64112686173758 0 -243.64112686173758 2857.7586053262348 0 0 0 0 -182.36759990333394 -153.60752393933944 0 -153.60752393933944 3120.1296923565133 0 0 0 0 -101.30398872273008 -1.8023446469305782 0 -1.8023446469305782 2764.4283531940891 0 0 0 0 4.8909924580122874 14.507330196398811 0 14.507330196398811 16.971313003255943 0 0 0 0 42.174727543437577 24.693534410224743 0 24.693534410224743 23.418240461954568 0 0 0 0 238.85641088645346 250.80551528406795 0 250.80551528406795 1871.3703572402301 0 0 0 0 -76.374229440996487 572.07190920700668 0 572.07190920700668 2842.269852125788 0 0 0 0 -62.215837165167613 115.87451751990011 0 115.87451751990011 37.958982482407009 0 0 0 0 48.121772935098306 -17.441417847119737 0 -17.441417847119737 102.2415526714758 0 0 0 0 25.094640066846011 -18.965881527523379 0 -18.965881527523379 108.52265021577477 0 0 0 0 89.685345805385481 425.74133854128013 0 425.74133854128013 2197.405896081611 0 0 0 0 -60.246904857529444 126.07207560238021 0 126.07207560238021 45.523749098589178 0 0 0 0 -62.859458117367467 119.1752750868327 0 119.1752750868327 46.919281566282734 0 0 0 0 -63.470834787876811 124.09372150100535 0 124.09372150100535 55.81532264847192 0 0 0 0 -60.027462753583677 127.53218613250647 0 127.53218613250647 49.506174247770105 0 0 0 0 -63.824323132328573 125.51377223266172 0 125.51377223266172 50.240938913855643 0 0 0 0 -68.872800976963845 132.29330064448732 0 132.29330064448732 64.635329978365917 0 0 0 0 -60.388416533489362 121.31739834749897 0 121.31739834749897 40.305401873294613 0 0 0 0 -63.432789469272393 118.912594261099 0 118.912594261099 50.023169386084192 0 0 0 0 -64.58839549694676 114.03366163777537 0 114.03366163777537 41.127250565306895 0 0 0 0 -0.85153672786161705 5.5265458783568704 0 5.5265458783568704 22.269542035062116 0 0 0 0 -62.196011790261764 -57.491892129910411 0 -57.491892129910411 148.81723685788165 0 0 0 0 93.096147605663646 -6.3827294438960962 0 -6.3827294438960962 120.93565547288017 0 0 0 0 29.753816964777798 -20.968715844443068 0 -20.968715844443068 118.1263040183112 0 0 0 0 14.157220354829557 18.061485436964986 0 18.061485436964986 62.800514508117089 0 0 0 0 65.455402314883486 -1148.3736210905045 0 -1148.3736210905045 728.3958120331954 0 0 0 0 -96.879545493678677 519.32853753375821 0 519.32853753375821 3218.8847520365161 0 0 0 0 0.71231532298650657 3.1417457545009313 0 3.1417457545009313 10.511388443781755 0 0 0 0 478.94826187720031 -1126.2607690013247 0 -1126.2607690013247 3289.259912981197 0 0 0 0 30.599392078003838 15.179248852390799 0 15.179248852390799 6.0648991614257426 0 0 0 0 23.779479864537656 -933.21193129903259 0 -933.21193129903259 3499.8683199171719 0 0 0 0 1.9446296665776357 8.7728526310673942 0 8.7728526310673942 9.2529564378092175 0 0 0 0 382.07936028321922 224.55188493823516 0 224.55188493823516 494.86981928281602 0 0 0 0 36.299872219571085 -899.32173741195584 0 -899.32173741195584 3236.248613857344 0 0 0 0 12.378191574175617 -95.876372892846121 0 -95.876372892846121 252.95973175652034 0 0 0 0 -97.753942452503878 -967.02656661618676 0 -967.02656661618676 3216.22978238828 0 0 0 0 -143.69437506920784 -714.4620344908617 0 -714.4620344908617 3279.2132832434036 0 0 0 0 -132.53480562170466 -688.35786041001847 0 -688.35786041001847 2929.9780390196483 0 0 0 0 -85.885953838850895 -942.24912814400159 0 -942.24912814400159 2890.1232924509986 0 0 0 0 -69.601043983646377 99.378235272903112 0 99.378235272903112 21.147334945442708 0 0 0 0 -55.867753784805245 135.48448295901471 0 135.48448295901471 23.327053827146301 0 0 0 0 -59.526495769978283 127.92084453658754 0 127.92084453658754 34.716843126981985 0 0 0 0 -62.944854039327765 141.3660230213427 0 141.3660230213427 53.242880743171554 0 0 0 0 -69.210847086505964 133.47396135851159 0 133.47396135851159 61.369122750940733 0 0 0 0 -66.686132753289712 159.92383149461239 0 159.92383149461239 65.261628427368123 0 0 0 0 -61.339112214322085 137.21141633635125 0 137.21141633635125 35.697292529541301 0 0 0 0 -64.965802261860517 136.64725880842889 0 136.64725880842889 36.244407042759121 0 0 0 0 -54.083547741702205 136.26916243032611 0 136.26916243032611 -17.261980710347416 0 0 0 0 -69.751347088094917 136.34692460011865 0 136.34692460011865 15.758284836803796 0 0 0 0 -48.811763973033521 160.59024137517554 0 160.59024137517554 20.718502210096631 0 0 0 0 -54.224588273915288 155.73882430177764 0 155.73882430177764 46.798352346901083 0 0 0 0 -0.20825710593271651 171.46110745074111 0 171.46110745074111 -9.9558208462258335 0 0 0 0 -26.142351340149617 120.9085849412586 0 120.9085849412586 -86.659655226801988 0 0 0 0 44.708718013520411 55.394165963603882 0 55.394165963603882 -277.34517275441613 0 0 0 0 -26.697293318407901 96.147078036825405 0 96.147078036825405 -82.537809521221789 0 0 0 0 -92.466327216141508 64.533451986106229 0 64.533451986106229 -31.578282848215167 0 0 0 0 -59.12062633845926 20.357324250522652 0 20.357324250522652 -176.28765014343662 0 0 0 0 117.69998580432002 166.89761537896993 0 166.89761537896993 -302.33170520834574 0 0 0 0 130.8898887062478 183.01731494287014 0 183.01731494287014 -265.05597546990612 0 0 0 0 59.418795690347906 122.68882471643155 0 122.68882471643155 -239.60480859203381 0 0 0 0 103.64718910418742 201.84396219019254 0 201.84396219019254 -118.71276116621448 0 0 0 0 12.775283037874033 151.91461727474234 0 151.91461727474234 -105.60223700506322 0 0 0 0 47.62714978821532 212.23237258650624 0 212.23237258650624 -1.9196964846778428 0 0 0 0 194.38369752736253 278.96905854462238 0 278.96905854462238 -140.03691603390325 0 0 0 0 89.927731503479663 180.90232745724643 0 180.90232745724643 -264.65291442450689 0 0 0 0 235.33978840197688 170.12989328834556 0 170.12989328834556 -263.47999083780451 0 0 0 0 -95.17289184733545 -96.12105258756128 0 -96.12105258756128 682.65307075658347 0 0 0 0 56.413808444668575 471.2018509274676 0 471.2018509274676 548.27234730831697 0 0 0 0 -29.107720593806334 263.07949295494473 0 263.07949295494473 199.86666281236103 0 0 0 0 -11.264924278788385 239.12253871224675 0 239.12253871224675 14.429227634918789 0 0 0 0 -141.97175243654419 134.19767688869615 0 134.19767688869615 371.55331534867582 0 0 0 0 -127.64948855850162 4.3838303295706282 0 4.3838303295706282 284.3998765198121 0 0 0 0 -144.64310786259011 110.03454678329672 0 110.03454678329672 172.33422051699017 0 0 0 0 -54.963459644372051 174.45968475526024 0 174.45968475526024 48.729086315352106 0 0 0 0 -67.416976228705607 148.18131363265275 0 148.18131363265275 60.217192899959628 0 0 0 0 -58.022932866937026 192.63398230880739 0 192.63398230880739 113.39846856865915 0 0 0 0 -106.53701669616567 144.64198082045186 0 144.64198082045186 195.90006606503448 0 0 0 0 -108.92667547817109 130.50439974528854 0 130.50439974528854 121.55023704317864 0 0 0 0 -92.415685040061362 131.20104691351298 0 131.20104691351298 114.21001300326316 0 0 0 0 -80.77562161340029 146.04698654887034 0 146.04698654887034 109.60715157043887 0 0 0 0 -80.742490205026115 143.88773787926766 0 143.88773787926766 77.452724257484078 0 0 0 0 -82.462605427368544 125.90943894855445 0 125.90943894855445 97.488197300786851 0 0 0 0 -89.371058449600241 125.79330468503758 0 125.79330468503758 105.49061582575087 0 0 0 0 -92.68536341584695 117.14152918421314 0 117.14152918421314 110.81904565099103 0 0 0 0 -102.46161176644819 120.02865071000997 0 120.02865071000997 137.0468370069284 0 0 0 0 -91.944469894104259 113.82435945771431 0 113.82435945771431 124.61395789752714 0 0 0 0 -104.71517423363912 95.974452797439881 0 95.974452797439881 156.24672340101097 0 0 0 0 -100.69744292828545 92.356724056240637 0 92.356724056240637 119.66307193215471 0 0 0 0 -122.15608479952061 79.00880115765176 0 79.00880115765176 208.48202199437947 0 0 0 0 -120.42949181089352 71.378696119514643 0 71.378696119514643 135.24192482717626 0 0 0 0 -97.409760860144161 58.999317470617825 0 58.999317470617825 124.73168181534857 0 0 0 0 -53.485573448902869 -46.991506096645026 0 -46.991506096645026 -15.950940949245705 0 0 0 0 -13.824681765596189 13.44604948480459 0 13.44604948480459 15.762080800728199 0 0 0 0 -108.91584417164268 -205.0898619257423 0 -205.0898619257423 52.619961458131002 0 0 0 0 -99.332220712989511 10.885877172680921 0 10.885877172680921 88.594710041652434 0 0 0 0 -90.657545613779803 40.547652679029852 0 40.547652679029852 128.63287714749458 0 0 0 0 -99.371640399162999 13.616924156671189 0 13.616924156671189 125.74204961242503 0 0 0 0 -71.68746562465094 19.5375832732243 0 19.5375832732243 42.299122681026347 0 0 0 0 -116.67655909020687 -99.39458948977699 0 -99.39458948977699 65.157976100599626 0 0 0 0 -163.17343095676733 -100.61015286584006 0 -100.61015286584006 206.39927892736159 0 0 0 0 -134.57449864511 -0.2602261062420439 0 -0.2602261062420439 161.25255999901128 0 0 0 0 -121.74024666672085 31.316120585161116 0 31.316120585161116 208.54605765285669 0 0 0 0 9.759518604960931 117.82438873637329 0 117.82438873637329 65.676732416759478 0 0 0 0 -150.7017475904313 -59.75046502800069 0 -59.75046502800069 340.25861181669461 0 0 0 0 -118.61372415476762 14.768314000270038 0 14.768314000270038 281.91866529722756 0 0 0 0 -193.81245526491512 -201.45868851838895 0 -201.45868851838895 238.07589519446265 0 0 0 0 40.77334068163259 115.44064536012593 0 115.44064536012593 248.4867242669643 0 0 0 0 0.49184571704414903 -0.50601720162376296 0 -0.50601720162376296 -0.023553825917417726 0 0 0 0 -167.68884572550633 -32.745629124183324 0 -32.745629124183324 659.79807449065265 0 0 0 0 43.671385782094376 73.017386622712365 0 73.017386622712365 183.48830900792382 0 0 0 0 5.4795997805678098 28.499547269035247 0 28.499547269035247 181.85579524362402 0 0 0 0 -68.452005825405649 108.95700725256756 0 108.95700725256756 51.098062282515457 0 0 0 0 -56.385125825705472 90.458316484015086 0 90.458316484015086 73.965413957834244 0 0 0 0 -24.666628728804305 13.70632372197084 0 13.70632372197084 88.988525165388495 0 0 0 0 -68.489321848232066 102.23758147467743 0 102.23758147467743 68.810587972926442 0 0 0 0 -67.573869540545275 109.53315874983673 0 109.53315874983673 55.82277061388595 0 0 0 0 -65.024356369802263 114.39062478806591 0 114.39062478806591 48.942948496558529 0 0 0 0 -69.176154826374841 105.87620404642075 0 105.87620404642075 66.154023347247858 0 0 0 0 -81.568794289938523 125.9752264376657 0 125.9752264376657 88.36451269662939 0 0 0 0 -72.880097814035253 121.17746376589639 0 121.17746376589639 71.862463789773756 0 0 0 0 -71.784261152512045 118.93495738496131 0 118.93495738496131 72.296360170585103 0 0 0 0 -66.898074650758645 117.12389538050047 0 117.12389538050047 58.337633442977676 0 0 0 0 -66.129321573374909 115.75497428429662 0 115.75497428429662 60.670631043962203 0 0 0 0 -66.469375533502898 106.18985279032495 0 106.18985279032495 65.605044158277451 0 0 0 0 -69.60280410634914 98.315346321860488 0 98.315346321860488 86.590993711783085 0 0 0 0 -74.007603896097862 108.11577567268978 0 108.11577567268978 76.045577482669614 0 0 0 0 -80.864608059884631 107.21438622844289 0 107.21438622844289 95.259154701372609 0 0 0 0 -75.050226722232765 109.25325109684491 0 109.25325109684491 78.231337100049132 0 0 0 0 -85.160169507871615 105.44602557926555 0 105.44602557926555 94.54647583476617 0 0 0 0 -88.401983416959411 109.22534785297466 0 109.22534785297466 98.245323311566608 0 0 0 0 -84.925579077389557 110.68392740673153 0 110.68392740673153 98.842642145667924 0 0 0 0 -95.113881261018832 85.444527465195279 0 85.444527465195279 106.77221069840016 0 0 0 0 -80.480377443658654 75.326213240710786 0 75.326213240710786 111.5082644281938 0 0 0 0 -78.646680533012841 91.229439944087062 0 91.229439944087062 105.32137381134089 0 0 0 0 -63.291115813233773 85.865505617010058 0 85.865505617010058 92.687012896087253 0 0 0 0 -79.62474974032375 96.107272084220313 0 96.107272084220313 86.271836913292645 0 0 0 0 -80.777123543564812 78.935776845552027 0 78.935776845552027 92.335229083517333 0 0 0 0 -69.757184228546976 69.422988769365475 0 69.422988769365475 95.634702291048598 0 0 0 0 -71.837804455848527 56.452728057178319 0 56.452728057178319 106.43833872638061 0 0 0 0 -94.369110932428157 66.326685060223099 0 66.326685060223099 105.67954104050295 0 0 0 0 7.0001478218006241 12.322877323267846 0 12.322877323267846 31.715676435237569 0 0 0 0 -42.018182679450547 61.374746392932138 0 61.374746392932138 70.685825659456896 0 0 0 0 -62.914102987007936 39.364659021259286 0 39.364659021259286 85.638401788892224 0 0 0 0 -87.930451031355915 38.108045842345746 0 38.108045842345746 87.220584686321672 0 0 0 0 -50.277306675139698 35.419600697729038 0 35.419600697729038 31.179890689949389 0 0 0 0 -47.43209434651726 44.713848354098445 0 44.713848354098445 47.581386587815359 0 0 0 0 0.6270782283390659 -0.57898427869633906 0 -0.57898427869633906 -0.50044718224805251 0 0 0 0 -23.295973832700838 103.06996992170025 0 103.06996992170025 -175.94159322227961 0 0 0 0 40.154857435414442 104.13855607624282 0 104.13855607624282 230.35309499235882 0 0 0 0 33.01971226946533 40.972587927868901 0 40.972587927868901 -1.9671714158005464 0 0 0 0 171.10590836463234 -225.36565760173835 0 -225.36565760173835 -162.97197943183255 0 0 0 0 34.438837906349363 -176.64298445530585 0 -176.64298445530585 -229.89705585322372 0 0 0 0 -32.303344580916018 -156.59223351055698 0 -156.59223351055698 -185.64452950786654 0 0 0 0 -181.51781711980766 13.257403931303998 0 13.257403931303998 -258.34573654319684 0 0 0 0 196.23187993836109 -48.258025416682358 0 -48.258025416682358 -255.39551149680392 0 0 0 0 17.530680704208862 -161.16343784519995 0 -161.16343784519995 -242.46941321578925 0 0 0 0 270.95657176408804 -132.89729531666308 0 -132.89729531666308 -254.27744994638488 0 0 0 0 152.84752951934661 -48.061144020830397 0 -48.061144020830397 -183.21950102981646 0 0 0 0 526.63421531894983 -74.348335276547004 0 -74.348335276547004 -181.55758948648872 0 0 0 0 73.436814758968467 -158.57875705938568 0 -158.57875705938568 -57.541581913217669 0 0 0 0 -328.94785623343978 -342.53010534775603 0 -342.53010534775603 -66.873448256439588 0 0 0 0 18.026589191760536 -330.98174341519098 0 -330.98174341519098 -273.03001288580708 0 0 0 0 99.613397212846394 -155.62093120309146 0 -155.62093120309146 -321.83474237967312 0 0 0 0 -10.171511226593793 -147.11524436260515 0 -147.11524436260515 -101.88244068481436 0 0 0 0 -43.243643152680306 -256.12068145091325 0 -256.12068145091325 399.60455921506218 0 0 0 0 388.65800725549343 -403.70300023906384 0 -403.70300023906384 622.17308013531874 0 0 0 0 232.41068711729167 -271.55589716032409 0 -271.55589716032409 20.628254037532315 0 0 0 0 209.00247492450944 -65.355318029360205 0 -65.355318029360205 132.03796685922862 0 0 0 0 146.62119949153475 46.680051718300092 0 46.680051718300092 -2.0792581169516779 0 0 0 0 -152.87174144248911 281.71169725380241 0 281.71169725380241 257.34129200734606 0 0 0 0 -48.524283328073579 15.537534300736297 0 15.537534300736297 205.19046438203441 0 0 0 0 -33.747768945464827 -25.369367047754849 0 -25.369367047754849 41.318869898925186 0 0 0 0 4.1658065912438573 -2.3073486536198828 0 -2.3073486536198828 32.702922358862537 0 0 0 0 -3.4287457372961754 2.2627128685360276 0 2.2627128685360276 8.4859813805067574 0 0 0 0 -498.78442797120442 -297.49561956050093 0 -297.49561956050093 175.37064592116803 0 0 0 0 0.067979667408742728 -6.131551560734394 0 -6.131551560734394 3.6716674257680211 0 0 0 0 -344.48390715645291 -13.985069653623214 0 -13.985069653623214 243.26378755111364 0 0 0 0 -2.2584910746231692 -9.569675534518197 0 -9.569675534518197 23.702998481704469 0 0 0 0 0.88696135263853648 -76.103582360228756 0 -76.103582360228756 -37.229268792609219 0 0 0 0 -178.88072778036621 -60.037720781430835 0 -60.037720781430835 29.894803173061518 0 0 0 0 -140.13828106884648 -46.155633059926913 0 -46.155633059926913 7.1972199694719166 0 0 0 0 -84.792829492340388 34.417663615109632 0 34.417663615109632 75.393323167569179 0 0 0 0 -222.80964076132659 -46.206541643448872 0 -46.206541643448872 44.053181418072199 0 0 0 0 -1.2965708596630314 0.64290122786743353 0 0.64290122786743353 4.8216498263198275 0 0 0 0 13.402766946431257 68.162734552865004 0 68.162734552865004 -25.693983508888778 0 0 0 0 -177.99172731845297 -37.813058116294769 0 -37.813058116294769 3.8230180390237365 0 0 0 0 -112.7316270741012 336.29051860197069 0 336.29051860197069 402.86980232420319 0 0 0 0 -142.73763584774133 -43.279726864042459 0 -43.279726864042459 -2.5558821950180572 0 0 0 0 -232.63223458312996 118.25574347902329 0 118.25574347902329 619.76071561629942 0 0 0 0 -225.17002919719744 193.52140572895587 0 193.52140572895587 585.05296893439299 0 0 0 0 -205.73669894047907 272.03799821368375 0 272.03799821368375 1116.1704723256553 0 0 0 0 -310.9010781214929 341.60245544937061 0 341.60245544937061 976.26380912872264 0 0 0 0 -223.15957799121679 213.20360996120871 0 213.20360996120871 1015.9536732332926 0 0 0 0 7.9005939815617623 -152.91947609142841 0 -152.91947609142841 592.41772154575301 0 0 0 0 -110.62907677269368 420.76121772076476 0 420.76121772076476 979.62076154864917 0 0 0 0 -27.960347236486996 104.34873890323797 0 104.34873890323797 1083.542569735022 0 0 0 0 132.37972663379787 362.8331907413085 0 362.8331907413085 1210.3035598001588 0 0 0 0 77.128689446402859 -247.17035463633874 0 -247.17035463633874 1079.9937823384753 0 0 0 0 230.80918409537844 -114.39569793208284 0 -114.39569793208284 698.94374392695318 0 0 0 0 8.4432173527729901 8.1279027168202447 0 8.1279027168202447 482.33304190176568 0 0 0 0 -96.704550727257811 -16.123022924286488 0 -16.123022924286488 224.71120839198556 0 0 0 0 -126.170537248031 -91.773118939770939 0 -91.773118939770939 715.28745226004685 0 0 0 0 -245.47284839512213 247.87785360683483 0 247.87785360683483 975.27377030185744 0 0 0 0 -225.54286805138327 254.21841323905392 0 254.21841323905392 964.28256435230287 0 0 0 0 -291.1515911355109 299.43241520089396 0 299.43241520089396 1084.5515254489437 0 0 0 0 117.48032329391754 644.36070992676105 0 644.36070992676105 1170.2814027987588 0 0 0 0 -228.16545347315201 304.01855693256846 0 304.01855693256846 1652.8405740702874 0 0 0 0 456.0915535619115 1079.3252607332688 0 1079.3252607332688 2342.2985773173632 0 0 0 0 -0.63840737623756771 -5.9522585996801354 0 -5.9522585996801354 73.058152786557912 0 0 0 0 1748.9931235680597 -449.25248331611147 0 -449.25248331611147 343.61103781095881 0 0 0 0 676.45369288519487 -877.96656324793548 0 -877.96656324793548 2001.901974317283 0 0 0 0 1637.4114994561041 584.27118369342861 0 584.27118369342861 115.70602979333489 0 0 0 0 357.78421386481659 1062.0989634365978 0 1062.0989634365978 1223.544065460228 0 0 0 0 -184.71453730828216 -971.13810274655043 0 -971.13810274655043 2210.7327758937208 0 0 0 0 -2032.0332311211596 101.10496580208201 0 101.10496580208201 1175.6731369762856 0 0 0 0 -16.334171940958903 10.515687657885792 0 10.515687657885792 123.95309065838228 0 0 0 0 -507.28511569477359 -4.8870470396395831 0 -4.8870470396395831 -271.97356817615218 0 0 0 0 -1.7797938653214558 7.1906585775609742 0 7.1906585775609742 115.63421728887255 0 0 0 0 -516.67723678666971 167.13543345881044 0 167.13543345881044 -527.62699299385713 0 0 0 0 -528.26335438412934 255.00375709153741 0 255.00375709153741 691.52464690439228 0 0 0 0 -1157.9243159742427 806.98883316896172 0 806.98883316896172 270.45670288571637 0 0 0 0 4.520724735085615 17.702420223231911 0 17.702420223231911 125.87547653040383 0 0 0 0 -728.19747327426421 328.16400720760066 0 328.16400720760066 80.005960445356322 0 0 0 0 -8.5604257688095906 8.6095483070566843 0 8.6095483070566843 124.12835904230451 0 0 0 0 0.29605205071065499 13.525910381980097 0 13.525910381980097 129.96699979001949 0 0 0 0 -60.967838650110025 308.39612173749629 0 308.39612173749629 -122.07932892294775 0 0 0 0 -16.716206699609756 298.37379445507395 0 298.37379445507395 -130.27753457540894 0 0 0 0 -20.948476178415149 313.56380055965565 0 313.56380055965565 -149.28492319303041 0 0 0 0 221.10061170020981 434.48759246754707 0 434.48759246754707 -213.0450035087415 0 0 0 0 194.0306851378009 175.78831902950333 0 175.78831902950333 -268.5220973831274 0 0 0 0 155.91721992936073 293.99196069842583 0 293.99196069842583 -162.24418845074979 0 0 0 0 212.36136645814258 193.78570309300267 0 193.78570309300267 -250.94509094602108 0 0 0 0 358.51488745169627 36.095318287108967 0 36.095318287108967 -283.71379839403744 0 0 0 0 537.03276360160453 106.41673154300952 0 106.41673154300952 -229.3316927144333 0 0 0 0 830.32846369012805 -91.006584026959899 0 -91.006584026959899 -38.73014938167762 0 0 0 0 598.86749525342202 83.615744921025907 0 83.615744921025907 118.83486691907456 0 0 0 0 354.68805925854394 97.936372677984764 0 97.936372677984764 -107.48237273115956 0 0 0 0 266.57421070489272 379.56081484772585 0 379.56081484772585 208.69618661048298 0 0 0 0 283.05866045823313 659.59515338091296 0 659.59515338091296 -281.12622735164041 0 0 0 0 739.22853608954074 307.81520716024716 0 307.81520716024716 -220.6178212203813 0 0 0 0 -240.04875916782748 -750.88425520734017 0 -750.88425520734017 238.08444205623528 0 0 0 0 -601.10871575355145 -14.270501811675786 0 -14.270501811675786 -131.90017308453571 0 0 0 0 -248.93957126574838 -403.12663580786466 0 -403.12663580786466 195.52133572436287 0 0 0 0 204.58139654718434 93.943735808898055 0 93.943735808898055 78.502153456356609 0 0 0 0 -3.1457725436785102 -0.34421324312944179 0 -0.34421324312944179 31.910356823890993 0 0 0 0 -1010.2580195343342 -184.69305175903719 0 -184.69305175903719 342.22167616609659 0 0 0 0 -58.013617862649426 346.87991312140002 0 346.87991312140002 343.10949369134323 0 0 0 0 -821.35367955061474 -17.301755412554485 0 -17.301755412554485 -51.834250710220658 0 0 0 0 -507.67449533150057 210.91882032715512 0 210.91882032715512 -195.85341644773143 0 0 0 0 -6.7658688809392258 -3.770614282470973 0 -3.770614282470973 8.5911778215615868 0 0 0 0 -819.28474618381483 28.259874030038191 0 28.259874030038191 567.48402915429688 0 0 0 0 -873.53341622416156 -17.611844679094247 0 -17.611844679094247 508.90861963696807 0 0 0 0 -137.37072314225202 -26.692268683142174 0 -26.692268683142174 172.12885492844725 0 0 0 0 103.59612118407097 -659.98091555139035 0 -659.98091555139035 3495.3465007394552 0 0 0 0 -174.44487890958757 1623.9975281420084 0 1623.9975281420084 71.772337986549246 0 0 0 0 0.68616292685282565 4.0816736917203684 0 4.0816736917203684 9.9466468636543084 0 0 0 0 40.32644705736039 -143.38468303311492 0 -143.38468303311492 397.63958043105958 0 0 0 0 -147.18924225834485 846.8203548494057 0 846.8203548494057 3492.7416861181919 0 0 0 0 -2.0491319340495684 6.5031201900309981 0 6.5031201900309981 24.950368715738307 0 0 0 0 -2.2851044585058387 4.887001261705997 0 4.887001261705997 14.216313993772985 0 0 0 0 -1174.8294420619666 536.71946708922042 0 536.71946708922042 129.35598844793276 0 0 0 0 -1067.3930656522366 -56.827749285494065 0 -56.827749285494065 226.09361930380692 0 0 0 0 -7.8442434829319012 20.094063939104672 0 20.094063939104672 397.63958043111779 0 0 0 0 -176.59510939997426 321.64460433980275 0 321.64460433980275 12.238103533753019 0 0 0 0 -187.91892606468105 388.23192882424337 0 388.23192882424337 168.7527719920181 0 0 0 0 -262.60691770950552 -53.790201281380178 0 -53.790201281380178 1077.484396449232 0 0 0 0 139.14348813209727 340.81184219941497 0 340.81184219941497 17.507579398981761 0 0 0 0 -938.36797701433375 283.32330065401948 0 283.32330065401948 324.75846792233642 0 0 0 0 -276.70856286870116 159.34200844131556 0 159.34200844131556 -464.58314005468856 0 0 0 0 -1191.0957715808609 -567.7927492914605 0 -567.7927492914605 3494.4968821411167 0 0 0 0 -1.1807098613650826 -0.46988263825700471 0 -0.46988263825700471 7.2118703311149943 0 0 0 0 -1033.2072950484983 -1072.4969302804166 0 -1072.4969302804166 1311.037165111964 0 0 0 0 -307.40038420047415 1239.5795696770001 0 1239.5795696770001 3492.7489051006705 0 0 0 0 -488.85960398412351 153.07061952174263 0 153.07061952174263 1399.3499230897578 0 0 0 0 -512.33139499883066 369.35449090581324 0 369.35449090581324 1841.0796295700129 0 0 0 0 521.37726661586271 847.29477101237717 0 847.29477101237717 890.3740662746568 0 0 0 0 144.9627063978312 272.87507339042349 0 272.87507339042349 420.47275066977454 0 0 0 0 364.84155280985385 171.64855089949401 0 171.64855089949401 145.50014004897093 0 0 0 0 368.4776362170569 348.43355632201565 0 348.43355632201565 79.902968265465461 0 0 0 0 278.00543825214697 271.27007637840143 0 271.27007637840143 79.717055033732322 0 0 0 0 157.06488251124597 383.46226750925416 0 383.46226750925416 80.257384544862816 0 0 0 0 90.431900418292457 261.60266298242277 0 261.60266298242277 81.590390942292288 0 0 0 0 131.38669767398773 323.77096058363895 0 323.77096058363895 145.46019044044078 0 0 0 0 81.083003470357994 359.26665957913065 0 359.26665957913065 120.81764745268447 0 0 0 0 66.17327820983445 410.25520305613099 0 410.25520305613099 69.85101276297064 0 0 0 0 -558.24401086411854 166.9160025215424 0 166.9160025215424 117.2457805837621 0 0 0 0 -57.613907258637028 278.82335255671933 0 278.82335255671933 105.62792529000308 0 0 0 0 -111.69861472577804 413.05772762880588 0 413.05772762880588 203.87077894713002 0 0 0 0 -54.809262811596682 209.40840262702113 0 209.40840262702113 469.27312154792889 0 0 0 0 5.50090117311737 305.90371230285018 0 305.90371230285018 291.25035853604641 0 0 0 0 -50.974313257252099 298.64378401432384 0 298.64378401432384 304.2211168431968 0 0 0 0 19.190883358093515 186.49636585781991 0 186.49636585781991 405.45971117611771 0 0 0 0 16.950802484454698 274.09110002663147 0 274.09110002663147 259.58527263061842 0 0 0 0 11.096405794911846 329.94631618240237 0 329.94631618240237 161.76558777602986 0 0 0 0 -5.3579465194620752 218.85470057424754 0 218.85470057424754 177.44204124024327 0 0 0 0 -43.608378572344691 255.39500207432502 0 255.39500207432502 167.71840226558561 0 0 0 0 -162.41153591504599 222.49461387677729 0 222.49461387677729 268.30066050724417 0 0 0 0 -175.83885717625731 240.27239248530532 0 240.27239248530532 285.3809835169086 0 0 0 0 -122.22873284211391 69.813165882929752 0 69.813165882929752 164.73448359067697 0 0 0 0 -119.11900802500168 132.93713502476749 0 132.93713502476749 309.55858680553501 0 0 0 0 -71.797678152364369 72.501529146866233 0 72.501529146866233 141.65435202255321 0 0 0 0 102.13692644572188 221.60575143213646 0 221.60575143213646 175.03943206103941 0 0 0 0 -34.18810848737985 -193.28244545749476 0 -193.28244545749476 -15.012182182283141 0 0 0 0 216.06564502346737 251.99377645929781 0 251.99377645929781 103.4288167336199 0 0 0 0 241.72080778403298 73.48707990266621 0 73.48707990266621 80.501545306891785 0 0 0 0 346.05857360505138 146.21995158098434 0 146.21995158098434 118.30002690522815 0 0 0 0 289.18569845116281 216.04061105561414 0 216.04061105561414 283.46525209574611 0 0 0 0 661.24780959396594 677.35438211551173 0 677.35438211551173 -258.29927739410778 0 0 0 0 -655.11117916295098 163.54747862071963 0 163.54747862071963 3494.7356618634503 0 0 0 0 541.87781184564915 405.6586105279298 0 405.6586105279298 125.64102147327503 0 0 0 0 831.83755092225499 1301.1733944665175 0 1301.1733944665175 1231.7215551217305 0 0 0 0 6.1693959073305571 6.1600444336986868 0 6.1600444336986868 7.2682154777667449 0 0 0 0 204.56597870094515 1663.6067990601005 0 1663.6067990601005 3494.2894830567093 0 0 0 0 -792.58891765992007 -500.17725773255734 0 -500.17725773255734 554.10618561702722 0 0 0 0 -375.67013686341147 212.07549254043442 0 212.07549254043442 148.66639537629089 0 0 0 0 -327.74145003232888 222.01402328161203 0 222.01402328161203 -210.47701179100841 0 0 0 0 11.404109961947084 11.653903628159924 0 11.653903628159924 9.5249889034014643 0 0 0 0 581.612260521503 1313.3758788738705 0 1313.3758788738705 -593.50213974382496 0 0 0 0 -80.117215943072551 -196.62958335649819 0 -196.62958335649819 -376.04593342865701 0 0 0 0 270.50276787893887 1068.8684949056333 0 1068.8684949056333 3457.6063770499691 0 0 0 0 876.5505081271981 313.51983593263867 0 313.51983593263867 -205.42974465166117 0 0 0 0 378.91097170358807 -1151.9590440669999 0 -1151.9590440669999 3500.2639280187286 0 0 0 0 -66.424487746007799 -1136.7472249552375 0 -1136.7472249552375 1224.0718093623873 0 0 0 0 0.019088501822135673 1.9689341913400114 0 1.9689341913400114 6.0302833044631967 0 0 0 0 11.286791597543388 4.9735677088098669 0 4.9735677088098669 4.742745648176097 0 0 0 0 184.39745394418333 -120.00257893685557 0 -120.00257893685557 -95.356674717681017 0 0 0 0 -19.83915936160156 -4.4109116522449767 0 -4.4109116522449767 -137.20781656038162 0 0 0 0 -35.246253767676649 20.837466970610876 0 20.837466970610876 -175.13829608063679 0 0 0 0 -37.554838454785568 76.100074511676212 0 76.100074511676212 -276.43874696138664 0 0 0 0 24.204539543408828 -28.85378186867456 0 -28.85378186867456 -259.72187146244687 0 0 0 0 26.037897231966781 -50.261883160826983 0 -50.261883160826983 -174.90857598430739 0 0 0 0 130.09440614418509 30.451946192326432 0 30.451946192326432 -432.5739510475687 0 0 0 0 -170.39139111203986 -74.645932605832058 0 -74.645932605832058 999.77992859051301 0 0 0 0 251.85273826497451 197.24395396093314 0 197.24395396093314 -675.37283867724182 0 0 0 0 313.27139248293224 388.22303305114838 0 388.22303305114838 -182.86167409771224 0 0 0 0 7.1219777892038501 4.3859752541743973 0 4.3859752541743973 2.1416474601905691 0 0 0 0 -144.34508165155648 -35.052820373417489 0 -35.052820373417489 444.0355931660888 0 0 0 0 -39.958081157553806 270.62562894383154 0 270.62562894383154 266.96349449698027 0 0 0 0 -201.30915778676263 311.28161976795673 0 311.28161976795673 557.9674876292047 0 0 0 0 527.06641743048021 -94.543862632326636 0 -94.543862632326636 148.22016024928598 0 0 0 0 12.662048923760267 497.86537372144812 0 497.86537372144812 763.07926241051973 0 0 0 0 -7.4278926940068057 -0.082322100360784134 0 -0.082322100360784134 -1.2993702491569366 0 0 0 0 -5.5680239579769477 -168.93740461624111 0 -168.93740461624111 -180.18738767172181 0 0 0 0 -394.90962294550809 -227.54713214691583 0 -227.54713214691583 -151.67834040967318 0 0 0 0 -611.9031169342561 410.07275786931859 0 410.07275786931859 -0.28167933314398397 0 0 0 0 -123.04945636403039 381.18673051443056 0 381.18673051443056 -1.4538113833987154 0 0 0 0 -187.82823274879865 242.17040632746648 0 242.17040632746648 262.86954948606945 0 0 0 0 -164.3430018626932 394.91289668004902 0 394.91289668004902 196.68237109439724 0 0 0 0 -70.69696978128195 289.66448507551104 0 289.66448507551104 -174.04924449627288 0 0 0 0 -349.98387625635405 288.57321063484414 0 288.57321063484414 -5.3588819510123358 0 0 0 0 -2.7260725269367185 347.02493874764059 0 347.02493874764059 -355.79773428781482 0 0 0 0 -220.86701051177806 501.88269834786479 0 501.88269834786479 -198.91779828834115 0 0 0 0 -461.10656434027078 -115.05536383209255 0 -115.05536383209255 399.13143358707021 0 0 0 0 -128.25993686077004 327.98079250473802 0 327.98079250473802 721.55294430057984 0 0 0 0 11.152604356210759 18.101923634811101 0 18.101923634811101 252.68246430561703 0 0 0 0 -456.78777957369402 -27.099000156747934 0 -27.099000156747934 384.2955954835852 0 0 0 0 -561.26644671545228 149.24396984618579 0 149.24396984618579 299.70099001190101 0 0 0 0 -436.73774029974993 188.84598774406186 0 188.84598774406186 248.13545660170348 0 0 0 0 -180.62623445858799 168.62560804555505 0 168.62560804555505 202.43987831406412 0 0 0 0 -390.30575509568735 82.363054603178171 0 82.363054603178171 195.72046950121239 0 0 0 0 -585.80436759672466 36.570318656168638 0 36.570318656168638 93.980177143399487 0 0 0 0 -0.54569136599559087 -9.7439864973691925 0 -9.7439864973691925 20.558597550472228 0 0 0 0 -433.22523103522235 10.812373796532484 0 10.812373796532484 76.463621643604711 0 0 0 0 -668.59155082812686 -235.03160808144457 0 -235.03160808144457 228.7736335268437 0 0 0 0 -505.41029740194244 -388.79778348658147 0 -388.79778348658147 -164.28753097868503 0 0 0 0 273.4179962665512 550.77960840292508 0 550.77960840292508 648.35633758224503 0 0 0 0 281.71567700574997 757.19992241620275 0 757.19992241620275 1104.6882813848206 0 0 0 0 60.985941278064274 -365.38503333000335 0 -365.38503333000335 125.05678536012419 0 0 0 0 -0.094511841380173323 -4.2252193157724207 0 -4.2252193157724207 10.014884735500118 0 0 0 0 -386.00749554919912 -1056.8724446732958 0 -1056.8724446732958 -237.00510268939433 0 0 0 0 -419.32303266216331 -880.65588321839459 0 -880.65588321839459 926.79355045744887 0 0 0 0 -169.71553673924609 -205.30682381254883 0 -205.30682381254883 -469.79867684242163 0 0 0 0 -160.60014109192616 -359.17590789498536 0 -359.17590789498536 324.03877056129568 0 0 0 0 -170.76113191100649 58.236139675871527 0 58.236139675871527 286.59195641081897 0 0 0 0 -354.21215502105269 119.22661223932664 0 119.22661223932664 387.91492573267897 0 0 0 0 -311.18918963372562 -213.03407559381594 0 -213.03407559381594 318.25382854815689 0 0 0 0 4.0297595565962183 -155.71951117595745 0 -155.71951117595745 534.10854476182612 0 0 0 0 84.576735195605124 -270.30004813064807 0 -270.30004813064807 530.35731214623593 0 0 0 0 34.913044888424508 -4.5245418957488255 0 -4.5245418957488255 700.43810023600236 0 0 0 0 62.809772051034997 -401.89954616711475 0 -401.89954616711475 747.35944744526932 0 0 0 0 -37.365671835834291 -344.14732439532236 0 -344.14732439532236 889.36581716070941 0 0 0 0 -39.208792281355272 -337.68832618889428 0 -337.68832618889428 897.1633586327298 0 0 0 0 38.508494107253227 -220.26797213072132 0 -220.26797213072132 801.0389992986893 0 0 0 0 12.160171331659692 4.8148017641397587 0 4.8148017641397587 1.5577751383780765 0 0 0 0 35.436548222496185 -0.58761122094801976 0 -0.58761122094801976 884.97876929903578 0 0 0 0 3.8728581038992917 1.4425875911581301 0 1.4425875911581301 0.74693749037285961 0 0 0 0 -145.29154529403877 20.164768947615812 0 20.164768947615812 1150.9965994628947 0 0 0 0 102.67589542879068 -39.98434153143171 0 -39.98434153143171 717.17051210789214 0 0 0 0 -57.287239051225015 172.50037368266567 0 172.50037368266567 -121.818934713403 0 0 0 0 -67.217230454435253 161.27979507741929 0 161.27979507741929 197.69862090919196 0 0 0 0 -11.929589618495079 174.54606600805528 0 174.54606600805528 146.90552489399852 0 0 0 0 17.362490740648241 251.93584175011347 0 251.93584175011347 233.64287980345398 0 0 0 0 15.197114379685786 102.73469825606298 0 102.73469825606298 316.41499394364655 0 0 0 0 -17.278899583817065 214.00713488798647 0 214.00713488798647 454.4436820331066 0 0 0 0 -43.671994684083415 97.99899125279353 0 97.99899125279353 607.36722914249549 0 0 0 0 21.105976067938471 6.7923715220697432 0 6.7923715220697432 1.3333227291664969 0 0 0 0 90.376180441903671 103.49267620526371 0 103.49267620526371 781.37723637564341 0 0 0 0 -21.970554048402391 -26.152992232431643 0 -26.152992232431643 899.10278702962387 0 0 0 0 -17.244521135436571 -200.6711550601558 0 -200.6711550601558 976.24564078576805 0 0 0 0 26.221953584342373 -255.94123561050947 0 -255.94123561050947 823.01347075785088 0 0 0 0 33.505029096500039 -358.9974811942011 0 -358.9974811942011 1307.7447454776157 0 0 0 0 106.15121859970532 76.729878561171063 0 76.729878561171063 1197.0606771382299 0 0 0 0 -3.7074836339993453 -77.863160646342294 0 -77.863160646342294 1044.6169156903707 0 0 0 0 151.56337745681776 -87.969697629356233 0 -87.969697629356233 1094.8584586482903 0 0 0 0 685.22827029003338 -302.73340260472469 0 -302.73340260472469 1130.4494136611829 0 0 0 0 57.433297118987412 436.91775693308955 0 436.91775693308955 1926.4846353350911 0 0 0 0 1.5761701646670954 -4.7719171227847497 0 -4.7719171227847497 9.5864133225070702 0 0 0 0 -70.22897925614825 -194.2571391304009 0 -194.2571391304009 1458.7974657329687 0 0 0 0 6.9731869182860464 -500.85974589643592 0 -500.85974589643592 1978.6010577018367 0 0 0 0 18.875438155959273 -396.01600677030729 0 -396.01600677030729 1390.5958640796671 0 0 0 0 -15.249118058905538 -292.25906759153031 0 -292.25906759153031 1208.3182435110211 0 0 0 0 39.610661452591557 27.617206717197405 0 27.617206717197405 671.89611223907559 0 0 0 0 2083.0266092221973 289.44413340045139 0 289.44413340045139 999.19394337285303 0 0 0 0 4.6179323790302078 -264.63032821886736 0 -264.63032821886736 1230.6329647630919 0 0 0 0 127.16226463745443 -225.35105770465452 0 -225.35105770465452 1003.0058271225353 0 0 0 0 7.1148876908195788 -3.851710465103821 0 -3.851710465103821 -1.6615346495050005 0 0 0 0 379.17451963218264 -299.65839305112968 0 -299.65839305112968 1010.9310366488935 0 0 0 0 13.883647269785797 -40.362078482195102 0 -40.362078482195102 960.4142658902274 0 0 0 0 265.13691928344633 -141.71506661037711 0 -141.71506661037711 686.87837191730068 0 0 0 0 23.321393776324626 4.8912875704266554 0 4.8912875704266554 7.9238915666845777 0 0 0 0 30.232348282355815 -236.82978032603933 0 -236.82978032603933 965.28296589262391 0 0 0 0 621.8139097831388 1255.6076106011824 0 1255.6076106011824 1255.2128516387602 0 0 0 0 0.12697208374914704 -0.88146833789218704 0 -0.88146833789218704 11.732077118772168 0 0 0 0 21.901055100975782 173.60619900277743 0 173.60619900277743 430.16101941690613 0 0 0 0 -221.40578426450554 -877.48233365529268 0 -877.48233365529268 510.77276218072802 0 0 0 0 -498.77030106915663 -763.1525844583648 0 -763.1525844583648 717.29018176416866 0 0 0 0 -471.36118192919048 -889.19284428648098 0 -889.19284428648098 1096.5978136729459 0 0 0 0 -25.702732340881994 222.39503051750944 0 222.39503051750944 171.6402945720838 0 0 0 0 95.722601785972984 163.84520366692595 0 163.84520366692595 48.254581899171171 0 0 0 0 86.572761054083458 154.50385852665931 0 154.50385852665931 43.909695770445978 0 0 0 0 433.03936286238331 326.26664521388739 0 326.26664521388739 81.10864217926428 0 0 0 0 -37.711795183812683 342.84030596191587 0 342.84030596191587 599.48861096771725 0 0 0 0 -194.51137060307565 76.581623580881569 0 76.581623580881569 191.31956855412136 0 0 0 0 -363.86784407354799 31.78059112912797 0 31.78059112912797 351.96452732953912 0 0 0 0 138.97901073401226 -630.08286030162526 0 -630.08286030162526 -480.59012782477657 0 0 0 0 136.25195954359415 -582.85523893676555 0 -582.85523893676555 680.3320632484465 0 0 0 0 85.587786750082159 -274.00300860759307 0 -274.00300860759307 475.14910623382457 0 0 0 0 496.80147061892194 -54.61278797963314 0 -54.61278797963314 34.52978627167613 0 0 0 0 353.48659367053529 29.449287869349973 0 29.449287869349973 758.96412699903885 0 0 0 0 -16.932951951080213 -50.918176194631087 0 -50.918176194631087 885.86170068050342 0 0 0 0 -12.692876810960115 -130.84465137236111 0 -130.84465137236111 879.12791312018817 0 0 0 0 6.6797476869114689 -130.60509199944499 0 -130.60509199944499 759.38363402888717 0 0 0 0 19.681721106353621 -134.39628931131119 0 -134.39628931131119 463.96245936969353 0 0 0 0 41.283012979539308 115.20996677735093 0 115.20996677735093 261.38083424107754 0 0 0 0 13.146031236761026 8.2627057931090064 0 8.2627057931090064 4.96910212645831 0 0 0 0 320.71029952829031 22.518186831195635 0 22.518186831195635 -66.050940468150657 0 0 0 0 5.0090590790854854 2.9728650968602182 0 2.9728650968602182 2.3375131414768333 0 0 0 0 223.67208471441882 56.723115494496597 0 56.723115494496597 -11.878883291014063 0 0 0 0 48.036248530928788 53.213781805883627 0 53.213781805883627 -0.53910262504723505 0 0 0 0 32.972706648373787 -34.637620962719666 0 -34.637620962719666 4.3992479936750897 0 0 0 0 -2.1425826148351916 65.63619154868411 0 65.63619154868411 -42.186319039836235 0 0 0 0 -33.503871115263792 27.584054597929935 0 27.584054597929935 30.690623507842247 0 0 0 0 26.767809193974244 -1.1420692837637034 0 -1.1420692837637034 30.236087511225833 0 0 0 0 -11.602656255121474 27.401498279989028 0 27.401498279989028 61.100593537135865 0 0 0 0 -7.1514836077187738 2.0446381885121809 0 2.0446381885121809 55.934092847121065 0 0 0 0 7.2606224852552259 10.732520071607723 0 10.732520071607723 -3.4561021843182971 0 0 0 0 41.154032921597718 50.906495642004302 0 50.906495642004302 -44.63028941648372 0 0 0 0 18.601708950467717 10.667611654695264 0 10.667611654695264 7.8812318660851588 0 0 0 0 2.7861528442863346 41.718962027636735 0 41.718962027636735 24.720656182344101 0 0 0 0 22.08759723815615 -26.153094467545088 0 -26.153094467545088 -61.459343353984877 0 0 0 0 88.752324585649149 -54.58480444491579 0 -54.58480444491579 -28.130388892024712 0 0 0 0 88.919586289237941 -51.049079500848165 0 -51.049079500848165 -62.682341485895449 0 0 0 0 159.24966832903374 213.99434897427273 0 213.99434897427273 356.86771616506303 0 0 0 0 -33.88777103956545 50.841391012909298 0 50.841391012909298 477.87399213362369 0 0 0 0 -47.080575492228036 43.752593517960122 0 43.752593517960122 474.95674476941349 0 0 0 0 -97.079637731723324 -56.717993527574436 0 -56.717993527574436 857.34500656014279 0 0 0 0 -84.96648059598192 -82.05378397921595 0 -82.05378397921595 846.74963782098348 0 0 0 0 -188.68609234210862 -152.13864123618077 0 -152.13864123618077 955.27495899608766 0 0 0 0 -93.46480471790619 -212.46278252350021 0 -212.46278252350021 992.8816221106681 0 0 0 0 -188.73102402721747 -219.94789166977353 0 -219.94789166977353 1372.9029518297757 0 0 0 0 -246.97030307336206 -225.85367021930233 0 -225.85367021930233 1939.98972625428 0 0 0 0 -172.39235222490788 -406.27202036736708 0 -406.27202036736708 978.74816671385634 0 0 0 0 -45.83528584086406 36.854490600771442 0 36.854490600771442 1506.6179393245257 0 0 0 0 -57.957806431839344 170.99600329295208 0 170.99600329295208 879.04488447725089 0 0 0 0 -74.556772179963446 -26.059760914922663 0 -26.059760914922663 688.50861849625653 0 0 0 0 246.38559619870648 446.3762221865727 0 446.3762221865727 660.74683304737846 0 0 0 0 140.33987657683883 -406.71110506647892 0 -406.71110506647892 541.01107349733502 0 0 0 0 0.045024020062610193 0.23109765329008525 0 0.23109765329008525 3.4550315996165182 0 0 0 0 575.85846546750145 53.676770708116237 0 53.676770708116237 1329.64592706853 0 0 0 0 36.028349840586998 28.577060608469765 0 28.577060608469765 2456.6671369191372 0 0 0 0 594.59032954632244 -293.65009178293371 0 -293.65009178293371 1547.9993010039761 0 0 0 0 253.043061260988 972.54088104305265 0 972.54088104305265 2231.583370785389 0 0 0 0 -78.579941570221308 301.66343946928828 0 301.66343946928828 1881.5356917972967 0 0 0 0 73.57443159498871 132.56395306976992 0 132.56395306976992 1374.9550463555061 0 0 0 0 -95.655143146584123 -223.39471077351845 0 -223.39471077351845 1499.9015328711375 0 0 0 0 108.47307282866859 111.23225495979204 0 111.23225495979204 1330.6315798712349 0 0 0 0 141.7872403164717 -248.42858669170909 0 -248.42858669170909 190.84512325712421 0 0 0 0 156.05971588128068 111.63818023860586 0 111.63818023860586 -13.905135667620925 0 0 0 0 39.62676366346841 145.66935962310527 0 145.66935962310527 124.75330998062418 0 0 0 0 7.7121037270963306 -3.0699743277682217 0 -3.0699743277682217 4.8504216047838611 0 0 0 0 -63.955275113627977 42.295022399554 0 42.295022399554 31.082873207255034 0 0 0 0 3.1204958379892718 0.38931800929071159 0 0.38931800929071159 6.6485718962826752 0 0 0 0 -52.492874116428538 -34.257601649242133 0 -34.257601649242133 69.955041522953252 0 0 0 0 53.440672014678967 12.383215191912313 0 12.383215191912313 -96.688700274724397 0 0 0 0 1.2723521727912157 -3.187207761387981 0 -3.187207761387981 17.698512348652002 0 0 0 0 4.1555798648573514 3.6507041218336553 0 3.6507041218336553 14.602253630707011 0 0 0 0 11.531246761432053 5.2081946953819909 0 5.2081946953819909 11.692959264538658 0 0 0 0 7.5716975221922533 0.44313603228378184 0 0.44313603228378184 11.021966703565994 0 0 0 0 1.9599879260058515 3.3427715334983077 0 3.3427715334983077 8.9620201334473677 0 0 0 0 7.8442558145070507 -1.2326962016231846 0 -1.2326962016231846 18.278939779411303 0 0 0 0 2.1416990422831077 -5.5625161175030371 0 -5.5625161175030371 23.315474027418531 0 0 0 0 -0.77429257472022073 -1.1729350552577671 0 -1.1729350552577671 23.543733452541346 0 0 0 0 -15.534002551252343 3.8978691494121449 0 3.8978691494121449 35.190241723255895 0 0 0 0 2.865005198906605 2.6637663131468692 0 2.6637663131468692 16.206135004552948 0 0 0 0 2.5491566006844728 0.59880001642001446 0 0.59880001642001446 3.7856328592304749 0 0 0 0 4.6839589305654954 0.14622905358919525 0 0.14622905358919525 26.80348017772485 0 0 0 0 1.808304070667873 -0.91870158477831865 0 -0.91870158477831865 18.262790212378604 0 0 0 0 -3.6664422935918992 -3.9171754029011936 0 -3.9171754029011936 37.901901914359769 0 0 0 0 -13.738503846199819 2.0896111458205269 0 2.0896111458205269 113.77222969310242 0 0 0 0 0.76745766594028098 1.8219068828159095 0 1.8219068828159095 6.4067622316135981 0 0 0 0 -9.95641347997298 19.81975393427274 0 19.81975393427274 13.616576703811006 0 0 0 0 1.9022096214830526 3.9708962869844981 0 3.9708962869844981 21.614125588472234 0 0 0 0 1.3702439126771311 18.66155385225499 0 18.66155385225499 33.878432273996765 0 0 0 0 70.755820427079016 37.133681165279995 0 37.133681165279995 -33.033714101631631 0 0 0 0 17.443524038561009 -21.070340763249988 0 -21.070340763249988 30.897468851646408 0 0 0 0 -39.584379053476823 -23.52428508250523 0 -23.52428508250523 38.168343665005523 0 0 0 0 -186.86034913707408 -119.77695821621091 0 -119.77695821621091 189.19720157331903 0 0 0 0 83.567879991319387 21.422841824252828 0 21.422841824252828 96.954155563471431 0 0 0 0 0.66002931904066031 0.089088710306583607 0 0.089088710306583607 -0.13944160442771647 0 0 0 0 2.7024020922767704 -8.3898811320177629 0 -8.3898811320177629 121.13484171565506 0 0 0 0 -20.055986260677855 -10.067105743088177 0 -10.067105743088177 133.04296108963899 0 0 0 0 -1.6389078586698758 0.2070260773171384 0 0.2070260773171384 136.86231476151306 0 0 0 0 -1.2497997153971809 2.2798163205560229 0 2.2798163205560229 16.367993845663612 0 0 0 0 -22.645423041043159 -3.7134379548024299 0 -3.7134379548024299 153.94587109192071 0 0 0 0 -12.607564501898324 47.055826038832691 0 47.055826038832691 27.021072755106232 0 0 0 0 -47.456338053460968 -6.8134283263061661 0 -6.8134283263061661 222.53014132150383 0 0 0 0 -46.813276742183916 56.569165628829069 0 56.569165628829069 113.26711124825761 0 0 0 0 -80.21121422514625 33.907110985509462 0 33.907110985509462 98.932704346530954 0 0 0 0 6.6793530019053833 18.920711439220213 0 18.920711439220213 -2.3815991817373288 0 0 0 0 30.187610100788788 55.167590052350079 0 55.167590052350079 102.90341148432344 0 0 0 0 1.8727571818344586 29.190975625251667 0 29.190975625251667 -43.007162510082708 0 0 0 0 -10.340914717311534 45.715819001503405 0 45.715819001503405 -54.263755770116404 0 0 0 0 1.1757740207981797 6.0113901871657731 0 6.0113901871657731 3.3112518424559738 0 0 0 0 -0.97002391393550624 30.562612689465368 0 30.562612689465368 2.0263783576810965 0 0 0 0 5.1962742002269806 4.2883181375582353 0 4.2883181375582353 19.846196787089866 0 0 0 0 -11.818442299836533 34.636287538749457 0 34.636287538749457 16.610561651031276 0 0 0 0 5.4487590959104644 7.7950270788404765 0 7.7950270788404765 9.905299766535272 0 0 0 0 5.4386953667053604 5.798272358111717 0 5.798272358111717 20.248653683403973 0 0 0 0 5.6477008088006642 4.3950054997253574 0 4.3950054997253574 18.942932761041448 0 0 0 0 3.370312387798549 4.9513487843469193 0 4.9513487843469193 19.924390783126 0 0 0 0 -3.625900075602825 -1.2233540903776259 0 -1.2233540903776259 7.267181617116691 0 0 0 0 6.3408894080839673 5.8756237773304747 0 5.8756237773304747 16.035637955807033 0 0 0 0 1.8917476478563913 -0.24289494313552495 0 -0.24289494313552495 24.164553912167321 0 0 0 0 -12.659546579194284 33.843443236801249 0 33.843443236801249 80.295788655494107 0 0 0 0 -1.1298262241071555 -5.9250024944183934 0 -5.9250024944183934 4.8424813453017705 0 0 0 0 12.886451987920736 25.52660768894566 0 25.52660768894566 137.51742630634544 0 0 0 0 4.7084578509002313 57.464243530863314 0 57.464243530863314 -115.52693812979123 0 0 0 0 0.23476792736236973 -0.72410206631690244 0 -0.72410206631690244 2.8350974154744506 0 0 0 0 18.583009676291113 16.424019425336155 0 16.424019425336155 63.631091879593441 0 0 0 0 63.24847838311598 20.470132536760502 0 20.470132536760502 28.975600343466795 0 0 0 0 12.351075063852477 49.287105608227648 0 49.287105608227648 17.761409028447815 0 0 0 0 20.637624417729285 74.896072829552395 0 74.896072829552395 0.43948083618306555 0 0 0 0 30.519729302914129 44.343363915446389 0 44.343363915446389 6.1206228275914327 0 0 0 0 3.9399100908431137 69.332523893259349 0 69.332523893259349 -15.784441381554643 0 0 0 0 25.849341174683104 70.407609853431495 0 70.407609853431495 -42.160876152949641 0 0 0 0 -9.0014120523355814 40.730182662016887 0 40.730182662016887 -31.656199350574752 0 0 0 0 -20.193949540545873 34.846172102275887 0 34.846172102275887 -22.918017944222811 0 0 0 0 -11.488005853709637 44.240456792527766 0 44.240456792527766 -30.727911082780338 0 0 0 0 -19.711914092842562 35.222005068324506 0 35.222005068324506 -36.288985133971437 0 0 0 0 -19.711914092855295 35.222005068300859 0 35.222005068300859 -36.288985133956885 0 0 0 0 -19.711914092852567 35.222005068311773 0 35.222005068311773 -36.288985134015093 0 0 0 0 -64.294569687068361 13.163432165021732 0 13.163432165021732 271.90241859121534 0 0 0 0 -9.1149001326797716 49.721020850614053 0 49.721020850614053 7.9302444214823939 0 0 0 0 -3.7106548919437046 108.94953255605651 0 108.94953255605651 -42.045847822174437 0 0 0 0 -68.319631325133741 59.50497941861795 0 59.50497941861795 99.415542219407143 0 0 0 0 -98.450139625285374 133.45616112654898 0 133.45616112654898 -43.469874307605551 0 0 0 0 11.915357055087952 66.373867743228402 0 66.373867743228402 -36.689066893268318 0 0 0 0 41.525418772932426 35.722080454903335 0 35.722080454903335 95.028036291450917 0 0 0 0 -63.17543340772454 62.292685822481417 0 62.292685822481417 251.05026352065761 0 0 0 0 15.762298193781135 28.094767495734231 0 28.094767495734231 75.565335929128651 0 0 0 0 -25.094524308195105 59.707544972772666 0 59.707544972772666 -85.606063624260969 0 0 0 0 -58.235264526429091 135.59480861766497 0 135.59480861766497 21.031251231954229 0 0 0 0 26.377319419782907 47.431072288006362 0 47.431072288006362 -53.470166957626134 0 0 0 0 -18.022261773305388 159.69410156963815 0 159.69410156963815 -138.37048986187256 0 0 0 0 -21.064831763602342 47.716974640954504 0 47.716974640954504 169.78652523128881 0 0 0 0 -11.126519263658906 133.13850353701162 0 133.13850353701162 43.003804556050454 0 0 0 0 2.3456357432464614 52.240303106753217 0 52.240303106753217 10.764692449540505 0 0 0 0 -20.553220399393467 100.67214042576961 0 100.67214042576961 59.855267487975652 0 0 0 0 9.8236100558706312 102.3317946905081 0 102.3317946905081 45.028825333989516 0 0 0 0 1.7955193042917017 83.652507079410498 0 83.652507079410498 9.3838358032735414 0 0 0 0 -4.0130128058483407 51.016603200175169 0 51.016603200175169 10.230057176787303 0 0 0 0 39.513638096930663 56.359365138676367 0 56.359365138676367 -30.956804922207084 0 0 0 0 61.149415336578386 61.367121985684207 0 61.367121985684207 4.5241033638303634 0 0 0 0 75.782331082980704 119.31636348781376 0 119.31636348781376 17.373122399862041 0 0 0 0 11.497641578196863 133.22632607684682 0 133.22632607684682 46.937781183092739 0 0 0 0 14.879308200673222 136.83568605457913 0 136.83568605457913 41.316456493284022 0 0 0 0 -19.400892945389387 117.94012373201986 0 117.94012373201986 45.257705371863267 0 0 0 0 73.637892183571239 -95.646980022087519 0 -95.646980022087519 68.562963999804197 0 0 0 0 -890.56799916954333 -300.6620404359237 0 -300.6620404359237 309.06019842944806 0 0 0 0 -289.61977304414904 292.99006868257129 0 292.99006868257129 351.03437564258638 0 0 0 0 -412.04871147522954 179.76598001840102 0 179.76598001840102 408.79362738989585 0 0 0 0 39.529518645114877 -182.92817851812288 0 -182.92817851812288 9.7288039784907596 0 0 0 0 -1747.3674236798822 -615.06842229943868 0 -615.06842229943868 133.46145726944087 0 0 0 0 -6.5789357375010376 -6.0609891230112964 0 -6.0609891230112964 22.559694895713676 0 0 0 0 372.29766571575783 531.5940681818247 0 531.5940681818247 154.30575037187373 0 0 0 0 -1103.1716574876355 576.65336123808083 0 576.65336123808083 1245.629181334938 0 0 0 0 -976.73843521597973 168.97520635383989 0 168.97520635383989 2557.0476859919318 0 0 0 0 0.59543768128901009 -913.6821311142885 0 -913.6821311142885 2553.3508728517045 0 0 0 0 478.04804584202975 -2031.2898923196917 0 -2031.2898923196917 2333.2764569413594 0 0 0 0 2483.2850628649621 -2131.2899853741401 0 -2131.2899853741401 -538.50613255439384 0 0 0 0 -322.30094383451814 69.428926192762447 0 69.428926192762447 330.47152714050026 0 0 0 0 0.14248990320562013 -5.6113697321373195 0 -5.6113697321373195 28.987010570485324 0 0 0 0 202.37034273219751 -934.26428979428601 0 -934.26428979428601 -1805.4013477207918 0 0 0 0 -192.18809734141837 -2899.2848915456052 0 -2899.2848915456052 -695.07144147367944 0 0 0 0 3.56484516438152 -6.1382666937046793 0 -6.1382666937046793 6.3885476227008553 0 0 0 0 433.27361166857372 679.49851774995113 0 679.49851774995113 1294.7574736480965 0 0 0 0 88.538510814963047 -908.18628567495034 0 -908.18628567495034 1496.3350186990574 0 0 0 0 -35.945819179165198 -86.271258256572764 0 -86.271258256572764 -83.873336551419925 0 0 0 0 -507.124597562811 -727.40538894978818 0 -727.40538894978818 377.13163235364482 0 0 0 0 -2.295547974303521 -3.0567222775873368 0 -3.0567222775873368 80.751420852123829 0 0 0 0 -926.20097683913662 230.90506475467919 0 230.90506475467919 1471.2532436817419 0 0 0 0 -2.1932885429364433 -1390.5080434064457 0 -1390.5080434064457 556.14983013509482 0 0 0 0 72.448670397177921 -515.16676021370768 0 -515.16676021370768 -74.277529848790437 0 0 0 0 908.98748660821366 -1382.2002524931268 0 -1382.2002524931268 321.78803046547546 0 0 0 0 -129.89668661789847 141.91760892525781 0 141.91760892525781 567.76753053881112 0 0 0 0 5.2753771255048765 -20.362757918441552 0 -20.362757918441552 66.90566876164084 0 0 0 0 -929.14323623071505 -435.7665919795254 0 -435.7665919795254 615.41675373664475 0 0 0 0 3.764957024932972 -8.5852713863671752 0 -8.5852713863671752 24.603786284343983 0 0 0 0 210.46641547925628 404.91897433088161 0 404.91897433088161 655.62851255849819 0 0 0 0 -77.339176681274694 395.04668231562027 0 395.04668231562027 1059.0325383633981 0 0 0 0 -61.612368244468598 320.87526964521749 0 320.87526964521749 694.96688634472957 0 0 0 0 179.25787394883992 82.697592966924276 0 82.697592966924276 781.51530113336776 0 0 0 0 80.069032381176839 232.21173641228597 0 232.21173641228597 559.11216622149368 0 0 0 0 3.2794319086938231 351.45761372570269 0 351.45761372570269 623.22419715292199 0 0 0 0 12.02913880828055 25.470388009762246 0 25.470388009762246 158.9971602012738 0 0 0 0 -110.53132916844879 104.55034248829179 0 104.55034248829179 1335.721801570995 0 0 0 0 -78.181795691618035 212.71933269711752 0 212.71933269711752 1127.9036098025972 0 0 0 0 -146.25983091911075 282.21930883530513 0 282.21930883530513 876.55825946299592 0 0 0 0 -119.54815053999573 35.176066700678348 0 35.176066700678348 984.43025605981529 0 0 0 0 -111.40984005003156 179.99482441195141 0 179.99482441195141 1168.9899441443995 0 0 0 0 113.84934740426252 -39.334655351223773 0 -39.334655351223773 883.5527344932816 0 0 0 0 81.870925634748346 141.07663158954529 0 141.07663158954529 754.50418390863342 0 0 0 0 -26.791392472291591 20.738968431485773 0 20.738968431485773 873.28331737668486 0 0 0 0 11.733477427779235 -216.69884134720451 0 -216.69884134720451 858.48341118230746 0 0 0 0 -61.496700021058132 75.538749697498133 0 75.538749697498133 626.5092918348746 0 0 0 0 -18.876262892871978 -156.87557994100507 0 -156.87557994100507 782.26575467648217 0 0 0 0 2.2320571421354849 -2.0271195192104443 0 -2.0271195192104443 1.688239987612036 0 0 0 0 211.36737964630811 67.339331587143533 0 67.339331587143533 31.338810374094464 0 0 0 0 378.35036841120927 -103.38744805839815 0 -103.38744805839815 19.616060878863209 0 0 0 0 130.59669457362543 23.434918924136582 0 23.434918924136582 3.6351565254153684 0 0 0 0 90.53995121171647 -51.796399468745221 0 -51.796399468745221 23.91894515422382 0 0 0 0 22.854512455415716 -10.97105564645608 0 -10.97105564645608 5.6563627720061049 0 0 0 0 6.1097335620271025 -4.0352724778916951 0 -4.0352724778916951 2.1176077514600138 0 0 0 0 8.9035931830476329 47.26430024052388 0 47.26430024052388 56.76357733590703 0 0 0 0 -336.45614555601242 -186.97920646311468 0 -186.97920646311468 321.62394301425047 0 0 0 0 6.2322488883095719 -26.726513066894746 0 -26.726513066894746 93.99358205802173 0 0 0 0 89.413177149765033 -271.7438390086827 0 -271.7438390086827 425.73383489950356 0 0 0 0 53.241206472755948 -189.06151708796097 0 -189.06151708796097 -3.5467438335290353 0 0 0 0 -59.217935176629908 -43.064433638350238 0 -43.064433638350238 74.890536340666586 0 0 0 0 88.140301457502346 -39.93491590343092 0 -39.93491590343092 -1.8551345997257158 0 0 0 0 -169.96310993246198 -171.71429480039478 0 -171.71429480039478 50.209438319463516 0 0 0 0 -535.12094302824698 -195.86902551821549 0 -195.86902551821549 74.930960333207622 0 0 0 0 -587.33342785098466 -126.09639339088608 0 -126.09639339088608 255.07744970545173 0 0 0 0 5.8191533998371288 -33.523528679742057 0 -33.523528679742057 107.90933337676489 0 0 0 0 159.6845418649973 -24.229906929242134 0 -24.229906929242134 -185.12403609839384 0 0 0 0 -17.61594280480135 2.692510367961745 0 2.692510367961745 23.639463836934681 0 0 0 0 -0.61825223812047625 -65.094037011313048 0 -65.094037011313048 43.582232246699277 0 0 0 0 2.0875840802105667 -34.071512960067416 0 -34.071512960067416 43.431309643162308 0 0 0 0 -82.358044632894234 -74.621040299396554 0 -74.621040299396554 44.402262613468338 0 0 0 0 -10.441353877006833 -20.444905590046218 0 -20.444905590046218 66.70546527631484 0 0 0 0 -33.74675396020757 -46.042714986680949 0 -46.042714986680949 37.563914951519109 0 0 0 0 -223.84151256922905 -49.999947972697555 0 -49.999947972697555 204.27048064207338 0 0 0 0 -280.65868474855779 -271.10532270884869 0 -271.10532270884869 -112.92435937433038 0 0 0 0 58.242792460923738 -6.9701751211105147 0 -6.9701751211105147 7.5758197729373933 0 0 0 0 74.6524062568933 40.329902528392267 0 40.329902528392267 30.439736698914203 0 0 0 0 44.166338945733514 11.360569635711727 0 11.360569635711727 3.6115522099523503 0 0 0 0 50.450688801834985 -66.817534694389906 0 -66.817534694389906 -7.3554686149409463 0 0 0 0 -5.7292539583604594 -28.510751024692581 0 -28.510751024692581 17.897356240951922 0 0 0 0 -32.555079475983803 -15.376137350122008 0 -15.376137350122008 100.16694785175787 0 0 0 0 1.0964766369904346 0.3381670085459092 0 0.3381670085459092 -0.16542077690297674 0 0 0 0 8.0496873666670581 -7.0469474690835341 0 -7.0469474690835341 109.85827287919528 0 0 0 0 122.52217295641458 7.174002442494384 0 7.174002442494384 40.36471569785499 0 0 0 0 90.232329752356236 78.024331625987543 0 78.024331625987543 36.126340619950497 0 0 0 0 -6.4732426256889504 1.7090076858528676 0 1.7090076858528676 18.625047314675449 0 0 0 0 -7.0290683270095542 -17.81622208121189 0 -17.81622208121189 145.74104241127316 0 0 0 0 172.37464022721542 76.668438517255709 0 76.668438517255709 115.44030843139626 0 0 0 0 -39.171796384642221 -62.460651846326073 0 -62.460651846326073 27.00082633641432 0 0 0 0 -30.860522509710975 -30.686002475599764 0 -30.686002475599764 42.00659806457287 0 0 0 0 -81.609193623571628 21.380715785875509 0 21.380715785875509 109.4519572086283 0 0 0 0 -99.589160116203857 -137.44735729987588 0 -137.44735729987588 27.861416460908004 0 0 0 0 -6.5099375092039722 -27.208950547887525 0 -27.208950547887525 45.852614463249267 0 0 0 0 -51.425940579443363 -68.747857063506672 0 -68.747857063506672 26.044446269923355 0 0 0 0 -12.387190408355309 -53.819743295862281 0 -53.819743295862281 -5.5919775286311051 0 0 0 0 -20.407508647902613 -41.875588152935535 0 -41.875588152935535 84.754364311450615 0 0 0 0 -43.065122317758281 -108.52094809447681 0 -108.52094809447681 -27.38994468076271 0 0 0 0 -24.621210653521601 -1.7222827145274948 0 -1.7222827145274948 25.915200480201634 0 0 0 0 -4.4006882053465262 -6.2519305189889565 0 -6.2519305189889565 0.14919312146957964 0 0 0 0 -102.84925166205358 -15.180352885952743 0 -15.180352885952743 64.749203539078735 0 0 0 0 -24.22500880241682 3.1354544372994155 0 3.1354544372994155 8.4140303098930005 0 0 0 0 -46.625248764551543 0.15414117232285207 0 0.15414117232285207 42.084791295128525 0 0 0 0 -176.35128527243796 -106.51668256282574 0 -106.51668256282574 11.538847223157063 0 0 0 0 -28.391723217693652 -31.895479156592046 0 -31.895479156592046 68.986132312347763 0 0 0 0 -50.239480419655592 -38.726288362347987 0 -38.726288362347987 42.63416251615854 0 0 0 0 -16.749114415357546 -22.353813762136092 0 -22.353813762136092 2.9864380791769918 0 0 0 0 -70.639032532388285 -34.798048547920189 0 -34.798048547920189 21.08769214489439 0 0 0 0 -45.618739654339677 -27.817104763932889 0 -27.817104763932889 80.259209815931598 0 0 0 0 -27.979203682563821 -16.999075518513564 0 -16.999075518513564 6.2217324287630618 0 0 0 0 -29.760832327026979 -8.4157618157968557 0 -8.4157618157968557 23.523746279481372 0 0 0 0 -70.638361385044902 -25.661120290136751 0 -25.661120290136751 31.35707817315415 0 0 0 0 -19.379237502720571 -37.589105908009515 0 -37.589105908009515 21.660289437917527 0 0 0 0 -1.5745355790305924 -10.925200892518049 0 -10.925200892518049 21.691275898468405 0 0 0 0 -11.209673399443083 -0.57228325527013624 0 -0.57228325527013624 6.4580569948155926 0 0 0 0 -3.1698911907431579 -27.624431921169162 0 -27.624431921169162 13.813236714053346 0 0 0 0 -7.7748480419688235 14.186743124468194 0 14.186743124468194 63.361367029196117 0 0 0 0 2.5153995091938413 41.415785359757137 0 41.415785359757137 35.807506101129547 0 0 0 0 -176.03515433949383 282.07278171986036 0 282.07278171986036 -171.72731535906496 0 0 0 0 -13.858275452203795 3.0959533571125348 0 3.0959533571125348 -0.5282123575269182 0 0 0 0 -112.24902406078451 148.66339186461641 0 148.66339186461641 75.748985338461353 0 0 0 0 -259.56468737113664 -112.8190906199161 0 -112.8190906199161 -4.6810040902055334 0 0 0 0 -373.10090938070118 190.4867827474518 0 190.4867827474518 84.550634089129744 0 0 0 0 -516.13787421421671 367.85100458079796 0 367.85100458079796 465.69666689747828 0 0 0 0 -13.352934699393074 -0.39019132751081997 0 -0.39019132751081997 23.026643528715681 0 0 0 0 -649.61849620878638 113.4816501454261 0 113.4816501454261 70.429902682524698 0 0 0 0 9.3793021894193771 383.55584597332745 0 383.55584597332745 182.92644365035812 0 0 0 0 -568.27833930054658 -105.99527341040812 0 -105.99527341040812 1.0440228950992605 0 0 0 0 709.76260913112753 929.83462224096002 0 929.83462224096002 526.16438666434988 0 0 0 0 -320.66005406239765 450.60652057430707 0 450.60652057430707 -6.7024450506141875 0 0 0 0 -348.57247865157518 438.50995211337977 0 438.50995211337977 298.78572297803476 0 0 0 0 0.59342691542680026 757.83864604128757 0 757.83864604128757 -276.45981511831633 0 0 0 0 -141.05971847496494 346.79721503629844 0 346.79721503629844 -52.49369038502482 0 0 0 0 24.944754791254717 422.30290259445974 0 422.30290259445974 -1070.9159844485475 0 0 0 0 21.63492859798253 59.862890828757372 0 59.862890828757372 106.21101182479833 0 0 0 0 -4.3193029473417885 2.2836781355415781 0 2.2836781355415781 -0.39747408337034074 0 0 0 0 -0.080859530958819537 42.609539626086189 0 42.609539626086189 158.4605304304423 0 0 0 0 19.143446326931404 84.239490914231283 0 84.239490914231283 202.53205470147077 0 0 0 0 -12.046954083124696 60.23923335953441 0 60.23923335953441 166.48755409889418 0 0 0 0 15.444232683631084 35.67564847981248 0 35.67564847981248 187.46815335701103 0 0 0 0 45.007214314049065 108.82665563484989 0 108.82665563484989 240.22623628978181 0 0 0 0 0.17764610352499857 56.039785711589502 0 56.039785711589502 256.91481434335583 0 0 0 0 -10.138053040897461 58.145371903381601 0 58.145371903381601 167.61774590204004 0 0 0 0 12.742717586575374 -0.63871083590129274 0 -0.63871083590129274 80.765054877505463 0 0 0 0 46.468961862169998 76.072631485119928 0 76.072631485119928 162.24816927360916 0 0 0 0 -10.311512985887759 82.370325532981951 0 82.370325532981951 264.08954352040018 0 0 0 0 33.368570431187102 73.815090718015199 0 73.815090718015199 265.61592690838734 0 0 0 0 4.2347596688904083 117.16563703670727 0 117.16563703670727 334.455008054676 0 0 0 0 18.599765321992429 54.71951483540397 0 54.71951483540397 267.74513380262215 0 0 0 0 -2.8560290704571258 65.654310427780729 0 65.654310427780729 385.46537828288638 0 0 0 0 -0.17571918742782455 -0.33497068556931708 0 -0.33497068556931708 1.1190164875456077 0 0 0 0 -0.18053402714840924 -0.020245641044567719 0 -0.020245641044567719 0.7579913183977709 0 0 0 0 -6.7483305758001251 118.7005284481711 0 118.7005284481711 373.11157654891576 0 0 0 0 0.073301648190546104 9.2197724601719528 0 9.2197724601719528 250.12804453027275 0 0 0 0 -3.0444312116421788 68.238901672819338 0 68.238901672819338 359.33499814163952 0 0 0 0 4.2998599839796192 56.078543263058236 0 56.078543263058236 290.33516520670673 0 0 0 0 -0.044198196203698657 11.344393900285839 0 11.344393900285839 349.57820589777839 0 0 0 0 -27.538772335107595 18.682452828863461 0 18.682452828863461 376.75532436267531 0 0 0 0 -0.037592525297267199 -3.4162740028041299 0 -3.4162740028041299 388.09584882782656 0 0 0 0 -20.427877510957398 53.224349691336101 0 53.224349691336101 434.45793922602024 0 0 0 0 -58.521638144545669 -4.6840871555978083 0 -4.6840871555978083 448.0005309359658 0 0 0 0 -29.118622060165986 23.308814147630983 0 23.308814147630983 373.0791197046492 0 0 0 0 6.2636955235757936 131.2863362540138 0 131.2863362540138 658.80395071125531 0 0 0 0 -8.0533063464633372 60.768786415370414 0 60.768786415370414 381.43811781594559 0 0 0 0 83.934180940024021 -181.01167190079286 0 -181.01167190079286 459.3409893783064 0 0 0 0 0.32265495694592128 1.3338717733367673 0 1.3338717733367673 3.7448256264714814 0 0 0 0 61.681080783888419 -99.302827119134236 0 -99.302827119134236 161.79185118054738 0 0 0 0 -1.1709176763532689 -0.72147979435015941 0 -0.72147979435015941 2.3856600663198151 0 0 0 0 -1.8418509881446474 -0.47486354594727231 0 -0.47486354594727231 2.6933965097161519 0 0 0 0 86.797583190008723 23.549543367127626 0 23.549543367127626 14.148768340135575 0 0 0 0 42.53988553849976 -34.93509570871538 0 -34.93509570871538 18.007113605912309 0 0 0 0 -55.503826299746436 -18.417522002411715 0 -18.417522002411715 4.489088235750387 0 0 0 0 7.3884961857332598 -29.20591707125277 0 -29.20591707125277 135.73490407824283 0 0 0 0 -0.35822797370562431 1.9603057838524904 0 1.9603057838524904 7.6069046961173967 0 0 0 0 -25.17655242098779 -58.604078676809877 0 -58.604078676809877 18.956042119825725 0 0 0 0 -0.012969206032517971 -65.139575408033124 0 -65.139575408033124 10.990918366413098 0 0 0 0 -39.155661626277571 -26.775962972227717 0 -26.775962972227717 376.42326597859937 0 0 0 0 12.340505536341695 -34.201429445573012 0 -34.201429445573012 -88.985048219241435 0 0 0 0 -0.27308285573789481 -0.62577791153594831 0 -0.62577791153594831 0.29957570759980001 0 0 0 0 37.022116782043383 125.86143913190608 0 125.86143913190608 251.0930517608067 0 0 0 0 102.28629676899726 40.553130028922169 0 40.553130028922169 296.53359304375044 0 0 0 0 186.10873614665644 -24.215045886281587 0 -24.215045886281587 341.78278024381871 0 0 0 0 154.25684747427226 -54.531311720442318 0 -54.531311720442318 316.70842002923018 0 0 0 0 0.71114915953451052 -0.46323958873227866 0 -0.46323958873227866 0.36721309987556339 0 0 0 0 182.35461464762238 19.487866552361993 0 19.487866552361993 19.245666639413685 0 0 0 0 96.947705744374048 -140.73624595424189 0 -140.73624595424189 374.89555934849159 0 0 0 0 0.66163651821890268 -1.1063880068934395 0 -1.1063880068934395 0.35355173757237424 0 0 0 0 -13.984932725498048 -0.82709844552664435 0 -0.82709844552664435 164.2134757990425 0 0 0 0 32.857355675804371 -59.795517622456828 0 -59.795517622456828 148.08394237518951 0 0 0 0 61.73078587355235 60.273509776816354 0 60.273509776816354 -60.901593244350806 0 0 0 0 24.696476322160251 130.30731119906704 0 130.30731119906704 375.70399434267893 0 0 0 0 -23.682080066595972 16.035483561441652 0 16.035483561441652 394.22528436253197 0 0 0 0 -9.2040027608630766 61.069060847671608 0 61.069060847671608 418.40518830329529 0 0 0 0 -29.67100023576819 -21.772689574638207 0 -21.772689574638207 665.08509598302044 0 0 0 0 122.47754541369042 -28.160225311390604 0 -28.160225311390604 534.73955263519019 0 0 0 0 14.203923874353109 9.3104884960775962 0 9.3104884960775962 524.76355399792374 0 0 0 0 72.632007673444832 8.8507192415127065 0 8.8507192415127065 516.83875116530544 0 0 0 0 177.86442801687056 1.4662334406434638 0 1.4662334406434638 360.598472943253 0 0 0 0 185.35543478319678 132.10625152645594 0 132.10625152645594 375.58158163403277 0 0 0 0 74.144024686354953 170.87726394343917 0 170.87726394343917 396.49805373155687 0 0 0 0 331.45022431850799 180.13946898004815 0 180.13946898004815 396.69200900799478 0 0 0 0 207.85782676060904 -181.42766143330755 0 -181.42766143330755 774.20005649358791 0 0 0 0 91.993384143115463 240.98784676533978 0 240.98784676533978 566.26289124457253 0 0 0 0 1.0423535166430797 -1.9484917124222676 0 -1.9484917124222676 5.5317747348873354 0 0 0 0 387.74454301842809 -83.064921472321657 0 -83.064921472321657 12.543157803680515 0 0 0 0 -0.090556949420169341 -0.34312220990585729 0 -0.34312220990585729 0.96455106521648304 0 0 0 0 -8.6585459940567091 77.006234955668333 0 77.006234955668333 290.7071382167378 0 0 0 0 9.0626252803643297 -3.1245980523563048 0 -3.1245980523563048 536.8093218370268 0 0 0 0 119.11934551278991 198.1298295855122 0 198.1298295855122 182.10028713209613 0 0 0 0 59.214961459216852 98.099026631447487 0 98.099026631447487 121.67686189469532 0 0 0 0 26.17273296963117 6.1567587141908007 0 6.1567587141908007 95.326716231764294 0 0 0 0 -48.564037158668725 26.968427392450394 0 26.968427392450394 95.017268927993427 0 0 0 0 -26.657832852853602 -46.229336246277853 0 -46.229336246277853 29.652170655768714 0 0 0 0 29.937790217265672 7.2972515568835661 0 7.2972515568835661 18.592493502772413 0 0 0 0 -7.1175181740317157 21.842557416683121 0 21.842557416683121 123.94397334129894 0 0 0 0 26.151123705685123 9.4738539187692368 0 9.4738539187692368 63.680017299353494 0 0 0 0 11.535051041749512 -80.655378873845621 0 -80.655378873845621 14.183569362998242 0 0 0 0 2.6170004053873077 -5.2135447378837725 0 -5.2135447378837725 15.239650784451044 0 0 0 0 93.346594269670391 -19.629661438088078 0 -19.629661438088078 -22.364064420078648 0 0 0 0 -18.254638809137305 -48.440787925461336 0 -48.440787925461336 12.190814914516523 0 0 0 0 8.2502531935435854 -66.145136900471698 0 -66.145136900471698 -24.339401014270607 0 0 0 0 -15.952095289702809 -38.022715591598498 0 -38.022715591598498 88.151402648710331 0 0 0 0 -94.350239180612618 -181.47432794933411 0 -181.47432794933411 -55.765362301499408 0 0 0 0 -30.393134782806555 -38.368768268675922 0 -38.368768268675922 108.00832068561067 0 0 0 0 74.7323344137898 -100.1649775544829 0 -100.1649775544829 -59.655005700144102 0 0 0 0 -198.65865993588838 -162.34790390563285 0 -162.34790390563285 98.612401302627404 0 0 0 0 -49.18470985849217 -58.89805015492675 0 -58.89805015492675 84.42083684928366 0 0 0 0 -22.346840465614978 -30.741341739233562 0 -30.741341739233562 105.86258941611308 0 0 0 0 -179.54786951663078 -258.35060700886243 0 -258.35060700886243 38.547645285259932 0 0 0 0 -29.180659273026805 -11.892400058185444 0 -11.892400058185444 140.29618326144555 0 0 0 0 -112.27896713647715 122.86803686034909 0 122.86803686034909 -24.858504226533569 0 0 0 0 -3.9103778078451796 283.72813583262086 0 283.72813583262086 142.21691965603713 0 0 0 0 -302.68378126817424 332.17819447170223 0 332.17819447170223 627.165074283801 0 0 0 0 -5.784886369455764 -29.4698696788587 0 -29.4698696788587 144.61515487776433 0 0 0 0 -411.88908882035639 149.72007934691555 0 149.72007934691555 332.00122632027524 0 0 0 0 -4.6577580158510559 -29.628576552148218 0 -29.628576552148218 22.600315234303594 0 0 0 0 -18.866484486032718 -75.333297594190284 0 -75.333297594190284 190.836094815656 0 0 0 0 -430.28203942525124 -867.26892881293861 0 -867.26892881293861 450.66311193171737 0 0 0 0 201.34497277274409 511.08333831872005 0 511.08333831872005 576.41481842836038 0 0 0 0 -11.245612443124042 -85.382072647666945 0 -85.382072647666945 173.1801127596423 0 0 0 0 -16.420225705070656 -598.9985603098321 0 -598.9985603098321 -167.84179763477005 0 0 0 0 145.25630376705703 -221.56473634441863 0 -221.56473634441863 -215.65891494762036 0 0 0 0 6.1269366110818879 -33.451602176457527 0 -33.451602176457527 171.29253346849146 0 0 0 0 -68.182675167621085 -88.667626086615201 0 -88.667626086615201 53.432936592798796 0 0 0 0 -15.809937746874027 140.35365796300175 0 140.35365796300175 607.9209540357806 0 0 0 0 -74.438079919583771 -101.04816486793425 0 -101.04816486793425 90.05676651057729 0 0 0 0 84.734472841208003 -291.0297602294886 0 -291.0297602294886 315.37847021273046 0 0 0 0 -103.70988790794468 -203.20373074054078 0 -203.20373074054078 29.951607782539213 0 0 0 0 -382.41191040644799 -152.26476553838211 0 -152.26476553838211 249.67149566925946 0 0 0 0 -252.15757850064983 162.84222331008823 0 162.84222331008823 789.47657034385156 0 0 0 0 -250.51089825703457 252.29246423946279 0 252.29246423946279 1502.8396843438948 0 0 0 0 -149.69731696864619 -36.794277265243636 0 -36.794277265243636 1000.4091230070262 0 0 0 0 -44.192532735018176 -66.8696958812302 0 -66.8696958812302 486.91226233915376 0 0 0 0 -154.99687642250865 -332.69867672500777 0 -332.69867672500777 638.09256553779687 0 0 0 0 37.229882489632274 28.954286628838254 0 28.954286628838254 17.145779571330486 0 0 0 0 13.499051311848234 112.64395030112155 0 112.64395030112155 -254.5480782343584 0 0 0 0 23.94548078042309 20.478920183577618 0 20.478920183577618 13.441345154864688 0 0 0 0 646.23607264848943 -883.12906081699293 0 -883.12906081699293 1031.7857551712623 0 0 0 0 -3.4370695899379449 -3.0531210909837299 0 -3.0531210909837299 11.805981733435129 0 0 0 0 495.4643204365957 96.690917139306293 0 96.690917139306293 1599.4636080906639 0 0 0 0 -201.2251683472914 -543.10004742400952 0 -543.10004742400952 1456.1544915247332 0 0 0 0 164.1030870686227 -633.34357709704091 0 -633.34357709704091 1644.5573718312946 0 0 0 0 -11.246893126315626 228.92604884275897 0 228.92604884275897 -285.28770559023542 0 0 0 0 -157.87027611685789 115.22846983029194 0 115.22846983029194 -100.11245368548225 0 0 0 0 -12.603709543092009 55.937815400906402 0 55.937815400906402 -96.833431263907187 0 0 0 0 7.5973321356383643 7.5132033724139369 0 7.5132033724139369 5.980012267536079 0 0 0 0 25.74982923906191 242.71239045349444 0 242.71239045349444 -387.34202444687617 0 0 0 0 -137.69254030432967 -580.84622636624954 0 -580.84622636624954 1750.5638532773746 0 0 0 0 -151.65331610261637 -527.79825775491918 0 -527.79825775491918 71.290449209440339 0 0 0 0 293.71217933118487 -29.679218263021539 0 -29.679218263021539 -57.362228076995962 0 0 0 0 71.863976472206559 -27.015976004523054 0 -27.015976004523054 344.90134734692947 0 0 0 0 -0.60518878669307163 3.5249682565438842 0 3.5249682565438842 15.674891775391025 0 0 0 0 536.69139763377461 -537.33514348891185 0 -537.33514348891185 281.00261161852904 0 0 0 0 76.499634273417541 -324.19991886919524 0 -324.19991886919524 929.81519402215235 0 0 0 0 -597.98208884095038 853.47187060222291 0 853.47187060222291 567.5570107790827 0 0 0 0 280.85666558444791 184.42001576694838 0 184.42001576694838 -180.53011131231642 0 0 0 0 -231.34704557204532 -470.70046932439891 0 -470.70046932439891 508.31322434355843 0 0 0 0 -587.84642068070934 32.24370081308416 0 32.24370081308416 100.71284017262042 0 0 0 0 91.950575851504254 -75.827799407265047 0 -75.827799407265047 -272.23690108420124 0 0 0 0 5.8801228620901611 -0.11452128581753129 0 -0.11452128581753129 0.422129568441866 0 0 0 0 137.5827274339299 -163.28632281221508 0 -163.28632281221508 -109.18467434669037 0 0 0 0 -74.851937559429643 -80.858937687579783 0 -80.858937687579783 1225.4712112816742 0 0 0 0 275.36979700204029 -213.57295626208725 0 -213.57295626208725 858.27446691860587 0 0 0 0 40.1754491157335 49.079641345635991 0 49.079641345635991 647.36032572110253 0 0 0 0 -15.212725124845747 -29.665383656643826 0 -29.665383656643826 62.997318106268722 0 0 0 0 -13.501450510022551 -27.972103593286647 0 -27.972103593286647 43.5056094082247 0 0 0 0 18.986903006701141 -71.77834783604203 0 -71.77834783604203 -94.797212938699886 0 0 0 0 -132.90231541915455 -192.04484540487465 0 -192.04484540487465 183.53640230325891 0 0 0 0 -61.620316852451651 -98.165926432608103 0 -98.165926432608103 45.705472422949242 0 0 0 0 -168.74617542485612 -74.500426262820838 0 -74.500426262820838 180.64126848660362 0 0 0 0 -198.35966480342768 66.433022361357189 0 66.433022361357189 28.411649383691838 0 0 0 0 -22.903998011797075 -80.152414820933529 0 -80.152414820933529 178.39828903854357 0 0 0 0 -11.586406891325485 -35.203443064795714 0 -35.203443064795714 25.69758740405905 0 0 0 0 -201.84915363764685 -131.85126410941939 0 -131.85126410941939 191.14752300516557 0 0 0 0 15.528933512923231 -256.57476385089467 0 -256.57476385089467 -125.87844222185959 0 0 0 0 -14.740247161792905 -36.373837802411785 0 -36.373837802411785 43.678789110758444 0 0 0 0 -18.308137104111058 -80.548818705802006 0 -80.548818705802006 175.15892374461365 0 0 0 0 -379.02382015043088 -367.69015845984177 0 -367.69015845984177 168.60252914570447 0 0 0 0 -510.2693992883901 95.956498657005795 0 95.956498657005795 412.76446412692894 0 0 0 0 -255.46129934086787 -98.361053577762505 0 -98.361053577762505 483.47926709002058 0 0 0 0 -168.47952794925482 63.751194507862238 0 63.751194507862238 503.78187579270161 0 0 0 0 -244.6084470400807 -34.928028314614494 0 -34.928028314614494 386.19414449032047 0 0 0 0 -98.483710231104737 20.464249745054985 0 20.464249745054985 310.74435653688852 0 0 0 0 -176.89608911621576 20.15820062396233 0 20.15820062396233 393.49866293791092 0 0 0 0 -134.65556044266623 12.869867977329704 0 12.869867977329704 248.64492668674211 0 0 0 0 -100.47581786192404 -30.450047866201203 0 -30.450047866201203 263.07642711943481 0 0 0 0 -117.81526979847558 -108.30838701062021 0 -108.30838701062021 267.17410597691196 0 0 0 0 -152.43728779949333 -78.610314120829571 0 -78.610314120829571 321.57114303440903 0 0 0 0 -127.23482057644753 -155.89172138196409 0 -155.89172138196409 440.24791826639557 0 0 0 0 -190.10974433941374 -166.07070544511953 0 -166.07070544511953 438.96415773659828 0 0 0 0 -107.56351060538702 -221.86078062668457 0 -221.86078062668457 489.92295578982157 0 0 0 0 -170.46496648130915 -99.657508970383788 0 -99.657508970383788 428.84541944882949 0 0 0 0 760.52581609329627 -509.93205983478401 0 -509.93205983478401 -344.19853676430648 0 0 0 0 -447.49982432124858 751.84454700583592 0 751.84454700583592 1521.2508956164347 0 0 0 0 -179.22167715245359 -223.04845972969633 0 -223.04845972969633 277.4578270665952 0 0 0 0 -176.70328628389143 -212.64777307488839 0 -212.64777307488839 320.38940220832592 0 0 0 0 -129.49112661660911 -139.88969843051746 0 -139.88969843051746 193.31266882516502 0 0 0 0 -169.44446622601117 -228.84254224357574 0 -228.84254224357574 198.64572484156815 0 0 0 0 -121.92762161790506 -111.4945473484695 0 -111.4945473484695 299.78408320648305 0 0 0 0 -108.53350515479633 -223.70244346645632 0 -223.70244346645632 26.248677419876913 0 0 0 0 -115.86906226197107 -129.83986041282333 0 -129.83986041282333 200.60299319808837 0 0 0 0 -90.14293810670415 -54.565058721083915 0 -54.565058721083915 195.35223248740658 0 0 0 0 -58.725878174613172 16.846707065342343 0 16.846707065342343 208.26901714443011 0 0 0 0 -71.440571737724895 -60.519637349410914 0 -60.519637349410914 149.25255857898446 0 0 0 0 -61.91136770684443 -11.509918091644067 0 -11.509918091644067 113.60954972325999 0 0 0 0 -82.253186407051999 -84.430636654156842 0 -84.430636654156842 96.383155249786796 0 0 0 0 -73.239364948132788 -49.028878724959213 0 -49.028878724959213 36.138203523441916 0 0 0 0 -75.590473705882687 -100.99937438993948 0 -100.99937438993948 115.60564987859107 0 0 0 0 -109.42970328964702 -153.42473421223985 0 -153.42473421223985 70.670981327362824 0 0 0 0 -197.19910565266036 -741.79130804108718 0 -741.79130804108718 714.64746762601135 0 0 0 0 -38.194452499250168 -62.061514803039728 0 -62.061514803039728 162.81290309813284 0 0 0 0 2.3519988945748374 -7.1052334602372014 0 -7.1052334602372014 4.9211511472289544 0 0 0 0 709.79472079006018 462.95433410833357 0 462.95433410833357 609.91286478057737 0 0 0 0 -6.1053891758001555 2.7146397783944849 0 2.7146397783944849 -73.54176419661826 0 0 0 0 -46.273206616455354 -124.9250053681717 0 -124.9250053681717 -71.893833163412637 0 0 0 0 165.45122699803414 -292.76395847179219 0 -292.76395847179219 288.54368405893911 0 0 0 0 110.35503422127658 -90.205503073053478 0 -90.205503073053478 -147.82653351875342 0 0 0 0 70.47206281214676 -91.959042161764955 0 -91.959042161764955 26.909797639149474 0 0 0 0 7.8295516917201553 -41.865099295100663 0 -41.865099295100663 754.1448724396032 0 0 0 0 -48.68787796647581 102.96324368698333 0 102.96324368698333 472.95634252246236 0 0 0 0 -286.36530241062519 276.71631625702867 0 276.71631625702867 501.07358676777949 0 0 0 0 878.50685445771785 -308.69103733741576 0 -308.69103733741576 14.737849910161458 0 0 0 0 1.0990816935554841 2.9214033017791881 0 2.9214033017791881 9.7143473728026493 0 0 0 0 -262.91128714604713 -98.473830509472464 0 -98.473830509472464 319.63326911838521 0 0 0 0 -105.24642030705954 164.13845443714672 0 164.13845443714672 831.64973866275341 0 0 0 0 130.82233097441144 -507.76226448711168 0 -507.76226448711168 737.46661481131741 0 0 0 0 450.8425992980454 94.173464695169969 0 94.173464695169969 401.73519864222908 0 0 0 0 -125.35493284168246 -10.624701560293033 0 -10.624701560293033 335.89521064632572 0 0 0 0 53.351474903791257 26.06919986313369 0 26.06919986313369 343.15383857714914 0 0 0 0 25.065985180616106 8.6025078005113755 0 8.6025078005113755 385.76454140204078 0 0 0 0 222.69116063056902 0.10871589488669997 0 0.10871589488669997 259.14771691359056 0 0 0 0 193.02153606451179 -121.27614326422918 0 -121.27614326422918 324.60072836205654 0 0 0 0 156.91294856571011 -74.449331077878014 0 -74.449331077878014 374.94136225704278 0 0 0 0 277.42683426651786 -213.90644087871806 0 -213.90644087871806 527.81832362931164 0 0 0 0 149.11979628010931 -95.091679787910834 0 -95.091679787910834 382.80904346914031 0 0 0 0 94.684849154947216 3.1924172745193573 0 3.1924172745193573 529.61829935891728 0 0 0 0 154.56717225719305 -52.596194936631946 0 -52.596194936631946 328.50243775380659 0 0 0 0 170.76990337386246 -80.887873017019956 0 -80.887873017019956 290.8326988646586 0 0 0 0 172.96384174485792 -48.529337375075556 0 -48.529337375075556 241.52920380668365 0 0 0 0 178.7487996532999 -34.838818062295104 0 -34.838818062295104 195.70949161428143 0 0 0 0 168.61065447646112 -8.7832764780469006 0 -8.7832764780469006 202.58650008466429 0 0 0 0 131.0859561446515 0.32386347550345818 0 0.32386347550345818 191.79089204131742 0 0 0 0 163.70820305862276 -49.484048817736038 0 -49.484048817736038 239.75424713321991 0 0 0 0 184.15009114142532 -57.332474243534307 0 -57.332474243534307 232.98800031298015 0 0 0 0 184.18619399268459 -49.707436280557886 0 -49.707436280557886 146.31623953639064 0 0 0 0 71.898513009889669 -56.962664365913952 0 -56.962664365913952 240.98570830778044 0 0 0 0 119.81187657258607 -11.631687516492093 0 -11.631687516492093 210.41808303302241 0 0 0 0 -57.8716649236178 16.452964388547116 0 16.452964388547116 223.86154334895764 0 0 0 0 58.853859313507144 7.675425987719791 0 7.675425987719791 213.5824737794901 0 0 0 0 -64.470565748274822 -21.610343015876424 0 -21.610343015876424 85.513094690686557 0 0 0 0 130.67540535711026 -12.494895517920668 0 -12.494895517920668 92.395610758278053 0 0 0 0 6.6341109089318522 -68.362191407355567 0 -68.362191407355567 183.6026732740138 0 0 0 0 -14.730448555609609 -5.7386274813570708 0 -5.7386274813570708 169.96919707678899 0 0 0 0 -199.17477835805531 19.160415696940618 0 19.160415696940618 178.26407588622533 0 0 0 0 -11.583419027768389 13.409229964363931 0 13.409229964363931 46.603408254974056 0 0 0 0 -6.2335149537384886 0.93944129098417761 0 0.93944129098417761 165.86556770393508 0 0 0 0 -107.20634796186282 85.481248558127845 0 85.481248558127845 164.14464964289618 0 0 0 0 17.104075688556804 70.957893612168846 0 70.957893612168846 253.72110126250482 0 0 0 0 161.38430985656248 2.3576693154973327 0 2.3576693154973327 129.41508922180219 0 0 0 0 176.55300577412771 65.304311181120283 0 65.304311181120283 208.75954650873609 0 0 0 0 195.02219540774055 160.40356765995762 0 160.40356765995762 340.53926232238882 0 0 0 0 191.11629742604728 60.769601167412475 0 60.769601167412475 209.55723630836292 0 0 0 0 168.98942906173465 -11.520971727266442 0 -11.520971727266442 211.35340457862185 0 0 0 0 186.26673106664663 39.989701073336619 0 39.989701073336619 220.63971797034901 0 0 0 0 181.41079909515349 21.793713292403481 0 21.793713292403481 154.00093511711748 0 0 0 0 160.42727467167802 -23.113917840015347 0 -23.113917840015347 177.52411465746991 0 0 0 0 -33.498101681494518 21.721990638092393 0 21.721990638092393 182.01948358153459 0 0 0 0 -54.43893838324766 22.549690257910697 0 22.549690257910697 182.31188416891382 0 0 0 0 -57.090395474887373 40.206202188521274 0 40.206202188521274 192.04315342800692 0 0 0 0 -44.01116534064613 30.526846422551898 0 30.526846422551898 184.22575018383213 0 0 0 0 -66.256451561889662 31.417762705561472 0 31.417762705561472 185.14792296336964 0 0 0 0 -56.334524301051715 14.494700217270292 0 14.494700217270292 174.46436290448764 0 0 0 0 -58.335338560926175 16.564393509426736 0 16.564393509426736 186.52435814318596 0 0 0 0 -38.440108402883197 13.292266479853424 0 13.292266479853424 184.63566518091102 0 0 0 0 -52.392593726275663 23.145632596730138 0 23.145632596730138 165.77655413759931 0 0 0 0 -63.73595783163637 13.285580305760959 0 13.285580305760959 158.68674746569013 0 0 0 0 -46.867847693504245 54.851269008970121 0 54.851269008970121 85.51551382796606 0 0 0 0 -71.127107279103257 31.229279349936405 0 31.229279349936405 151.56358435342554 0 0 0 0 -36.872149585037732 55.519329844559252 0 55.519329844559252 -6.3119672309258021 0 0 0 0 -67.456056655358125 28.770465266801693 0 28.770465266801693 97.355861068645027 0 0 0 0 -66.503578204803489 5.9119199729757383 0 5.9119199729757383 81.837833345431136 0 0 0 0 -74.747653494425322 17.839296000747709 0 17.839296000747709 146.63719064934412 0 0 0 0 -62.664634043681872 38.977012212271802 0 38.977012212271802 96.860043356980896 0 0 0 0 -58.257154741160321 21.507469703952665 0 21.507469703952665 100.56062859864323 0 0 0 0 -67.698520671504411 19.670430197089445 0 19.670430197089445 172.56926620649756 0 0 0 0 -69.158043105357137 35.83429566322593 0 35.83429566322593 152.96320089604706 0 0 0 0 -78.692217708229691 11.900555847256328 0 11.900555847256328 160.55587204077892 0 0 0 0 -57.417955314831374 50.642848838486316 0 50.642848838486316 173.45445606522844 0 0 0 0 -53.714414906928596 35.110556793311844 0 35.110556793311844 150.36445890125469 0 0 0 0 -81.197673912433402 -21.90461316263827 0 -21.90461316263827 143.14224008389283 0 0 0 0 -24.787803468145285 69.239237461952143 0 69.239237461952143 195.37106890153518 0 0 0 0 -59.370347673807828 21.718384961495758 0 21.718384961495758 184.63543561316328 0 0 0 0 -30.179084617810986 65.510166542211664 0 65.510166542211664 200.3443915312746 0 0 0 0 -56.772723535683781 39.71597719239071 0 39.71597719239071 193.98576876200968 0 0 0 0 -22.572922406867292 51.723545162036316 0 51.723545162036316 185.22201997222146 0 0 0 0 -23.937075902025754 54.210676688642707 0 54.210676688642707 185.51548851258121 0 0 0 0 -2.8035478154251905 75.411228564757039 0 75.411228564757039 202.74278982340184 0 0 0 0 0.75962350925919964 66.496123979755794 0 66.496123979755794 183.48677141363441 0 0 0 0 83.384413327740248 271.60736593925139 0 271.60736593925139 332.8625773233216 0 0 0 0 54.213486230717308 94.544953619486478 0 94.544953619486478 194.28472286787292 0 0 0 0 -1.1387150548359468 0.66736468513737179 0 0.66736468513737179 -0.36286091553037636 0 0 0 0 -43.548380482669359 87.592245404899586 0 87.592245404899586 239.24272878590273 0 0 0 0 -55.025800188264498 51.03629974704927 0 51.03629974704927 230.18230911809951 0 0 0 0 -66.760430107463435 28.380407111646491 0 28.380407111646491 195.93739871407161 0 0 0 0 -61.589979395409443 72.080637416449463 0 72.080637416449463 277.71317555455607 0 0 0 0 -180.92999643158936 140.83360309405543 0 140.83360309405543 280.26302998086612 0 0 0 0 -282.18563889717814 -41.719825366817531 0 -41.719825366817531 290.01196294090187 0 0 0 0 -290.9636200083263 36.77658238731965 0 36.77658238731965 159.53024209856085 0 0 0 0 -449.14973180751167 -250.34450632640801 0 -250.34450632640801 -44.765607613298926 0 0 0 0 -235.39699628556144 -19.243162801227299 0 -19.243162801227299 58.60016526812251 0 0 0 0 -207.95327410854253 -18.008084267508821 0 -18.008084267508821 52.74504307564348 0 0 0 0 -218.17651559009488 -32.676572237051005 0 -32.676572237051005 138.94131783739431 0 0 0 0 -200.53315711985715 50.003847430962196 0 50.003847430962196 128.15487204983947 0 0 0 0 -151.590913259638 -0.92447445412835805 0 -0.92447445412835805 159.23851634041057 0 0 0 0 -215.2219805089909 27.721950675186235 0 27.721950675186235 113.20154268390615 0 0 0 0 -210.30788921073395 29.223103404830908 0 29.223103404830908 99.548626609045016 0 0 0 0 -225.65116959662851 -17.819078315471415 0 -17.819078315471415 99.239251229329057 0 0 0 0 -206.27499243348899 35.420574383177154 0 35.420574383177154 63.871864200395066 0 0 0 0 -80.441656555554914 21.611509005044354 0 21.611509005044354 25.411656453128671 0 0 0 0 -155.07417329286579 46.010519441377255 0 46.010519441377255 33.525373177457368 0 0 0 0 -187.67360716348281 -19.442648894102604 0 -19.442648894102604 54.409862381726271 0 0 0 0 -151.8520680366878 2.3801807582785841 0 2.3801807582785841 52.156645597249735 0 0 0 0 -220.46175702344652 -116.782965819737 0 -116.782965819737 -15.998762912029633 0 0 0 0 -101.88871445058726 -58.655181725596776 0 -58.655181725596776 -20.212917076700251 0 0 0 0 -193.75142685635103 -31.823053962274571 0 -31.823053962274571 30.227516241604462 0 0 0 0 -267.63382308724675 -60.882126574470021 0 -60.882126574470021 53.620747141278116 0 0 0 0 -3.677650405419401 4.272164933710684 0 4.272164933710684 3.3818572163265515 0 0 0 0 -2.7312575242287975 12.768510729312737 0 12.768510729312737 -2.4151393438494466 0 0 0 0 8.5580876119661298 48.053030367547763 0 48.053030367547763 124.09913676149154 0 0 0 0 37.226264028165133 113.70562161166163 0 113.70562161166163 195.8436126235174 0 0 0 0 25.614180412525002 71.627898546728829 0 71.627898546728829 145.80475045017374 0 0 0 0 -11.695854883708307 64.960669784981292 0 64.960669784981292 184.57719072504005 0 0 0 0 -101.88871445059249 -58.655181725742295 0 -58.655181725742295 -20.212917076663871 0 0 0 0 -101.88871445058635 -58.655181725538569 0 -58.655181725538569 -20.21291707639466 0 0 0 0 -26.938264494611076 8.2786877481194097 0 8.2786877481194097 67.140106434613699 0 0 0 0 -38.162939349478904 12.703223629858257 0 12.703223629858257 14.065579773610807 0 0 0 0 -81.962960994869263 -5.0042857503383402 0 -5.0042857503383402 31.094119391869754 0 0 0 0 -5.9470791208651042 -5.5332452325949788 0 -5.5332452325949788 18.561025002812357 0 0 0 0 -19.096219273469046 26.930733196073561 0 26.930733196073561 90.294951008065254 0 0 0 0 19.740156966670384 22.961243702440697 0 22.961243702440697 41.603824569901917 0 0 0 0 -5.7642528294706654 -6.526847290958699 0 -6.526847290958699 15.463946044560998 0 0 0 0 -36.929886378930405 -38.873554199286446 0 -38.873554199286446 34.769106890134935 0 0 0 0 -9.9781281358210663 34.756467635648733 0 34.756467635648733 143.19242715928704 0 0 0 0 -11.88663505815839 42.460767843323993 0 42.460767843323993 153.19739007315366 0 0 0 0 -11.63429365289508 53.786994664167423 0 53.786994664167423 157.34229531383608 0 0 0 0 -32.077330876444648 42.684082224979647 0 42.684082224979647 177.77391968872689 0 0 0 0 -24.857584731931638 20.819809511987842 0 20.819809511987842 157.26323453825898 0 0 0 0 -30.734528830307397 30.359623067379289 0 30.359623067379289 166.92147481723805 0 0 0 0 -112.40010555313552 -32.335291981660703 0 -32.335291981660703 420.10072039776423 0 0 0 0 14.656554883089896 75.486465672670647 0 75.486465672670647 430.636811776174 0 0 0 0 -44.32102836867557 -13.892305300665612 0 -13.892305300665612 24.585686309110315 0 0 0 0 -2.2384711003403526 1.8154324828899178 0 1.8154324828899178 4.1280599070998676 0 0 0 0 -10.998394861868462 6.5013782515743515 0 6.5013782515743515 18.372401041095145 0 0 0 0 -29.074480070200707 22.759084882236493 0 22.759084882236493 364.41881426268083 0 0 0 0 -83.340664233370944 51.459390178177273 0 51.459390178177273 472.85251433795929 0 0 0 0 -136.22017229278561 -115.36816058949626 0 -115.36816058949626 658.96127612390774 0 0 0 0 -0.98487913404890204 0.41353502348130178 0 0.41353502348130178 0.3498775454004317 0 0 0 0 -144.94049303650365 166.63738544649823 0 166.63738544649823 -119.13140307230788 0 0 0 0 -57.106034899437418 47.864614317535597 0 47.864614317535597 29.923710020644648 0 0 0 0 -256.31545857136706 156.01802398642758 0 156.01802398642758 113.71388908323064 0 0 0 0 -255.3565830846662 120.32133164987567 0 120.32133164987567 224.25741303147515 0 0 0 0 -150.36913103928407 40.634142827053438 0 40.634142827053438 327.10757247058064 0 0 0 0 -217.44045207438558 -9.9751375047235342 0 -9.9751375047235342 319.20602738487651 0 0 0 0 88.509607322939956 -53.962255715021456 0 -53.962255715021456 -206.67737523760297 0 0 0 0 -5.4708073375801636 -1.2366643800397128 0 -1.2366643800397128 0.23365860156210516 0 0 0 0 -46.170260801058248 -16.215789463265537 0 -16.215789463265537 -11.828025160262769 0 0 0 0 -42.383843925877954 -44.417207579019305 0 -44.417207579019305 288.25938115995814 0 0 0 0 -92.548401208003327 -7.9210321653827123 0 -7.9210321653827123 274.66884641675279 0 0 0 0 -1.2861310437832572 -118.93384871478338 0 -118.93384871478338 -145.01646029960102 0 0 0 0 -103.40691969057821 -86.246092706314812 0 -86.246092706314812 246.17471289366222 0 0 0 0 -49.612608770205497 81.075714195660112 0 81.075714195660112 512.84030309214722 0 0 0 0 -10.954893737992279 -146.11572963003709 0 -146.11572963003709 278.15407521761517 0 0 0 0 151.05667591490246 248.50921764520535 0 248.50921764520535 490.66484132045298 0 0 0 0 -100.57342676832694 -21.186726859472401 0 -21.186726859472401 511.97541471284057 0 0 0 0 1.8330520822734997 2.3053983868399825 0 2.3053983868399825 3.1233221365670829 0 0 0 0 220.63033019903958 -43.307170939982825 0 -43.307170939982825 309.10778461887094 0 0 0 0 377.78215635310778 160.94068854597936 0 160.94068854597936 261.10692999682215 0 0 0 0 -183.85650352899927 36.412603664888593 0 36.412603664888593 317.29103571304586 0 0 0 0 -11.5513560198318 33.246878239589932 0 33.246878239589932 242.03856979781995 0 0 0 0 -81.828153480149865 90.18374245621817 0 90.18374245621817 291.97134583152729 0 0 0 0 66.794690729319939 180.6464489299251 0 180.6464489299251 472.11469803972068 0 0 0 0 192.92073579750644 141.32999622634088 0 141.32999622634088 70.984460195162683 0 0 0 0 183.09903280084336 150.09467209838476 0 150.09467209838476 167.33918930249274 0 0 0 0 111.5007317239625 127.6436045918017 0 127.6436045918017 167.02584638893313 0 0 0 0 169.95900392798842 81.732236861716956 0 81.732236861716956 104.43696753043696 0 0 0 0 153.29476382715629 70.853906050730075 0 70.853906050730075 243.21771730913315 0 0 0 0 199.91903156337327 43.189531414565863 0 43.189531414565863 148.64995339133748 0 0 0 0 333.80406240772561 283.67063712430536 0 283.67063712430536 211.16524517644575 0 0 0 0 404.88026402454688 130.27921998548118 0 130.27921998548118 -108.66009949080762 0 0 0 0 3.4762561237217233 5.4995777600173881 0 5.4995777600173881 7.6985487090611855 0 0 0 0 -46.736514365160815 194.71507947575083 0 194.71507947575083 -56.749382490015705 0 0 0 0 117.04229012492351 -63.459900140558602 0 -63.459900140558602 16.107623851541575 0 0 0 0 30.9376348080478 37.090378129098099 0 37.090378129098099 -70.172120083152549 0 0 0 0 58.438927207235018 74.582153314178868 0 74.582153314178868 86.036652204216807 0 0 0 0 27.357199294187488 23.032526381008211 0 23.032526381008211 7.4546564603224397 0 0 0 0 43.487112765679825 51.716152206608967 0 51.716152206608967 78.473486312039313 0 0 0 0 18.480253904132155 -27.571696369443089 0 -27.571696369443089 68.102632596657827 0 0 0 0 -83.343382479460615 103.05795799619227 0 103.05795799619227 69.814064556136145 0 0 0 0 -35.375726773093348 18.498763275209058 0 18.498763275209058 337.6500027153088 0 0 0 0 4.8514669915992101 44.295743381997454 0 44.295743381997454 335.74249548983244 0 0 0 0 -11.216965926769184 -5.0492502529450576 0 -5.0492502529450576 194.5794986631372 0 0 0 0 -24.048661048145782 25.003606803111325 0 25.003606803111325 367.36227237145067 0 0 0 0 -8.6645340304395919 46.177809599576904 0 46.177809599576904 352.05799608922098 0 0 0 0 -3.1134310617208878 1.7167187316235868 0 1.7167187316235868 375.19026686882717 0 0 0 0 -5.0593074140005001 39.498862569431367 0 39.498862569431367 361.57609705999494 0 0 0 0 8.4463895939684335 37.659231437784911 0 37.659231437784911 344.60374705240247 0 0 0 0 -10.895244363848917 108.21144997777446 0 108.21144997777446 374.22994246608869 0 0 0 0 85.709708690515868 -67.313515028567053 0 -67.313515028567053 413.09892237663735 0 0 0 0 206.98982547098058 -34.593958103181649 0 -34.593958103181649 297.57198811606213 0 0 0 0 61.775625624513395 66.317902884591604 0 66.317902884591604 295.62935562893131 0 0 0 0 10.82637526500632 -4.2738260367550538 0 -4.2738260367550538 372.91168785048649 0 0 0 0 29.695285039451274 -0.47733758479444077 0 -0.47733758479444077 364.12579378628288 0 0 0 0 31.08966279258825 -19.261836269972264 0 -19.261836269972264 371.98056458632345 0 0 0 0 15.606269071557596 5.8189044622631627 0 5.8189044622631627 366.27084325737087 0 0 0 0 19.303551021152835 53.446168578120705 0 53.446168578120705 390.29203027485346 0 0 0 0 9.0574573138456884 63.760718415986048 0 63.760718415986048 430.78022312562098 0 0 0 0 18.924745384224238 61.231063843639276 0 61.231063843639276 230.37804042837524 0 0 0 0 71.527533664232763 146.91320076430566 0 146.91320076430566 447.54723293118877 0 0 0 0 98.186544480197824 -103.27715236283984 0 -103.27715236283984 503.63262198559823 0 0 0 0 26.948311953942365 6.9416984774288721 0 6.9416984774288721 599.58504647706286 0 0 0 0 40.013789828031435 -21.803499744033616 0 -21.803499744033616 374.04724541434553 0 0 0 0 134.63521422258765 165.44294985324086 0 165.44294985324086 192.02094113227213 0 0 0 0 65.128149460221891 -222.62610855529601 0 -222.62610855529601 113.89105587580707 0 0 0 0 132.88449843278013 56.617756192441448 0 56.617756192441448 -65.167063577377121 0 0 0 0 0.088183598511774416 0.052784037935174055 0 0.052784037935174055 3.4968907996766916 0 0 0 0 74.902230218375209 99.069320965376392 0 99.069320965376392 137.97470273793078 0 0 0 0 79.513644893057744 103.12207830296393 0 103.12207830296393 77.933321443095338 0 0 0 0 34.679426872744031 59.254418880926096 0 59.254418880926096 228.54046821218071 0 0 0 0 79.747211547511441 146.02875416315874 0 146.02875416315874 156.29453955084318 0 0 0 0 78.169463685426138 44.234461228676082 0 44.234461228676082 -29.802045786451345 0 0 0 0 66.661578417486439 33.727015219172245 0 33.727015219172245 -20.547823526576394 0 0 0 0 -0.19320460536822262 0.36079604066923787 0 0.36079604066923787 7.7978186657413744 0 0 0 0 -98.138168025144068 1.5410957581843832 0 1.5410957581843832 11.234208583729924 0 0 0 0 85.13490414564852 4.0051515811937861 0 4.0051515811937861 -81.010349643140216 0 0 0 0 -137.84683490608563 9.8821923179129953 0 9.8821923179129953 10.522371834449586 0 0 0 0 28.95921883111 -60.13447430262022 0 -60.13447430262022 51.907626856467687 0 0 0 0 76.752113838048928 -97.572829531200114 0 -97.572829531200114 16.263455377033097 0 0 0 0 59.451062226383414 -64.338899512753414 0 -64.338899512753414 -5.1243431322145625 0 0 0 0 65.130644365338043 -97.611893730732845 0 -97.611893730732845 120.398665480403 0 0 0 0 73.334180480618556 -58.156379186882987 0 -58.156379186882987 49.543080739516881 0 0 0 0 58.947986676938108 -88.825419812332257 0 -88.825419812332257 42.046664096385939 0 0 0 0 50.75378478312112 -64.478385365800932 0 -64.478385365800932 142.77382731794205 0 0 0 0 90.652158009849302 -19.720093949115835 0 -19.720093949115835 137.37029843143318 0 0 0 0 16.551249343338725 -231.89375450674561 0 -231.89375450674561 250.75276451712125 0 0 0 0 -36.582649495093335 -72.795368118706392 0 -72.795368118706392 475.94338277136558 0 0 0 0 98.972346931588405 -146.82607068133075 0 -146.82607068133075 -53.449522398994304 0 0 0 0 43.082451216813297 -69.033191626542248 0 -69.033191626542248 200.01981035802601 0 0 0 0 110.76521942014696 -66.81254491423897 0 -66.81254491423897 49.990931511681993 0 0 0 0 -0.14047980406058222 -0.12811491742825609 0 -0.12811491742825609 2.5284685654711438 0 0 0 0 -0.055636629066966925 -2.1753959937705076 0 -2.1753959937705076 7.2804596007335931 0 0 0 0 -112.94607811578524 -8.993637042654882 0 -8.993637042654882 36.816594824747881 0 0 0 0 12.685095835439569 26.375367593253031 0 26.375367593253031 -55.876321072864812 0 0 0 0 33.499751739415672 -59.470550086538424 0 -59.470550086538424 7.3541857149102725 0 0 0 0 11.659762569888557 -32.029138625512132 0 -32.029138625512132 -24.4884377917042 0 0 0 0 11.999526414414959 -65.081422912895732 0 -65.081422912895732 14.914420908899046 0 0 0 0 40.420096130796054 -73.858088191977004 0 -73.858088191977004 4.8995789779437473 0 0 0 0 59.147036628377975 -78.347983303741785 0 -78.347983303741785 -1.1808412123064045 0 0 0 0 63.073069806497955 -84.988382389463368 0 -84.988382389463368 11.31853184846841 0 0 0 0 40.303510951513459 -72.509327632535133 0 -72.509327632535133 27.776972509993357 0 0 0 0 31.369706517524182 -46.754208718459267 0 -46.754208718459267 15.444394287536852 0 0 0 0 33.958478485211145 -26.805618688187678 0 -26.805618688187678 94.969378828107438 0 0 0 0 16.261631857125394 23.529935368424049 0 23.529935368424049 99.455334175087046 0 0 0 0 -15.682356469100029 -41.696824839760666 0 -41.696824839760666 39.258385873486986 0 0 0 0 -3.5403565178481067 11.95718857972679 0 11.95718857972679 -32.182511777224136 0 0 0 0 0.1251635837950989 11.415991330184625 0 11.415991330184625 -42.615382694042637 0 0 0 0 -89.40306223420275 -61.130956489570963 0 -61.130956489570963 32.490842189959949 0 0 0 0 -28.804427787487995 -88.161043627082108 0 -88.161043627082108 -19.457495334587293 0 0 0 0 13.197051644545667 -7.3487515732849715 0 -7.3487515732849715 -80.751745492460032 0 0 0 0 11.449145867711756 -43.675967580100405 0 -43.675967580100405 155.84865421849827 0 0 0 0 -27.725631078722294 113.93632699538284 0 113.93632699538284 125.56295599695295 0 0 0 0 -0.015827759319012057 0.16980728072046958 0 0.16980728072046958 1.3987960111452935 0 0 0 0 -8.6680040043532927 100.19214425325481 0 100.19214425325481 13.712052665970987 0 0 0 0 -21.37640977296148 75.257305554689083 0 75.257305554689083 174.41698108770652 0 0 0 0 -16.320928741752908 134.16933480187436 0 134.16933480187436 176.5697417134661 0 0 0 0 11.453992535121273 48.309698284909246 0 48.309698284909246 76.840088300086791 0 0 0 0 -17.036680188231685 139.13654544745805 0 139.13654544745805 273.57738397362118 0 0 0 0 -17.447462217582274 113.72695918170939 0 113.72695918170939 175.31545711203944 0 0 0 0 3.0698320549624611 130.45715398053289 0 130.45715398053289 169.66194828314474 0 0 0 0 -0.23207577693199033 -10.880557042750297 0 -10.880557042750297 285.15901120583294 0 0 0 0 146.92845084980212 -54.21915554543375 0 -54.21915554543375 208.09960798221437 0 0 0 0 -35.376492292640776 117.89843248810212 0 117.89843248810212 182.92957913147984 0 0 0 0 -58.624014629959262 -254.34067230701476 0 -254.34067230701476 306.63782037464262 0 0 0 0 72.809352794021834 186.70111321816512 0 186.70111321816512 499.62100198408825 0 0 0 0 0.20852265305361659 -0.44565673543758066 0 -0.44565673543758066 0.98267901481429476 0 0 0 0 23.730885567704718 25.731602917410783 0 25.731602917410783 238.42256115260534 0 0 0 0 11.511541806841281 57.634839296569481 0 57.634839296569481 200.26894055111916 0 0 0 0 9.683175800847323 48.166894868612872 0 48.166894868612872 306.88711319916183 0 0 0 0 0.010130498949735722 -1.2421820878248013 0 -1.2421820878248013 2.1229961381998521 0 0 0 0 -52.820044867356856 106.85194711892836 0 106.85194711892836 384.73858879516774 0 0 0 0 132.89223714149489 70.271771549654659 0 70.271771549654659 152.6038358311489 0 0 0 0 1.1158331312498433 160.20925173126307 0 160.20925173126307 267.83941333570692 0 0 0 0 58.892162453504497 79.606105715269223 0 79.606105715269223 375.32979022517975 0 0 0 0 14.094266537799243 61.207071574674046 0 61.207071574674046 375.84672354703071 0 0 0 0 -17.017091413048924 68.242862474984577 0 68.242862474984577 474.68551095986913 0 0 0 0 4.7872198812286229 86.517522320631542 0 86.517522320631542 379.59066696101763 0 0 0 0 -15.360784330606606 82.662592367520119 0 82.662592367520119 491.45602803720976 0 0 0 0 35.784356048795075 78.209603294395492 0 78.209603294395492 480.56275445578649 0 0 0 0 41.910367177078712 45.816584673179023 0 45.816584673179023 619.95647929003462 0 0 0 0 -13.659256056297863 4.1930489877586297 0 4.1930489877586297 589.99396690155845 0 0 0 0 -11.304631653348485 16.158482410387933 0 16.158482410387933 438.25042092381045 0 0 0 0 36.957339642701413 107.36032639997575 0 107.36032639997575 812.43312160374626 0 0 0 0 -0.11438119990163625 -0.5678380976613937 0 -0.5678380976613937 1.7168176294568127 0 0 0 0 40.750548425316182 133.54394892137134 0 133.54394892137134 492.83311538459384 0 0 0 0 69.36291593537851 113.20367779239314 0 113.20367779239314 341.19008005287469 0 0 0 0 22.819056389242917 12.458717547648121 0 12.458717547648121 629.19628228976217 0 0 0 0 138.70358261877834 -25.436210078187287 0 -25.436210078187287 569.12180477023503 0 0 0 0 90.204379206414572 -98.58937002143648 0 -98.58937002143648 629.47921352284902 0 0 0 0 0.025632336842161169 -66.978032309816626 0 -66.978032309816626 674.59809121212311 0 0 0 0 -112.60072479169028 82.065739129095164 0 82.065739129095164 602.44900450228124 0 0 0 0 -82.895673683491196 149.27620113429293 0 149.27620113429293 124.76964752686035 0 0 0 0 0.17474125742246316 0.71557455452108343 0 0.71557455452108343 3.274545870137672 0 0 0 0 12.649045127601845 -45.285398694532887 0 -45.285398694532887 -9.2492071597662289 0 0 0 0 23.616738759057228 27.210569893861248 0 27.210569893861248 71.99170053639682 0 0 0 0 0.042361021827061814 -52.363521495015448 0 -52.363521495015448 202.13994851564348 0 0 0 0 -28.669763877328208 -47.43233005348884 0 -47.43233005348884 530.07701750380511 0 0 0 0 96.580503999962332 -263.25646387253801 0 -263.25646387253801 649.58388371475394 0 0 0 0 70.471532073163502 -160.06780620261998 0 -160.06780620261998 252.38165883497277 0 0 0 0 14.300629694993518 -18.169855293536784 0 -18.169855293536784 142.79043570844806 0 0 0 0 47.460918033566429 -108.94841929143695 0 -108.94841929143695 242.59064560895786 0 0 0 0 -1.6885581970672092 -56.394531440848368 0 -56.394531440848368 320.63206356948649 0 0 0 0 -25.837102304442872 -71.741820716111761 0 -71.741820716111761 366.5678055704775 0 0 0 0 43.436446908663072 -63.027637562649033 0 -63.027637562649033 307.05013336728007 0 0 0 0 -7.6093268480389806 -82.926830395640536 0 -82.926830395640536 332.0695273980964 0 0 0 0 44.290612759790172 -56.759359237927129 0 -56.759359237927129 344.3685249899645 0 0 0 0 -0.18987902999134576 -36.811228704849782 0 -36.811228704849782 288.45134691231215 0 0 0 0 45.506022047466587 -104.13979195581851 0 -104.13979195581851 298.75411828010692 0 0 0 0 168.574627879486 -41.468053881231754 0 -41.468053881231754 251.81337613080541 0 0 0 0 198.38421988785251 -53.924588949732424 0 -53.924588949732424 275.12759805936366 0 0 0 0 164.38621319228852 -73.305334728531307 0 -73.305334728531307 266.46407210296456 0 0 0 0 150.88688427719342 -32.14824828854762 0 -32.14824828854762 276.30014270964602 0 0 0 0 147.60792766647299 -18.178079957135196 0 -18.178079957135196 227.15162091380989 0 0 0 0 111.56764617452465 -54.432624918066722 0 -54.432624918066722 263.72235196463589 0 0 0 0 115.01482313919243 -74.362656954734121 0 -74.362656954734121 300.82885136299592 0 0 0 0 85.281527984539309 -30.974438821101103 0 -30.974438821101103 331.50580131546303 0 0 0 0 129.59496662032794 48.490535222867038 0 48.490535222867038 276.11166241107276 0 0 0 0 113.76825440917941 20.03803361413884 0 20.03803361413884 307.78286332466814 0 0 0 0 82.782809605029044 -16.668380015675211 0 -16.668380015675211 276.13014182589541 0 0 0 0 82.251309377482102 59.45245952175901 0 59.45245952175901 357.92770275611292 0 0 0 0 80.62369936192141 72.979944882288692 0 72.979944882288692 274.85008127486799 0 0 0 0 54.0119404521365 21.344846367181162 0 21.344846367181162 316.58652723430714 0 0 0 0 42.961949788324794 -2.2493901255747915 0 -2.2493901255747915 346.72113435494248 0 0 0 0 42.083361638208522 -19.106391008594073 0 -19.106391008594073 328.29651490104152 0 0 0 0 32.541844615746555 -3.7194205177220283 0 -3.7194205177220283 367.98032949822664 0 0 0 0 38.516814915466782 -6.6364205757126911 0 -6.6364205757126911 356.06762986765716 0 0 0 0 28.307934883053225 -18.597833814565092 0 -18.597833814565092 357.38708700549068 0 0 0 0 30.504872356280046 -9.8903445142932469 0 -9.8903445142932469 366.92239951873307 0 0 0 0 38.459239590329034 1.9615957984726151 0 1.9615957984726151 368.58694631484104 0 0 0 0 79.16685186475074 -8.2387136074685259 0 -8.2387136074685259 357.4236679795431 0 0 0 0 20.685110792895369 28.913205243565244 0 28.913205243565244 375.92872173266369 0 0 0 0 79.828007250986488 35.070083403967146 0 35.070083403967146 342.12016490833776 0 0 0 0 26.96605253679202 8.9570098951589898 0 8.9570098951589898 406.43875353035401 0 0 0 0 -9.2999149800972312 -48.872459508886095 0 -48.872459508886095 397.3287007031613 0 0 0 0 -94.145314700806921 -282.72519820276921 0 -282.72519820276921 289.2493839531362 0 0 0 0 34.198764851866144 -233.44179049369995 0 -233.44179049369995 239.75393036300557 0 0 0 0 84.936455110010229 -388.97352330556737 0 -388.97352330556737 429.70611571690824 0 0 0 0 489.16539043072044 -302.87038024122376 0 -302.87038024122376 127.03470902737536 0 0 0 0 66.3443691642359 25.626292746782553 0 25.626292746782553 -7.1698870551554137 0 0 0 0 0.69773823339503105 -2.4897613816860868 0 -2.4897613816860868 5.4890484004452702 0 0 0 0 -26.398369281789201 -3.0429399224804001 0 -3.0429399224804001 357.62100046082924 0 0 0 0 126.83081885484353 -97.925794741528989 0 -97.925794741528989 50.834130565148371 0 0 0 0 -24.780687114054672 7.4012592598064657 0 7.4012592598064657 35.807540084220818 0 0 0 0 27.716417058676598 -9.9057732542751182 0 -9.9057732542751182 75.269413222361436 0 0 0 0 36.525897474479279 -79.381897080354065 0 -79.381897080354065 169.74485751084467 0 0 0 0 45.085109538848883 -24.678444177061124 0 -24.678444177061124 82.946015957208147 0 0 0 0 132.93245395681754 -243.41717634183479 0 -243.41717634183479 228.20192515097369 0 0 0 0 -31.54888996349473 -122.05268797165627 0 -122.05268797165627 143.08576144014114 0 0 0 0 -31.299661415483115 -130.93185185938091 0 -130.93185185938091 238.52816198079199 0 0 0 0 128.52442480787067 -22.974458082621823 0 -22.974458082621823 267.05394640254235 0 0 0 0 -76.140033588777442 -121.34211638668512 0 -121.34211638668512 490.75921421247949 0 0 0 0 -70.130523261132112 -130.7858399780298 0 -130.7858399780298 313.36338603289005 0 0 0 0 174.36559338146253 -265.98523563391882 0 -265.98523563391882 409.70151831466956 0 0 0 0 3.3492856390945924 1.0971169222173707 0 1.0971169222173707 1.8712469598522752 0 0 0 0 41.928828546637305 -117.43258021086513 0 -117.43258021086513 648.3559144484625 0 0 0 0 25.897906330166734 -13.166017789501893 0 -13.166017789501893 -1.767456050056353 0 0 0 0 154.98848036765958 -40.99328159723882 0 -40.99328159723882 21.837805397826742 0 0 0 0 -7.4560014940569488 -2.5352285578395026 0 -2.5352285578395026 4.2967617511297291 0 0 0 0 28.44091399885292 -249.13283828147905 0 -249.13283828147905 310.67998510081634 0 0 0 0 -144.72721142004593 -178.73999721996188 0 -178.73999721996188 338.77097270913146 0 0 0 0 -3.5606242946378188 -184.3190467649938 0 -184.3190467649938 181.15420995236491 0 0 0 0 -314.5226201243604 46.329706121870913 0 46.329706121870913 105.94011457401211 0 0 0 0 1.6358235357492958 16.459588937933404 0 16.459588937933404 37.964405195500149 0 0 0 0 -322.31966918505532 56.282914568581873 0 56.282914568581873 39.200422848838116 0 0 0 0 -2.0832348027381329 -0.55390966630952576 0 -0.55390966630952576 0.41763117660061866 0 0 0 0 -31.644828280220281 -17.306663113639388 0 -17.306663113639388 112.12797897177734 0 0 0 0 3.9625132733326609 -54.54056060797484 0 -54.54056060797484 54.730907560482592 0 0 0 0 30.548825207009941 -13.487721099421833 0 -13.487721099421833 112.05560428716569 0 0 0 0 -3.8521817245228149 1.7705308310673828 0 1.7705308310673828 1.0001548653302663 0 0 0 0 24.090430740904594 16.896252265466501 0 16.896252265466501 56.063129119487712 0 0 0 0 24.106755376491492 -45.623584059723726 0 -45.623584059723726 87.067290532182597 0 0 0 0 390.7175618343681 -386.74850461968526 0 -386.74850461968526 -280.37746316554694 0 0 0 0 -457.38146149793465 -38.110671200181969 0 -38.110671200181969 223.80463572231383 0 0 0 0 59.69223738754954 -154.43081552168223 0 -154.43081552168223 75.322772497407641 0 0 0 0 100.96987015506784 -20.935456707375124 0 -20.935456707375124 468.29878720093257 0 0 0 0 -244.79599772950132 -305.62784720455579 0 -305.62784720455579 298.15889792984308 0 0 0 0 564.02424329899441 -126.2028977932041 0 -126.2028977932041 30.833196972589576 0 0 0 0 152.12194749642549 -287.68132299800891 0 -287.68132299800891 534.18755318910553 0 0 0 0 4.7715676225358834 3.8795532037404001 0 3.8795532037404001 3.0341819638441265 0 0 0 0 607.77814481592941 64.732592768408722 0 64.732592768408722 80.714875878272323 0 0 0 0 1143.3055893022392 267.2539665986551 0 267.2539665986551 79.949105797262746 0 0 0 0 -192.74107620666109 230.95718961484454 0 230.95718961484454 393.37341008933254 0 0 0 0 5.1078427699426285 -0.13262110220959755 0 -0.13262110220959755 0.25150231891594244 0 0 0 0 -609.10427792043629 -37.477913638882455 0 -37.477913638882455 235.63876653311377 0 0 0 0 302.72944469540562 204.5983130797249 0 204.5983130797249 99.68173509540793 0 0 0 0 -331.96625059045437 73.037397271309601 0 73.037397271309601 1019.8835255198355 0 0 0 0 344.60249758919053 -449.94427506587363 0 -449.94427506587363 510.17564335766292 0 0 0 0 10.758980374958632 -1.6326645888629265 0 -1.6326645888629265 0.2500659400649492 0 0 0 0 57.829381895207916 296.37164512755953 0 296.37164512755953 468.08959803414473 0 0 0 0 255.23934894881131 177.67119582084433 0 177.67119582084433 63.107507748925855 0 0 0 0 128.06453379496452 -405.98610440674747 0 -405.98610440674747 715.79701874639613 0 0 0 0 1.0780571101573493 1.865816406006374 0 1.865816406006374 4.2133744837504565 0 0 0 0 61.000734737299354 -47.193490817436214 0 -47.193490817436214 578.9650169414208 0 0 0 0 49.356800244180704 -195.42547137804559 0 -195.42547137804559 165.64175196963697 0 0 0 0 6.0417269898480299 14.017499419152955 0 14.017499419152955 163.15976547036007 0 0 0 0 9.4926386200761428 -1.3148859088788107 0 -1.3148859088788107 0.49295067390731884 0 0 0 0 -58.256084026128519 -14.556876287486375 0 -14.556876287486375 269.09767453502172 0 0 0 0 122.30724818336603 -10.021718546848206 0 -10.021718546848206 41.878791828209046 0 0 0 0 -49.928886768064331 124.96633771850429 0 124.96633771850429 208.53027795942762 0 0 0 0 -44.433515900314887 104.79213748638722 0 104.79213748638722 253.23293180953442 0 0 0 0 -63.48667907023173 -48.386769616560287 0 -48.386769616560287 379.65948134683458 0 0 0 0 -8.0881443721946198 65.634901322536734 0 65.634901322536734 126.93064780993882 0 0 0 0 -29.781121725853154 36.201273025967566 0 36.201273025967566 174.90688850700826 0 0 0 0 -20.41875236897431 30.814167370039286 0 30.814167370039286 71.798452390997227 0 0 0 0 -19.702383035235471 10.399287313090099 0 10.399287313090099 39.742337003680404 0 0 0 0 -8.8338709269964895 3.0575259661158896 0 3.0575259661158896 -1.4398519425033456 0 0 0 0 14.965947991135181 77.177591887013477 0 77.177591887013477 96.121641322810319 0 0 0 0 -34.491059276114129 62.804892469464903 0 62.804892469464903 126.81905532468409 0 0 0 0 -51.606999948491648 21.827360115920783 0 21.827360115920783 36.800395499145452 0 0 0 0 -0.81551112934767644 6.3951104054001462 0 6.3951104054001462 10.55356164997324 0 0 0 0 7.1948776875933618 53.85490106975476 0 53.85490106975476 -106.90249431279153 0 0 0 0 -1.9720973952205796 -0.92034139799438108 0 -0.92034139799438108 5.8502562188570693 0 0 0 0 -60.211800185705215 112.59690788563512 0 112.59690788563512 188.82238214336894 0 0 0 0 51.775247912057239 6.1120830044528702 0 6.1120830044528702 -11.30719332096578 0 0 0 0 113.20950795326644 141.92637597774228 0 141.92637597774228 118.54327512434611 0 0 0 0 -19.554133086216098 12.875533096135769 0 12.875533096135769 31.906847424490479 0 0 0 0 18.566977657609641 -1.0969351811609158 0 -1.0969351811609158 9.4617417576591833 0 0 0 0 -14.480722837141528 5.7370887113332287 0 5.7370887113332287 2.194388570560573 0 0 0 0 -25.250443862281827 0.41032663335045072 0 0.41032663335045072 21.638695587226721 0 0 0 0 -20.437059659547231 15.817313788033971 0 15.817313788033971 22.908890478036483 0 0 0 0 -6.5006047375202307 1.2358556509310219 0 1.2358556509310219 19.350043702913034 0 0 0 0 -29.177005148304488 3.9662464680986886 0 3.9662464680986886 27.451745838967327 0 0 0 0 -22.209285088782053 5.9884593466122169 0 5.9884593466122169 20.952569691263307 0 0 0 0 -35.7841364027081 14.871329963676544 0 14.871329963676544 26.847066609869216 0 0 0 0 -25.022210473554878 7.9132426976102579 0 7.9132426976102579 31.117216246479074 0 0 0 0 -25.093532312027264 8.680585739239973 0 8.680585739239973 29.304683523412677 0 0 0 0 -17.422683851416878 11.372358145550606 0 11.372358145550606 26.412704922178818 0 0 0 0 -13.653166955704364 6.8517051901708328 0 6.8517051901708328 29.083023914919977 0 0 0 0 -8.3441241455611816 9.6622680880282132 0 9.6622680880282132 28.920280318838195 0 0 0 0 -26.105347785522099 13.021414384305899 0 13.021414384305899 45.293685015143637 0 0 0 0 -14.937463913322972 2.4649574571049016 0 2.4649574571049016 39.946805946867244 0 0 0 0 -13.515085549230207 3.4828890316402976 0 3.4828890316402976 21.844781532119669 0 0 0 0 -14.318841846565192 -14.618068565425347 0 -14.618068565425347 31.731930417114199 0 0 0 0 -25.779930596363556 -11.471565150161041 0 -11.471565150161041 35.239027362404158 0 0 0 0 -18.57516218474484 10.878306493872515 0 10.878306493872515 12.924234442340094 0 0 0 0 -4.4006905079622811 13.121935560659949 0 13.121935560659949 30.951285116951112 0 0 0 0 -11.860149840887971 16.482985149136766 0 16.482985149136766 42.850527547382626 0 0 0 0 -57.756992645867285 57.368965645495337 0 57.368965645495337 21.66819368760116 0 0 0 0 -87.756646089562309 50.318638476333035 0 50.318638476333035 135.72676071941896 0 0 0 0 -111.9232735639107 28.455865745523624 0 28.455865745523624 127.03202684329608 0 0 0 0 -30.616581449276055 14.866280033461408 0 14.866280033461408 87.990572148133651 0 0 0 0 -60.325046624556308 21.903665677276422 0 21.903665677276422 87.866491902059352 0 0 0 0 -44.097221999454632 2.6939590910715197 0 2.6939590910715197 110.60531723594977 0 0 0 0 -79.032735679401412 3.0830278366661332 0 3.0830278366661332 146.60418817792743 0 0 0 0 -78.449266379831897 -18.745557190986801 0 -18.745557190986801 134.72546395435438 0 0 0 0 -42.626730258528369 -4.9861857716068698 0 -4.9861857716068698 152.98585710287807 0 0 0 0 -28.711910662432274 -27.626191213801576 0 -27.626191213801576 102.9829012393202 0 0 0 0 -29.818784388298809 -5.2016908159330342 0 -5.2016908159330342 84.243680860521636 0 0 0 0 -30.755722025505747 -3.6898254770621861 0 -3.6898254770621861 83.705872149359493 0 0 0 0 -30.327365928373183 -5.7418892870373384 0 -5.7418892870373384 85.629212562312205 0 0 0 0 -30.637635022461382 -4.5708675903929361 0 -4.5708675903929361 85.192495602386771 0 0 0 0 -31.284829653072848 20.46280073296748 0 20.46280073296748 111.4565864760043 0 0 0 0 -16.066719578313496 37.145834847853621 0 37.145834847853621 137.62461416441965 0 0 0 0 -33.596169253680273 17.352265957305463 0 17.352265957305463 117.21121815980223 0 0 0 0 -28.126475986188424 -29.657174082066142 0 -29.657174082066142 37.996967907853765 0 0 0 0 37.196889326029122 -13.712153646729348 0 -13.712153646729348 80.017982725132242 0 0 0 0 86.025191687526785 -151.16886526552446 0 -151.16886526552446 51.787808280737863 0 0 0 0 -117.16364091199739 55.357739132028541 0 55.357739132028541 71.376696280106444 0 0 0 0 -6.4942116809279495 -5.0310586003772144 0 -5.0310586003772144 15.476584335984557 0 0 0 0 -17.458955334800976 -3.2232962536536434 0 -3.2232962536536434 47.126100927402149 0 0 0 0 -7.7544820399058949 6.9847791124442935 0 6.9847791124442935 46.24693115818711 0 0 0 0 -20.074519735673675 65.668591171272055 0 65.668591171272055 125.7739235035092 0 0 0 0 -10.187909204390962 -20.286647658782385 0 -20.286647658782385 47.878457720526058 0 0 0 0 -1.2350622786041709 1.9047505819957173 0 1.9047505819957173 1.0822382906269468 0 0 0 0 21.129412289878246 10.935175173534844 0 10.935175173534844 -5.6278697932066279 0 0 0 0 -8.3350804781439365 -5.6098677619520458 0 -5.6098677619520458 42.588439876330085 0 0 0 0 -33.380506146053449 34.86613745822001 0 34.86613745822001 -33.180356517063046 0 0 0 0 -6.7118432220005415 6.1683369585033425 0 6.1683369585033425 18.960211145363019 0 0 0 0 0.23754027476583417 -1.2170171181169565 0 -1.2170171181169565 3.8392542258998148 0 0 0 0 -10.765906860266114 7.6810130003523227 0 7.6810130003523227 8.7564793744732015 0 0 0 0 23.956525899859116 -4.4466780415696121 0 -4.4466780415696121 14.835666166480223 0 0 0 0 -2.8358730911547525 5.2698519409880049 0 5.2698519409880049 24.419701626098213 0 0 0 0 -4.1151205669323971 -2.7051767897715813 0 -2.7051767897715813 27.731760660948069 0 0 0 0 11.308203627812873 -57.681498113446196 0 -57.681498113446196 -30.039251499016245 0 0 0 0 14.381884137350426 -27.627389568342551 0 -27.627389568342551 74.965751590167201 0 0 0 0 -9.2677980521499066 2.3981381552032843 0 2.3981381552032843 16.479095374501696 0 0 0 0 -3.9881627571703575 61.651747955156679 0 61.651747955156679 -15.190740193989768 0 0 0 0 -48.705763380586177 0.39778656630642217 0 0.39778656630642217 99.440296712095005 0 0 0 0 25.501854306449786 7.5297863235505247 0 7.5297863235505247 45.461153455438762 0 0 0 0 23.948450141688227 1.5153024805995301 0 1.5153024805995301 88.711754480489617 0 0 0 0 21.509153620383586 -12.165094984664393 0 -12.165094984664393 90.765353369681179 0 0 0 0 -10.96510313430008 10.222409157348011 0 10.222409157348011 10.988911705437204 0 0 0 0 24.087688387269736 -14.166921629231638 0 -14.166921629231638 71.040501509529349 0 0 0 0 26.422435011316338 -9.0523813050235731 0 -9.0523813050235731 40.098750700517485 0 0 0 0 -2.0677066433351619 0.063953605969327754 0 0.063953605969327754 16.448736747978131 0 0 0 0 -4.4205980915206986 -3.6926991745445292 0 -3.6926991745445292 23.987299843031707 0 0 0 0 -39.592627338286547 5.7102568415975838 0 5.7102568415975838 40.752074229196296 0 0 0 0 -27.792679746377416 -0.22222854638448553 0 -0.22222854638448553 33.705832321567868 0 0 0 0 37.590815597752226 1.5596220183524565 0 1.5596220183524565 14.980081620031342 0 0 0 0 -0.59543606122258552 -91.909257542431362 0 -91.909257542431362 229.25872368477758 0 0 0 0 88.459741073680561 -81.253544458312717 0 -81.253544458312717 223.11339919997226 0 0 0 0 -113.92740513797253 61.374788487152728 0 61.374788487152728 153.22123613074291 0 0 0 0 -92.729517294596008 -61.947321877427385 0 -61.947321877427385 262.40573726746652 0 0 0 0 16.729481232732724 43.272852156478621 0 43.272852156478621 -57.857213100895024 0 0 0 0 -65.044855013195047 -40.720616854141554 0 -40.720616854141554 273.10386812227171 0 0 0 0 -1.1993505652503558 -0.47814672940218728 0 -0.47814672940218728 0.053206895941427135 0 0 0 0 -58.747499988932304 26.95700164133018 0 26.95700164133018 49.209862890936165 0 0 0 0 86.227967546987202 -67.26883924853837 0 -67.26883924853837 -2.3920602605894601 0 0 0 0 -41.537854392281588 55.947003789456176 0 55.947003789456176 -55.229220114279997 0 0 0 0 -6.5124728414549793 -5.3145688145146437 0 -5.3145688145146437 18.668926710038392 0 0 0 0 -25.642149532526332 -3.6681876879653146 0 -3.6681876879653146 71.444941164204465 0 0 0 0 -4.0206347988860216 -3.5645520616353679 0 -3.5645520616353679 64.227097712022442 0 0 0 0 -10.691321356895113 -18.571642986645493 0 -18.571642986645493 24.516285399226007 0 0 0 0 -21.296564237141865 -8.1513936702940555 0 -8.1513936702940555 42.217657954854076 0 0 0 0 -12.25434016655511 1.1786359845469354 0 1.1786359845469354 36.344749648214346 0 0 0 0 -20.226658567910363 -10.648015103396119 0 -10.648015103396119 28.596382964022268 0 0 0 0 -0.56651590553565612 -1.296476463389391 0 -1.296476463389391 2.5135459868667427 0 0 0 0 -9.2056349713566306 -2.9960824494346525 0 -2.9960824494346525 22.973022593143469 0 0 0 0 -18.785161579386113 -5.4057843527698424 0 -5.4057843527698424 44.925565749237649 0 0 0 0 -1.7870000782386342 8.3524967841494799 0 8.3524967841494799 32.959014870364172 0 0 0 0 -14.918737954102101 -11.237031204395333 0 -11.237031204395333 23.668257172744511 0 0 0 0 -16.423593521058518 1.8201550576918137 0 1.8201550576918137 15.790258807856908 0 0 0 0 -11.204493937262441 -14.729131824098999 0 -14.729131824098999 48.961903460041867 0 0 0 0 -20.757346336309638 -26.229436683792528 0 -26.229436683792528 86.033918952921795 0 0 0 0 -53.286116652900091 -18.729168733256301 0 -18.729168733256301 35.3902778516387 0 0 0 0 -149.30448468996201 0.9905049696981223 0 0.9905049696981223 96.000138250592499 0 0 0 0 -19.37049641329304 -13.146513267719456 0 -13.146513267719456 35.457700640044095 0 0 0 0 26.776234181340442 -53.050266053621726 0 -53.050266053621726 41.839457967897033 0 0 0 0 0.57598414644149187 -0.87344988380862887 0 -0.87344988380862887 0.34251388306156283 0 0 0 0 -4.3281135179386183 -1.6507792733646056 0 -1.6507792733646056 18.594626515358868 0 0 0 0 10.737052683308548 -17.060246358093536 0 -17.060246358093536 3.0522957233879424 0 0 0 0 -10.949613728033 -6.6035172104993762 0 -6.6035172104993762 19.16866363097688 0 0 0 0 -2.9811298985488754 12.037893084362368 0 12.037893084362368 9.783140916229824 0 0 0 0 -55.131946307574566 -102.98142307954504 0 -102.98142307954504 207.77318000289779 0 0 0 0 2.096847500829675 -0.92888478334492142 0 -0.92888478334492142 4.2867056134593362 0 0 0 0 -3.4352956288011001 -3.0057060331205037 0 -3.0057060331205037 23.515836707876588 0 0 0 0 -22.161436985999899 -48.423642974140876 0 -48.423642974140876 -2.1159585836353472 0 0 0 0 -5.3573244646622697 -1.2927139802675356 0 -1.2927139802675356 23.865249355896594 0 0 0 0 1.2026192481043836 4.4609738675972039 0 4.4609738675972039 52.802057962898743 0 0 0 0 -3.7762164682185286 -7.7507993675881721 0 -7.7507993675881721 18.467815529346822 0 0 0 0 -11.044647330118096 -6.4259426018579688 0 -6.4259426018579688 78.106936039501306 0 0 0 0 1.0324943232917576 3.3233577655737463 0 3.3233577655737463 115.10158259690616 0 0 0 0 -3.7736901894621493 7.2411478768725566 0 7.2411478768725566 48.665465739461425 0 0 0 0 10.266019059518385 13.23112738585769 0 13.23112738585769 116.77027762066427 0 0 0 0 0.73490517475421058 18.375759183210295 0 18.375759183210295 30.550515039454929 0 0 0 0 0.6561259893951501 3.6716518454486504 0 3.6716518454486504 57.716595218169459 0 0 0 0 -0.59182363705652818 -14.598485752996396 0 -14.598485752996396 9.8494909676895439 0 0 0 0 0.65619434361542517 0.46597178213960433 0 0.46597178213960433 126.07627059065089 0 0 0 0 -7.0617332351284858 -451.76293294128163 0 -451.76293294128163 -276.84354239240383 0 0 0 0 -323.00837945732383 -167.97742160412781 0 -167.97742160412781 -134.41618501458561 0 0 0 0 0.096698225137998861 -2.1884467843687787 0 -2.1884467843687787 -5.8075142532071915 0 0 0 0 1.4009525212054363 16.364385871299625 0 16.364385871299625 24.488245734198522 0 0 0 0 -58.485752270232297 -184.11328592734026 0 -184.11328592734026 -434.93004479003321 0 0 0 0 21.849104290972264 -9.8910148855593434 0 -9.8910148855593434 120.72654158414844 0 0 0 0 -7.0126036057526342 45.733781664780636 0 45.733781664780636 52.746174477233623 0 0 0 0 844.10198913237491 707.70254422902531 0 707.70254422902531 -262.57727718172646 0 0 0 0 31.626929461738655 35.878878201820044 0 35.878878201820044 88.753152422017592 0 0 0 0 -4.810324315785417 2.6805109203070785 0 2.6805109203070785 22.300036045140093 0 0 0 0 2.0546531760898006 25.741457189682478 0 25.741457189682478 149.4139505127423 0 0 0 0 8.1735373467263344 13.3096170561912 0 13.3096170561912 120.03687239219289 0 0 0 0 8.7066576743956006 -4.894395358363191 0 -4.894395358363191 16.786556143093797 0 0 0 0 2.5826066161178858 -10.19875146198433 0 -10.19875146198433 114.0271821378974 0 0 0 0 478.30941956134484 -339.87478742722897 0 -339.87478742722897 -57.992159654203078 0 0 0 0 1.3603266925374555 11.488755077765745 0 11.488755077765745 114.02418190960816 0 0 0 0 -11.346716294769891 -35.717238022092921 0 -35.717238022092921 33.195881693372982 0 0 0 0 -18.969691742983287 7.845630212424112 0 7.845630212424112 145.81823421828813 0 0 0 0 -3.0188780404812867 -10.438537848249261 0 -10.438537848249261 25.661025969010868 0 0 0 0 -16.450967610932139 -13.408144611396892 0 -13.408144611396892 123.59776362098637 0 0 0 0 -19.081870113153087 -27.675708426003496 0 -27.675708426003496 56.331679716202586 0 0 0 0 -2.9694559576637403 -16.312413605069196 0 -16.312413605069196 86.050276102872886 0 0 0 0 13.900888987212966 185.00306519063815 0 185.00306519063815 464.21095116448896 0 0 0 0 -215.91015766324017 -3.8581584251551249 0 -3.8581584251551249 386.86276416190458 0 0 0 0 173.15555355370816 -323.70301629383994 0 -323.70301629383994 110.00159486684061 0 0 0 0 -25.625534234910909 -42.709290595942448 0 -42.709290595942448 33.987090940024935 0 0 0 0 -72.866321985551622 190.9913898230011 0 190.9913898230011 290.91619644220418 0 0 0 0 -205.80935459479042 209.34223349317517 0 209.34223349317517 384.79348125249771 0 0 0 0 2.5832427067084467 2.5226204991923673 0 2.5226204991923673 3.05506423649949 0 0 0 0 107.72689050535519 -567.79250027200032 0 -567.79250027200032 770.6122366937949 0 0 0 0 -352.74181756256621 -26.002801526369694 0 -26.002801526369694 712.15313089316714 0 0 0 0 -71.692814088179148 184.9831510924073 0 184.9831510924073 -45.194744438202179 0 0 0 0 162.21182460977252 -120.06394883630492 0 -120.06394883630492 329.75506243283826 0 0 0 0 28.981414703814607 -166.17864853980973 0 -166.17864853980973 472.68246714860106 0 0 0 0 -48.54990473196267 -78.32592370862767 0 -78.32592370862767 368.44204554338285 0 0 0 0 -9.1207950971483669 -35.029555013884064 0 -35.029555013884064 37.163723463625544 0 0 0 0 90.848890771514561 83.40096643823972 0 83.40096643823972 -63.648552091005513 0 0 0 0 86.955578408235397 -124.77127408128194 0 -124.77127408128194 -173.60468234696873 0 0 0 0 697.42190913349782 -235.69783844688936 0 -235.69783844688936 81.084724451466172 0 0 0 0 82.931124527780412 160.01356548683543 0 160.01356548683543 643.23493841180607 0 0 0 0 -21.62291909666294 -130.39273176507868 0 -130.39273176507868 783.25481357207173 0 0 0 0 8.8166392994794478 119.75157091719302 0 119.75157091719302 -62.153146675642347 0 0 0 0 167.88787654539783 96.288710450884537 0 96.288710450884537 -342.73878313000023 0 0 0 0 -21.503425921248926 16.806043927378497 0 16.806043927378497 103.35445766312034 0 0 0 0 161.17335037055091 -53.926453785548802 0 -53.926453785548802 152.94012347236276 0 0 0 0 -348.76748280445156 624.885426516179 0 624.885426516179 -183.29010172675771 0 0 0 0 -112.2042091304063 -59.006392135190254 0 -59.006392135190254 -239.81510421761777 0 0 0 0 338.43120011586154 422.82662683809758 0 422.82662683809758 -439.03818975973991 0 0 0 0 -419.78371407978307 -379.38101230908796 0 -379.38101230908796 228.60085879839608 0 0 0 0 326.18608635278747 607.78506529270817 0 607.78506529270817 284.95280245598406 0 0 0 0 -317.81251891950774 49.371766470401781 0 49.371766470401781 1510.8160852156725 0 0 0 0 -579.98493731556846 594.91170119716844 0 594.91170119716844 112.21653807722032 0 0 0 0 -15.506773874038446 9.3274340972648133 0 9.3274340972648133 109.19757168764352 0 0 0 0 -18.381534482085954 -72.910207377681218 0 -72.910207377681218 71.297699128670502 0 0 0 0 0.4845531137107173 -48.961202791033429 0 -48.961202791033429 101.63040612623445 0 0 0 0 -826.35162415326545 91.724014212821203 0 91.724014212821203 898.49543660931522 0 0 0 0 92.803348488265328 -40.906094340603886 0 -40.906094340603886 -86.854346535459626 0 0 0 0 94.773832790958295 -137.16574383579064 0 -137.16574383579064 117.73154422023799 0 0 0 0 -133.3354699494962 8.482157623695457 0 8.482157623695457 204.66233652804658 0 0 0 0 -2.6417754739721437 10.92206441768429 0 10.92206441768429 87.561699136463346 0 0 0 0 -27.112841959351954 49.63624474509561 0 49.63624474509561 104.54361958756272 0 0 0 0 -8.904952715050058 20.299485260011352 0 20.299485260011352 88.923485166560567 0 0 0 0 2.3303240610857756 26.932978018208814 0 26.932978018208814 147.37750699304161 0 0 0 0 22.182382729339224 13.543254862895992 0 13.543254862895992 152.92200200172738 0 0 0 0 -5.57973002616556 18.518339113533184 0 18.518339113533184 101.69541131441088 0 0 0 0 -0.44553450594200505 3.2451368948601953 0 3.2451368948601953 28.716438649771092 0 0 0 0 -7.012095712333803 -7.6807519737558323 0 -7.6807519737558323 112.10090965087875 0 0 0 0 -11.165810203148437 -1.6692056443474534 0 -1.6692056443474534 89.132039839844211 0 0 0 0 -338.49253607345236 -115.00521345660673 0 -115.00521345660673 461.04783857213624 0 0 0 0 -7.8751459667139656 8.273862679839624 0 8.273862679839624 114.09495279674478 0 0 0 0 1.4228017324649045 32.354412947894161 0 32.354412947894161 150.49681751478056 0 0 0 0 -24.2015604134765 14.857907596450005 0 14.857907596450005 149.80628265525121 0 0 0 0 -6.6148679178186285 -7.7022575415430765 0 -7.7022575415430765 99.161606704030419 0 0 0 0 -134.64429476232817 109.46523841124144 0 109.46523841124144 271.39794472511858 0 0 0 0 -26.760598814194964 -42.816912293725181 0 -42.816912293725181 122.06794595521933 0 0 0 0 -15.483600679271266 -21.747214389371628 0 -21.747214389371628 226.10120220716635 0 0 0 0 -4.0011305803969286 -41.720191486722257 0 -41.720191486722257 167.58916268229467 0 0 0 0 94.347424677682284 -233.62879731791327 0 -233.62879731791327 -48.332216344177141 0 0 0 0 -22.101029707539738 -7.046898754938109 0 -7.046898754938109 184.65521143673303 0 0 0 0 74.032052178485173 -5.3943026022025151 0 -5.3943026022025151 158.9388985355763 0 0 0 0 30.934810417306721 60.028805957637815 0 60.028805957637815 252.92831873765681 0 0 0 0 1.3792075720256505 -42.756306929489824 0 -42.756306929489824 -1.1017839046642735 0 0 0 0 45.408982023698627 -28.142493007784651 0 -28.142493007784651 289.31999952366823 0 0 0 0 66.121914747367555 -17.69475938857795 0 -17.69475938857795 238.5075078678783 0 0 0 0 -168.21641454954602 -1.0015198292921923 0 -1.0015198292921923 123.18051944609033 0 0 0 0 19.024969035946924 -329.95609659837646 0 -329.95609659837646 459.23459922446455 0 0 0 0 1.5359820385054643 7.2199260665463498 0 7.2199260665463498 42.933396031108799 0 0 0 0 150.04841700103316 69.050611428625416 0 69.050611428625416 287.00125562385074 0 0 0 0 -131.22582027473254 -134.65316901143524 0 -134.65316901143524 525.47370514476643 0 0 0 0 605.79137361804669 -156.77887062762966 0 -156.77887062762966 -91.342278946016449 0 0 0 0 -248.63509452654762 -314.29389362785878 0 -314.29389362785878 178.80517698224867 0 0 0 0 -226.98102683361867 -244.61739760982164 0 -244.61739760982164 399.32137375301681 0 0 0 0 64.452091542284506 -193.90291711826285 0 -193.90291711826285 -286.0072439724463 0 0 0 0 126.62906479018602 -67.903276949291467 0 -67.903276949291467 -38.818971718399553 0 0 0 0 487.18508230423822 -984.59266600616684 0 -984.59266600616684 882.76342475217461 0 0 0 0 -58.053768085840147 413.89575706427422 0 413.89575706427422 299.48726500669727 0 0 0 0 1.2680929882556615 4.4635197845047117 0 4.4635197845047117 10.142104405257044 0 0 0 0 25.863837308022084 -128.14050746302382 0 -128.14050746302382 25.908473600538855 0 0 0 0 -144.04780932802569 -141.8142106272262 0 -141.8142106272262 75.372332157887286 0 0 0 0 36.970562814885625 -55.555174847911985 0 -55.555174847911985 109.16439665196231 0 0 0 0 -0.080406538750093848 -1.9922480448887256 0 -1.9922480448887256 1.9735526200383902 0 0 0 0 137.50730745668466 -51.839583664746897 0 -51.839583664746897 11.714975264243549 0 0 0 0 39.184694285932892 -53.101955954130972 0 -53.101955954130972 20.109190842144017 0 0 0 0 -9.5166886696388584 -6.5445898980772768 0 -6.5445898980772768 -0.36889068846090822 0 0 0 0 -11.804943900938042 50.208795951322827 0 50.208795951322827 524.90488458950131 0 0 0 0 21.790333037772889 166.64790863883877 0 166.64790863883877 522.05703609147167 0 0 0 0 -12.093071049168429 21.310060591640649 0 21.310060591640649 125.96942515029514 0 0 0 0 -2.0424776303743784 16.170225732079416 0 16.170225732079416 149.44894603293505 0 0 0 0 -35.550426128073013 15.849968695372809 0 15.849968695372809 165.53909722946992 0 0 0 0 -22.19086963722475 15.740543161780806 0 15.740543161780806 165.37568926185486 0 0 0 0 -34.460656303946053 41.100259703322081 0 41.100259703322081 141.50296688824892 0 0 0 0 -11.732030686175676 -8.9041473547549685 0 -8.9041473547549685 84.800221513447468 0 0 0 0 -5.9888642190040517 -1.6537863913458466 0 -1.6537863913458466 20.767147778735534 0 0 0 0 -27.429508259860086 24.702813855212298 0 24.702813855212298 133.17495835089358 0 0 0 0 -12.328661600561873 9.6561385170352878 0 9.6561385170352878 137.63758378254715 0 0 0 0 -5.4001077887097431 11.848258311209833 0 11.848258311209833 3.3181952095558671 0 0 0 0 22.854818256790168 43.046874131599907 0 43.046874131599907 96.471379039940075 0 0 0 0 52.508235437774147 0.78940353683719877 0 0.78940353683719877 17.0521957026358 0 0 0 0 -23.055176814217418 -1.9794329802862194 0 -1.9794329802862194 88.256255366286496 0 0 0 0 25.459718461493821 -51.447527320960944 0 -51.447527320960944 142.08829614090791 0 0 0 0 -0.15749442765414612 -0.42011139707994971 0 -0.42011139707994971 0.611929624099389 0 0 0 0 -5.3320469236303936 2.3385654040750481 0 2.3385654040750481 51.103386820470064 0 0 0 0 -7.9666424558956033 -5.8520316894615405 0 -5.8520316894615405 19.452819162425101 0 0 0 0 -41.260710460014593 7.6789421623980161 0 7.6789421623980161 144.05561451948597 0 0 0 0 -17.816206699682617 -18.307541735366115 0 -18.307541735366115 35.326558648278478 0 0 0 0 7.1232057774077475 -1.6202189568430185 0 -1.6202189568430185 129.30719736620085 0 0 0 0 -4.330542863288688 -7.0016431487988768 0 -7.0016431487988768 20.53961014306681 0 0 0 0 2.8013600462668364 16.992148561870636 0 16.992148561870636 76.908800440156483 0 0 0 0 -114.838640392206 -79.822235814521264 0 -79.822235814521264 143.31361202908738 0 0 0 0 -39.478582494314651 4.022531279209943 0 4.022531279209943 112.90645990111261 0 0 0 0 -31.252026993901382 19.818493473605486 0 19.818493473605486 121.1809339790052 0 0 0 0 -32.969105386655428 -11.90931991744219 0 -11.90931991744219 73.159314308668399 0 0 0 0 -7.1443085018902028 24.794034444382753 0 24.794034444382753 105.76908242689967 0 0 0 0 212.89415602690497 145.22922335555268 0 145.22922335555268 -80.890360017074272 0 0 0 0 29.058747141572894 62.597745081289759 0 62.597745081289759 225.58563320264147 0 0 0 0 -12.293692364022522 -14.348743540349616 0 -14.348743540349616 77.200671467060317 0 0 0 0 -18.772909947810945 8.3136938354385848 0 8.3136938354385848 144.1512956093211 0 0 0 0 -19.351064856926314 25.356230797850003 0 25.356230797850003 106.40181640082301 0 0 0 0 -14.770372373966893 -0.089004235749598593 0 -0.089004235749598593 128.85348261996114 0 0 0 0 -23.265072813797815 -4.638377926312387 0 -4.638377926312387 147.16122878636816 0 0 0 0 45.221591989128058 0.019293662131531164 0 0.019293662131531164 80.033260163239902 0 0 0 0 -16.275157396541267 -30.59716816769 0 -30.59716816769 17.954910289945957 0 0 0 0 -5.594615399139002 15.203194826899562 0 15.203194826899562 93.23573627951555 0 0 0 0 -15.99101738861858 -5.1352552895433234 0 -5.1352552895433234 39.892913098630402 0 0 0 0 -6.5315310996011249 -11.991918700456154 0 -11.991918700456154 107.65634966846847 0 0 0 0 -11.407172596846937 -25.990310675128143 0 -25.990310675128143 41.491256115748257 0 0 0 0 -6.7739356459715054 6.4275025567039847 0 6.4275025567039847 81.935664357908536 0 0 0 0 -4.8511306346990111 15.45734836693552 0 15.45734836693552 94.286686584908466 0 0 0 0 -9.3500601094253941 -3.4280058688300414 0 -3.4280058688300414 51.737777490314372 0 0 0 0 -13.575259510058459 0.67413025724817999 0 0.67413025724817999 94.908795788011048 0 0 0 0 -18.429782081397359 -28.168360494968852 0 -28.168360494968852 102.53969363976898 0 0 0 0 -16.192276255034812 -3.3217382256116252 0 -3.3217382256116252 161.48561403932399 0 0 0 0 -10.592689037756116 5.1472105473274894 0 5.1472105473274894 65.56797635736325 0 0 0 0 -22.861110279882723 -7.2374016346857388 0 -7.2374016346857388 160.65022257779492 0 0 0 0 -8.756951159768505 -8.0277618004183751 0 -8.0277618004183751 151.48633850901388 0 0 0 0 11.079062881304708 -2.6747681624256074 0 -2.6747681624256074 152.89898956204706 0 0 0 0 -15.068796099960498 5.1228636333554896 0 5.1228636333554896 103.34241268690215 0 0 0 0 -50.938371862794156 -56.74934888847929 0 -56.74934888847929 66.612374666205142 0 0 0 0 -56.705587151982847 -72.966729239155754 0 -72.966729239155754 163.50194584974128 0 0 0 0 -0.93661665002582595 76.486650539911352 0 76.486650539911352 104.16439364379039 0 0 0 0 -6.379516377234971 9.4244812442785459 0 9.4244812442785459 42.584010124133982 0 0 0 0 1.6143403057127514 3.3366499460524892 0 3.3366499460524892 5.0769800500518727 0 0 0 0 -15.794068711446016 0.060723725167918019 0 0.060723725167918019 74.938538093607349 0 0 0 0 -19.661891869632591 -5.2154928880962217 0 -5.2154928880962217 93.765652442715663 0 0 0 0 -30.173605582283926 0.69961265127494698 0 0.69961265127494698 59.839875552774174 0 0 0 0 -10.102549145119958 -7.9563337237838283 0 -7.9563337237838283 71.386878453013907 0 0 0 0 -15.681668446201911 -10.367321517464006 0 -10.367321517464006 92.162663781200536 0 0 0 0 -15.330586710613716 -3.223220876257983 0 -3.223220876257983 81.50648566657037 0 0 0 0 5.7751877454805864 -11.197311261603147 0 -11.197311261603147 75.786791569876513 0 0 0 0 -9.4951068727423262 -17.728193195740459 0 -17.728193195740459 89.442497417403501 0 0 0 0 -19.346042863095516 -11.279263252387963 0 -11.279263252387963 86.439159459931915 0 0 0 0 -10.659174922425493 -3.6974278384218167 0 -3.6974278384218167 89.791922337947284 0 0 0 0 -15.449338767667832 -38.291664191193 0 -38.291664191193 76.838727323547403 0 0 0 0 17.109085054005845 -98.605695747355639 0 -98.605695747355639 23.156065558978298 0 0 0 0 -22.858277797774974 -29.228154574483483 0 -29.228154574483483 134.28920728917001 0 0 0 0 -13.9272782223265 -1.7502673783822189 0 -1.7502673783822189 112.00006072573987 0 0 0 0 -69.024650305896444 36.391304138970099 0 36.391304138970099 155.33662524072861 0 0 0 0 -233.929223245912 -252.47581692281528 0 -252.47581692281528 474.9502820142261 0 0 0 0 0.40191302580652888 0.60036968966836213 0 0.60036968966836213 2.5350411808918025 0 0 0 0 -7.3233177417478146 163.57858893473804 0 163.57858893473804 332.47383124043699 0 0 0 0 -15.098313862015857 -6.9049696022811986 0 -6.9049696022811986 74.430408715037629 0 0 0 0 34.499340143862355 28.696798060074798 0 28.696798060074798 96.582833884924185 0 0 0 0 -15.127175420906454 11.008612520504414 0 11.008612520504414 112.0415116673728 0 0 0 0 -57.375207197634154 -8.7115368256927468 0 -8.7115368256927468 75.804281350003293 0 0 0 0 -0.27220734213915421 -53.113169952357794 0 -53.113169952357794 62.525869505652736 0 0 0 0 -18.307162845195066 -52.478431151927509 0 -52.478431151927509 60.003189590039867 0 0 0 0 -146.80332137023288 2.4456005432639358 0 2.4456005432639358 113.82519633129778 0 0 0 0 -4.1791797626821676 -29.409822559977012 0 -29.409822559977012 88.518875235050032 0 0 0 0 -127.06525469119185 -125.9391862242889 0 -125.9391862242889 212.27414719366431 0 0 0 0 -0.42211388384748716 -30.427853832083201 0 -30.427853832083201 65.30863346435649 0 0 0 0 -134.36732098808716 24.84969049701192 0 24.84969049701192 150.22292200688423 0 0 0 0 -42.748894555724164 7.7079700040194012 0 7.7079700040194012 59.827214608673771 0 0 0 0 67.284528667638369 90.277200502416235 0 90.277200502416235 160.92353461839957 0 0 0 0 -2.9065199419019834 -17.57537562851952 0 -17.57537562851952 30.847913885164541 0 0 0 0 211.78813560787967 -191.97473000840728 0 -191.97473000840728 -66.640231034602948 0 0 0 0 -67.948117723106407 33.621727367859421 0 33.621727367859421 -114.14684242496685 0 0 0 0 -773.72402433604839 -292.55879234054464 0 -292.55879234054464 206.43550237958516 0 0 0 0 -420.65878448375588 65.324237400129277 0 65.324237400129277 166.19933972312356 0 0 0 0 0.22654018634900885 -22.456205697837113 0 -22.456205697837113 111.2501581274399 0 0 0 0 -2.9665517421491288 -1.7248151741746511 0 -1.7248151741746511 24.921254426845778 0 0 0 0 131.48728620966358 -26.339803955700518 0 -26.339803955700518 32.719724252281594 0 0 0 0 -254.63346860861202 -40.754996032195777 0 -40.754996032195777 89.15227632609276 0 0 0 0 9.5461199669880443 141.21493222179743 0 141.21493222179743 28.467960668127489 0 0 0 0 -25.839319815999829 70.492539560139889 0 70.492539560139889 94.017783332325052 0 0 0 0 -26.654803185469063 16.655780561608481 0 16.655780561608481 23.044819241040386 0 0 0 0 -20.507598849981719 -19.986974729157026 0 -19.986974729157026 60.889038226479002 0 0 0 0 -34.217811926331507 -0.44629823225832865 0 -0.44629823225832865 51.575672795375255 0 0 0 0 -37.650860279303743 24.614780661402619 0 24.614780661402619 213.95050864992663 0 0 0 0 50.143249500950333 136.29035578489129 0 136.29035578489129 267.34683883254183 0 0 0 0 -1.3990469355258028 12.276768946139782 0 12.276768946139782 172.94034168869257 0 0 0 0 6.3745264263002923 13.859814177121237 0 13.859814177121237 26.502664878572574 0 0 0 0 104.87075945430479 48.855356411964749 0 48.855356411964749 179.97772878032993 0 0 0 0 5.0823694292912478 32.100191728182836 0 32.100191728182836 187.30623652416398 0 0 0 0 -37.149120879523622 -23.402920822500931 0 -23.402920822500931 161.49234403258964 0 0 0 0 32.840488698479021 21.625946150103118 0 21.625946150103118 93.906056758831255 0 0 0 0 -209.49098640448574 -275.73656210364788 0 -275.73656210364788 -281.13639198270539 0 0 0 0 -85.381031504387593 -109.32321871550224 0 -109.32321871550224 71.361585649196471 0 0 0 0 -479.89279913149949 -331.28451755375136 0 -331.28451755375136 -198.97274343138997 0 0 0 0 -12.079223913864553 -6.6978532624398213 0 -6.6978532624398213 75.34458377116971 0 0 0 0 1.8066719018743242 -43.409309197756102 0 -43.409309197756102 86.299367038656783 0 0 0 0 6.7758354027808494 -10.567677188465012 0 -10.567677188465012 1.6763571219472908 0 0 0 0 -61.82754872289982 -44.803284439025816 0 -44.803284439025816 118.77181181292079 0 0 0 0 18.394385369583219 -5.038868914767491 0 -5.038868914767491 40.315371717553376 0 0 0 0 -233.23134763953567 -516.45632198979001 0 -516.45632198979001 -259.26485476418748 0 0 0 0 -18.778709142561638 5.9724333700141869 0 5.9724333700141869 174.77618424102548 0 0 0 0 -42.500649438726782 36.457015769265126 0 36.457015769265126 160.60597586502263 0 0 0 0 340.89051728086974 568.56516506603293 0 568.56516506603293 855.77336800332705 0 0 0 0 -54.022534163259479 23.346025534068758 0 23.346025534068758 176.84638076176634 0 0 0 0 -46.175978017704438 10.513058654083579 0 10.513058654083579 184.01220546572586 0 0 0 0 -10.165361347074395 -4.2126272509922273 0 -4.2126272509922273 184.48641232478758 0 0 0 0 -38.164308783942943 13.013074434711598 0 13.013074434711598 180.5814107786573 0 0 0 0 -26.781012313804695 3.9530473250561045 0 3.9530473250561045 181.58881405793363 0 0 0 0 -65.981614051190718 -27.294497923589461 0 -27.294497923589461 89.120664724171093 0 0 0 0 -62.711970104117292 -14.031473148655959 0 -14.031473148655959 15.147821128493005 0 0 0 0 -15.215285156714621 -11.875138066354754 0 -11.875138066354754 20.010111900696536 0 0 0 0 1.6229927069084624 -43.445710971821427 0 -43.445710971821427 47.749778291836265 0 0 0 0 -42.755375059103244 4.2341134525997859 0 4.2341134525997859 38.476819952716248 0 0 0 0 -89.745183438653839 30.618929385932915 0 30.618929385932915 38.670898839004934 0 0 0 0 5.9982406688256873 8.0673205825220737 0 8.0673205825220737 12.766473986534448 0 0 0 0 39.054742372175042 -169.74119973216244 0 -169.74119973216244 472.24347326840871 0 0 0 0 -57.735785796309756 3.4799775940896325 0 3.4799775940896325 63.458072318517679 0 0 0 0 -58.986656799430421 -10.533719196098332 0 -10.533719196098332 38.497315212988724 0 0 0 0 -47.866975956070746 -24.375091651884759 0 -24.375091651884759 129.13378110571512 0 0 0 0 -93.510720914437115 21.41150589176732 0 21.41150589176732 104.96589528075083 0 0 0 0 -87.179751502163981 -48.587473183692225 0 -48.587473183692225 150.08064962731987 0 0 0 0 -1.7419194790965804 -2.2024645638761173 0 -2.2024645638761173 40.094947994363082 0 0 0 0 -55.05413093651805 -58.04537641999832 0 -58.04537641999832 134.12705181675619 0 0 0 0 242.91087749793951 -183.53000491926286 0 -183.53000491926286 521.22974331686692 0 0 0 0 -897.80234175566147 1.3399320014650584 0 1.3399320014650584 1369.339329770708 0 0 0 0 -15.560486499205581 -53.890099608686796 0 -53.890099608686796 133.82146618735806 0 0 0 0 -6.9426692382912734 -81.778798701937376 0 -81.778798701937376 167.31828727669381 0 0 0 0 -68.885148683570151 -42.561960204935531 0 -42.561960204935531 147.55971371347005 0 0 0 0 -75.659709623512754 -47.063356865221067 0 -47.063356865221067 147.00548480794168 0 0 0 0 -231.42194961804853 89.108835175360582 0 89.108835175360582 79.177274351917731 0 0 0 0 -7.2304581024433077 8.621722394698125 0 8.621722394698125 -3.3984980097637849 0 0 0 0 5.5195844224144821 92.777852650126988 0 92.777852650126988 31.562563911600591 0 0 0 0 -64.755998116685078 -49.435622194155258 0 -49.435622194155258 138.05476109075244 0 0 0 0 -62.619280115515721 -46.697310230118092 0 -46.697310230118092 139.28569057952336 0 0 0 0 18.773215660934511 69.881205365363712 0 69.881205365363712 316.05419025148149 0 0 0 0 -32.539379391914615 4.3868878880642459 0 4.3868878880642459 98.403148544882967 0 0 0 0 8.5500838652296807 -26.914546719297505 0 -26.914546719297505 35.532576717920165 0 0 0 0 -21.476096078191404 -73.842275887559254 0 -73.842275887559254 134.6537656160117 0 0 0 0 36.769533777183824 -52.299367324179002 0 -52.299367324179002 104.00771879462718 0 0 0 0 -8.7916802962526788 -32.559046159007444 0 -32.559046159007444 38.910441163664565 0 0 0 0 58.982235094485077 -82.031708110549857 0 -82.031708110549857 135.57538525661403 0 0 0 0 -44.364754723850638 -39.870418267455534 0 -39.870418267455534 125.75063751396124 0 0 0 0 -58.632859313387598 13.867331348825928 0 13.867331348825928 49.94305035423622 0 0 0 0 107.52488791316046 -224.98564570197067 0 -224.98564570197067 166.20125305895874 0 0 0 0 -7.3434615590537433 -5.4555129227130976 0 -5.4555129227130976 10.49210036342954 0 0 0 0 -38.73470871269425 -8.8418225190011803 0 -8.8418225190011803 34.109492213573333 0 0 0 0 -63.573811112619296 -183.35155784960318 0 -183.35155784960318 238.74408287987865 0 0 0 0 -173.36392997619259 -65.073774483050101 0 -65.073774483050101 224.79529173497087 0 0 0 0 -58.105782189188176 3.6427418293699247 0 3.6427418293699247 183.46778790108715 0 0 0 0 -74.861209424481785 -32.190115704311665 0 -32.190115704311665 164.63330981820764 0 0 0 0 -53.796718461781424 -0.37195873955286451 0 -0.37195873955286451 9.521325052797323 0 0 0 0 -105.09742240626656 -73.485653737506027 0 -73.485653737506027 238.62291475506584 0 0 0 0 -12.246700874500675 -126.17938662556503 0 -126.17938662556503 -113.71588705061185 0 0 0 0 -66.4572000379776 -54.900007373882545 0 -54.900007373882545 28.848663670447422 0 0 0 0 -73.642181713501486 -140.99928824251219 0 -140.99928824251219 7.4555872685614304 0 0 0 0 -126.08108328553499 150.33205136099491 0 150.33205136099491 18.596264693157536 0 0 0 0 -1.0079485613513128 0.28171997499080703 0 0.28171997499080703 1.7965427637534201 0 0 0 0 -82.935467156195955 -155.90411937492354 0 -155.90411937492354 286.19774912648882 0 0 0 0 210.62845313961589 -396.56683979593367 0 -396.56683979593367 59.92560668310216 0 0 0 0 -34.447529120890977 -116.15134111806219 0 -116.15134111806219 -243.09185116104277 0 0 0 0 -21.253540556706866 -199.42915474538313 0 -199.42915474538313 -7.773599317037224 0 0 0 0 -18.607582326025295 -4.8468371548633513 0 -4.8468371548633513 -56.412432064769746 0 0 0 0 84.071663721028017 -78.116016501409831 0 -78.116016501409831 -239.59637797528922 0 0 0 0 -120.28902927525633 -255.72631582479971 0 -255.72631582479971 -76.096865947136394 0 0 0 0 10.153921090357471 -31.24238811156647 0 -31.24238811156647 136.24373824841859 0 0 0 0 22.691057813182169 -17.380163568578219 0 -17.380163568578219 13.819699768043927 0 0 0 0 33.595746332095587 4.6165838483138941 0 4.6165838483138941 138.77595319626232 0 0 0 0 -8.4422915672730596 -45.382571728901894 0 -45.382571728901894 149.67867745442163 0 0 0 0 -2.2579179263389051 5.6450931486394893 0 5.6450931486394893 124.36018015242917 0 0 0 0 23.276533026799861 -33.922379820471129 0 -33.922379820471129 24.878906232991746 0 0 0 0 6.8052996202386566 -51.597914237565419 0 -51.597914237565419 17.1792675413908 0 0 0 0 -87.654753153437923 -134.18833554893286 0 -134.18833554893286 74.516315884921141 0 0 0 0 -14.697389842812591 -6.7814901841143502 0 -6.7814901841143502 6.5181909988106241 0 0 0 0 -10.412750510368824 -18.042652579451897 0 -18.042652579451897 73.932313457389682 0 0 0 0 17.421435117808869 -5.5413983005591945 0 -5.5413983005591945 13.490265569006624 0 0 0 0 7.6699719456300954 -39.327029452124407 0 -39.327029452124407 115.13112636529331 0 0 0 0 13.902411880219006 -56.138647596060764 0 -56.138647596060764 96.121866649223193 0 0 0 0 0.17231763349991525 -24.465392938525838 0 -24.465392938525838 106.60585207385702 0 0 0 0 40.168683247022273 -39.869531455155993 0 -39.869531455155993 109.73735545485533 0 0 0 0 76.309164577103729 -72.630203874663493 0 -72.630203874663493 158.45750610485084 0 0 0 0 10.578127817072527 -61.200151011004891 0 -61.200151011004891 167.08590642278614 0 0 0 0 52.883107855781418 -50.149531448216749 0 -50.149531448216749 148.72355693238205 0 0 0 0 37.833330255234614 -134.37306348918355 0 -134.37306348918355 205.73704601617192 0 0 0 0 16.549511592213094 -154.51382293378083 0 -154.51382293378083 190.16269042562453 0 0 0 0 17.655391428419534 -164.13324350928451 0 -164.13324350928451 201.26685432581689 0 0 0 0 -16.125636746259261 -99.575681542426537 0 -99.575681542426537 187.26863517880156 0 0 0 0 -8.9943269774585133 -65.943029247740242 0 -65.943029247740242 207.15018137448715 0 0 0 0 -14.825697629947172 -22.013131876225088 0 -22.013131876225088 275.62578644720998 0 0 0 0 -64.516851035747095 -79.718118508366388 0 -79.718118508366388 260.6890233922727 0 0 0 0 -62.805459472297116 -53.926253406642218 0 -53.926253406642218 498.74230908589743 0 0 0 0 34.638191116835515 77.331716050970499 0 77.331716050970499 297.11362528401696 0 0 0 0 -11.689761990113766 -234.99905877889705 0 -234.99905877889705 355.84414265175292 0 0 0 0 -25.777611959066235 -117.48755887980178 0 -117.48755887980178 297.45943190045 0 0 0 0 7.8410182485813493 147.47618852248877 0 147.47618852248877 854.32592781903804 0 0 0 0 7.7512090549171475 -6.1076421929477061 0 -6.1076421929477061 5.0714791072700081 0 0 0 0 -11.513003396736167 -118.30185473812799 0 -118.30185473812799 377.21848756274812 0 0 0 0 593.44870094740691 -257.98309429488836 0 -257.98309429488836 235.51138304975393 0 0 0 0 91.993026636231662 -372.67067244862847 0 -372.67067244862847 754.69940857612528 0 0 0 0 -66.534933162733068 -28.013530677848394 0 -28.013530677848394 10.789368897030727 0 0 0 0 -104.11000028419585 195.1732227022228 0 195.1732227022228 -8.6124331038336095 0 0 0 0 17.052946258721931 -219.36910014965542 0 -219.36910014965542 238.28015956199852 0 0 0 0 -106.02016953714337 -177.49074403914437 0 -177.49074403914437 228.76314097437489 0 0 0 0 -26.339161112635338 -184.97760609517809 0 -184.97760609517809 237.45729626120101 0 0 0 0 -22.96825639036615 -148.22299463902982 0 -148.22299463902982 238.64790722021098 0 0 0 0 -166.4482324746059 -101.07886099657117 0 -101.07886099657117 160.43852234279711 0 0 0 0 -33.196100621638834 -213.0136261684238 0 -213.0136261684238 155.05338016550013 0 0 0 0 1.7932855723192915 -136.13772115311258 0 -136.13772115311258 98.693450083739663 0 0 0 0 -241.45887866776684 -39.813512514270315 0 -39.813512514270315 156.34663867810286 0 0 0 0 -7.1706715129439118 -2.6598198812800913 0 -2.6598198812800913 18.702842766572001 0 0 0 0 -255.16133778294898 171.3635768043564 0 171.3635768043564 -10.753942585221012 0 0 0 0 -433.84261386686558 88.919970552657105 0 88.919970552657105 73.83040843628487 0 0 0 0 -271.05347632824214 -236.85489563316355 0 -236.85489563316355 29.833391313615721 0 0 0 0 -39.131155741222756 40.258949933880558 0 40.258949933880558 -124.72673712525057 0 0 0 0 10.290808776873746 -189.30385790161927 0 -189.30385790161927 104.11618731350427 0 0 0 0 -24.292330422234954 111.95011900968029 0 111.95011900968029 150.86706846261973 0 0 0 0 151.0209730287188 -151.66024124432215 0 -151.66024124432215 242.29886475804233 0 0 0 0 80.302626902130214 -82.373312533438821 0 -82.373312533438821 175.48293062238736 0 0 0 0 306.66659663301652 -162.46732173206465 0 -162.46732173206465 387.83628668085476 0 0 0 0 193.75350649282973 -38.316028057921017 0 -38.316028057921017 256.5513961125489 0 0 0 0 240.22097002009741 -65.207318391054741 0 -65.207318391054741 149.43198136646424 0 0 0 0 128.11049623878353 -147.76773835883796 0 -147.76773835883796 225.60432288780339 0 0 0 0 126.67650244621473 -133.64200159997654 0 -133.64200159997654 160.51072581764811 0 0 0 0 32.030532279317413 -200.26203270397968 0 -200.26203270397968 171.83351894171574 0 0 0 0 -2.6692852347523512 -71.649553004492645 0 -71.649553004492645 149.28420409237515 0 0 0 0 59.85581933265712 -245.0330344834947 0 -245.0330344834947 457.77052772589104 0 0 0 0 -51.861810736209009 46.58793726368458 0 46.58793726368458 785.59293558135323 0 0 0 0 -19.010187190352553 63.419299640479494 0 63.419299640479494 376.26952257084486 0 0 0 0 -555.56345726000291 -16.340843003881673 0 -16.340843003881673 -689.09004554322019 0 0 0 0 5.3726766350044741 -2.3558803130059758 0 -2.3558803130059758 -0.13173521204492999 0 0 0 0 -85.41970054907506 -0.52257029391876131 0 -0.52257029391876131 377.480135997248 0 0 0 0 -31.68887221062414 16.368883292094779 0 16.368883292094779 229.28328632892226 0 0 0 0 39.75438818334078 -68.550552668057207 0 -68.550552668057207 93.382293371554624 0 0 0 0 85.782556396807195 -156.01208384710117 0 -156.01208384710117 207.21403945849306 0 0 0 0 31.3044395787947 -24.154722612769547 0 -24.154722612769547 66.496026029772111 0 0 0 0 -17.314426427288709 -77.846483144228841 0 -77.846483144228841 294.52992737204386 0 0 0 0 -71.162893680673733 10.376339151174761 0 10.376339151174761 337.70074785602992 0 0 0 0 -25.889767177632166 134.24787700514253 0 134.24787700514253 68.134891393823636 0 0 0 0 25.419004989147652 -52.385334742122723 0 -52.385334742122723 94.294621642256971 0 0 0 0 -56.919563460043719 143.15388195021842 0 143.15388195021842 341.37006304090573 0 0 0 0 -49.657211609657679 -83.335879988735542 0 -83.335879988735542 548.56972441220933 0 0 0 0 352.71119105313119 -75.005195993691814 0 -75.005195993691814 -385.18382096738787 0 0 0 0 -271.41640284410823 187.73157201019421 0 187.73157201019421 62.280146661700201 0 0 0 0 0.98412395198560887 1.9543772526897705 0 1.9543772526897705 4.8743866001317571 0 0 0 0 110.54501189023722 -234.37277876270127 0 -234.37277876270127 392.42021257686429 0 0 0 0 336.21150634003425 -1179.0631595941149 0 -1179.0631595941149 400.85334083516864 0 0 0 0 407.51055618832106 1120.8777209643631 0 1120.8777209643631 -451.12294735615569 0 0 0 0 -560.07091821315043 -330.33635756193689 0 -330.33635756193689 839.14947230820871 0 0 0 0 -0.91178442020448625 -21.554083654444121 0 -21.554083654444121 110.26381831073878 0 0 0 0 -959.38824100282545 416.97569514801262 0 416.97569514801262 416.81898575048217 0 0 0 0 -506.96489804453086 -65.058815687198148 0 -65.058815687198148 159.93704192750192 0 0 0 0 -254.63829931200598 29.658306875622202 0 29.658306875622202 -68.161734799736223 0 0 0 0 -166.01914095281063 104.63498324503598 0 104.63498324503598 -7.0088609894564797 0 0 0 0 1.6396142459429415 -20.610157640999404 0 -20.610157640999404 85.219768872074184 0 0 0 0 -7.6827181734133774 -83.518683902061639 0 -83.518683902061639 10.462071845126047 0 0 0 0 -97.010183202277403 -135.49127292444791 0 -135.49127292444791 -8.8058784089407709 0 0 0 0 2.0143703389840084 -44.271778271884614 0 -44.271778271884614 92.700520215919823 0 0 0 0 46.123405258069397 -67.152208724047341 0 -67.152208724047341 -140.89097414467142 0 0 0 0 40.623651115532994 -106.53625787386591 0 -106.53625787386591 -20.380897223173633 0 0 0 0 13.587629942736385 -28.67890751242885 0 -28.67890751242885 84.538938997786317 0 0 0 0 31.687821618888847 -30.565803171062953 0 -30.565803171062953 84.718327769100142 0 0 0 0 -12.538692868478392 -65.746149695040913 0 -65.746149695040913 -41.027990935449452 0 0 0 0 15.277858913516866 -82.181329817783535 0 -82.181329817783535 -44.861896305734263 0 0 0 0 35.494619633362163 -32.914716861385386 0 -32.914716861385386 -6.4745002402705722 0 0 0 0 -18.033826275383035 -19.617226904352719 0 -19.617226904352719 -103.17805393197432 0 0 0 0 18.716468335300306 -120.18119594574455 0 -120.18119594574455 119.38505420560432 0 0 0 0 62.496005689066806 -84.296345309747267 0 -84.296345309747267 23.767297588896326 0 0 0 0 -8.491220443351267 -68.494026737254899 0 -68.494026737254899 77.530562189909688 0 0 0 0 -53.070341182617994 -51.486521068545358 0 -51.486521068545358 657.20245811616951 0 0 0 0 -43.94393549378583 -0.41743192535432172 0 -0.41743192535432172 938.45820394596285 0 0 0 0 -20.541064272965741 -140.31850107304854 0 -140.31850107304854 857.27399044606545 0 0 0 0 12.232198084539505 -116.35068171335183 0 -116.35068171335183 -129.04662224470849 0 0 0 0 21.385300675887265 -190.64230021209369 0 -190.64230021209369 441.96287792561566 0 0 0 0 15.34731241931199 -3.2219425573961793 0 -3.2219425573961793 -0.047270512663189379 0 0 0 0 -7.2894826772371744 -229.42118100413791 0 -229.42118100413791 692.05777614761973 0 0 0 0 -110.36757443591341 -192.58394450400738 0 -192.58394450400738 885.69409856743141 0 0 0 0 -101.88577156329484 -200.30470150510655 0 -200.30470150510655 723.3391632117648 0 0 0 0 208.31886721411956 15.414725198981273 0 15.414725198981273 47.911163044174828 0 0 0 0 642.69422952767854 -636.48215903857135 0 -636.48215903857135 388.36342485886234 0 0 0 0 -41.214637988887262 -310.42060868320004 0 -310.42060868320004 1140.1467193359549 0 0 0 0 18.023212821084599 -14.299578863757688 0 -14.299578863757688 91.674770372649164 0 0 0 0 20.917684664302584 -7.0094238645915432 0 -7.0094238645915432 15.532565738307397 0 0 0 0 2.255319592143747 -2.8828142313166438 0 -2.8828142313166438 44.150415538113684 0 0 0 0 -85.805980381022891 -8.7188902187703832 0 -8.7188902187703832 142.95721223414512 0 0 0 0 234.93323429269367 437.07555201794378 0 437.07555201794378 437.26464184371901 0 0 0 0 0.46590456730526952 0.022665831503580591 0 0.022665831503580591 16.655510249481051 0 0 0 0 -179.80234447573457 -6.445022764428586 0 -6.445022764428586 184.4778454289069 0 0 0 0 338.55755665155198 857.81302875245251 0 857.81302875245251 1418.7580526686122 0 0 0 0 662.92265051891809 -859.36020339942922 0 -859.36020339942922 981.89106409504984 0 0 0 0 1714.7882384215754 -269.27675522342031 0 -269.27675522342031 714.244327231944 0 0 0 0 -14.253888508701493 -393.72575483158062 0 -393.72575483158062 2372.8306674031373 0 0 0 0 525.19656757240045 257.83169460960306 0 257.83169460960306 255.67407789202855 0 0 0 0 -1.6980073916875398 -1.4501355638635616 0 -1.4501355638635616 -1.3181162954092942 0 0 0 0 101.17373932330884 30.336036635572555 0 30.336036635572555 718.75811454999359 0 0 0 0 -10.749767545632494 230.98592971342077 0 230.98592971342077 1044.4057680033088 0 0 0 0 10.56202732181373 287.09969150695582 0 287.09969150695582 714.85173675341593 0 0 0 0 228.54691597711462 722.11817645555493 0 722.11817645555493 2366.9739450561196 0 0 0 0 29.824994028458605 60.571653020386748 0 60.571653020386748 995.15578682006321 0 0 0 0 136.19494678927367 -771.49882793942288 0 -771.49882793942288 2040.8428436726085 0 0 0 0 -109.02961457353558 134.68206819693455 0 134.68206819693455 1340.683884565573 0 0 0 0 -77.774520635316549 -391.6091915434929 0 -391.6091915434929 1154.9598573493786 0 0 0 0 -152.63644161672346 -122.53735445143411 0 -122.53735445143411 968.865072259111 0 0 0 0 -174.31519330916717 22.948234230058915 0 22.948234230058915 794.9488413314084 0 0 0 0 -167.08596022028723 -24.851939647050131 0 -24.851939647050131 1020.2882411842393 0 0 0 0 -112.79372867888378 -75.701871052506363 0 -75.701871052506363 690.12075347122777 0 0 0 0 42.937137675866325 46.170563004447786 0 46.170563004447786 300.52692442887053 0 0 0 0 -120.91665051260497 -41.577898336244402 0 -41.577898336244402 721.06595953319231 0 0 0 0 -144.86035999580417 -100.08391962192036 0 -100.08391962192036 770.57817898641451 0 0 0 0 -143.68174328460782 -66.064849051638134 0 -66.064849051638134 814.94528806470043 0 0 0 0 -85.992364512094355 270.50965331770408 0 270.50965331770408 802.18061764475851 0 0 0 0 -85.684310243235757 283.46891369344718 0 283.46891369344718 975.55125018366653 0 0 0 0 -166.96653792179131 317.36226330091586 0 317.36226330091586 789.75703454126779 0 0 0 0 72.393076947777445 363.71142154065001 0 363.71142154065001 968.23477849484527 0 0 0 0 137.8037591155371 -20.024495457289049 0 -20.024495457289049 883.68369399912854 0 0 0 0 84.943528751075064 273.69271744495745 0 273.69271744495745 1446.1901330519449 0 0 0 0 1.9432294456282762 60.604063811965034 0 60.604063811965034 837.05213605652716 0 0 0 0 125.33535552429134 65.392362007408622 0 65.392362007408622 1252.7201884224414 0 0 0 0 -27.587195744603378 30.195080778716147 0 30.195080778716147 517.14545925063885 0 0 0 0 11.345829036035866 98.330791604597493 0 98.330791604597493 471.07800891914667 0 0 0 0 -178.2307754696194 180.1910450376763 0 180.1910450376763 792.53924873438791 0 0 0 0 -283.84059069728755 347.56984131732088 0 347.56984131732088 313.8900219276984 0 0 0 0 -177.44314243176268 150.56611903724843 0 150.56611903724843 514.41623636630266 0 0 0 0 -529.62475638115211 -19.786361010429573 0 -19.786361010429573 309.81047102054072 0 0 0 0 -194.79746525211885 -196.93692241104009 0 -196.93692241104009 -92.541844992242886 0 0 0 0 -308.1903210009059 306.31693821140516 0 306.31693821140516 876.72860315564367 0 0 0 0 4.8986588688567281 320.23157509169846 0 320.23157509169846 448.83650133648575 0 0 0 0 -246.57226098595129 254.65286175380834 0 254.65286175380834 855.236436810707 0 0 0 0 -241.33326287423915 340.54836648758283 0 340.54836648758283 684.50167384239717 0 0 0 0 -223.72785642600866 272.9585294832184 0 272.9585294832184 841.46833886606146 0 0 0 0 -207.49613806723573 290.72672457503472 0 290.72672457503472 842.06458382767062 0 0 0 0 -258.81772271211594 266.70865013896463 0 266.70865013896463 891.69247806497697 0 0 0 0 -249.33089066423781 83.54537902919833 0 83.54537902919833 736.19812521944812 0 0 0 0 -191.44048239796393 180.75259102092267 0 180.75259102092267 890.52486378584672 0 0 0 0 -273.94491785634818 310.28834853325611 0 310.28834853325611 1021.7022925882036 0 0 0 0 -278.58434739217773 286.34937566640809 0 286.34937566640809 1715.6242581396148 0 0 0 0 -249.42838701431174 31.336564573418059 0 31.336564573418059 1144.5359648284252 0 0 0 0 -121.75963383521594 11.850399750511357 0 11.850399750511357 1038.6594492343486 0 0 0 0 208.35817692414275 -441.21306028743061 0 -441.21306028743061 494.51549113585884 0 0 0 0 179.35844990533951 -121.87302577048968 0 -121.87302577048968 2.1472102554403136 0 0 0 0 -145.19356869248804 -136.78374095748222 0 -136.78374095748222 1197.9566534913429 0 0 0 0 -145.12387847471382 -141.22485616843332 0 -141.22485616843332 788.8387654224905 0 0 0 0 -96.578682357419893 -19.779011869113674 0 -19.779011869113674 567.48815100884599 0 0 0 0 47.207692797295749 -169.3243749166586 0 -169.3243749166586 493.52241449201154 0 0 0 0 -70.667389843511046 63.49760888239507 0 63.49760888239507 398.52812694383692 0 0 0 0 -117.84942597221379 1.8357992642281715 0 1.8357992642281715 725.94901395232523 0 0 0 0 -55.702765714959241 61.350794981622812 0 61.350794981622812 398.79252108075144 0 0 0 0 -67.153529403614812 1.619030463400577 0 1.619030463400577 100.74180885882379 0 0 0 0 -28.744595913743979 -13.999916111296898 0 -13.999916111296898 298.98267046082054 0 0 0 0 57.150179330958053 156.66115355815381 0 156.66115355815381 256.17615002872867 0 0 0 0 177.82381348032868 369.70632949514226 0 369.70632949514226 551.06149708180135 0 0 0 0 -40.339181538602134 178.8761972795931 0 178.8761972795931 634.46979229832118 0 0 0 0 -87.759503795950877 309.33187470042662 0 309.33187470042662 818.6361390270431 0 0 0 0 -169.22329702745446 177.1358693361318 0 177.1358693361318 641.65885812184558 0 0 0 0 -47.24533309157232 285.00199318551893 0 285.00199318551893 675.51631876435476 0 0 0 0 -192.16977892284103 264.08585480878708 0 264.08585480878708 855.48947450226251 0 0 0 0 178.96749211181987 360.77250932824904 0 360.77250932824904 620.37880603748954 0 0 0 0 294.97608790600316 372.62531013009641 0 372.62531013009641 613.7996949719186 0 0 0 0 564.99565667096613 653.54798247234794 0 653.54798247234794 898.47533165795903 0 0 0 0 131.53187685874582 462.82579582220205 0 462.82579582220205 852.39159200355493 0 0 0 0 57.477710506485892 -83.802276460317898 0 -83.802276460317898 -42.931275082334651 0 0 0 0 2.6665946414554114 -10.456733952566232 0 -10.456733952566232 20.089740545623453 0 0 0 0 -14.859006519811373 -42.176207478645665 0 -42.176207478645665 -6.34448441243876 0 0 0 0 -88.076340863157384 -3.7717949087877969 0 -3.7717949087877969 115.85304876427472 0 0 0 0 -145.44582771670866 112.28199264027626 0 112.28199264027626 63.844312114331842 0 0 0 0 -56.295904045771749 -46.155701777534887 0 -46.155701777534887 48.99319989455762 0 0 0 0 1.0704011950217023 -2.0796976626475212 0 -2.0796976626475212 1.668419051924463 0 0 0 0 112.48938676940634 18.265480621910683 0 18.265480621910683 56.172786564297894 0 0 0 0 -1.3360242126509547 70.33875515573186 0 70.33875515573186 32.351446092209699 0 0 0 0 171.01183818224308 -144.86544752272493 0 -144.86544752272493 -29.915565832403672 0 0 0 0 0.52250643159823795 -1.043366195111286 0 -1.043366195111286 1.3063884649551181 0 0 0 0 332.06529227925057 -266.19376249575635 0 -266.19376249575635 713.25926807385792 0 0 0 0 172.99850554931982 -155.3085614345664 0 -155.3085614345664 724.61512352101818 0 0 0 0 0.73696966159292288 -3.4274119012935564 0 -3.4274119012935564 8.3470156404970588 0 0 0 0 -34.167939265895257 -538.43642187921523 0 -538.43642187921523 334.36864111094201 0 0 0 0 65.611429094857158 122.9934167216179 0 122.9934167216179 3.3783205551171704 0 0 0 0 80.105726024421529 -109.72105458450005 0 -109.72105458450005 342.08089603503049 0 0 0 0 115.41136586065295 -135.99997902903851 0 -135.99997902903851 327.56668824232838 0 0 0 0 183.36609478032187 -52.48146984772211 0 -52.48146984772211 108.25591523234471 0 0 0 0 201.83974718673642 -407.87585671327076 0 -407.87585671327076 617.07056010908491 0 0 0 0 1.1058685119096481 11.951961295435467 0 11.951961295435467 689.94537804865081 0 0 0 0 -12.612086327161705 -30.170350704340535 0 -30.170350704340535 566.14321884698256 0 0 0 0 107.59478804243463 -151.58918206464173 0 -151.58918206464173 1162.5751324316352 0 0 0 0 111.52837763347981 -219.47336910884189 0 -219.47336910884189 1110.6305806174441 0 0 0 0 -0.72505779675721627 -0.37780887080172754 0 -0.37780887080172754 5.1701703007222832 0 0 0 0 205.36929006354694 414.04671391969669 0 414.04671391969669 1435.7470361600394 0 0 0 0 207.36021618309496 421.73379349527249 0 421.73379349527249 661.82597347259707 0 0 0 0 505.49459357977958 977.03928510616151 0 977.03928510616151 1819.3956183790542 0 0 0 0 546.60988293912305 -272.47095763689322 0 -272.47095763689322 1363.9907626010281 0 0 0 0 167.11590984520535 176.19963551318369 0 176.19963551318369 2129.1956263081011 0 0 0 0 288.57918643993617 170.30308145342769 0 170.30308145342769 1125.318254395248 0 0 0 0 -12.834118301092531 -370.64591354720051 0 -370.64591354720051 1383.0182450654993 0 0 0 0 278.36008904370465 -172.90580963983575 0 -172.90580963983575 1110.7473457915348 0 0 0 0 740.0199471562737 287.21726682480039 0 287.21726682480039 1338.3640292915425 0 0 0 0 417.92226536172166 280.97643223946488 0 280.97643223946488 1636.2955811663046 0 0 0 0 -33.212527676254922 -331.116547168029 0 -331.116547168029 361.64239268028177 0 0 0 0 16.045691235351114 -87.65383944963196 0 -87.65383944963196 1202.7060648659542 0 0 0 0 446.95380739770189 -263.4189263991957 0 -263.4189263991957 512.64952134586565 0 0 0 0 335.76098537210783 -34.094523296988882 0 -34.094523296988882 1225.5743625705818 0 0 0 0 408.7602308121277 -162.63491000728573 0 -162.63491000728573 667.90479513399896 0 0 0 0 195.87371781086222 -19.07480084558938 0 -19.07480084558938 243.36097575508893 0 0 0 0 414.7746208189792 60.820694517826951 0 60.820694517826951 265.3161868871648 0 0 0 0 258.50300712386888 -107.29531700559801 0 -107.29531700559801 647.76784700695316 0 0 0 0 173.08747372588005 57.881516515790281 0 57.881516515790281 144.60009269853435 0 0 0 0 224.20935372878012 35.376873232120715 0 35.376873232120715 104.4129469284544 0 0 0 0 84.648206300600577 152.04098936249102 0 152.04098936249102 108.81193141580994 0 0 0 0 64.05669702279738 240.52981197839108 0 240.52981197839108 -98.185710624648891 0 0 0 0 60.848619410296124 188.36415141332918 0 188.36415141332918 294.78350498277723 0 0 0 0 -161.28774016274474 94.263775790804175 0 94.263775790804175 340.91007800862235 0 0 0 0 -31.197609042028944 52.640616357807176 0 52.640616357807176 186.05478374008453 0 0 0 0 -1.4583590692914719 -1.2937756573673234 0 -1.2937756573673234 9.3179167093606736 0 0 0 0 108.41564053670027 163.57591153947146 0 163.57591153947146 201.55144630412542 0 0 0 0 19.006293659265793 87.430257103461372 0 87.430257103461372 155.0396721239099 0 0 0 0 -0.84427679417170154 -0.5078387137107665 0 -0.5078387137107665 4.6702514464413269 0 0 0 0 182.58385003608691 303.20662614674688 0 303.20662614674688 433.23474796323353 0 0 0 0 144.30572194717297 410.80379394812849 0 410.80379394812849 685.15805474673107 0 0 0 0 85.782554794677708 -64.002699933997064 0 -64.002699933997064 362.10126385874628 0 0 0 0 29.632779794541875 24.730475180574103 0 24.730475180574103 299.49741632228324 0 0 0 0 -290.45470808352547 -233.1538982810016 0 -233.1538982810016 1213.1840911079398 0 0 0 0 -11.447974751330548 86.973813246307145 0 86.973813246307145 349.90575491672735 0 0 0 0 -19.368814511522032 -48.037535499819569 0 -48.037535499819569 250.79065961726519 0 0 0 0 1.703414472311124 43.178780441657182 0 43.178780441657182 190.35825966325638 0 0 0 0 0.28173420764869661 7.650866820507872 0 7.650866820507872 205.39906827789309 0 0 0 0 108.26251132488687 -16.333799114237991 0 -16.333799114237991 148.5045400500112 0 0 0 0 5.760421343346934 -13.522501563417791 0 -13.522501563417791 150.67583608157111 0 0 0 0 166.86256619044525 66.109796624195951 0 66.109796624195951 178.14381370195406 0 0 0 0 35.582847174231574 56.29531294148228 0 56.29531294148228 182.84341240093636 0 0 0 0 -10.252891443688441 36.100895649290578 0 36.100895649290578 477.49312886858388 0 0 0 0 135.69737367661764 -80.615942459232429 0 -80.615942459232429 456.76321267706408 0 0 0 0 -0.062315010786278435 122.3424817414857 0 122.3424817414857 317.99705579578404 0 0 0 0 -71.660206907500651 38.326706601248588 0 38.326706601248588 485.59369641909143 0 0 0 0 233.15972704075648 26.176038253354818 0 26.176038253354818 18.403744823942588 0 0 0 0 80.061516179041064 -124.63122297369409 0 -124.63122297369409 727.83781702481065 0 0 0 0 232.93684358578412 -7.6978223237229031 0 -7.6978223237229031 -95.041401493010198 0 0 0 0 3.3828796988655938 1.9366099133738643 0 1.9366099133738643 1.6380785363748203 0 0 0 0 -146.88572302724424 -30.257287111556252 0 -30.257287111556252 802.92097137201017 0 0 0 0 -285.52503999842793 -331.11450388280673 0 -331.11450388280673 220.34916712095765 0 0 0 0 319.22891289990548 21.767685818073005 0 21.767685818073005 328.32324078655256 0 0 0 0 63.260347981221457 115.60096121961396 0 115.60096121961396 385.27569073110863 0 0 0 0 -10.714233330612842 229.49310778401104 0 229.49310778401104 85.565530264113477 0 0 0 0 44.686818650111491 93.816179030793137 0 93.816179030793137 378.74069844699261 0 0 0 0 -5.7870104019257269 232.52413361084109 0 232.52413361084109 339.94549818170799 0 0 0 0 15.899925928370067 164.81430299232215 0 164.81430299232215 541.7633053852951 0 0 0 0 125.41741577272614 134.59210094631419 0 134.59210094631419 676.91066484877956 0 0 0 0 1.9519500196065565 -26.393893640364695 0 -26.393893640364695 488.8009041216028 0 0 0 0 130.80696546791842 56.44856902439551 0 56.44856902439551 430.74074079149068 0 0 0 0 -50.895248726774298 -192.96551988849296 0 -192.96551988849296 822.8015366825839 0 0 0 0 0.50730163191658306 1.3930433771234121 0 1.3930433771234121 2.5987144531130824 0 0 0 0 -62.103385921584049 337.45851876528968 0 337.45851876528968 28.015375873290395 0 0 0 0 -45.664387409454321 53.675712608705908 0 53.675712608705908 291.32566142083851 0 0 0 0 -214.26220451775134 16.015180201479097 0 16.015180201479097 277.55167270430411 0 0 0 0 -76.5856056228331 -60.999372360103735 0 -60.999372360103735 138.53656301104206 0 0 0 0 -22.716779520150794 315.96265084479296 0 315.96265084479296 533.33730931125865 0 0 0 0 -38.985281695267986 142.13246885790431 0 142.13246885790431 705.97396793791904 0 0 0 0 -52.97896415643163 250.53014854526464 0 250.53014854526464 488.82745924628216 0 0 0 0 -37.754168959434537 159.39091803585507 0 159.39091803585507 372.76154580808361 0 0 0 0 -22.884994374378948 -7.8652710581354768 0 -7.8652710581354768 449.70994083010828 0 0 0 0 -6.8137475752810133 3.6879150715212745 0 3.6879150715212745 457.32033172600222 0 0 0 0 -12.270487032596066 -104.85032661226887 0 -104.85032661226887 493.16908408392555 0 0 0 0 -31.165710814410886 -56.634668259650994 0 -56.634668259650994 403.32260414032771 0 0 0 0 84.249945056096067 -139.01270760617547 0 -139.01270760617547 367.13479731767984 0 0 0 0 -110.24741553727517 13.64755862040073 0 13.64755862040073 275.61542857756649 0 0 0 0 -83.709281522489619 -99.692459002470969 0 -99.692459002470969 370.64167553760217 0 0 0 0 -74.698217900073359 -59.949471861660641 0 -59.949471861660641 408.96471526787127 0 0 0 0 -120.03365219080388 -20.847591534023195 0 -20.847591534023195 444.61083327800952 0 0 0 0 -105.9921342490552 7.6791500146996441 0 7.6791500146996441 498.57070944513362 0 0 0 0 -59.891427120412118 53.775362653862885 0 53.775362653862885 457.47618602491457 0 0 0 0 -70.852582924955641 29.266497389171491 0 29.266497389171491 410.04378356788493 0 0 0 0 -31.856437037651403 -17.329499334866455 0 -17.329499334866455 343.7278951462813 0 0 0 0 -18.356822486026431 32.120236753332392 0 32.120236753332392 312.90429873946232 0 0 0 0 1.8695977465677061 36.913533285048288 0 36.913533285048288 225.25073762609827 0 0 0 0 1.4514284236556705 30.596428755226952 0 30.596428755226952 223.43109139087755 0 0 0 0 16.343304824938969 53.851555477309375 0 53.851555477309375 162.12453299012668 0 0 0 0 26.048297779128916 12.14482326747202 0 12.14482326747202 148.60860933385084 0 0 0 0 28.7829502223085 -16.762737962825668 0 -16.762737962825668 201.8654161246177 0 0 0 0 16.759475439199832 36.707511078983998 0 36.707511078983998 165.33601351767902 0 0 0 0 3.2242502051776682 10.047473247632297 0 10.047473247632297 147.35502342689506 0 0 0 0 20.911044181491384 34.931845974687349 0 34.931845974687349 10.015423435869446 0 0 0 0 32.289275908791751 50.145174551227683 0 50.145174551227683 81.5696586552599 0 0 0 0 38.463157947424406 21.122906587547732 0 21.122906587547732 85.801147502348613 0 0 0 0 -18.002887130363888 50.000258898047832 0 50.000258898047832 141.1460246441311 0 0 0 0 13.520145551768534 11.894468220450971 0 11.894468220450971 -13.55695107277662 0 0 0 0 11.585150747954685 30.971184862537484 0 30.971184862537484 134.94150596536929 0 0 0 0 23.211569914848951 54.244313924008566 0 54.244313924008566 134.64107162467735 0 0 0 0 24.955141268132138 35.39101784191007 0 35.39101784191007 102.31809854549897 0 0 0 0 -4.1688130219699815 33.048978702505337 0 33.048978702505337 80.172830670096346 0 0 0 0 15.489716387851914 34.696169644226437 0 34.696169644226437 6.3573129804421296 0 0 0 0 16.500816368668893 5.7096264463725674 0 5.7096264463725674 146.70478881627878 0 0 0 0 16.746145797673535 22.161924398399492 0 22.161924398399492 159.88826232339852 0 0 0 0 8.3432178879170351 44.162038127488131 0 44.162038127488131 145.51884380963384 0 0 0 0 2.2558484291002969 75.841573594632791 0 75.841573594632791 117.94044582761308 0 0 0 0 0.3158539356189749 -0.69682032357840917 0 -0.69682032357840917 1.3028527262094158 0 0 0 0 49.686621347667142 -9.4605208349393024 0 -9.4605208349393024 42.919604799539229 0 0 0 0 21.256211394285856 38.627928672398411 0 38.627928672398411 386.45698050582268 0 0 0 0 72.03846465539209 -92.232224031909936 0 -92.232224031909936 263.04681220818657 0 0 0 0 52.620173268805956 -45.186505020192271 0 -45.186505020192271 375.20840507346929 0 0 0 0 -37.328776299504398 -2.8856770240859078 0 -2.8856770240859078 356.34446492179268 0 0 0 0 79.247614191941466 -87.664300079803979 0 -87.664300079803979 336.99685260621118 0 0 0 0 61.497994373381516 -87.378726274666406 0 -87.378726274666406 362.83830341667641 0 0 0 0 59.014575761828382 -37.474528466426136 0 -37.474528466426136 238.53297260075306 0 0 0 0 97.414111644815421 -27.570480460653926 0 -27.570480460653926 235.91389648854874 0 0 0 0 51.057551673780836 28.577227422981196 0 28.577227422981196 167.40164494212149 0 0 0 0 73.389462751392784 44.0576576740159 0 44.0576576740159 140.3423811114244 0 0 0 0 46.964516251369787 52.273186873823761 0 52.273186873823761 193.3889239686996 0 0 0 0 56.215896868696291 46.032635230977576 0 46.032635230977576 139.27848936233386 0 0 0 0 46.429083172462924 76.43171273902135 0 76.43171273902135 136.76153724756659 0 0 0 0 67.828048415622106 50.416063044508974 0 50.416063044508974 140.51765698221425 0 0 0 0 34.430736811089446 69.665944239951386 0 69.665944239951386 132.74478008799451 0 0 0 0 50.524286750121973 67.846310360836469 0 67.846310360836469 145.69320072848313 0 0 0 0 -9.1045024478662526 32.312777162498151 0 32.312777162498151 105.29481722749188 0 0 0 0 -29.816077893449915 8.3390907133486394 0 8.3390907133486394 96.005703484495825 0 0 0 0 -25.623617222427129 20.172264359267501 0 20.172264359267501 75.510250426619677 0 0 0 0 -22.592792941002699 9.4813014788151122 0 9.4813014788151122 83.002378373580541 0 0 0 0 -28.437949483078569 36.94360180391547 0 36.94360180391547 120.9018864674108 0 0 0 0 -18.122664074962813 37.259729301582411 0 37.259729301582411 126.11862998314973 0 0 0 0 -0.9537762428408314 41.467414496037236 0 41.467414496037236 111.58037021927339 0 0 0 0 -10.942415257686662 54.482552293366098 0 54.482552293366098 140.48094459194635 0 0 0 0 -30.606678970238136 59.528551850402437 0 59.528551850402437 125.94212915885964 0 0 0 0 50.590191357536241 40.898843805657634 0 40.898843805657634 113.47297671007982 0 0 0 0 32.917497755079239 51.705926553961035 0 51.705926553961035 161.04389473180981 0 0 0 0 33.332224791864064 67.329602163664276 0 67.329602163664276 131.29829363140925 0 0 0 0 32.64453534063432 70.338978049039724 0 70.338978049039724 118.20809812895277 0 0 0 0 31.241045125266737 59.68377643084591 0 59.68377643084591 126.41638738394613 0 0 0 0 5.3099833130472689 62.266882705636817 0 62.266882705636817 133.73583555499408 0 0 0 0 5.9981822289187221 47.913906284631395 0 47.913906284631395 120.42246736837296 0 0 0 0 -0.44163103727260022 44.797980891431507 0 44.797980891431507 120.0471769807682 0 0 0 0 2.6644673131072523 29.785530483857315 0 29.785530483857315 114.61625443300363 0 0 0 0 24.442955172823531 41.22754878809701 0 41.22754878809701 90.553946338634887 0 0 0 0 38.769357699333341 60.28856446955524 0 60.28856446955524 105.65188231477987 0 0 0 0 25.723605803006027 41.763223853087197 0 41.763223853087197 14.076507144293341 0 0 0 0 24.932177239734301 55.298488017237105 0 55.298488017237105 105.81396166944978 0 0 0 0 40.002308439139597 66.581024130150581 0 66.581024130150581 63.387507283048762 0 0 0 0 3.861059380124324 7.9658021014488858 0 7.9658021014488858 24.918973065244131 0 0 0 0 5.6910845748971042 45.978274100035378 0 45.978274100035378 168.26389244675738 0 0 0 0 38.918295319659592 74.800337623765245 0 74.800337623765245 113.30831362823847 0 0 0 0 41.338469295325922 74.013279145662636 0 74.013279145662636 104.54261290951399 0 0 0 0 25.498916222301546 68.411717583639131 0 68.411717583639131 120.10245781729827 0 0 0 0 43.922982596423026 76.753294707789792 0 76.753294707789792 114.00429231558701 0 0 0 0 12.93075658453796 35.698836990071726 0 35.698836990071726 21.778080477953178 0 0 0 0 11.588597274416735 32.842724771116643 0 32.842724771116643 15.302068739864602 0 0 0 0 14.05672228133335 30.614713485683751 0 30.614713485683751 35.686819702423918 0 0 0 0 10.100278245393838 37.850475097657181 0 37.850475097657181 30.850401333815171 0 0 0 0 3.4664111044621677 14.955167068736046 0 14.955167068736046 34.446098887945482 0 0 0 0 11.3767445004327 45.995297761063199 0 45.995297761063199 129.7243151885221 0 0 0 0 10.561946304506364 37.503665683857434 0 37.503665683857434 26.312214910200055 0 0 0 0 -92.265902386686321 -20.851670399068098 0 -20.851670399068098 153.94442953239559 0 0 0 0 -12.429818479286476 9.200196303394506 0 9.200196303394506 66.875908837880246 0 0 0 0 19.068878590180212 37.81516766154953 0 37.81516766154953 45.95502944645898 0 0 0 0 0.090300102718174458 6.2126908032369101 0 6.2126908032369101 52.045415975861033 0 0 0 0 21.15801249009953 57.054583632593719 0 57.054583632593719 19.362237137085028 0 0 0 0 121.68638533947569 177.98854320344253 0 177.98854320344253 -186.11808197907521 0 0 0 0 -71.464101090896293 169.49824423689279 0 169.49824423689279 -216.04084844238969 0 0 0 0 -0.12912466812525381 1.381496091030229 0 1.381496091030229 4.820750665129502 0 0 0 0 -53.407443787017201 44.614911128439417 0 44.614911128439417 -75.71649877645541 0 0 0 0 -111.91856321216346 101.13899122638759 0 101.13899122638759 34.960375879512867 0 0 0 0 -0.04001520135238934 -60.915906761922088 0 -60.915906761922088 137.66153443686198 0 0 0 0 -8.9928194569513771 -2.665824151209371 0 -2.665824151209371 14.810975799006172 0 0 0 0 -79.611321526246684 53.579868594490108 0 53.579868594490108 19.301812370918924 0 0 0 0 0.89542344550464747 -2.0548572576291853 0 -2.0548572576291853 -0.78844754910154791 0 0 0 0 27.104991445732594 6.3552683668995087 0 6.3552683668995087 83.296886068252206 0 0 0 0 25.529481549172488 87.409593045576912 0 87.409593045576912 160.97026011775881 0 0 0 0 0.59502153883659048 -1.8060536063912878 0 -1.8060536063912878 156.22661897200669 0 0 0 0 5.8702723944334139 55.473200891455235 0 55.473200891455235 119.06129421131573 0 0 0 0 22.602962161276082 58.724672966132857 0 58.724672966132857 108.95480708949617 0 0 0 0 -0.42823886589212634 31.287369992630374 0 31.287369992630374 55.276774738604217 0 0 0 0 9.9470434582756901 31.675933217180301 0 31.675933217180301 6.0010668353592553 0 0 0 0 3.5026684912407688 28.012230275184589 0 28.012230275184589 41.746139436535628 0 0 0 0 15.42977614803749 16.142554322676006 0 16.142554322676006 92.888401869456175 0 0 0 0 0.66020827590182307 42.822538073925898 0 42.822538073925898 53.224902247811315 0 0 0 0 9.4203765169986582 40.454794482375746 0 40.454794482375746 40.15057554195937 0 0 0 0 9.9344474078334599 34.788233557439071 0 34.788233557439071 6.6981947586413 0 0 0 0 -0.20430800994879661 8.5827403958708999 0 8.5827403958708999 17.640093399859211 0 0 0 0 22.726650954934485 46.174110598142761 0 46.174110598142761 -49.010239743562124 0 0 0 0 12.867062960389507 38.722621175461576 0 38.722621175461576 25.250356257554536 0 0 0 0 9.3422852244943897 41.242022202907719 0 41.242022202907719 -0.55758841387068969 0 0 0 0 0.94127368475703754 22.069128801419758 0 22.069128801419758 1.5518858612567925 0 0 0 0 23.439720168409622 14.748977100702177 0 14.748977100702177 -6.8722405854377939 0 0 0 0 11.952471171298001 14.629781023625384 0 14.629781023625384 13.102987675143652 0 0 0 0 18.009929546446301 41.339886967435177 0 41.339886967435177 -0.58008860551490216 0 0 0 0 20.473439687878454 20.98596378181719 0 20.98596378181719 -24.159696545440966 0 0 0 0 17.103603384523126 29.210926422592365 0 29.210926422592365 -11.046078961524472 0 0 0 0 14.71507136021363 24.862260896002219 0 24.862260896002219 24.723578537209818 0 0 0 0 -87.111905031173933 89.40094203229819 0 89.40094203229819 32.29661137246876 0 0 0 0 -102.72173886033983 102.79951236505985 0 102.79951236505985 157.4784976580122 0 0 0 0 -122.62323817159768 54.358332477902877 0 54.358332477902877 60.084259214756457 0 0 0 0 -70.462987306910065 107.47137185584143 0 107.47137185584143 68.626898969901958 0 0 0 0 -67.693313079621277 113.15606520752658 0 113.15606520752658 27.329447118521784 0 0 0 0 -77.184085265194085 123.07040559653979 0 123.07040559653979 61.340337537985761 0 0 0 0 -54.387109401089901 137.41933486643393 0 137.41933486643393 57.015968037347193 0 0 0 0 10.593921712212932 16.52335178865178 0 16.52335178865178 1.7391491544804012 0 0 0 0 -109.04155574777883 22.339201201357355 0 22.339201201357355 -12.844062482728987 0 0 0 0 0.79483663361226053 9.0769325267764032 0 9.0769325267764032 2.2579885641962534 0 0 0 0 -106.69421378476366 38.574176238687869 0 38.574176238687869 73.152028325741412 0 0 0 0 -290.16726550385579 -199.04329998526373 0 -199.04329998526373 -30.337069911765866 0 0 0 0 -117.07877029556062 17.949905679131916 0 17.949905679131916 37.678632448614735 0 0 0 0 -162.2683709296283 36.211563488712272 0 36.211563488712272 112.46822997885465 0 0 0 0 17.639094640182748 13.949326421798105 0 13.949326421798105 -15.12284870881922 0 0 0 0 -1.41381785992723 1.1503704013203304 0 1.1503704013203304 -1.1654260821400726 0 0 0 0 4.9454014496475338 7.0223658046052151 0 7.0223658046052151 86.563931874668924 0 0 0 0 23.279933199218704 28.15335291725296 0 28.15335291725296 10.758474360562104 0 0 0 0 21.934551118846116 58.662461793755938 0 58.662461793755938 116.58237123335857 0 0 0 0 -33.977880184561059 -11.153106192257837 0 -11.153106192257837 211.01712282331209 0 0 0 0 -125.07498812473614 107.16069542191872 0 107.16069542191872 97.482328522317403 0 0 0 0 -6.6961794699191159 31.138469051555603 0 31.138469051555603 152.95136725660632 0 0 0 0 7.9799739303605719 8.6242914480159811 0 8.6242914480159811 10.103165210787964 0 0 0 0 41.355358306308972 -11.541559773759218 0 -11.541559773759218 6.6592986832401948 0 0 0 0 18.637732543088987 -8.8531958678649971 0 -8.8531958678649971 4.8155010029674941 0 0 0 0 2.7228967249316156 -7.2824456378839386 0 -7.2824456378839386 150.74988315363396 0 0 0 0 264.61888124782809 -20.6356508681165 0 -20.6356508681165 0.73962322016632243 0 0 0 0 33.633548583801257 33.43867897873497 0 33.43867897873497 -0.97578731103203609 0 0 0 0 195.14693168197869 234.51315796166091 0 234.51315796166091 130.15069919313828 0 0 0 0 -146.88340169308867 105.82752820355017 0 105.82752820355017 176.22653354830072 0 0 0 0 -108.79870906035285 269.59146547669297 0 269.59146547669297 8.7095805604221823 0 0 0 0 -111.06796599894369 158.47763422713251 0 158.47763422713251 -25.914709608914563 0 0 0 0 -79.815892467608137 65.526721427733719 0 65.526721427733719 -93.992771813333093 0 0 0 0 -49.604068362940325 75.073249517168733 0 75.073249517168733 -41.23763599983431 0 0 0 0 -27.522519485361045 -44.853664291033056 0 -44.853664291033056 378.59319818586664 0 0 0 0 -0.25589992780824922 0.10088099956421814 0 0.10088099956421814 0.60792180127342021 0 0 0 0 -14.156200639936742 234.44134530293013 0 234.44134530293013 -315.077541069586 0 0 0 0 -106.51276667700085 108.3704639074258 0 108.3704639074258 315.71161483986361 0 0 0 0 7.1811273103762687 96.191471846610511 0 96.191471846610511 28.652686962239386 0 0 0 0 24.285896767324175 134.02519746436519 0 134.02519746436519 3.1427004841316375 0 0 0 0 18.139801406078732 131.36216757144211 0 131.36216757144211 -87.566766463112799 0 0 0 0 7.0961227162095444 36.61475000573342 0 36.61475000573342 25.339812468972312 0 0 0 0 21.886646506081888 48.725103494889936 0 48.725103494889936 8.4704503864650178 0 0 0 0 -2.5525288717199146 21.835320782199688 0 21.835320782199688 36.221771229493243 0 0 0 0 1.8350021095720876 23.151142640724174 0 23.151142640724174 80.497488070789359 0 0 0 0 28.782874835024813 33.61197875718608 0 33.61197875718608 40.563793436315791 0 0 0 0 24.157930108074197 19.321250605387377 0 19.321250605387377 32.070162275686016 0 0 0 0 16.187333740720533 57.978574438486248 0 57.978574438486248 15.889728143233242 0 0 0 0 10.43990915787079 37.592708497350586 0 37.592708497350586 28.014388681733919 0 0 0 0 0.31047880613914458 51.412964109336826 0 51.412964109336826 58.01359858403066 0 0 0 0 25.635290052517121 22.44595128760011 0 22.44595128760011 32.988409045363369 0 0 0 0 20.640477262203774 75.749192199112812 0 75.749192199112812 -95.668125956330186 0 0 0 0 54.272216877993287 8.4684440285363962 0 8.4684440285363962 -44.566444170599425 0 0 0 0 9.8812667263118783 138.28709708563838 0 138.28709708563838 -35.287883077417064 0 0 0 0 -1.7089258664777844 120.14986712084283 0 120.14986712084283 88.276398238915135 0 0 0 0 -0.30966581420532613 0.34995951860901187 0 0.34995951860901187 0.76711014876259753 0 0 0 0 -81.613231863697365 150.1882400527611 0 150.1882400527611 112.40084720429149 0 0 0 0 -87.500338463330081 91.331297833297867 0 91.331297833297867 96.035924269417592 0 0 0 0 0.23472264779638863 64.115249810765818 0 64.115249810765818 134.72594780365762 0 0 0 0 1.4571573147782146 25.39553119638731 0 25.39553119638731 72.774970355538244 0 0 0 0 -16.692798427231537 69.169733446325154 0 69.169733446325154 99.213211208072607 0 0 0 0 9.9599851978251692 53.823729700496557 0 53.823729700496557 5.7296325609534744 0 0 0 0 6.1136482759061437 45.277483443249366 0 45.277483443249366 132.11078181656194 0 0 0 0 0.093279095804643219 7.4428584240319111 0 7.4428584240319111 24.838237650661867 0 0 0 0 -23.146837694695932 19.086529006479395 0 19.086529006479395 108.69318839008338 0 0 0 0 -52.557147146861553 109.1075428000695 0 109.1075428000695 62.061076889738615 0 0 0 0 24.258694751679968 87.025658230414138 0 87.025658230414138 20.340926878478058 0 0 0 0 -30.773507952776527 85.277655564893394 0 85.277655564893394 20.541380492708413 0 0 0 0 44.990743043368624 33.452388877665605 0 33.452388877665605 19.078482882100143 0 0 0 0 140.83081061563644 337.13986998124517 0 337.13986998124517 173.57911186733384 0 0 0 0 20.352305962669561 114.28429066359286 0 114.28429066359286 -85.225735834907027 0 0 0 0 27.340131454988295 79.38703472945781 0 79.38703472945781 29.28025014940431 0 0 0 0 4.5261902748334251 61.051620356885678 0 61.051620356885678 57.61993602864095 0 0 0 0 15.840476571233921 40.146078083420434 0 40.146078083420434 9.8067998505521246 0 0 0 0 43.098863820189763 -145.95196403059001 0 -145.95196403059001 35.37539821168798 0 0 0 0 140.89315803451973 26.010931334233248 0 26.010931334233248 -150.4814988646304 0 0 0 0 36.094619390643402 77.112251194873352 0 77.112251194873352 13.2720298180393 0 0 0 0 33.799055343390137 93.27183125868396 0 93.27183125868396 66.689036435994012 0 0 0 0 9.8055807503521528 25.176548105096135 0 25.176548105096135 2.2565646052151038 0 0 0 0 49.88054570567725 33.437925332969897 0 33.437925332969897 17.663511908327234 0 0 0 0 19.510874748945589 33.203294390458758 0 33.203294390458758 2.8781489179605444 0 0 0 0 10.699389147250258 70.178174658522039 0 70.178174658522039 67.879515153890679 0 0 0 0 33.292851355618041 52.184205104815192 0 52.184205104815192 36.420111883908248 0 0 0 0 37.664672805372902 47.021542572123508 0 47.021542572123508 38.044185911168825 0 0 0 0 15.909058042450852 100.15365269206814 0 100.15365269206814 83.172211567160957 0 0 0 0 -1.7348153823349151 24.432233253454115 0 24.432233253454115 4.7457461353979618 0 0 0 0 10.348096629688627 24.619431847786473 0 24.619431847786473 68.143189510752563 0 0 0 0 1.8663910130815067 -4.4074547623436118 0 -4.4074547623436118 26.639838336624848 0 0 0 0 20.285711211604735 0.39301935976254754 0 0.39301935976254754 25.388499749250172 0 0 0 0 1.2472625609488546 20.751147301136371 0 20.751147301136371 80.738436949344759 0 0 0 0 37.693873714113693 23.962888347585249 0 23.962888347585249 7.3944904529525957 0 0 0 0 14.742359785356143 36.792989211426175 0 36.792989211426175 16.794976390228612 0 0 0 0 8.7801036424605101 8.0966282380644401 0 8.0966282380644401 -5.3743348054179307 0 0 0 0 49.883043216463193 40.83163322088194 0 40.83163322088194 -5.3169092002499383 0 0 0 0 16.15662711365129 22.182408866992745 0 22.182408866992745 15.537622452051547 0 0 0 0 38.534697503673669 45.431603358061693 0 45.431603358061693 22.22430174832698 0 0 0 0 9.0771380029946158 44.523158926560427 0 44.523158926560427 17.675636184025279 0 0 0 0 18.245226753191673 25.901109742004337 0 25.901109742004337 3.8327628673505387 0 0 0 0 18.626072912140966 28.050048957526066 0 28.050048957526066 20.346336692410567 0 0 0 0 -4.2910639683563474 8.2349274090940199 0 8.2349274090940199 17.264841428182891 0 0 0 0 28.658540305976203 92.485979504646821 0 92.485979504646821 30.556709585533099 0 0 0 0 11.567655427206773 10.723545763175935 0 10.723545763175935 -40.009208125338773 0 0 0 0 50.543518581234821 22.283155469438498 0 22.283155469438498 63.376231528774952 0 0 0 0 -9.5156448361831281 46.807656482688344 0 46.807656482688344 70.646918867356362 0 0 0 0 37.86257013784288 33.149214639636739 0 33.149214639636739 49.290590959911185 0 0 0 0 16.409987365419511 13.478824375175464 0 13.478824375175464 -15.143252258068969 0 0 0 0 30.857760974636193 27.87317783674235 0 27.87317783674235 20.491676075547556 0 0 0 0 36.422876982942682 25.682002432971753 0 25.682002432971753 18.922525487841899 0 0 0 0 8.1160753009083066 -6.2575184304660887 0 -6.2575184304660887 -10.115878241775832 0 0 0 0 -14.876793835961507 40.282808450790071 0 40.282808450790071 41.533129029303382 0 0 0 0 48.685490867057524 -49.263188338288501 0 -49.263188338288501 -4.2338263880274098 0 0 0 0 102.85392809642872 -93.382575718625048 0 -93.382575718625048 17.907429516989851 0 0 0 0 50.992513225197399 14.352867970545049 0 14.352867970545049 68.425643267708892 0 0 0 0 18.904452748759304 -22.046701631683483 0 -22.046701631683483 30.267737332886799 0 0 0 0 4.2258233354153987 -1.181700891757111 0 -1.181700891757111 -5.9091797954246417 0 0 0 0 31.036715952628583 -56.262085304213542 0 -56.262085304213542 105.49591421868354 0 0 0 0 13.973666610282699 34.998273191630332 0 34.998273191630332 37.090208710929808 0 0 0 0 9.8115157526044641 -9.8450768558632262 0 -9.8450768558632262 145.40939105074176 0 0 0 0 85.927161497089401 21.891554415161409 0 21.891554415161409 75.089715789786169 0 0 0 0 27.314268004491169 51.825353743921369 0 51.825353743921369 163.22848716040789 0 0 0 0 -0.11787409067437693 20.980295984226359 0 20.980295984226359 109.26617009643269 0 0 0 0 -0.33523894455543513 -2.9649088216140282 0 -2.9649088216140282 6.3218980069806019 0 0 0 0 12.24626285364684 14.973256131640483 0 14.973256131640483 83.833587126831844 0 0 0 0 8.4606403340841467 -17.544465204416646 0 -17.544465204416646 20.792491505779431 0 0 0 0 3.9920676831243327 13.35023153721886 0 13.35023153721886 83.833494671938752 0 0 0 0 -20.114636084083031 0.71998583462118404 0 0.71998583462118404 74.099955024383235 0 0 0 0 -6.5912103395312442 28.902727298378522 0 28.902727298378522 28.698462407307488 0 0 0 0 -7.1865751998957421 22.129009992619103 0 22.129009992619103 81.087055716514442 0 0 0 0 -7.8373183795665682 8.421597827066762 0 8.421597827066762 90.550572374528201 0 0 0 0 -21.509418218352948 23.26014269848929 0 23.26014269848929 114.18497550616667 0 0 0 0 -7.3996698825030762 23.056791815363795 0 23.056791815363795 88.666201160043784 0 0 0 0 9.1552623572442826 30.559300231375346 0 30.559300231375346 108.17491811469881 0 0 0 0 13.802675798960991 5.3264009405206707 0 5.3264009405206707 113.92533926158171 0 0 0 0 -8.987758349177966 53.423674653131457 0 53.423674653131457 60.207544322764079 0 0 0 0 25.786365904889543 39.19000806679292 0 39.19000806679292 10.820755261236913 0 0 0 0 18.634309547855199 39.946941938500949 0 39.946941938500949 28.521452159506381 0 0 0 0 72.236830347177602 37.727661313350836 0 37.727661313350836 -15.130139469774804 0 0 0 0 -11.170874930554874 47.747398072571286 0 47.747398072571286 62.790767056769255 0 0 0 0 11.623789844717066 2.720027075155258 0 2.720027075155258 110.98293346905393 0 0 0 0 132.89043540060447 -40.027060631608038 0 -40.027060631608038 -21.149854464863893 0 0 0 0 61.428895566916076 20.829037385153242 0 20.829037385153242 -72.406857344623859 0 0 0 0 30.227243960781042 133.04216447133422 0 133.04216447133422 46.423198676318862 0 0 0 0 137.20370304350774 165.02842285501538 0 165.02842285501538 118.72897452648886 0 0 0 0 22.223053058001291 41.262483838386942 0 41.262483838386942 25.889589317954872 0 0 0 0 58.083859306149179 187.7041332181434 0 187.7041332181434 44.045747437718092 0 0 0 0 113.0593922407777 253.84488930469524 0 253.84488930469524 -5.3212323754851241 0 0 0 0 72.845502907913101 187.25178139953096 0 187.25178139953096 33.113401262962725 0 0 0 0 42.344708941872796 121.77131015107443 0 121.77131015107443 -72.82871545242233 0 0 0 0 32.631922288108171 130.71378857142554 0 130.71378857142554 -2.2767945230443729 0 0 0 0 51.520535819862516 239.47951725379971 0 239.47951725379971 152.32515319512095 0 0 0 0 -28.713915503024964 127.2734833818613 0 127.2734833818613 69.97278481223475 0 0 0 0 -25.402844714981029 170.54850319476827 0 170.54850319476827 162.52330069997515 0 0 0 0 133.0926361411365 195.31577587548236 0 195.31577587548236 31.779492859692255 0 0 0 0 154.62109380349995 111.08906983362158 0 111.08906983362158 43.975746205353062 0 0 0 0 391.01752075606595 12.251168436705484 0 12.251168436705484 -17.134195145161357 0 0 0 0 -5.7914642835306438 121.19403380417134 0 121.19403380417134 223.38200370440609 0 0 0 0 -0.17735549025833619 0.28480614000626758 0 0.28480614000626758 2.4919890229431729 0 0 0 0 378.06819454462567 220.65173082226829 0 220.65173082226829 63.01040641869622 0 0 0 0 387.31741267451486 29.367358560827597 0 29.367358560827597 227.4176332904899 0 0 0 0 394.14015586083138 106.70448488592478 0 106.70448488592478 129.41935973717773 0 0 0 0 50.531506948813785 89.01934143951803 0 89.01934143951803 124.43305838349079 0 0 0 0 83.30123381496378 181.91319837153424 0 181.91319837153424 328.50663483813696 0 0 0 0 -69.424534774507208 172.52004656348072 0 172.52004656348072 161.84127795268432 0 0 0 0 -302.03404463121723 -9.3483344982240624 0 -9.3483344982240624 201.16057148366963 0 0 0 0 -57.623726306326375 -196.38703993421586 0 -196.38703993421586 9.5038468042857858 0 0 0 0 46.632988873905333 -35.732276291211747 0 -35.732276291211747 304.81059558692868 0 0 0 0 33.315471115981836 59.011280109702057 0 59.011280109702057 -118.10414117598702 0 0 0 0 48.244610002477259 -75.973282948772976 0 -75.973282948772976 114.16335521655128 0 0 0 0 194.6799416852154 -67.743099700479206 0 -67.743099700479206 -100.13572840140114 0 0 0 0 196.61049968991426 -103.82988350102642 0 -103.82988350102642 -42.924669585110678 0 0 0 0 72.437033816422371 115.01132023952232 0 115.01132023952232 401.34502199169219 0 0 0 0 1.2583202770882203 -1.6356981675467779 0 -1.6356981675467779 2.2674712161910975 0 0 0 0 92.357215831976873 96.195750749437138 0 96.195750749437138 8.2190892661983526 0 0 0 0 2.5216730403001986 -4.1294123776745266 0 -4.1294123776745266 5.5096273504369577 0 0 0 0 17.273279934089771 80.992766783314437 0 80.992766783314437 187.35987063424545 0 0 0 0 -55.948344641248582 -158.6291967933721 0 -158.6291967933721 131.76959358945169 0 0 0 0 37.254786968766638 76.681449043625435 0 76.681449043625435 179.8732261003388 0 0 0 0 69.986242326173539 146.27569684484661 0 146.27569684484661 250.56913737487048 0 0 0 0 13.054568002845002 -47.834659886219015 0 -47.834659886219015 197.1475101860924 0 0 0 0 49.237269292416499 6.7111392576825892 0 6.7111392576825892 16.319617518420614 0 0 0 0 31.259193156438869 -14.946018293317138 0 -14.946018293317138 113.01645233224554 0 0 0 0 45.663640410691869 14.871437358240655 0 14.871437358240655 25.990325118669716 0 0 0 0 4.5009124208608 -6.4540559460119766 0 -6.4540559460119766 72.217135029397468 0 0 0 0 0.97217510679501551 -10.810990489390434 0 -10.810990489390434 21.586088772003663 0 0 0 0 -51.534168715877513 -27.256688240679068 0 -27.256688240679068 39.775972364297559 0 0 0 0 35.35579703831263 83.675074341077561 0 83.675074341077561 170.40635100903455 0 0 0 0 38.469613737103607 39.703766082585901 0 39.703766082585901 60.507905030033726 0 0 0 0 42.732631053394584 157.64505259712132 0 157.64505259712132 321.62896190894025 0 0 0 0 13.764896395235041 72.688924506835974 0 72.688924506835974 195.10393888551334 0 0 0 0 84.981618617664026 115.74200916190421 0 115.74200916190421 143.01573382281822 0 0 0 0 27.280466131382127 -9.4158148161495774 0 -9.4158148161495774 46.663543772434423 0 0 0 0 207.76982823090839 118.97716646108893 0 118.97716646108893 104.57345289170735 0 0 0 0 2.8209416784839156 -11.085848350775798 0 -11.085848350775798 20.733966851520535 0 0 0 0 16.441047627047055 -82.918627911214571 0 -82.918627911214571 386.40380598992124 0 0 0 0 -541.13129601959827 -460.34465220115499 0 -460.34465220115499 6.4004677521879785 0 0 0 0 -183.73275267182726 93.143830332537618 0 93.143830332537618 126.26291800036506 0 0 0 0 -308.46194292041821 -85.252039242341198 0 -85.252039242341198 59.663864954760356 0 0 0 0 2.0410089017761273 -11.43624653578464 0 -11.43624653578464 23.382321970115157 0 0 0 0 -60.545012196406617 47.540228504938796 0 47.540228504938796 71.533036861059372 0 0 0 0 -63.3298852088883 45.079861027119478 0 45.079861027119478 70.231512104328431 0 0 0 0 -142.86745932227223 132.8079408817066 0 132.8079408817066 112.93961147748632 0 0 0 0 -142.93225145723045 76.820423088349344 0 76.820423088349344 99.713966008624993 0 0 0 0 -12.160199570354365 6.9336589669620707 0 6.9336589669620707 26.987077172032556 0 0 0 0 -466.8841980587174 -526.34047063085723 0 -526.34047063085723 564.36946207064466 0 0 0 0 63.66237014437138 -54.374214234076135 0 -54.374214234076135 40.121287857269635 0 0 0 0 -4.7787663345416149 -8.4344273177430296 0 -8.4344273177430296 80.937176288196497 0 0 0 0 85.709926817803876 -123.86906832396198 0 -123.86906832396198 1251.9749238678014 0 0 0 0 31.387468869954319 -190.37234713060025 0 -190.37234713060025 1252.141223556755 0 0 0 0 1.8497408723933404 -177.48761784591625 0 -177.48761784591625 1246.5232293005956 0 0 0 0 31.091524480780215 -12.887268489209845 0 -12.887268489209845 3.0157213732447286 0 0 0 0 -8.4599880075966212 -232.11456611070025 0 -232.11456611070025 1259.9055603950283 0 0 0 0 -56.526699903829069 -162.87103580917437 0 -162.87103580917437 1256.3869822164124 0 0 0 0 -34.484387724785847 -204.2842192022872 0 -204.2842192022872 1293.8589663676685 0 0 0 0 -71.946404796038223 -201.64793664793251 0 -201.64793664793251 1227.0423680034728 0 0 0 0 74.36398022745459 339.35741127906522 0 339.35741127906522 588.1660029579507 0 0 0 0 -127.30747065404728 -116.28796913608039 0 -116.28796913608039 1273.9700812156661 0 0 0 0 -26.889312089326133 -106.67042286060894 0 -106.67042286060894 1274.7570873693548 0 0 0 0 262.3895555472161 -291.66553187658792 0 -291.66553187658792 263.673715136174 0 0 0 0 0.82231360168157197 -2.3493575338860779 0 -2.3493575338860779 4.2038585047444599 0 0 0 0 -98.036689172880983 -84.805869697065646 0 -84.805869697065646 1406.1167666071269 0 0 0 0 130.16943744134602 -289.32524003956496 0 -289.32524003956496 1358.9354763449119 0 0 0 0 144.46406135079167 -240.15873284496593 0 -240.15873284496593 1480.8892682663281 0 0 0 0 30.663943106332908 -48.422250504219846 0 -48.422250504219846 -59.576841046662594 0 0 0 0 17.508750900511387 -9.0124309234738291 0 -9.0124309234738291 0.15805353806236688 0 0 0 0 -85.241867085314425 -71.431082046197844 0 -71.431082046197844 51.214456954163325 0 0 0 0 -48.379881052115252 -339.0064535925012 0 -339.0064535925012 -361.88802789647025 0 0 0 0 -97.568960801133471 -140.04179406778167 0 -140.04179406778167 -121.19255415906991 0 0 0 0 5.2200121489593698 -3.3305803748818903 0 -3.3305803748818903 1.270091583568469 0 0 0 0 78.841871007970212 -852.91622863890734 0 -852.91622863890734 104.09752361644132 0 0 0 0 201.25382731078935 -601.21175527506966 0 -601.21175527506966 1184.6615555471653 0 0 0 0 -200.23908359130314 -482.62984278837757 0 -482.62984278837757 2206.1375941070087 0 0 0 0 34.359740643480563 -80.746232494504511 0 -80.746232494504511 1562.1113236515594 0 0 0 0 155.99654090267904 -348.47013987080936 0 -348.47013987080936 1054.6663591536562 0 0 0 0 -116.40827575105169 227.59407673244198 0 227.59407673244198 935.90106923222629 0 0 0 0 207.82532871723595 9.8199381382073625 0 9.8199381382073625 148.95303477466041 0 0 0 0 -14.064768109919839 117.63870133347064 0 117.63870133347064 555.35491595184067 0 0 0 0 98.613548853925977 -204.45257260854305 0 -204.45257260854305 704.37210888846312 0 0 0 0 -69.102534786240312 -52.131637416830927 0 -52.131637416830927 1106.9162186338021 0 0 0 0 60.546325525363955 -220.42656077055472 0 -220.42656077055472 837.41151107038968 0 0 0 0 112.59083450973924 -59.450987524161974 0 -59.450987524161974 260.17081554610195 0 0 0 0 118.31519961104198 25.665528020444981 0 25.665528020444981 149.93235447179086 0 0 0 0 -11.690315362965833 -35.66223535734207 0 -35.66223535734207 410.69874875901587 0 0 0 0 123.19141114821957 -65.005857818398454 0 -65.005857818398454 398.49553390823712 0 0 0 0 20.693631073111845 -25.982305380026446 0 -25.982305380026446 439.73772987598932 0 0 0 0 86.177453436210385 -367.89557750168751 0 -367.89557750168751 711.67185079441697 0 0 0 0 187.1068971160413 -641.08829094159228 0 -641.08829094159228 557.79643354762084 0 0 0 0 31.597518426066245 -444.72351479701319 0 -444.72351479701319 777.02990807638525 0 0 0 0 556.72567509393411 -219.92172985063917 0 -219.92172985063917 473.72592380566493 0 0 0 0 -235.34397300062841 100.98241607378168 0 100.98241607378168 149.10211903937306 0 0 0 0 -125.41173027444688 -146.6568915399439 0 -146.6568915399439 634.45950083967591 0 0 0 0 -0.13213929067996455 -0.91509472663146951 0 -0.91509472663146951 8.5639838662470709 0 0 0 0 109.01364684012623 -70.567028280506975 0 -70.567028280506975 -10.270530893176328 0 0 0 0 127.97147682751839 -165.76211855391466 0 -165.76211855391466 107.56106280303356 0 0 0 0 -4.2825311502122201 -5.9383281203346954 0 -5.9383281203346954 -5.671652821582768 0 0 0 0 432.17025360617436 -440.92325138860178 0 -440.92325138860178 651.15053357583747 0 0 0 0 287.19133734587183 -611.40085441202154 0 -611.40085441202154 1103.0323982820846 0 0 0 0 67.068303668441558 -96.684787395206513 0 -96.684787395206513 116.47584417916369 0 0 0 0 103.09830670283935 -33.9910889028979 0 -33.9910889028979 -77.866706092470849 0 0 0 0 -6.0394633557116073 -13.201330306228229 0 -13.201330306228229 -4.8509309792216584 0 0 0 0 -93.597032830876515 -74.662631717212207 0 -74.662631717212207 100.58540496340356 0 0 0 0 532.73564490372598 -696.41957490988068 0 -696.41957490988068 1177.2218412215734 0 0 0 0 509.60617960978783 -946.76491199472889 0 -946.76491199472889 1295.8386926323074 0 0 0 0 227.63015111733057 -1563.2450323380576 0 -1563.2450323380576 3494.8110794598124 0 0 0 0 -644.88028181141249 -682.53627141587094 0 -682.53627141587094 3500.4560307784704 0 0 0 0 -36.11697449383729 -977.25438158244287 0 -977.25438158244287 2202.0434112683724 0 0 0 0 49.333016069452412 -726.74806488901231 0 -726.74806488901231 2204.6478972528471 0 0 0 0 45.327840641742227 -253.00669816035224 0 -253.00669816035224 1205.0413744596881 0 0 0 0 -829.6877495078154 161.21679303067867 0 161.21679303067867 2583.7758080733511 0 0 0 0 14.315380827026644 -367.79030150499602 0 -367.79030150499602 1205.8371463570584 0 0 0 0 -362.47828011271702 -515.31936112926633 0 -515.31936112926633 2760.8546042619828 0 0 0 0 -377.3965483817052 -375.01389386896517 0 -375.01389386896517 4017.876263145663 0 0 0 0 191.14566086645127 -579.35724079654028 0 -579.35724079654028 3499.5184968781687 0 0 0 0 -1129.2982649879309 1027.4632960747795 0 1027.4632960747795 417.01806960030081 0 0 0 0 -4.633804685822124 2.9363155527944542 0 2.9363155527944542 11.397937972440246 0 0 0 0 356.67752114057907 -1517.0737149028246 0 -1517.0737149028246 4012.5663505566699 0 0 0 0 -335.07041245815117 -214.67192351439189 0 -214.67192351439189 295.82720997078286 0 0 0 0 -333.50178525569777 -38.439391540231782 0 -38.439391540231782 108.44794435616859 0 0 0 0 -418.85310784792205 -243.4728087830008 0 -243.4728087830008 1182.5524343748566 0 0 0 0 186.56992908504014 -346.71544911173169 0 -346.71544911173169 475.25513650388166 0 0 0 0 -2.2056265808769906 -2.0962374475320829 0 -2.0962374475320829 -0.82146120944833001 0 0 0 0 -173.49728473040409 -432.20373949139321 0 -432.20373949139321 559.33687179330445 0 0 0 0 -172.47890934279525 -390.47145905217167 0 -390.47145905217167 50.511196290874068 0 0 0 0 11.364141950060002 -18.374291990428901 0 -18.374291990428901 80.353004696993594 0 0 0 0 336.99389813811564 -488.94630520583911 0 -488.94630520583911 1033.1985008852134 0 0 0 0 336.51405219781202 -435.60222109899587 0 -435.60222109899587 1554.8549912949748 0 0 0 0 -335.74721040643317 -38.477944422666042 0 -38.477944422666042 131.043394567414 0 0 0 0 -10.750290137593792 7.0236424803066484 0 7.0236424803066484 21.563185587281936 0 0 0 0 561.30391742194615 -1278.9058016247263 0 -1278.9058016247263 2359.9333004454456 0 0 0 0 -30.003179933640283 -223.56926446482612 0 -223.56926446482612 2927.7537533793402 0 0 0 0 -311.46636292209774 -157.99464360936145 0 -157.99464360936145 3500.8694915827436 0 0 0 0 -59.137655060237876 -168.68062916800045 0 -168.68062916800045 1870.221773651476 0 0 0 0 -419.0355707693783 462.51659231680969 0 462.51659231680969 1839.9489345356596 0 0 0 0 -599.0942229602008 1247.5230892627551 0 1247.5230892627551 3492.0054074633413 0 0 0 0 -23.546484964431414 279.46120447367957 0 279.46120447367957 860.11365022199607 0 0 0 0 294.24229944854153 -432.01471345126265 0 -432.01471345126265 529.43595700802143 0 0 0 0 394.17327342421316 -266.92986069000835 0 -266.92986069000835 698.02462377383199 0 0 0 0 407.24898347486055 -521.80006636258258 0 -521.80006636258258 650.16356465089484 0 0 0 0 -14.852648967915094 7.7498076335806587 0 7.7498076335806587 23.892470284986928 0 0 0 0 25.829755058997762 -112.17774210629432 0 -112.17774210629432 85.423135487453806 0 0 0 0 -240.7589129094236 -337.10342260615562 0 -337.10342260615562 651.18533753062366 0 0 0 0 316.32934967719382 -254.60801579216059 0 -254.60801579216059 477.50922219414861 0 0 0 0 72.431720502358985 -57.175296469809837 0 -57.175296469809837 217.15697277648724 0 0 0 0 133.66526194639027 -64.994014451305702 0 -64.994014451305702 111.83844181988627 0 0 0 0 136.89505750683566 36.509584569386789 0 36.509584569386789 206.7189196354484 0 0 0 0 -13.742749984186048 -53.727646744784579 0 -53.727646744784579 169.83286879487059 0 0 0 0 58.098150681178595 -38.728727922916732 0 -38.728727922916732 94.090740682891919 0 0 0 0 16.399565056816982 -35.765151303854509 0 -35.765151303854509 120.28630327631254 0 0 0 0 -39.666476156725366 -41.702678331872448 0 -41.702678331872448 124.09389825063772 0 0 0 0 -21.323610623023342 -130.78343168909851 0 -130.78343168909851 0.84587020667822799 0 0 0 0 62.833835619032357 -117.30821512953253 0 -117.30821512953253 11.743961003041477 0 0 0 0 45.388270930211547 -78.561788033246557 0 -78.561788033246557 112.43122297613854 0 0 0 0 19.677480769450995 -97.415257680429931 0 -97.415257680429931 14.880504555450898 0 0 0 0 53.553718413292131 -137.93796454314634 0 -137.93796454314634 51.869769719654869 0 0 0 0 9.6857324106858869 -104.4420333748858 0 -104.4420333748858 62.003711507532898 0 0 0 0 -3.771118177533026 -106.48503017661278 0 -106.48503017661278 -39.189618702795997 0 0 0 0 -11.804705577106688 -136.92119524086229 0 -136.92119524086229 54.687958179374618 0 0 0 0 -44.814773262029576 -128.82031538816045 0 -128.82031538816045 135.84535733975645 0 0 0 0 -70.889375208773345 -62.606158361817506 0 -62.606158361817506 168.27829529928204 0 0 0 0 69.764414387645274 -151.55597039692293 0 -151.55597039692293 180.32636369604006 0 0 0 0 2.9026088136706676 -97.009324744936748 0 -97.009324744936748 140.44779381917397 0 0 0 0 18.667429731227458 -79.487810306600295 0 -79.487810306600295 239.37416581585967 0 0 0 0 -18.546711869518504 -141.96676106480209 0 -141.96676106480209 282.99317202061502 0 0 0 0 -117.50753947909107 16.622370528279134 0 16.622370528279134 358.18381166668587 0 0 0 0 -70.021217648406491 41.516022544852603 0 41.516022544852603 142.86222975357487 0 0 0 0 -129.18773980210335 87.526687896644944 0 87.526687896644944 184.07700439009204 0 0 0 0 -104.99340661794417 14.99969301938836 0 14.99969301938836 187.69538795389235 0 0 0 0 -60.138941318784191 70.46044919250744 0 70.46044919250744 205.7430662287079 0 0 0 0 -54.726296310868747 20.373291742623451 0 20.373291742623451 600.18008539076254 0 0 0 0 349.78230763016131 28.564361266166998 0 28.564361266166998 232.74575156520586 0 0 0 0 207.20965064695338 -202.1413412085567 0 -202.1413412085567 314.54637574801018 0 0 0 0 126.76757961722103 192.02451908900639 0 192.02451908900639 473.60311214036847 0 0 0 0 -28.248541334232186 62.61649326326733 0 62.61649326326733 374.44829882624254 0 0 0 0 2.7592175617588257 3.0008813398710359 0 3.0008813398710359 3.9352968678226006 0 0 0 0 -17.217184974107681 -69.48263899529411 0 -69.48263899529411 606.8808700687805 0 0 0 0 -31.456847056071553 -4.4062205925056332 0 -4.4062205925056332 314.16921304341668 0 0 0 0 -0.89020188224787944 86.015810176077139 0 86.015810176077139 387.52900470327404 0 0 0 0 -44.268700844518435 53.197213016113892 0 53.197213016113892 430.61750897179081 0 0 0 0 17.106288456177595 82.976466406313193 0 82.976466406313193 273.51904300522801 0 0 0 0 -40.747863955321804 -6.9977920891751637 0 -6.9977920891751637 399.4387191795322 0 0 0 0 131.18338428638535 75.611524450559955 0 75.611524450559955 434.5676863394765 0 0 0 0 -4.5430178018276592 -62.412289966214303 0 -62.412289966214303 592.5923244413425 0 0 0 0 273.91781876545474 -246.35412341526353 0 -246.35412341526353 328.79970495336966 0 0 0 0 152.29287462733069 -61.775662968002507 0 -61.775662968002507 49.055714851350785 0 0 0 0 -0.99784260362145227 -1.6388026146110448 0 -1.6388026146110448 2.0897663012623724 0 0 0 0 -107.73490687893661 255.73208515287843 0 255.73208515287843 420.99132360007934 0 0 0 0 -31.777256275984882 45.656892895392957 0 45.656892895392957 312.161515308042 0 0 0 0 -7.7435405610704677 4.2143001712075829 0 4.2143001712075829 308.44828009304911 0 0 0 0 -2.7447753931910484 -47.878123243996015 0 -47.878123243996015 333.72385286911503 0 0 0 0 -47.821850993153816 17.127681462255396 0 17.127681462255396 88.815409981820267 0 0 0 0 -49.053875752870226 8.1814668597689888 0 8.1814668597689888 319.66202194605557 0 0 0 0 0.58888090092000311 -41.80712440492789 0 -41.80712440492789 137.45784501707385 0 0 0 0 -30.394791582856556 -95.973337612367459 0 -95.973337612367459 21.299384782243578 0 0 0 0 -166.59233616253414 -73.90217183067216 0 -73.90217183067216 17.722725691266533 0 0 0 0 -41.792455321179432 7.143620859591465 0 7.143620859591465 -142.29036820590409 0 0 0 0 8.7071825974799122 -5.0528963367662101 0 -5.0528963367662101 -10.670670210460656 0 0 0 0 -43.848749032919841 -209.20931504372493 0 -209.20931504372493 -203.10895852034628 0 0 0 0 -13.570143624923276 -97.873509147306322 0 -97.873509147306322 23.210071159439394 0 0 0 0 82.13506291526808 -50.566532330637983 0 -50.566532330637983 49.502118839136529 0 0 0 0 86.926126850898072 -44.95152841273557 0 -44.95152841273557 -67.251175357516331 0 0 0 0 -95.85050006541087 -157.34165480683805 0 -157.34165480683805 -21.723978844958765 0 0 0 0 2.0250308178367504 -38.010367257902544 0 -38.010367257902544 36.336359409171564 0 0 0 0 -38.146608899864532 -110.01387956221515 0 -110.01387956221515 14.078548804121965 0 0 0 0 2.043795394634834 -27.253474573340394 0 -27.253474573340394 66.096861694928265 0 0 0 0 -144.87123904006057 -243.67683530163777 0 -243.67683530163777 -69.578090020128002 0 0 0 0 4.764035071857764 -18.265638503550491 0 -18.265638503550491 -7.6425842590149813 0 0 0 0 -282.28070975479903 -400.62641381775927 0 -400.62641381775927 -0.14577470160475059 0 0 0 0 -316.25350207784595 -194.0598828026923 0 -194.0598828026923 -48.138562683336204 0 0 0 0 1758.9032278947109 -691.99822680836587 0 -691.99822680836587 129.52376594509042 0 0 0 0 503.57847701469217 -911.03001479086379 0 -911.03001479086379 448.10255562963721 0 0 0 0 -345.36400556395472 -80.350120920948029 0 -80.350120920948029 608.23197762696509 0 0 0 0 -2.9976598280600135 -4.5184450433268442 0 -4.5184450433268442 -1.5962013829652335 0 0 0 0 171.69892747503764 -71.542185274185613 0 -71.542185274185613 -32.519277213745227 0 0 0 0 555.24453738760997 -210.50783986642637 0 -210.50783986642637 -113.43341067794245 0 0 0 0 509.89722044284781 -594.38626291608148 0 -594.38626291608148 450.21176761388779 0 0 0 0 1067.0932747369177 -736.48653475876381 0 -736.48653475876381 139.51019254083076 0 0 0 0 -3.7884919859422119 -2.2942931979999521 0 -2.2942931979999521 27.644353048255567 0 0 0 0 769.18902484829016 -438.20449927537084 0 -438.20449927537084 372.16504662264924 0 0 0 0 386.06381938685115 -649.14296111413205 0 -649.14296111413205 565.76675488669935 0 0 0 0 650.7350778710661 -687.32132793728306 0 -687.32132793728306 301.59815363524103 0 0 0 0 575.33331215823148 -311.83282756700851 0 -311.83282756700851 63.229913182884047 0 0 0 0 426.38269240564341 -906.974561049572 0 -906.974561049572 86.546037839405471 0 0 0 0 664.86711190429651 -620.12479789499412 0 -620.12479789499412 68.139257454433391 0 0 0 0 2530.7293784641165 8.2261873087891217 0 8.2261873087891217 -134.54873759755719 0 0 0 0 2007.2895570555954 -1530.7287745783742 0 -1530.7287745783742 150.36851357812702 0 0 0 0 -498.86220804198001 -1074.869341840651 0 -1074.869341840651 3483.9489138922254 0 0 0 0 -2.4626931599484623 -5.762936283004489 0 -5.762936283004489 13.125671663377233 0 0 0 0 2029.6761055823933 -2163.8538766388156 0 -2163.8538766388156 1774.0588161596179 0 0 0 0 -665.01692732706329 -226.62508376741971 0 -226.62508376741971 -11.509833387350227 0 0 0 0 -3.8553120811420674 -6.1928794709661155 0 -6.1928794709661155 7.6283193866353969 0 0 0 0 212.5400963065992 -255.59605721729167 0 -255.59605721729167 -243.54058319839532 0 0 0 0 410.57023906690767 164.05705589462571 0 164.05705589462571 -126.32125268254276 0 0 0 0 399.65668945653783 484.72104139854969 0 484.72104139854969 305.20267687788873 0 0 0 0 31.793424992868495 -95.042147356723945 0 -95.042147356723945 -5.8901551064454907 0 0 0 0 2.7075658191922014 -12.379887440980042 0 -12.379887440980042 36.232016698563683 0 0 0 0 -1.99178153619133 -12.810220123628099 0 -12.810220123628099 -13.283061329769509 0 0 0 0 1.3702385305799283 -4.8520866300310495 0 -4.8520866300310495 16.798828109871458 0 0 0 0 157.92507003102224 -82.031870998928753 0 -82.031870998928753 -7.5892538113948831 0 0 0 0 2.3765914518414641 -10.061247942048247 0 -10.061247942048247 5.2552416078043223 0 0 0 0 5.9327499125309693 -47.202506960600658 0 -47.202506960600658 3478.3922494042235 0 0 0 0 5.8590836848162038 -9.0781979779344546 0 -9.0781979779344546 1.2756442781500539 0 0 0 0 -1078.785329452804 -205.99690654773622 0 -205.99690654773622 3421.6962344055646 0 0 0 0 -409.19905875838026 782.98246292880276 0 782.98246292880276 3491.8216840667537 0 0 0 0 805.00353294639285 1172.4270818449422 0 1172.4270818449422 1635.0677511466783 0 0 0 0 -777.07748585815921 22.71370937669667 0 22.71370937669667 3501.8783684808914 0 0 0 0 -542.13887154615372 320.2270139687148 0 320.2270139687148 1941.5192536436225 0 0 0 0 -451.61784686009378 -550.87522106585004 0 -550.87522106585004 1816.3545679641666 0 0 0 0 -450.50409807422312 -530.56000271794665 0 -530.56000271794665 2020.6473590679961 0 0 0 0 -128.10559180521409 14.438603160470848 0 14.438603160470848 1366.9080285629634 0 0 0 0 139.48805859652572 -238.97922399789013 0 -238.97922399789013 87.968197112777489 0 0 0 0 -0.86779326173627891 -0.1495961191663433 0 -0.1495961191663433 0.33919770124494164 0 0 0 0 -17.345815147781082 9.8230798738572958 0 9.8230798738572958 561.81863418075591 0 0 0 0 -91.890485961118429 195.16242687721751 0 195.16242687721751 1899.4610015929672 0 0 0 0 -20.402332307600545 0.41099766863680998 0 0.41099766863680998 423.2787881475524 0 0 0 0 245.85636054186523 -20.701812441099719 0 -20.701812441099719 33.430840974422608 0 0 0 0 11.866052071003271 -40.549521087390382 0 -40.549521087390382 -7.4945950482550243 0 0 0 0 246.57300356037683 18.080943653398208 0 18.080943653398208 -302.35844600258497 0 0 0 0 -140.60914284568591 44.479465722127088 0 44.479465722127088 23.994754581097368 0 0 0 0 100.00658079260705 123.69778578519299 0 123.69778578519299 492.35445959747085 0 0 0 0 142.80415660687413 -240.05470608185442 0 -240.05470608185442 -27.598185138421286 0 0 0 0 -117.57744650783469 78.802330808836132 0 78.802330808836132 97.974357443823465 0 0 0 0 17.462388611958431 -72.917303935197197 0 -72.917303935197197 8.0082088660071804 0 0 0 0 40.173039547034023 -97.526345765498263 0 -97.526345765498263 -21.231817979743937 0 0 0 0 17.100294864304715 -14.69566846087946 0 -14.69566846087946 -149.14370385291841 0 0 0 0 28.18673462883271 -126.74994087117375 0 -126.74994087117375 -189.72815409337272 0 0 0 0 43.099426967552972 -53.647694989440424 0 -53.647694989440424 -78.661798787346925 0 0 0 0 21.981003768070821 -139.63719858987679 0 -139.63719858987679 -37.764041945261852 0 0 0 0 6.6790035255705646 -38.161704012575321 0 -38.161704012575321 52.774340652951537 0 0 0 0 1.7455812145338319 -24.251815262065215 0 -24.251815262065215 5.8807399960444116 0 0 0 0 7.3321760393341719 -35.348947993817092 0 -35.348947993817092 86.540559336201227 0 0 0 0 -13.016037951239923 -97.202163943082269 0 -97.202163943082269 -5.1502310966352525 0 0 0 0 1.4905173263096003 -127.66115966355574 0 -127.66115966355574 -5.6548840657997061 0 0 0 0 -71.723538167524566 -117.1507296887612 0 -117.1507296887612 8.3035163178756193 0 0 0 0 4.5515689755775099 25.404284492691659 0 25.404284492691659 -119.87908437315491 0 0 0 0 13.364031716653795 -41.109392536807711 0 -41.109392536807711 -2.2888724504233515 0 0 0 0 66.517402999634442 -92.39586245147666 0 -92.39586245147666 63.040061040524961 0 0 0 0 3.0640764369107369 -2.3259511733363567 0 -2.3259511733363567 -14.350299673566877 0 0 0 0 1.373732799274241 -10.708568259097294 0 -10.708568259097294 10.843123652199218 0 0 0 0 -0.35570917884160735 -14.33953335281285 0 -14.33953335281285 66.301293163964147 0 0 0 0 2.213595377925107 -1.0254371403262716 0 -1.0254371403262716 18.526819169576235 0 0 0 0 13.972636616853947 -15.40149445419047 0 -15.40149445419047 45.60420452831022 0 0 0 0 19.976675924555025 -9.8420413357719099 0 -9.8420413357719099 -2.8425502251539001 0 0 0 0 147.74132913487836 -743.87910487953786 0 -743.87910487953786 1158.427827367178 0 0 0 0 248.40952514652864 -75.130852597082594 0 -75.130852597082594 0.38447572870791191 0 0 0 0 -146.29844549868787 -1565.9074755678653 0 -1565.9074755678653 3493.7508947994656 0 0 0 0 752.19100981474742 -1115.9379681343098 0 -1115.9379681343098 1385.5875070356251 0 0 0 0 2036.7950032271776 -1803.7030561999345 0 -1803.7030561999345 616.8841427569846 0 0 0 0 1.4756487901951005 -4.2190963629417801 0 -4.2190963629417801 3.5598135821301256 0 0 0 0 321.98002324799791 -346.86280411661778 0 -346.86280411661778 933.41079526167323 0 0 0 0 308.60096338973841 2616.2292437305036 0 2616.2292437305036 3495.1779381812958 0 0 0 0 11.534560049122092 -16.351785730365805 0 -16.351785730365805 -4.7946753809455913 0 0 0 0 3269.6997498115893 -451.60663488394903 0 -451.60663488394903 -1518.9233982608384 0 0 0 0 -1.8754012758570406 -5.1285879212609871 0 -5.1285879212609871 3486.9031140320867 0 0 0 0 3.1802458038223831 -2.46076672338372 0 -2.46076672338372 0.079399474593434327 0 0 0 0 2.1956878323514237 -7.556518364431219 0 -7.556518364431219 3.2390402881346692 0 0 0 0 -232.31014939085111 281.02872151103725 0 281.02872151103725 2908.6439872536776 0 0 0 0 7.1713730205018802 -10.032001947075763 0 -10.032001947075763 12.75966056857721 0 0 0 0 -212.20079060204907 299.73525825415732 0 299.73525825415732 1928.8687585054863 0 0 0 0 799.25822629422305 -143.94713350436882 0 -143.94713350436882 -76.909722719609817 0 0 0 0 -467.27829854377001 -601.39221404279488 0 -601.39221404279488 3495.5619803290465 0 0 0 0 475.43972450584084 -1026.8461356584078 0 -1026.8461356584078 1304.7855152067373 0 0 0 0 11.283322340577342 4.7853530478384982 0 4.7853530478384982 -54.545493492749159 0 0 0 0 50.732590639142472 -86.944123766774283 0 -86.944123766774283 16.280476151763651 0 0 0 0 11.234721133981562 -14.884780689340678 0 -14.884780689340678 25.068072660707561 0 0 0 0 7.3988391260518256 6.3153262428195376 0 6.3153262428195376 29.900429447764509 0 0 0 0 -370.57422165217992 557.28669039411125 0 557.28669039411125 2044.181499040782 0 0 0 0 0.99166632267886912 1.1645484792330716 0 1.1645484792330716 14.386159808122766 0 0 0 0 1446.6974256324604 1883.8071194971626 0 1883.8071194971626 1591.1010287141507 0 0 0 0 -237.2788642973733 1334.5663033968631 0 1334.5663033968631 3495.3493748569913 0 0 0 0 3.2058944063615296 -6.4475065697160545 0 -6.4475065697160545 30.084800564734554 0 0 0 0 -289.4614029972654 99.962337497667249 0 99.962337497667249 573.60936618507003 0 0 0 0 118.15729658594302 -69.992220110434573 0 -69.992220110434573 -76.241356979335251 0 0 0 0 255.73018630326905 122.53076506283196 0 122.53076506283196 346.39232967991575 0 0 0 0 147.70206452816436 800.27719980267727 0 800.27719980267727 1750.5481124503222 0 0 0 0 312.61153731813494 288.15815351356287 0 288.15815351356287 -79.563840605900623 0 0 0 0 288.144769830016 142.06832249944455 0 142.06832249944455 475.02132531381721 0 0 0 0 212.31120873950101 -192.61659563859757 0 -192.61659563859757 761.17884390675044 0 0 0 0 69.149241179245109 11.126040263286541 0 11.126040263286541 33.122519631840987 0 0 0 0 334.90201239446492 -173.1107129917591 0 -173.1107129917591 94.139087033723627 0 0 0 0 7.4913808087080662 -0.96112032962709293 0 -0.96112032962709293 4.2600671654000237 0 0 0 0 126.52879399183024 -159.19486525082903 0 -159.19486525082903 191.15254460682718 0 0 0 0 4.0137156763233577 -19.288626491262825 0 -19.288626491262825 66.118050171887774 0 0 0 0 -107.59244204510941 -31.039913340815929 0 -31.039913340815929 89.320468761880875 0 0 0 0 812.35102837153704 -664.64258383281049 0 -664.64258383281049 -1.6816771293915735 0 0 0 0 510.13039163365801 965.8190817731379 0 965.8190817731379 -826.68037442414789 0 0 0 0 642.78296342982571 -155.28403481711211 0 -155.28403481711211 25.29198470139454 0 0 0 0 -1251.8234656854779 -325.21514470425973 0 -325.21514470425973 -113.08664254706309 0 0 0 0 -12.603972327205348 0.78084195424620617 0 0.78084195424620617 20.797220301309856 0 0 0 0 -108.73561402627372 -82.526233037759255 0 -82.526233037759255 120.24836107221563 0 0 0 0 -37.170323534421755 -30.089529914791228 0 -30.089529914791228 75.520699886534203 0 0 0 0 3.0430444450597482 8.4599855816069844 0 8.4599855816069844 28.729280015524488 0 0 0 0 54.176033283216839 9.9314873214143518 0 9.9314873214143518 33.477635554399058 0 0 0 0 69.781066725997789 -30.013949942823274 0 -30.013949942823274 4.6111692720883184 0 0 0 0 103.89042616591223 -14.68782556426595 0 -14.68782556426595 10.028388488946803 0 0 0 0 -1.6953246528446471 4.8966224920222885 0 4.8966224920222885 38.502361029898566 0 0 0 0 0.71736358186219285 2.0072467695731984 0 2.0072467695731984 7.256104539622819 0 0 0 0 86.862091965087075 30.628394061272957 0 30.628394061272957 46.572533101611043 0 0 0 0 14.73763852315551 -60.264429501816267 0 -60.264429501816267 171.21214370797111 0 0 0 0 0.41798515721673546 1.2382908086461928 0 1.2382908086461928 0.41937074879454972 0 0 0 0 -4.1663967427834905 0.88613899139249952 0 0.88613899139249952 58.87511173454368 0 0 0 0 25.192078476867664 25.151959629984049 0 25.151959629984049 88.680238918341274 0 0 0 0 60.623803330646979 -55.889336905162963 0 -55.889336905162963 93.128271260982729 0 0 0 0 48.895907381900543 -17.899197083665058 0 -17.899197083665058 49.02388882062678 0 0 0 0 4.1095515067348742 -24.338746054142575 0 -24.338746054142575 120.80187268281588 0 0 0 0 3.0688382506138669 -33.839582964955397 0 -33.839582964955397 56.453757821613117 0 0 0 0 -71.960185905613656 -117.47628178567277 0 -117.47628178567277 47.568850739280606 0 0 0 0 -67.424796613447143 -79.271008602176153 0 -79.271008602176153 56.740203209908941 0 0 0 0 -94.640262282454387 -45.375598860067839 0 -45.375598860067839 112.1269734880334 0 0 0 0 -55.937854633574887 -26.986472300884088 0 -26.986472300884088 106.29459477902128 0 0 0 0 -53.846188623155285 -38.748928734552464 0 -38.748928734552464 94.845893858782802 0 0 0 0 23.337256632307344 -1.865278628742999 0 -1.865278628742999 57.516928617510075 0 0 0 0 25.205844450919358 -22.175500805215052 0 -22.175500805215052 48.286017262121959 0 0 0 0 5.4553526284674199 -12.364181091392158 0 -12.364181091392158 58.478361114883327 0 0 0 0 -21.407773286228803 -11.72771392426921 0 -11.72771392426921 78.536182761035889 0 0 0 0 4.7965254238653134 2.2307765890424491 0 2.2307765890424491 47.011195898621381 0 0 0 0 7.2172836061969292 -36.139310412977466 0 -36.139310412977466 42.143456377556504 0 0 0 0 -8.8299286638405192 -8.4078764409405267 0 -8.4078764409405267 100.58194629980062 0 0 0 0 -6.5431436715969085 -13.040097204431277 0 -13.040097204431277 96.892986082290008 0 0 0 0 19.035813101413623 -7.0254614254263288 0 -7.0254614254263288 95.970945134929934 0 0 0 0 -7.0022704748659219 -10.835068434751619 0 -10.835068434751619 78.284757480494108 0 0 0 0 -1.1789292415113444 -28.262886517149937 0 -28.262886517149937 61.555544379562889 0 0 0 0 -7.2494278809044772 -9.6163356143242709 0 -9.6163356143242709 73.59034585793961 0 0 0 0 -59.332026955658876 -23.820886910852096 0 -23.820886910852096 62.487725446582772 0 0 0 0 -1.4300490177623297 -40.624675101509553 0 -40.624675101509553 56.715531117310945 0 0 0 0 -8.191610498986627 5.3548373987766436 0 5.3548373987766436 74.866217624165017 0 0 0 0 -9.620944301755415 -12.91184006249 0 -12.91184006249 62.740195427224535 0 0 0 0 -9.3976493954989451 -10.774902178972297 0 -10.774902178972297 67.542911977751828 0 0 0 0 -55.867014620251666 -17.551845932728611 0 -17.551845932728611 107.12992455349263 0 0 0 0 -13.771287195420049 19.34629930993626 0 19.34629930993626 81.288430473956765 0 0 0 0 2.012714336749692 -10.894927534056517 0 -10.894927534056517 48.49877605722115 0 0 0 0 -158.65028721005046 -124.61004852469171 0 -124.61004852469171 459.09906969316444 0 0 0 0 -5.1107890945950203 -1.8793113881201862 0 -1.8793113881201862 110.00525361881046 0 0 0 0 59.125590020090385 -187.13389060017653 0 -187.13389060017653 316.85537491882314 0 0 0 0 -2.0046466670742369 -12.074219558225691 0 -12.074219558225691 49.316036419136267 0 0 0 0 35.288738021153677 90.921042261468983 0 90.921042261468983 -49.795168480703751 0 0 0 0 28.448779387176728 6.8118300668123197 0 6.8118300668123197 -103.64073837383853 0 0 0 0 -2.145197343205608 -4.4644243101370309 0 -4.4644243101370309 59.065167684839196 0 0 0 0 0.084499231697618971 0.1783406935960512 0 0.1783406935960512 2.5351022430031191 0 0 0 0 -29.019565600759961 -18.496125802062835 0 -18.496125802062835 58.876649437752803 0 0 0 0 -7.8852665335739403 1.3375586054498854 0 1.3375586054498854 75.137142282062996 0 0 0 0 9.8885116452502189 1.9164335082605248 0 1.9164335082605248 68.151047652283523 0 0 0 0 3.1247686343900227 5.7082288972960669 0 5.7082288972960669 66.161318497870525 0 0 0 0 -83.105298664726433 59.560040147440304 0 59.560040147440304 103.87706038213901 0 0 0 0 -90.599779208346263 22.793827782192238 0 22.793827782192238 99.646709557631766 0 0 0 0 -96.461516405986004 85.170345948841714 0 85.170345948841714 59.97097668787319 0 0 0 0 -98.480628552947564 62.87580609426368 0 62.87580609426368 106.63351820827666 0 0 0 0 -88.26172183606991 -71.762841506344557 0 -71.762841506344557 200.3854199160487 0 0 0 0 -109.052194551296 12.647295998189293 0 12.647295998189293 200.09106799612346 0 0 0 0 -60.959179780752947 -14.481792563538875 0 -14.481792563538875 136.58425608828838 0 0 0 0 1.9304421896295025 25.784535985622824 0 25.784535985622824 -17.268098354503309 0 0 0 0 24.273065872154348 -12.538096010634035 0 -12.538096010634035 57.26737616842729 0 0 0 0 0.20162378819127635 10.270597102668169 0 10.270597102668169 11.965644621509227 0 0 0 0 -18.601872660396111 28.239474264311866 0 28.239474264311866 6.1809920235735945 0 0 0 0 -197.02197645030446 -57.531281254103305 0 -57.531281254103305 287.17549050488742 0 0 0 0 3.4600912278251492 -4.0802947462717327 0 -4.0802947462717327 0.76457845340974018 0 0 0 0 14.189980743642764 93.030312791259348 0 93.030312791259348 294.72148299404944 0 0 0 0 0.71381943773894818 -24.22065085345821 0 -24.22065085345821 272.43880751690449 0 0 0 0 5.5888338600169689 -3.3231229429582569 0 -3.3231229429582569 -6.9669638912333767 0 0 0 0 28.543849107636561 138.49334225382336 0 138.49334225382336 285.02078974727556 0 0 0 0 -15.724346362624692 26.669453636899298 0 26.669453636899298 37.546252505480318 0 0 0 0 452.60836111800018 -261.30624832361354 0 -261.30624832361354 31.223305228606478 0 0 0 0 532.59423538291321 34.90473801153712 0 34.90473801153712 137.31516728858696 0 0 0 0 -11.820275085381581 -13.527825611672597 0 -13.527825611672597 43.304785077198176 0 0 0 0 3.9052027441612154 1.1090288839895948 0 1.1090288839895948 50.400037835147486 0 0 0 0 -6.5888343019032085 4.6448926185590977 0 4.6448926185590977 26.011456183905331 0 0 0 0 -6.6580142820648689 -14.802169662390952 0 -14.802169662390952 22.036168897410789 0 0 0 0 -8.072188622042205 2.7537606023683532 0 2.7537606023683532 57.242171663797514 0 0 0 0 14.822046850713377 15.889239161770092 0 15.889239161770092 66.625514384933922 0 0 0 0 -1.6211386545263551 2.300321012198232 0 2.300321012198232 7.3004749457059486 0 0 0 0 -15.25578820751798 -11.988213143124085 0 -11.988213143124085 64.875528965807462 0 0 0 0 23.665247638813071 1.9932346405901171 0 1.9932346405901171 68.510403684272205 0 0 0 0 -6.3914043882580245 -18.277082424982837 0 -18.277082424982837 61.927488473167614 0 0 0 0 -5.1054105730509471 -16.157416998892884 0 -16.157416998892884 34.49359203271262 0 0 0 0 -4.0617946718832627 -1.4842170255196834 0 -1.4842170255196834 86.714471990770107 0 0 0 0 -7.5187169075152269 -18.613777232028951 0 -18.613777232028951 88.628417439875193 0 0 0 0 -6.9177458432004642 -12.522125772153231 0 -12.522125772153231 60.6746325434342 0 0 0 0 7.7115690467862805 -13.525031919933099 0 -13.525031919933099 67.282827471348355 0 0 0 0 5.817217952359897 -10.748368716673212 0 -10.748368716673212 64.512787536446012 0 0 0 0 -4.8896599305264772 -43.137030581641284 0 -43.137030581641284 125.46129033612669 0 0 0 0 -21.313853512458081 -8.3194847830582148 0 -8.3194847830582148 104.15388379370052 0 0 0 0 -22.326906487503038 -16.886179793576957 0 -16.886179793576957 89.124696909719205 0 0 0 0 -23.524245811917353 18.846699208806058 0 18.846699208806058 53.955656573414672 0 0 0 0 -36.058142238802247 -3.6068120415384328 0 -3.6068120415384328 141.52524011988635 0 0 0 0 -81.819524042914054 24.192150633984056 0 24.192150633984056 75.189663883306821 0 0 0 0 -19.510741399619292 28.067121144113116 0 28.067121144113116 75.414621283147426 0 0 0 0 -71.73892037595715 55.793208481070906 0 55.793208481070906 378.36391763979191 0 0 0 0 170.39720278800814 310.17531745549422 0 310.17531745549422 -4.425327374430708 0 0 0 0 12.734198441821718 -33.579544252745109 0 -33.579544252745109 64.236678183199956 0 0 0 0 0.75639077065755966 0.9118543884093846 0 0.9118543884093846 5.7311240356222015 0 0 0 0 110.41774983468395 -156.32076767504896 0 -156.32076767504896 214.65700787541209 0 0 0 0 227.4689021244958 127.43163852767248 0 127.43163852767248 69.607258322595953 0 0 0 0 114.48019417982414 41.921881596628737 0 41.921881596628737 5.1352230222972821 0 0 0 0 9.9624219008474029 121.71957836209003 0 121.71957836209003 158.91130941113806 0 0 0 0 -28.437172168193229 77.175066926974978 0 77.175066926974978 153.06005866872147 0 0 0 0 33.253144356961911 204.36850536195288 0 204.36850536195288 354.81394027570786 0 0 0 0 41.459005431087462 -225.13253725600953 0 -225.13253725600953 -106.03296580025926 0 0 0 0 24.756033869190105 -347.92634415861721 0 -347.92634415861721 391.75344737125101 0 0 0 0 10.828655995712015 -1.4148365608158286 0 -1.4148365608158286 -0.010067166950033624 0 0 0 0 -25.483800364940521 78.13788318776642 0 78.13788318776642 45.697823419897759 0 0 0 0 -23.857190312914327 76.13300470433478 0 76.13300470433478 21.28570042254978 0 0 0 0 226.40043110572597 -2.965681836015392 0 -2.965681836015392 -224.21453502471559 0 0 0 0 159.42493513855334 61.207200399372596 0 61.207200399372596 -246.34979328047484 0 0 0 0 18.025736062951182 14.843533068902616 0 14.843533068902616 23.929433963443444 0 0 0 0 8.787445532923936 -1.6548508847426113 0 -1.6548508847426113 0.81046889312728965 0 0 0 0 8.3656319940840653 1.5281507117495821 0 1.5281507117495821 -1.2025714080957659 0 0 0 0 46.304748520362068 70.914490744449722 0 70.914490744449722 433.26990876188574 0 0 0 0 111.46834798652003 121.61187512698052 0 121.61187512698052 51.621373318556152 0 0 0 0 -1.3195812582621329 11.421860539679528 0 11.421860539679528 53.390494385617785 0 0 0 0 -2.2279168364980251 32.167402608529301 0 32.167402608529301 4.5686425469230016 0 0 0 0 7.7716653598793712 -3.7019162112869672 0 -3.7019162112869672 5.1409558305261918 0 0 0 0 9.2738541854369032 3.631220688479516 0 3.631220688479516 26.571567932253856 0 0 0 0 8.0118176274057404 3.1608057228227686 0 3.1608057228227686 3.5311118637639876 0 0 0 0 5.2578813954766348 -0.94226456796003255 0 -0.94226456796003255 17.649681707965954 0 0 0 0 -0.35862944547488951 -2.9388912899935349 0 -2.9388912899935349 34.879136831847063 0 0 0 0 -95.798013424388159 -262.32596024784289 0 -262.32596024784289 421.17731550402823 0 0 0 0 -187.30973150079618 20.912586150991046 0 20.912586150991046 24.722291096833942 0 0 0 0 159.60348915826364 -215.40794206043847 0 -215.40794206043847 -114.97434203432931 0 0 0 0 549.43145530222409 -16.624876097555898 0 -16.624876097555898 20.410213366529661 0 0 0 0 -321.25364220015211 30.08335920873651 0 30.08335920873651 66.679126047959471 0 0 0 0 3.5290249306941801 3.1573763530365344 0 3.1573763530365344 16.084594523652008 0 0 0 0 -142.5993264768469 99.517967255195344 0 99.517967255195344 388.46670146013275 0 0 0 0 33.86412000889851 -954.89779619505407 0 -954.89779619505407 2397.6176532967602 0 0 0 0 250.41836003090958 46.738707639706945 0 46.738707639706945 381.14257916881252 0 0 0 0 0.52173766903888441 1.7803479523495707 0 1.7803479523495707 7.5783704764955431 0 0 0 0 213.54058976595394 794.3398698998426 0 794.3398698998426 470.93324376860033 0 0 0 0 -175.21728048996795 222.12262289511455 0 222.12262289511455 2444.9479733977678 0 0 0 0 -40.129068819985598 105.39384426112747 0 105.39384426112747 3171.5664431534897 0 0 0 0 -240.47576603803091 -440.18607597815208 0 -440.18607597815208 2845.1334634801588 0 0 0 0 -4.5043546854738041 213.64539449603581 0 213.64539449603581 3499.9135787675978 0 0 0 0 -440.44384429836794 686.46089442274683 0 686.46089442274683 3069.3015904135518 0 0 0 0 2.6431821475548625 -5.9925436959529108 0 -5.9925436959529108 7.9006821416839195 0 0 0 0 -119.8811476226781 139.96279810716078 0 139.96279810716078 224.95697920637213 0 0 0 0 46.620398694946601 -514.47736518524925 0 -514.47736518524925 -138.98231236331776 0 0 0 0 483.37918828957567 -57.530840032010019 0 -57.530840032010019 413.87475471455264 0 0 0 0 68.532399619447887 -742.92464731540895 0 -742.92464731540895 1749.5621077187861 0 0 0 0 -166.22061818785181 -45.277090293597212 0 -45.277090293597212 3499.8765274936577 0 0 0 0 -391.42071568341498 -170.34864691175062 0 -170.34864691175062 3605.3756171130335 0 0 0 0 393.17416751847844 57.433627203121432 0 57.433627203121432 3428.2546386365639 0 0 0 0 59.234104184590556 644.63218375618817 0 644.63218375618817 3499.890976259454 0 0 0 0 152.773996247946 155.54297120130377 0 155.54297120130377 4685.8259777327003 0 0 0 0 -145.1329171298587 117.17765274443809 0 117.17765274443809 2189.8442344920113 0 0 0 0 -31.397736112560779 53.13682779104056 0 53.13682779104056 2153.4254886577328 0 0 0 0 -96.171436449314115 -63.581646156776515 0 -63.581646156776515 11.391278245027934 0 0 0 0 8.3644462822854688 -14.852855729909031 0 -14.852855729909031 18.062054452312282 0 0 0 0 56.216453178313486 336.64990732959268 0 336.64990732959268 744.49524339767959 0 0 0 0 -56.941039330162425 189.56502868599273 0 189.56502868599273 1755.6825163261765 0 0 0 0 -132.89219941377837 -292.71302158695835 0 -292.71302158695835 2080.5617332990805 0 0 0 0 -208.9557205050906 -121.00154069406926 0 -121.00154069406926 2472.999813933784 0 0 0 0 -160.46094149496224 101.56726374445952 0 101.56726374445952 2707.6060928129082 0 0 0 0 -554.82064114976572 -168.93890679975448 0 -168.93890679975448 3500.8545091015076 0 0 0 0 -355.54476590389504 -469.03693425487654 0 -469.03693425487654 2686.0623551682656 0 0 0 0 -387.78447823307476 -526.15699633097029 0 -526.15699633097029 2757.8714424117425 0 0 0 0 402.15346145221224 -1622.8155614367934 0 -1622.8155614367934 2454.7659797266497 0 0 0 0 -229.04684241609331 -800.78691033208361 0 -800.78691033208361 3523.5003620915304 0 0 0 0 2.1711865222002795 -2.4910034831301857 0 -2.4910034831301857 1.5351409066364425 0 0 0 0 158.8110282009475 -686.40244319914564 0 -686.40244319914564 -25.703585915493022 0 0 0 0 240.40039245796655 -626.90691660963421 0 -626.90691660963421 2416.3158761302657 0 0 0 0 78.48926053380103 148.50534752597741 0 148.50534752597741 -182.87136942111738 0 0 0 0 -126.16825264218426 -654.04352529964672 0 -654.04352529964672 2556.5559887491072 0 0 0 0 -85.585603691565325 -566.84403623877006 0 -566.84403623877006 1489.9662769871211 0 0 0 0 192.74927444077304 -876.46361143651848 0 -876.46361143651848 1038.4914541304825 0 0 0 0 262.08302178257952 9.2149082222094876 0 9.2149082222094876 424.70591214837987 0 0 0 0 219.21064660059096 -103.73659199046961 0 -103.73659199046961 268.95979213051032 0 0 0 0 24.816841778757635 74.897227632958675 0 74.897227632958675 1407.6976447400139 0 0 0 0 342.58496913806169 -184.5574841897942 0 -184.5574841897942 648.11588088951248 0 0 0 0 10.17554229357855 -3.1587119466547691 0 -3.1587119466547691 8.2233693300661699 0 0 0 0 5.6743505664571785 5.7970879747863364 0 5.7970879747863364 44.418142868396899 0 0 0 0 318.31929620294795 18.91227012973377 0 18.91227012973377 218.64142398811236 0 0 0 0 425.17044459861074 166.20153494810074 0 166.20153494810074 250.49877298712818 0 0 0 0 136.25630732555521 216.55221387540769 0 216.55221387540769 164.57898191380809 0 0 0 0 -52.840397079995739 85.817052057924229 0 85.817052057924229 224.44594967817829 0 0 0 0 4.6666974897607361 335.58732118590342 0 335.58732118590342 291.76476969560008 0 0 0 0 -414.84605343366877 235.43852299054197 0 235.43852299054197 170.9340354515698 0 0 0 0 17.0744747753414 21.822051011338772 0 21.822051011338772 70.23022284747276 0 0 0 0 3.6042183252005158 -1.309787815278483 0 -1.309787815278483 0.34509709787301546 0 0 0 0 7.6761969925719313 28.110514518593845 0 28.110514518593845 73.233474589302205 0 0 0 0 13.693945810789955 8.1790799137270369 0 8.1790799137270369 63.766461153005366 0 0 0 0 35.238826213720131 14.652091603100416 0 14.652091603100416 26.713320617018326 0 0 0 0 126.41737344052672 2.1423171301721595 0 2.1423171301721595 61.867155404370351 0 0 0 0 7.7902329414791893 10.637973989956663 0 10.637973989956663 47.678895137891232 0 0 0 0 2.7093407044258129 5.5194882231699012 0 5.5194882231699012 54.470356122677913 0 0 0 0 5.9267841697774202 10.900566051474016 0 10.900566051474016 51.60349341876281 0 0 0 0 3.8593548724857101 1.7700518584279052 0 1.7700518584279052 71.958056350922561 0 0 0 0 -18.150267055218137 36.582255517303565 0 36.582255517303565 39.800213958835229 0 0 0 0 -44.951226166742345 2.6741821543473634 0 2.6741821543473634 91.250548008560145 0 0 0 0 5.3759682572090242 3.7781195236857457 0 3.7781195236857457 42.174899162040674 0 0 0 0 4.2986892120325138 2.8340658849956526 0 2.8340658849956526 48.59742229598487 0 0 0 0 4.1463269975024559 6.4861616006819531 0 6.4861616006819531 48.746367071929853 0 0 0 0 9.470536988224012 -1.7639193166633049 0 -1.7639193166633049 46.835235718885087 0 0 0 0 -15.595859800487233 11.454007326265128 0 11.454007326265128 71.094486060812415 0 0 0 0 3.6000523226207406 5.1499770114987768 0 5.1499770114987768 48.470185515587218 0 0 0 0 2.5171635829555914 1.8893938478652927 0 1.8893938478652927 11.568963976534063 0 0 0 0 -6.3783101190366551 11.473551205954664 0 11.473551205954664 64.209915486891987 0 0 0 0 0.70855439418228605 -0.97728310955214726 0 -0.97728310955214726 41.594563057221812 0 0 0 0 -12.485964783187228 -5.1099800810152374 0 -5.1099800810152374 61.808244019463018 0 0 0 0 -58.840117226412985 50.552955106715672 0 50.552955106715672 24.786077742050111 0 0 0 0 0.41245872679267137 1.1405142231201779 0 1.1405142231201779 0.6290768398167188 0 0 0 0 -9.6192185031184181 45.874847242408578 0 45.874847242408578 81.373732040025061 0 0 0 0 -31.991070122833207 8.5001135931343015 0 8.5001135931343015 71.843324933885015 0 0 0 0 -194.64073650101966 -4.6799589189135986 0 -4.6799589189135986 86.17488247358051 0 0 0 0 -102.18630517157681 31.92834195382602 0 31.92834195382602 100.09576063850363 0 0 0 0 -37.785675314975151 -38.863646747420717 0 -38.863646747420717 31.262755285824824 0 0 0 0 -6.0719144996601244 -29.272796503915743 0 -29.272796503915743 18.888029740264756 0 0 0 0 -0.69888342301965167 -23.981818349164314 0 -23.981818349164314 24.097173927919357 0 0 0 0 -10.125150799350195 -8.8844149557044148 0 -8.8844149557044148 63.519942552184148 0 0 0 0 186.60413154174449 1015.7696660017409 0 1015.7696660017409 2593.1979758289235 0 0 0 0 455.85287943895804 771.80554167891751 0 771.80554167891751 1207.8838541392179 0 0 0 0 145.42124335518895 1245.9917262503141 0 1245.9917262503141 2575.7393413601603 0 0 0 0 116.26836341964324 1251.7153590017551 0 1251.7153590017551 3135.2738500661362 0 0 0 0 1406.9654282705305 2034.5155580747269 0 2034.5155580747269 2942.5006726176289 0 0 0 0 539.62983960305041 1669.6630444671682 0 1669.6630444671682 3499.7348438529334 0 0 0 0 285.65232766374425 790.04428651899798 0 790.04428651899798 1705.2719259380574 0 0 0 0 1064.6364514374459 1430.1705622566296 0 1430.1705622566296 1910.9465989126547 0 0 0 0 3.7362897978317076 1.3869556778442842 0 1.3869556778442842 0.91009989773412769 0 0 0 0 81.3208471266571 -14.655055363011343 0 -14.655055363011343 -29.428687834888478 0 0 0 0 53.107916988224133 70.53207998335256 0 70.53207998335256 25.014951430479414 0 0 0 0 430.65093123291854 67.022681943577481 0 67.022681943577481 -12.800276461151952 0 0 0 0 1564.7218299038248 2324.7383757033494 0 2324.7383757033494 3586.9741739744204 0 0 0 0 1079.7297020286571 1743.1739225438396 0 1743.1739225438396 2894.5011022512226 0 0 0 0 -6.3057581091214887 5.6584625374225528 0 5.6584625374225528 39.544992022497354 0 0 0 0 885.16799009729402 -1116.9495551617429 0 -1116.9495551617429 1649.3357256467134 0 0 0 0 -7.3505239430960501 42.962889529189852 0 42.962889529189852 27.794454513074015 0 0 0 0 13.280812641002015 2.3230123043530284 0 2.3230123043530284 -5.5963987211102619 0 0 0 0 -153.41568732081669 228.38435599558761 0 228.38435599558761 -209.78148850864272 0 0 0 0 -178.77665634725327 -14.672322231290309 0 -14.672322231290309 162.46443453495522 0 0 0 0 345.43819424773079 203.30497930125443 0 203.30497930125443 -381.54495292130014 0 0 0 0 -7.2896088496228133 -5.5818257980330621 0 -5.5818257980330621 61.412551349665065 0 0 0 0 -0.47724050482176272 1.3084219514676008 0 1.3084219514676008 12.790305115326149 0 0 0 0 -226.53534285916908 -209.41206574451644 0 -209.41206574451644 -16.391737380443374 0 0 0 0 94.716502786833189 -6.1850185134244384 0 -6.1850185134244384 -89.412517814078456 0 0 0 0 1.8402295410771277 -13.536992187908012 0 -13.536992187908012 -7.398035856418943 0 0 0 0 276.35436021581972 -79.111559919298088 0 -79.111559919298088 -102.52610576426378 0 0 0 0 -101.0262255608323 88.288071798149758 0 88.288071798149758 357.47308196602535 0 0 0 0 130.62133408665045 130.67780200011111 0 130.67780200011111 95.818327061228047 0 0 0 0 18.581720591445389 -198.45819186187509 0 -198.45819186187509 108.5700244047548 0 0 0 0 -418.25067706476852 -122.98709599938593 0 -122.98709599938593 96.4172488600816 0 0 0 0 -30.700176526166899 -60.282791805992929 0 -60.282791805992929 71.431933853651572 0 0 0 0 -11.026650002519069 -21.43764055902956 0 -21.43764055902956 65.998892510658663 0 0 0 0 -121.28339565503023 -51.048165660966333 0 -51.048165660966333 87.007835910710128 0 0 0 0 -87.808420177543667 -255.8359584292557 0 -255.8359584292557 74.794374539691489 0 0 0 0 -15.169630280454612 195.54953158565149 0 195.54953158565149 312.90456640198681 0 0 0 0 812.7530617939999 906.23807053979363 0 906.23807053979363 864.25324741030636 0 0 0 0 328.0133056997422 149.54240188069525 0 149.54240188069525 345.71823625945763 0 0 0 0 -61.315133751665144 -190.16489252333122 0 -190.16489252333122 -15.469261942649609 0 0 0 0 197.14170388137404 -85.743839035814744 0 -85.743839035814744 -44.127994852860866 0 0 0 0 85.07243270391649 210.80753461973291 0 210.80753461973291 351.49275611214398 0 0 0 0 -9.8413617401811173 -25.785974130674276 0 -25.785974130674276 63.322018126927205 0 0 0 0 181.1770453450263 382.92963193201524 0 382.92963193201524 532.51832676107006 0 0 0 0 -75.361423492614904 -63.383160914498148 0 -63.383160914498148 222.77989273545245 0 0 0 0 395.53445502874899 344.1172334190378 0 344.1172334190378 102.98686781413562 0 0 0 0 285.09993624502806 699.23305960993912 0 699.23305960993912 1404.8997041503317 0 0 0 0 384.58197028258417 272.66750296169994 0 272.66750296169994 588.87764053612773 0 0 0 0 355.16604998816211 681.49215670311014 0 681.49215670311014 1242.5513398356998 0 0 0 0 4.6950497501664072 -0.60647786183874075 0 -0.60647786183874075 6.5613522266071342 0 0 0 0 6.6924386869907266 11.212835779730085 0 11.212835779730085 60.224611459874723 0 0 0 0 7.6288151852977535 10.779717887569859 0 10.779717887569859 33.807768378472247 0 0 0 0 -2.2874370660054475 -10.528647308559044 0 -10.528647308559044 20.857396984448599 0 0 0 0 128.96514974988668 30.470293377838971 0 30.470293377838971 5.1798096689890372 0 0 0 0 -52.418691521054967 -10.368286986487874 0 -10.368286986487874 69.206772698191344 0 0 0 0 -52.710611880509873 -12.844622227374202 0 -12.844622227374202 141.06109593348083 0 0 0 0 197.1020905493599 -23.169674490964098 0 -23.169674490964098 11.113612579851178 0 0 0 0 -1.7448426599969782 -9.1875185569182634 0 -9.1875185569182634 32.313174029022306 0 0 0 0 6.1871966119990986 20.403445812932738 0 20.403445812932738 30.106311216532745 0 0 0 0 24.685997566187325 2.8474152493472502 0 2.8474152493472502 -15.512349878568784 0 0 0 0 2.7410396309496718 23.955241185181876 0 23.955241185181876 69.225145330186933 0 0 0 0 -3.8485589234498594 -1.7521041654484577 0 -1.7521041654484577 21.242066304051988 0 0 0 0 154.98860071659874 113.55687144497642 0 113.55687144497642 -147.59769903215783 0 0 0 0 1.1223211997643636 -1.0778063158446685 0 -1.0778063158446685 0.050511581166304609 0 0 0 0 -31.725600773256247 -2.1990338488976704 0 -2.1990338488976704 130.20436224098376 0 0 0 0 18.339717178429282 -3.2657938172087597 0 -3.2657938172087597 35.906233477173373 0 0 0 0 -4.1925509314389728 33.040559816272435 0 33.040559816272435 50.286085494753934 0 0 0 0 24.271880114644603 127.53707853799551 0 127.53707853799551 71.789739005049341 0 0 0 0 32.147951711532414 -26.618786412353074 0 -26.618786412353074 39.049186380459105 0 0 0 0 4.6747250726358169 -0.70290843066118214 0 -0.70290843066118214 11.272551236056628 0 0 0 0 -19.999222297435722 27.990949525867109 0 27.990949525867109 146.40501152742218 0 0 0 0 -1.6812847366099959 -142.45259785371309 0 -142.45259785371309 61.874767208260891 0 0 0 0 -25.06243721782846 13.121331823911532 0 13.121331823911532 110.47930038253253 0 0 0 0 10.419099951008207 78.439581977767375 0 78.439581977767375 89.211143033154258 0 0 0 0 3.6445952159521084 53.579490163439914 0 53.579490163439914 20.050254058329301 0 0 0 0 17.796022776649266 -16.534338524244731 0 -16.534338524244731 53.884941265801899 0 0 0 0 6.0112882864528787 21.057579404900537 0 21.057579404900537 16.590434232541007 0 0 0 0 43.714075732590118 17.504408961813169 0 17.504408961813169 -14.774410892154265 0 0 0 0 -35.366903576667937 25.997760103262408 0 25.997760103262408 136.6379905230242 0 0 0 0 9.2401976764354004 54.552348695793626 0 54.552348695793626 110.22435380661045 0 0 0 0 -60.511653738699579 58.981171080675267 0 58.981171080675267 180.52852564778004 0 0 0 0 -28.03510409159253 141.64844389618156 0 141.64844389618156 357.52122943438007 0 0 0 0 -56.067710018663092 15.530543831202522 0 15.530543831202522 251.50100545640453 0 0 0 0 92.860386031519056 121.30695360900791 0 121.30695360900791 116.8961836941744 0 0 0 0 3.6970461480169083 -2.2130380441456765 0 -2.2130380441456765 1.9815016158244987 0 0 0 0 15.152673101471123 1.2175664263122599 0 1.2175664263122599 15.01529365098213 0 0 0 0 52.494976180745311 -5.5241632644083438 0 -5.5241632644083438 8.1699810555692238 0 0 0 0 -13.463971544138076 -99.578095709766785 0 -99.578095709766785 477.22673177171964 0 0 0 0 3.4129260070125422 1.692476381390847 0 1.692476381390847 1.4896818206017883 0 0 0 0 31.481130033220097 22.952816399119911 0 22.952816399119911 330.93670605642546 0 0 0 0 59.205933819220263 104.53803680057899 0 104.53803680057899 325.6331569553422 0 0 0 0 23.367141043047013 -98.26645838663535 0 -98.26645838663535 82.485632590774912 0 0 0 0 2.2344489192779946 2.0174058692746399 0 2.0174058692746399 1.2124797153974782 0 0 0 0 19.611644794353197 -4.6567372437857557 0 -4.6567372437857557 298.34790070429153 0 0 0 0 10.552281703334245 12.418229596208221 0 12.418229596208221 29.035438042439637 0 0 0 0 12.415362317186691 10.900863549730275 0 10.900863549730275 20.080935045974911 0 0 0 0 10.217660335655061 3.9043548756145725 0 3.9043548756145725 5.3847180783723019 0 0 0 0 -19.535387218241567 40.126217093515152 0 40.126217093515152 77.596102766921831 0 0 0 0 -1.6851448802748734 14.691346567774961 0 14.691346567774961 47.694423887263355 0 0 0 0 -46.869865314367416 22.526774945137731 0 22.526774945137731 66.977829608547381 0 0 0 0 -30.913836711645672 70.097065780259072 0 70.097065780259072 101.07919961946209 0 0 0 0 -83.878358575810125 16.676595456283394 0 16.676595456283394 105.04474934335849 0 0 0 0 -63.723906243634246 40.244154835740119 0 40.244154835740119 122.13947080800062 0 0 0 0 98.509939510901859 -185.20381416872624 0 -185.20381416872624 -197.30652530754742 0 0 0 0 -56.912545472341662 12.256905337468197 0 12.256905337468197 95.652192095254577 0 0 0 0 -62.542896390292299 71.568854292574542 0 71.568854292574542 239.78104897826415 0 0 0 0 -22.253900729796442 -184.62766073409875 0 -184.62766073409875 209.66519793069165 0 0 0 0 -47.201462272574645 -5.1337347514327121 0 -5.1337347514327121 -77.645151469776465 0 0 0 0 -83.780824235934006 -36.325005342698205 0 -36.325005342698205 84.658982305911195 0 0 0 0 -41.916991973379936 -0.13654125536777428 0 -0.13654125536777428 52.96330141024373 0 0 0 0 116.10411434057505 -66.442703609352066 0 -66.442703609352066 10.665639452301548 0 0 0 0 -45.308913585272421 -21.295524686463978 0 -21.295524686463978 16.925519404034276 0 0 0 0 -0.73077606084584579 3.5971181643424597 0 3.5971181643424597 42.708816644712755 0 0 0 0 -65.195618499498778 -3.8830997633012885 0 -3.8830997633012885 68.863803811568687 0 0 0 0 7.9923811096832651 -30.352642066631233 0 -30.352642066631233 34.900662154472229 0 0 0 0 4.0185791480138242 -1.9891785183233992 0 -1.9891785183233992 14.779219770999102 0 0 0 0 0.64602867227051775 12.374551309839717 0 12.374551309839717 52.352082689067174 0 0 0 0 1.3641162066893138 -0.047376284815655367 0 -0.047376284815655367 -3.3513252246621406 0 0 0 0 9.1618639369567063 12.429957430776994 0 12.429957430776994 40.907732159590523 0 0 0 0 -0.33069881807150736 0.7175040942755686 0 0.7175040942755686 10.370275104454635 0 0 0 0 28.305658716571543 -17.52542794355395 0 -17.52542794355395 31.75823871511966 0 0 0 0 7.8156156357163127 21.39303103014754 0 21.39303103014754 49.579628291015979 0 0 0 0 26.2699895105211 23.226470209523541 0 23.226470209523541 19.237551977563271 0 0 0 0 23.826684091609422 14.330029531618493 0 14.330029531618493 82.606635736396129 0 0 0 0 9.4442661247276156 19.219788330692872 0 19.219788330692872 14.072999014464166 0 0 0 0 4.6643423477280521 10.923234791600407 0 10.923234791600407 51.732705492424429 0 0 0 0 9.7738017911779025 29.939571371236525 0 29.939571371236525 -6.2592158225525054 0 0 0 0 2.0179474066207099 17.479539383586499 0 17.479539383586499 20.330499090925592 0 0 0 0 4.3437645319559124 19.225545716200941 0 19.225545716200941 29.136414226213674 0 0 0 0 -9.1028042153011484 13.355301872048585 0 13.355301872048585 40.965725632061663 0 0 0 0 51.888697312408112 5.3778992987136007 0 5.3778992987136007 -16.794023110880516 0 0 0 0 1.7165481677496746 11.360300991534022 0 11.360300991534022 4.2451082048290516 0 0 0 0 38.01075449882137 -35.665380928465311 0 -35.665380928465311 168.61922609638714 0 0 0 0 -303.22929660460795 38.704003843005921 0 38.704003843005921 355.56231374770869 0 0 0 0 -17.499351537849179 20.796184721621103 0 20.796184721621103 126.20471330566215 0 0 0 0 13.131738883705111 -12.98828178938129 0 -12.98828178938129 116.52482434415469 0 0 0 0 19.177365038621247 -67.313740633842826 0 -67.313740633842826 252.42057364093489 0 0 0 0 -21.686556432052384 -0.69359152288598125 0 -0.69359152288598125 128.004781104617 0 0 0 0 -23.520281414085275 -0.30763308274617884 0 -0.30763308274617884 209.10453906875046 0 0 0 0 -23.238550484094958 16.747291321211378 0 16.747291321211378 133.8150997754783 0 0 0 0 -36.537627776372119 27.227485585089198 0 27.227485585089198 183.74955776405113 0 0 0 0 -33.872572883304201 25.319501531266724 0 25.319501531266724 184.93302014395886 0 0 0 0 -24.871489947982354 41.642743173626513 0 41.642743173626513 213.68626895094349 0 0 0 0 -52.152574270736295 17.967280403328914 0 17.967280403328914 182.06607671390884 0 0 0 0 14.619567773328527 -55.36828139530553 0 -55.36828139530553 313.5059596253559 0 0 0 0 -32.413912801133847 80.527058882682468 0 80.527058882682468 445.88699439702395 0 0 0 0 6.9783532844539877 -14.679406861760071 0 -14.679406861760071 342.64652179185214 0 0 0 0 0.73036760443210369 2.241592300881166 0 2.241592300881166 427.6150975769051 0 0 0 0 4.4781462569776522 11.017980117932893 0 11.017980117932893 241.72413014766062 0 0 0 0 -25.688181704523231 47.782621735379507 0 47.782621735379507 198.84430216545297 0 0 0 0 -19.452303362637394 81.663394678558689 0 81.663394678558689 357.54476095054997 0 0 0 0 51.283035425707567 100.83686152588052 0 100.83686152588052 177.77846747204239 0 0 0 0 27.565254498523245 49.615107755300414 0 49.615107755300414 110.52487362071406 0 0 0 0 47.026749766450848 102.40772718891822 0 102.40772718891822 74.330519936382188 0 0 0 0 50.449451137610595 77.619204297036049 0 77.619204297036049 115.22426290223666 0 0 0 0 123.35179586345839 241.1109614970992 0 241.1109614970992 197.33924591814866 0 0 0 0 -0.31481739220276239 -2.1031070924717028 0 -2.1031070924717028 4.854583991661876 0 0 0 0 3.0471459661712288 -22.131360775078065 0 -22.131360775078065 108.55097072012722 0 0 0 0 116.27456086446182 140.33592172483623 0 140.33592172483623 141.50608996586197 0 0 0 0 -27.969429111253703 36.377316218233318 0 36.377316218233318 31.941337706660306 0 0 0 0 -12.975932927161921 146.15912234359712 0 146.15912234359712 -98.542336980754044 0 0 0 0 -30.985252335420455 211.91370247101531 0 211.91370247101531 35.960880098180496 0 0 0 0 -33.127859515836462 61.215996804960014 0 61.215996804960014 -79.931829190798453 0 0 0 0 2.0449100946502732 0.27615126797330447 0 0.27615126797330447 3.4740149609011155 0 0 0 0 242.85598631004541 -436.87475321578677 0 -436.87475321578677 799.5045621333411 0 0 0 0 32.753053233825995 -612.71789341927069 0 -612.71789341927069 670.12530757170316 0 0 0 0 2.8436926228550434 -4.0624067695585993 0 -4.0624067695585993 9.81257014295457 0 0 0 0 357.05483000388267 -335.31565640238114 0 -335.31565640238114 415.13009367311315 0 0 0 0 -303.38993213368229 36.488626168520341 0 36.488626168520341 679.32906562417338 0 0 0 0 182.91532020381328 480.86901886548731 0 480.86901886548731 393.84836125851143 0 0 0 0 -36.093777798333122 56.157028280036684 0 56.157028280036684 64.66166760080705 0 0 0 0 8.1584614671186895 37.905436189230052 0 37.905436189230052 33.57254592343152 0 0 0 0 380.05761406394777 114.84595436754898 0 114.84595436754898 -379.9510282343108 0 0 0 0 -1.7327286297061519 35.870881238136135 0 35.870881238136135 26.814077463580261 0 0 0 0 44.265136832827466 90.720647336639558 0 90.720647336639558 -12.840187356883689 0 0 0 0 -16.02271562673036 64.14243797358813 0 64.14243797358813 31.516235976381722 0 0 0 0 -318.52965884752484 -75.335385261840202 0 -75.335385261840202 650.9526465323579 0 0 0 0 -114.83269079601087 -445.53195609067916 0 -445.53195609067916 426.43718719229219 0 0 0 0 76.893547226316514 -104.34169765117258 0 -104.34169765117258 201.60246268121409 0 0 0 0 -82.44893483017222 213.17825039284071 0 213.17825039284071 87.633180577922758 0 0 0 0 -7.9860971491125383 -237.52878306403727 0 -237.52878306403727 463.2128582370824 0 0 0 0 18.308250809754099 56.954872916918248 0 56.954872916918248 612.48919991028379 0 0 0 0 307.81392386871448 -496.14545367372921 0 -496.14545367372921 563.50354812091973 0 0 0 0 0.52699018098320605 -0.33824949586802688 0 -0.33824949586802688 0.24166397997205991 0 0 0 0 4.5036535615308821 -6.7776401121227536 0 -6.7776401121227536 27.783780345060222 0 0 0 0 2.3096973035927419 -3.6279343838082809 0 -3.6279343838082809 3.7881935237094169 0 0 0 0 0.58604817187426761 -3.3487378097752298 0 -3.3487378097752298 11.053823802489205 0 0 0 0 1.5575489604124755 -1.739583583164162 0 -1.739583583164162 5.311850150778227 0 0 0 0 -5.5190307826242133 -12.705705602727903 0 -12.705705602727903 35.538661539183522 0 0 0 0 4.5485698947906545 -16.227929718978487 0 -16.227929718978487 35.839613729527628 0 0 0 0 6.1296305033896488 -9.1493304282944337 0 -9.1493304282944337 35.850725561707804 0 0 0 0 4.9978361747814688 -13.548733778391124 0 -13.548733778391124 27.767851151067589 0 0 0 0 -17.329656865156721 -11.675919243278258 0 -11.675919243278258 37.406794733653442 0 0 0 0 -91.234910230160949 -44.600889544737583 0 -44.600889544737583 75.756379620368534 0 0 0 0 0.81172342479746051 -11.925894533035528 0 -11.925894533035528 40.963109995361236 0 0 0 0 -53.72068534416303 65.740258551903025 0 65.740258551903025 112.80901175610052 0 0 0 0 -130.05806794948006 -7.5808412197723101 0 -7.5808412197723101 64.991013907681918 0 0 0 0 0.42108466964857794 -4.7849097996474521 0 -4.7849097996474521 28.266474998152944 0 0 0 0 70.987319569941064 47.420809355033271 0 47.420809355033271 63.422006050983327 0 0 0 0 69.930644873226356 42.438682858031825 0 42.438682858031825 109.36077682646282 0 0 0 0 17.227667820608076 -34.131805949113186 0 -34.131805949113186 55.823114874070598 0 0 0 0 1.5876608691901684 0.1099628982600791 0 0.1099628982600791 0.23555553119673434 0 0 0 0 25.599672663912315 16.088043758114509 0 16.088043758114509 115.82121799200831 0 0 0 0 53.777038037293096 18.441735608641466 0 18.441735608641466 115.8073189061397 0 0 0 0 88.45889444019258 39.057255220053776 0 39.057255220053776 85.533227790609089 0 0 0 0 -40.89244820684371 1.0768047168985504 0 1.0768047168985504 232.25302383465532 0 0 0 0 -12.75400851323775 -82.139968169743952 0 -82.139968169743952 84.568828222705633 0 0 0 0 11.733068567571081 -23.00953678892256 0 -23.00953678892256 6.0668648194150592 0 0 0 0 -33.066494986422185 -35.471158761381957 0 -35.471158761381957 61.086528527583141 0 0 0 0 -13.189431508529836 -19.226217803287 0 -19.226217803287 27.745070621356717 0 0 0 0 -28.742363436306597 3.0534384689846803 0 3.0534384689846803 12.679918242597665 0 0 0 0 -5.0271092278456244 30.432336427965083 0 30.432336427965083 73.81335882699932 0 0 0 0 -66.681161803867781 -49.108946823191218 0 -49.108946823191218 111.51711078442895 0 0 0 0 8.1032791201291872 -20.957855930074366 0 -20.957855930074366 34.257578638525302 0 0 0 0 3.2345100147208541 -25.929904402732063 0 -25.929904402732063 53.942591603497931 0 0 0 0 -21.790614629151605 -25.335297186647949 0 -25.335297186647949 39.467059485447862 0 0 0 0 -13.167905148425618 -13.88006669690418 0 -13.88006669690418 77.958357600315352 0 0 0 0 -15.004855403609326 -21.465673801791127 0 -21.465673801791127 92.213267082950551 0 0 0 0 -3.0339646128555628 -16.570466236207672 0 -16.570466236207672 15.092810630254249 0 0 0 0 -20.991623524035276 -27.60017820019857 0 -27.60017820019857 104.46392573891717 0 0 0 0 -5.7806165638812672 -11.095137322037772 0 -11.095137322037772 77.731855575537338 0 0 0 0 -25.138796158683817 -33.323672964369962 0 -33.323672964369962 70.025299570061179 0 0 0 0 -28.87734520546519 -8.2042325658740083 0 -8.2042325658740083 75.899211394054873 0 0 0 0 0.097364854985084293 -10.54842134250894 0 -10.54842134250894 41.340629335517455 0 0 0 0 -49.095377038113838 -54.72332824509067 0 -54.72332824509067 58.21336980380147 0 0 0 0 -12.273668136091135 -13.490805526290586 0 -13.490805526290586 48.902826338616435 0 0 0 0 -4.297936449044748 -20.175585736430481 0 -20.175585736430481 45.942978760085765 0 0 0 0 25.661341621024803 3.404238049284686 0 3.404238049284686 92.34525405162276 0 0 0 0 11.906216268237586 67.488015376247859 0 67.488015376247859 359.11890968348962 0 0 0 0 1.5457668926624653 0.90158621218061796 0 0.90158621218061796 0.50944087309568786 0 0 0 0 -185.53481672846647 -32.135026621879661 0 -32.135026621879661 475.03486669992071 0 0 0 0 10.018675034107218 8.4522678245721181 0 8.4522678245721181 96.635872546557948 0 0 0 0 -7.8229744032687449 1.0316527269969811 0 1.0316527269969811 95.625737361523079 0 0 0 0 -30.090800639382451 4.4276902204983344 0 4.4276902204983344 155.50520406577925 0 0 0 0 295.66475874560501 96.107560170112265 0 96.107560170112265 86.644541415254935 0 0 0 0 3.137266395580852 1.0093793694698547 0 1.0093793694698547 0.44741129452416928 0 0 0 0 -121.87599350461278 -44.200508398655074 0 -44.200508398655074 341.56978673226286 0 0 0 0 -100.10501166707127 -97.154613385948323 0 -97.154613385948323 157.77456507946044 0 0 0 0 40.034859364654039 6.9780284387015854 0 6.9780284387015854 99.582980053250139 0 0 0 0 -12.938590525053359 6.9126283307597305 0 6.9126283307597305 0.098237196008607697 0 0 0 0 37.609053784534581 35.043764375231149 0 35.043764375231149 -13.004634140601411 0 0 0 0 -32.634812630985834 -1.0439376238791738 0 -1.0439376238791738 98.706978042731862 0 0 0 0 -73.725749254568598 30.522030405714759 0 30.522030405714759 138.45538507652418 0 0 0 0 7.837784330640261 25.75872833043195 0 25.75872833043195 14.495402073120204 0 0 0 0 -0.20589588148095572 31.133325452356075 0 31.133325452356075 63.014675205570256 0 0 0 0 13.929191932347521 30.619620524300444 0 30.619620524300444 23.268837218409317 0 0 0 0 3.1195922250721075 8.6035366169040088 0 8.6035366169040088 1.8361876050154109 0 0 0 0 -10.801389574831433 27.107218697528879 0 27.107218697528879 69.746835803533031 0 0 0 0 -2.6025607246347136 7.3465329917462441 0 7.3465329917462441 87.349478163057938 0 0 0 0 27.903326467473107 19.586397543209387 0 19.586397543209387 47.600223652261775 0 0 0 0 0.26561599897104315 92.265246981023665 0 92.265246981023665 -36.190173169256923 0 0 0 0 18.694159566049994 9.9725197665405005 0 9.9725197665405005 2.1161068812613859 0 0 0 0 17.458826269805286 23.770507547727902 0 23.770507547727902 119.06627410232613 0 0 0 0 2.5593713396128805 35.866733603454122 0 35.866733603454122 114.65944183517422 0 0 0 0 22.071463629062237 21.75536652343726 0 21.75536652343726 66.592911424631893 0 0 0 0 1.254123462465035 3.8963492262215027 0 3.8963492262215027 0.092649087986114154 0 0 0 0 -22.892043060062861 43.784683850461079 0 43.784683850461079 156.6099676115191 0 0 0 0 4.7118755990400132 43.929148972982148 0 43.929148972982148 87.19110125725274 0 0 0 0 26.016847316863277 54.193552485905457 0 54.193552485905457 88.142611958021007 0 0 0 0 -26.930150425308966 -15.033745612992789 0 -15.033745612992789 51.241277906470714 0 0 0 0 -90.596293974378568 -63.578086683668516 0 -63.578086683668516 135.24255953865577 0 0 0 0 0.1999047124785891 3.1345210389171712 0 3.1345210389171712 0.079257470657741358 0 0 0 0 -81.883778457995163 25.866457034428095 0 25.866457034428095 81.339088505366817 0 0 0 0 -131.83308468080756 -10.761549616476259 0 -10.761549616476259 217.20296610914738 0 0 0 0 -51.157046780555447 -31.454823156209386 0 -31.454823156209386 -29.808236322023731 0 0 0 0 -72.00755790385324 713.62795639048272 0 713.62795639048272 8.1542706256150268 0 0 0 0 -211.89745321655775 -161.86449853598151 0 -161.86449853598151 -40.682011674391106 0 0 0 0 2.8753357012836789 -5.684100663286145 0 -5.684100663286145 10.348064066959083 0 0 0 0 227.38024329145424 -98.367570251364668 0 -98.367570251364668 103.21077063996199 0 0 0 0 -341.22498998070762 -48.624621934923198 0 -48.624621934923198 719.55620785866995 0 0 0 0 2.7743308055578337 -1.6700606014662327 0 -1.6700606014662327 0.78056142717554167 0 0 0 0 257.12135836775838 457.82279020373608 0 457.82279020373608 634.0084210988316 0 0 0 0 -161.43966401555554 -317.66871892689232 0 -317.66871892689232 -78.725261952982237 0 0 0 0 -73.774861644094017 -41.715308768609248 0 -41.715308768609248 -135.16016684000533 0 0 0 0 -129.89599676400871 13.392717356326102 0 13.392717356326102 -20.036975194961997 0 0 0 0 -65.939129957736441 -96.766726456626202 0 -96.766726456626202 9.1121228360789246 0 0 0 0 -135.80048244530826 0.76390848522714805 0 0.76390848522714805 63.791522883766447 0 0 0 0 14.437955600023088 -79.244004386499 0 -79.244004386499 120.05073564162012 0 0 0 0 -18.207720998360401 -30.554234309445746 0 -30.554234309445746 67.337510555800691 0 0 0 0 -153.86659467440859 -242.87668615436996 0 -242.87668615436996 227.12501889575833 0 0 0 0 -16.379326829250203 -60.473317362300804 0 -60.473317362300804 284.15078852389343 0 0 0 0 8.309938532032902 -206.21895838123783 0 -206.21895838123783 324.99908827928266 0 0 0 0 0.45363104862371983 -40.791853409842588 0 -40.791853409842588 209.82590047242456 0 0 0 0 -16.443571543270991 23.555556702849572 0 23.555556702849572 214.44621373243717 0 0 0 0 0.60354237110739817 -9.8941492996070224 0 -9.8941492996070224 83.704828835551154 0 0 0 0 -90.477807454864745 -39.335199452629695 0 -39.335199452629695 147.28186342141998 0 0 0 0 -51.213547519079384 -59.364630294949166 0 -59.364630294949166 117.57834303613163 0 0 0 0 -78.559603362571579 -3.9179366246835343 0 -3.9179366246835343 96.340157876950798 0 0 0 0 -42.42745907329288 -42.523024677628428 0 -42.523024677628428 99.586189321831625 0 0 0 0 -29.017514602603114 -27.827602945274521 0 -27.827602945274521 75.247269234239866 0 0 0 0 -24.630393256866114 -51.353483654035472 0 -51.353483654035472 103.82109797433077 0 0 0 0 -53.03137090563105 14.889689669510517 0 14.889689669510517 94.992651647815364 0 0 0 0 -2.5637488455122965 -9.9126838132860531 0 -9.9126838132860531 86.331679186837732 0 0 0 0 -15.454749305606072 48.669280760499532 0 48.669280760499532 64.611189806222683 0 0 0 0 15.593442049154191 6.0598321720535751 0 6.0598321720535751 85.418344194866222 0 0 0 0 -123.22880328370741 -101.08437040858917 0 -101.08437040858917 11.197756547792324 0 0 0 0 70.216836159400827 89.762757233296725 0 89.762757233296725 260.46295585622283 0 0 0 0 7.269417312929412 -12.682920829218261 0 -12.682920829218261 20.770927977391338 0 0 0 0 93.441649620774285 -104.64321282733727 0 -104.64321282733727 313.36641213764233 0 0 0 0 80.120964923042749 69.409559234285553 0 69.409559234285553 118.35471249981492 0 0 0 0 59.25894913443318 -27.21241611239202 0 -27.21241611239202 138.96466948893794 0 0 0 0 -6.3506711288182487 -45.103402996785007 0 -45.103402996785007 226.95217811406474 0 0 0 0 -23.037532493140986 -7.2742963481250627 0 -7.2742963481250627 141.52673025571858 0 0 0 0 -11.717023812505715 -76.281757398323862 0 -76.281757398323862 150.3876813291281 0 0 0 0 3.1135725286444966 -37.863434669177877 0 -37.863434669177877 153.4122493023533 0 0 0 0 50.267615984243719 -104.89602898591693 0 -104.89602898591693 54.785356054529984 0 0 0 0 370.8423433119101 -4.27759981311101 0 -4.27759981311101 69.212924208070035 0 0 0 0 69.911965332672196 76.737683993160317 0 76.737683993160317 49.191958727255042 0 0 0 0 -3.1442439251980288 -1.3833295939672965 0 -1.3833295939672965 0.054367486355033634 0 0 0 0 -268.7409739526363 -43.231707712282514 0 -43.231707712282514 240.2580345771039 0 0 0 0 -346.71529426043674 349.19401214413529 0 349.19401214413529 -138.55224311965867 0 0 0 0 -245.62512465972509 -87.802760437607503 0 -87.802760437607503 22.426094690668833 0 0 0 0 8.4292391783361751 -68.131729033650345 0 -68.131729033650345 43.56547519024025 0 0 0 0 -5.0196756911334655 -11.047014784380835 0 -11.047014784380835 8.8505827205480614 0 0 0 0 7.3876873494065194 -33.321295531626674 0 -33.321295531626674 3.8612945039130864 0 0 0 0 -74.170395623748846 -10.08504719245775 0 -10.08504719245775 62.278161960912257 0 0 0 0 3.2736045492547441 -6.9302242001323364 0 -6.9302242001323364 33.073723756509487 0 0 0 0 2.1762251055797606 -9.3633224126915593 0 -9.3633224126915593 31.610748854838675 0 0 0 0 5.6341948684317433 -15.94542088047789 0 -15.94542088047789 39.963098962812779 0 0 0 0 -36.444389987077329 -26.062406135231868 0 -26.062406135231868 48.404367771794568 0 0 0 0 -78.416155680260374 2.2008459227596404 0 2.2008459227596404 123.29483223380157 0 0 0 0 -8.2921307977077952 4.8452473235846263 0 4.8452473235846263 19.923714288636731 0 0 0 0 -81.59697597992681 -21.903144921683634 0 -21.903144921683634 121.01964218105059 0 0 0 0 -41.406546873262869 -48.17300640855683 0 -48.17300640855683 108.55399511134056 0 0 0 0 -105.98616881629368 -66.947057313603182 0 -66.947057313603182 50.468557295473147 0 0 0 0 -37.708159366080508 2.2609502421546495 0 2.2609502421546495 85.919794810233725 0 0 0 0 -72.107505935666723 -25.404791584664054 0 -25.404791584664054 84.407006326422561 0 0 0 0 -80.579981897491962 -12.414920281413288 0 -12.414920281413288 67.148428678385244 0 0 0 0 -90.277792525768746 17.408461264110883 0 17.408461264110883 86.134473607123425 0 0 0 0 7.7848955823092183 -45.764231797455523 0 -45.764231797455523 84.066261851836316 0 0 0 0 26.242480967279334 5.9886817815095128 0 5.9886817815095128 166.14126126541396 0 0 0 0 67.494792200523079 -35.569260585280972 0 -35.569260585280972 95.396870599459362 0 0 0 0 -5.8145454106497709 -30.368765773636824 0 -30.368765773636824 89.370069519218305 0 0 0 0 -5.209961004994625 -38.534660040292806 0 -38.534660040292806 133.20403394587083 0 0 0 0 31.710558453747581 -52.696690539269184 0 -52.696690539269184 93.801616471138004 0 0 0 0 35.001140812869778 -17.383870515731928 0 -17.383870515731928 127.77739481397475 0 0 0 0 37.803162744593465 -65.292932240332448 0 -65.292932240332448 80.287963857402247 0 0 0 0 4.0445642536542437 -48.052302915832115 0 -48.052302915832115 87.303084980703716 0 0 0 0 4.526609017240844 -50.647629266038166 0 -50.647629266038166 100.6634038128559 0 0 0 0 9.1476688290968013 17.781167740012279 0 17.781167740012279 68.567685221280499 0 0 0 0 95.575968581322741 -62.993802795082047 0 -62.993802795082047 63.758691651747085 0 0 0 0 7.3589791531975592 1.3623709335853604 0 1.3623709335853604 0.67256340728252439 0 0 0 0 88.867739849492864 -34.914548926572934 0 -34.914548926572934 115.21806945608478 0 0 0 0 102.02712063565377 -11.532566368028711 0 -11.532566368028711 135.58649961202082 0 0 0 0 40.665302225272171 -45.065120792150992 0 -45.065120792150992 118.70894523483275 0 0 0 0 51.287348752272919 -12.216545170285372 0 -12.216545170285372 189.86667926438895 0 0 0 0 82.145099575276163 16.271986967963244 0 16.271986967963244 162.17986959186601 0 0 0 0 101.74700876638144 -4.6950267130241627 0 -4.6950267130241627 184.14619513757316 0 0 0 0 139.25273997575005 64.115436855910048 0 64.115436855910048 214.60597882904335 0 0 0 0 63.306828843918993 69.266352507087504 0 69.266352507087504 349.76046400317318 0 0 0 0 39.099433616272108 94.112695037846152 0 94.112695037846152 384.1027431419825 0 0 0 0 100.28996203789666 64.9948465340849 0 64.9948465340849 246.35088550608998 0 0 0 0 24.486004240112379 26.574307966705419 0 26.574307966705419 250.03196802111574 0 0 0 0 -32.639485738014628 39.240289266610489 0 39.240289266610489 394.00801989239199 0 0 0 0 47.024952158094493 30.046045929384036 0 30.046045929384036 265.89487393887066 0 0 0 0 -9.323707724797714 23.782735512645559 0 23.782735512645559 268.53856330635608 0 0 0 0 20.121104839055988 103.19663029757066 0 103.19663029757066 351.09916903972453 0 0 0 0 18.32478151320538 78.218551170473802 0 78.218551170473802 209.55508039772303 0 0 0 0 18.819923175646181 36.784111771761673 0 36.784111771761673 124.62859886745719 0 0 0 0 51.029389291747066 18.648530006520446 0 18.648530006520446 139.83086826976705 0 0 0 0 -21.276751131907076 35.814476688965442 0 35.814476688965442 135.75624643857782 0 0 0 0 55.344453482093741 41.598551497440894 0 41.598551497440894 61.201030891354094 0 0 0 0 15.060353279843088 12.2081649717283 0 12.2081649717283 9.0313237247297309 0 0 0 0 -0.4167605471884599 13.876499925298049 0 13.876499925298049 124.44676327132402 0 0 0 0 93.889424761890496 12.095658168197588 0 12.095658168197588 134.64211496106691 0 0 0 0 42.59728874381004 37.561888802297787 0 37.561888802297787 126.25675309712278 0 0 0 0 54.938010178827426 84.865091379140722 0 84.865091379140722 214.22026770872299 0 0 0 0 69.607964365080989 33.907220548069063 0 33.907220548069063 12.249328289153709 0 0 0 0 -1.7769966637006291 -24.360457157308701 0 -24.360457157308701 77.085695247881631 0 0 0 0 12.064135853055802 13.493045725981489 0 13.493045725981489 73.974133632812482 0 0 0 0 21.848849405470446 -15.855687543384647 0 -15.855687543384647 65.502364591666719 0 0 0 0 20.944325333151856 11.34054267508554 0 11.34054267508554 0.52952456674673654 0 0 0 0 23.825639410891199 4.9623422465979274 0 4.9623422465979274 34.111406604648437 0 0 0 0 7.4418684378177034 15.319432137156362 0 15.319432137156362 88.857463441895561 0 0 0 0 11.249781963224905 25.055314367465598 0 25.055314367465598 76.233633761262126 0 0 0 0 6.3177853204251733 31.320765117135579 0 31.320765117135579 68.86923953335581 0 0 0 0 7.2542820966766044 12.800139658106175 0 12.800139658106175 63.1947025452871 0 0 0 0 1.0256561735003222 -0.15356187425917023 0 -0.15356187425917023 0.92282251386788339 0 0 0 0 51.427993408242855 71.118245022626411 0 71.118245022626411 94.419753944033147 0 0 0 0 55.430680648764337 -48.104622747427015 0 -48.104622747427015 24.328734505820194 0 0 0 0 104.35700365413959 -37.587092189120085 0 -37.587092189120085 84.982908013012093 0 0 0 0 8.5693725239516425 23.842205970690202 0 23.842205970690202 158.26297866292748 0 0 0 0 10.198535125703529 14.930160652104291 0 14.930160652104291 35.949882851068452 0 0 0 0 7.9438922589258087 19.151972753373403 0 19.151972753373403 39.329515345075841 0 0 0 0 13.43932261956428 10.96853426739203 0 10.96853426739203 40.559627720823073 0 0 0 0 13.158154620061396 12.709681014011835 0 12.709681014011835 61.114203764814988 0 0 0 0 13.812315374838363 32.260264322618809 0 32.260264322618809 51.594681830119171 0 0 0 0 7.0502395963890105 21.678239864222974 0 21.678239864222974 36.551093739122692 0 0 0 0 9.7851579284556465 34.227553163246739 0 34.227553163246739 16.367579346218008 0 0 0 0 29.042861874494974 102.91071560025921 0 102.91071560025921 104.144681401056 0 0 0 0 0.91293120457276089 32.590510302876254 0 32.590510302876254 39.478265727373376 0 0 0 0 3.0591321738065744 -20.744259908569802 0 -20.744259908569802 114.53228095571831 0 0 0 0 37.964514679804779 15.99570549650889 0 15.99570549650889 142.17939077480696 0 0 0 0 -24.369969368624879 -26.648833598912461 0 -26.648833598912461 150.82193887360336 0 0 0 0 -1.1127310586444654 -0.73701258978842077 0 -0.73701258978842077 14.650577976233478 0 0 0 0 -22.906946494833392 -22.250043100779294 0 -22.250043100779294 156.68288788079553 0 0 0 0 8.9356573342032952 22.008760662743249 0 22.008760662743249 30.222067103746642 0 0 0 0 3.120813585138194 14.493204799280647 0 14.493204799280647 37.88736257569326 0 0 0 0 7.8313211323345513 33.528789447572365 0 33.528789447572365 70.29825674284848 0 0 0 0 -18.711645435122591 23.03839760718256 0 23.03839760718256 98.968928270769538 0 0 0 0 1.8861297109667765 24.274445209242032 0 24.274445209242032 52.929480273361065 0 0 0 0 4.2247001921961767 3.3312733398312524 0 3.3312733398312524 42.770926652166779 0 0 0 0 12.259243871045555 3.827734839286677 0 3.827734839286677 96.456278033496346 0 0 0 0 5.8413259102710091 7.7758615012051138 0 7.7758615012051138 23.65716279444986 0 0 0 0 12.715310641032829 -2.6847069048535559 0 -2.6847069048535559 67.053587627924571 0 0 0 0 -51.68015663089318 43.884186499224597 0 43.884186499224597 57.920843898042222 0 0 0 0 -6.3345331095138464 8.5312176370889397 0 8.5312176370889397 58.688811993295403 0 0 0 0 -27.123431653268199 35.968222944109584 0 35.968222944109584 30.398952306379215 0 0 0 0 -2.2598319234930777 6.3328851534328479 0 6.3328851534328479 39.909831776760392 0 0 0 0 -0.37985367602641418 -4.6143186660192441 0 -4.6143186660192441 29.006484431694844 0 0 0 0 2.2607852118084333 8.7035301357752566 0 8.7035301357752566 41.73254155246768 0 0 0 0 0.60262611920089171 -13.148457695875742 0 -13.148457695875742 51.714758750522869 0 0 0 0 -39.689791785735451 82.825064864978231 0 82.825064864978231 -19.985611877025804 0 0 0 0 -68.965376772965101 81.521616041340167 0 81.521616041340167 -18.121579884478706 0 0 0 0 -1.8382517240369545 -0.91400990373934121 0 -0.91400990373934121 14.476166547838432 0 0 0 0 -82.951318033423377 82.401741781526653 0 82.401741781526653 59.863462468856596 0 0 0 0 -120.16955533571854 119.08910460913467 0 119.08910460913467 89.907352668278691 0 0 0 0 -84.99424293346965 83.970738990072277 0 83.970738990072277 -4.3190255539666396 0 0 0 0 -83.993116960513362 101.07430044686771 0 101.07430044686771 -13.354543813635246 0 0 0 0 0.17269489846556874 3.5699366678313802 0 3.5699366678313802 25.308877779896001 0 0 0 0 0.72465545072441273 3.8161576951624738 0 3.8161576951624738 33.930611240524968 0 0 0 0 30.462611942064541 33.788651541945342 0 33.788651541945342 48.834305186200595 0 0 0 0 3.3118738507868155 5.0561546255822964 0 5.0561546255822964 9.3404388306110775 0 0 0 0 6.5294390323515472 29.049244292157766 0 29.049244292157766 81.447669939472519 0 0 0 0 3.7976254914565288 -3.3602707189820649 0 -3.3602707189820649 106.72572077183941 0 0 0 0 2.4583522083675291 7.9460314532848635 0 7.9460314532848635 21.086182984991055 0 0 0 0 -0.56684462547745262 10.806113438950776 0 10.806113438950776 17.983104974150038 0 0 0 0 10.026924876002795 -3.1649309663293934 0 -3.1649309663293934 84.602159428439336 0 0 0 0 1.0430237588925593 -3.7503639448714239 0 -3.7503639448714239 77.9269576410843 0 0 0 0 3.5783478738267149 -12.784043327857944 0 -12.784043327857944 86.071364509863997 0 0 0 0 0.58435585273906554 4.0241666425348512 0 4.0241666425348512 34.307406575836012 0 0 0 0 -2.918583285918082 -0.33888838795624882 0 -0.33888838795624882 37.857306946919948 0 0 0 0 -6.4397737823892385 6.0004581666278227 0 6.0004581666278227 45.378316742921925 0 0 0 0 -4.8927729983260333 -4.5061118766006301 0 -4.5061118766006301 36.223514460071328 0 0 0 0 -6.229022282821461 5.7777408498465093 0 5.7777408498465093 45.433599222181556 0 0 0 0 -6.5513483578379237 5.7940070396643932 0 5.7940070396643932 45.746433237598012 0 0 0 0 -6.7082020310253938 5.9858146424724623 0 5.9858146424724623 45.653201425882116 0 0 0 0 -3.5259861587824082 3.3666604874845314 0 3.3666604874845314 42.520722792015654 0 0 0 0 0.63494878918157482 9.3835736547101067 0 9.3835736547101067 21.297144808803658 0 0 0 0 -0.70181521069753217 -6.5165266794210766 0 -6.5165266794210766 56.426037617129623 0 0 0 0 -1.6128460337640718 -5.6563126937071502 0 -5.6563126937071502 57.583749606717902 0 0 0 0 2.2140307047238821 1.6012306882394114 0 1.6012306882394114 31.756969465222937 0 0 0 0 -4.629289959601854 7.8950279210839724 0 7.8950279210839724 21.379602112815121 0 0 0 0 -4.9827947488247748 7.1833323640496864 0 7.1833323640496864 35.363516715184893 0 0 0 0 5.0949339580834021 -12.514185071731845 0 -12.514185071731845 76.264634446131822 0 0 0 0 -2.1959902556984252 -3.0127887598920498 0 -3.0127887598920498 36.199839218440694 0 0 0 0 0.13496799849598062 2.732624378295327 0 2.732624378295327 30.750413296489569 0 0 0 0 -3.9602506453038586 11.782974646584989 0 11.782974646584989 61.593064177879569 0 0 0 0 -17.069703681511328 0.89707710421316733 0 0.89707710421316733 88.183781755269592 0 0 0 0 2.3846887697745842 -7.4338413989298715 0 -7.4338413989298715 13.427482570232314 0 0 0 0 0.79858927960913206 10.214437637587253 0 10.214437637587253 33.547491077239101 0 0 0 0 17.510206901865331 -20.332481485026619 0 -20.332481485026619 10.323764165641251 0 0 0 0 1.906073518376969 -4.4893113072772968 0 -4.4893113072772968 21.315930369594597 0 0 0 0 -0.69306716278009506 -3.6113284280879636 0 -3.6113284280879636 22.899493428989913 0 0 0 0 1.9081479552750409 -10.762400268518206 0 -10.762400268518206 58.760650444484781 0 0 0 0 42.540656887461409 -35.972414839387056 0 -35.972414839387056 32.155914424160073 0 0 0 0 -1.3766962991903711 7.478026416261855 0 7.478026416261855 18.415099284851749 0 0 0 0 -1.5532934819202473 -1.9411060293954563 0 -1.9411060293954563 14.135152420731163 0 0 0 0 -10.015771436615594 -9.249247849959545 0 -9.249247849959545 73.41335993300163 0 0 0 0 2.0888052936907116 -14.319167589866993 0 -14.319167589866993 41.838967656200111 0 0 0 0 -10.178874244816143 -13.5383545825498 0 -13.5383545825498 62.182227194989537 0 0 0 0 8.8746811160935977 -28.157208132604865 0 -28.157208132604865 66.381079281152779 0 0 0 0 0.27664124478444752 -1.8985517671691881 0 -1.8985517671691881 11.380077147216877 0 0 0 0 -11.641643409648168 1.2764064124639845 0 1.2764064124639845 46.93567077958869 0 0 0 0 -13.074230371781596 -20.526804748778886 0 -20.526804748778886 91.783103540257343 0 0 0 0 -5.6435360643959029 1.480525815513829 0 1.480525815513829 45.493821226805267 0 0 0 0 36.35163784337783 -14.370802503763116 0 -14.370802503763116 24.006083587140893 0 0 0 0 -11.979410494905627 -10.604959133931445 0 -10.604959133931445 65.066327528700512 0 0 0 0 -2.809186943966171 -23.291808542292859 0 -23.291808542292859 35.290019380321681 0 0 0 0 -11.387549608822155 -14.136282581472187 0 -14.136282581472187 27.50969180528773 0 0 0 0 0.57134219142242071 -13.930552589060209 0 -13.930552589060209 28.498009123542872 0 0 0 0 -5.4138346205777852 -3.3749724849313623 0 -3.3749724849313623 28.615777867830229 0 0 0 0 -5.7848358123774233 9.0613991582358722 0 9.0613991582358722 34.932429341948591 0 0 0 0 -12.964626265213445 4.1326519974830482 0 4.1326519974830482 63.573271551046005 0 0 0 0 -69.73427632161804 -98.275995419789069 0 -98.275995419789069 71.962043539795559 0 0 0 0 0.24107324813303421 -19.176275768535561 0 -19.176275768535561 41.69712721124597 0 0 0 0 5.2526957291909202 -18.91395116762564 0 -18.91395116762564 8.4530068953390085 0 0 0 0 -1.5992360101847254 -9.9686507000618789 0 -9.9686507000618789 6.3113061989649282 0 0 0 0 1.8324593624629415 -16.927382166086318 0 -16.927382166086318 35.930642577895924 0 0 0 0 4.4391624784669919 -6.9733517629306441 0 -6.9733517629306441 15.961227101398663 0 0 0 0 2.5167520899049123 -20.227656900937291 0 -20.227656900937291 34.1110648981346 0 0 0 0 3.8202254369648472 -9.9609597746566578 0 -9.9609597746566578 33.605997539052623 0 0 0 0 -0.44219281369804619 -2.6368779543994663 0 -2.6368779543994663 12.940343710579526 0 0 0 0 5.2296101921729132 -13.083024222098175 0 -13.083024222098175 16.762674483394221 0 0 0 0 9.2086072644142405 -20.702739976633893 0 -20.702739976633893 34.011379800249415 0 0 0 0 8.7774661843807209 -17.900455770743658 0 -17.900455770743658 3.7794101254825563 0 0 0 0 1.9323710065682462 1.5825931596191367 0 1.5825931596191367 47.881689299979371 0 0 0 0 3.6788410207482336 -17.395146673178395 0 -17.395146673178395 30.233940036698669 0 0 0 0 -6.3473830956495476 -59.252246937692689 0 -59.252246937692689 37.649783291763015 0 0 0 0 25.780561987777901 -14.141096443738206 0 -14.141096443738206 -3.6726863165313262 0 0 0 0 3.0090133964226879 -5.686906706305308 0 -5.686906706305308 12.207447165041231 0 0 0 0 2.882585133160589 0.56330670488231505 0 0.56330670488231505 -1.8183920295644924 0 0 0 0 -6.2272886443083735 -11.018739263474345 0 -11.018739263474345 91.465630822396633 0 0 0 0 18.584833076209179 -40.525633803466917 0 -40.525633803466917 81.728580488282205 0 0 0 0 0.19100035639043611 0.74016517610602151 0 0.74016517610602151 12.799511808556268 0 0 0 0 16.998982313353736 11.316372236044117 0 11.316372236044117 35.839084990002448 0 0 0 0 25.02058446938554 -32.631543299972691 0 -32.631543299972691 90.991802626747813 0 0 0 0 12.935198079957672 -36.761646711514913 0 -36.761646711514913 102.73007580409467 0 0 0 0 31.573574053554694 -8.5587711102343746 0 -8.5587711102343746 107.30169739971461 0 0 0 0 24.482645586431317 -24.096458680094656 0 -24.096458680094656 77.348878810960741 0 0 0 0 28.735582073182286 -18.247810481606166 0 -18.247810481606166 61.474822777730878 0 0 0 0 0.10778829122136813 -7.0088967736555787 0 -7.0088967736555787 77.820253917754599 0 0 0 0 2.6755012847934267 -19.432728410469281 0 -19.432728410469281 75.761220366028283 0 0 0 0 13.720262732409083 -11.299550993357116 0 -11.299550993357116 76.392608311940421 0 0 0 0 0.11574846196435828 -50.625830647834846 0 -50.625830647834846 88.603866520591509 0 0 0 0 18.268251836722357 -45.9175215050509 0 -45.9175215050509 61.621185222782515 0 0 0 0 8.9184333203417587 -13.711795910634848 0 -13.711795910634848 -4.1916289805959686 0 0 0 0 35.491004847159672 -10.057777840972093 0 -10.057777840972093 20.037292978150617 0 0 0 0 6.9497901292006645 -15.796010537962502 0 -15.796010537962502 82.020466744872465 0 0 0 0 33.73719529104045 -22.270423377724001 0 -22.270423377724001 53.240032724213961 0 0 0 0 20.715829593297382 -12.243633284150626 0 -12.243633284150626 4.4330300259712425 0 0 0 0 9.2898382219095765 -17.484870511489135 0 -17.484870511489135 78.19981438654213 0 0 0 0 5.1765330695510636 -9.0348288287529943 0 -9.0348288287529943 55.735624071497945 0 0 0 0 80.299033963514376 10.293432072114683 0 10.293432072114683 -15.896510470340218 0 0 0 0 -8.7279641088514381 -9.0030578109383441 0 -9.0030578109383441 99.998882631201241 0 0 0 0 51.057219375486511 25.030624194945631 0 25.030624194945631 36.22285332368125 0 0 0 0 25.126828011849266 11.052829380224667 0 11.052829380224667 7.3698570534056911 0 0 0 0 -1.460051388505772 -4.4709908796829634 0 -4.4709908796829634 14.643548333071079 0 0 0 0 -9.5336046435703565 41.087675026939905 0 41.087675026939905 30.166559977154975 0 0 0 0 -4.2568201118331217 92.136229033821621 0 92.136229033821621 259.15297812108884 0 0 0 0 -2.2776774853619397 -1.4873938225629253 0 -1.4873938225629253 22.629656092840786 0 0 0 0 -1.1014332953373347 -3.6974431911045249 0 -3.6974431911045249 33.604563812071952 0 0 0 0 -3.7168218340946169 0.061630267851796816 0 0.061630267851796816 25.876174193708721 0 0 0 0 -45.024510339472727 -37.423972609281122 0 -37.423972609281122 86.797555770293911 0 0 0 0 -4.4676503115102362 6.6179006536447815 0 6.6179006536447815 35.256753107418362 0 0 0 0 5.4095725976739573 -24.822784949897141 0 -24.822784949897141 79.583140781680413 0 0 0 0 -5.9645576390780661 13.139588260964956 0 13.139588260964956 67.907700069859857 0 0 0 0 -6.8928023321807643 3.9660733489070026 0 3.9660733489070026 99.210340289195301 0 0 0 0 1.2774532276503123 10.556258580276335 0 10.556258580276335 72.498738499525643 0 0 0 0 -3.6228093136214401 8.1753334400338389 0 8.1753334400338389 17.792272462293322 0 0 0 0 -2.4712234999933571 -1.9565117152451421 0 -1.9565117152451421 12.363911638152786 0 0 0 0 -4.3728941263525485 -0.10712068116299633 0 -0.10712068116299633 25.223428746132413 0 0 0 0 -3.9044881467379273 3.069701915737534 0 3.069701915737534 15.181913043578433 0 0 0 0 -0.24727638665899576 11.559861558598641 0 11.559861558598641 170.04521999524877 0 0 0 0 0.48834777778471095 1.2294366023269419 0 1.2294366023269419 5.0420673443680428 0 0 0 0 41.958015135955975 -51.962058578373671 0 -51.962058578373671 122.62515015123063 0 0 0 0 26.777087950527857 -20.334994318800454 0 -20.334994318800454 78.627279092899698 0 0 0 0 2.9287985771711647 -14.818850466301228 0 -14.818850466301228 68.432191759928628 0 0 0 0 10.247655126234804 -30.467984954702843 0 -30.467984954702843 99.528428127081838 0 0 0 0 -405.39728797916922 264.96688581352646 0 264.96688581352646 27.133695025535417 0 0 0 0 -85.764732566259767 104.70742183405673 0 104.70742183405673 -60.517576460188138 0 0 0 0 0.54506522295341897 4.3398210636707546 0 4.3398210636707546 18.706564961155323 0 0 0 0 -79.941557470078465 170.05884924641578 0 170.05884924641578 21.284777981571096 0 0 0 0 0.15745892810305531 224.77345541077011 0 224.77345541077011 48.945115086207807 0 0 0 0 -162.5523712592059 110.20214913208474 0 110.20214913208474 659.95495887110883 0 0 0 0 -131.49931837574422 75.330576989748806 0 75.330576989748806 -175.00334639604989 0 0 0 0 131.44754896043014 54.944984578018193 0 54.944984578018193 45.987764877398149 0 0 0 0 157.18613048293196 462.13335803920199 0 462.13335803920199 813.31459943326627 0 0 0 0 -60.382731028323406 -20.841716885941423 0 -20.841716885941423 230.41039808376809 0 0 0 0 -68.435380496065534 52.705313929442127 0 52.705313929442127 148.50087636953685 0 0 0 0 39.925910707692992 -45.52407379833312 0 -45.52407379833312 11.461446633125888 0 0 0 0 -22.81803975561661 3.8129718945783679 0 3.8129718945783679 -26.938797633760259 0 0 0 0 -53.162146821426802 76.773859233970143 0 76.773859233970143 36.767431831627619 0 0 0 0 -10.447922671623873 25.09832339195394 0 25.09832339195394 26.273155763376209 0 0 0 0 68.002277495220483 123.62202759906086 0 123.62202759906086 -38.891648030723445 0 0 0 0 -206.20836242370342 42.814396310379379 0 42.814396310379379 91.904060627763101 0 0 0 0 -45.3104340141183 50.547118892551225 0 50.547118892551225 69.88093282160844 0 0 0 0 -54.547427197540799 -16.03622367864773 0 -16.03622367864773 77.554240296973148 0 0 0 0 -41.620637618349292 1.4514856885107292 0 1.4514856885107292 100.78675100769033 0 0 0 0 -14.751795488470208 20.474200517292871 0 20.474200517292871 35.103613683333037 0 0 0 0 -4.5533134728507321 31.97319155238074 0 31.97319155238074 19.697184747987194 0 0 0 0 33.251648700489113 9.5490735614293953 0 9.5490735614293953 61.279966856294777 0 0 0 0 -11.245649575370823 9.3497641565729737 0 9.3497641565729737 49.347544418114239 0 0 0 0 179.34970544743817 -170.89037181020831 0 -170.89037181020831 247.89394248806639 0 0 0 0 -5.4765139289255949 -5.0984315291985638 0 -5.0984315291985638 47.060358378591559 0 0 0 0 -15.831248780527631 9.9251867862476502 0 9.9251867862476502 33.931380267051281 0 0 0 0 -2.0265566777749884 9.0233318684567507 0 9.0233318684567507 28.906214747856041 0 0 0 0 -88.686022520839785 110.96147060717158 0 110.96147060717158 -50.969437888619723 0 0 0 0 -0.2050488850969423 11.547493992708748 0 11.547493992708748 20.83341948384782 0 0 0 0 -0.073876682441307129 157.89370624972798 0 157.89370624972798 -90.51895785544184 0 0 0 0 -81.114938227423622 14.303819562803255 0 14.303819562803255 166.93090673303232 0 0 0 0 -0.010723854570012736 2.0252572325349547 0 2.0252572325349547 4.096245518859547 0 0 0 0 0.0056946825862692254 2.4745992562675383 0 2.4745992562675383 18.98065452829178 0 0 0 0 -13.293646669692997 94.198956892535534 0 94.198956892535534 -148.58769058111648 0 0 0 0 -0.49701952367790908 -0.87779422569386156 0 -0.87779422569386156 5.079072721250327 0 0 0 0 57.496772295282732 24.482207171862683 0 24.482207171862683 102.51997357139862 0 0 0 0 30.46806650104179 -70.196895555302035 0 -70.196895555302035 121.4145063406977 0 0 0 0 0.73012903047975897 97.428170895924268 0 97.428170895924268 106.6128306058672 0 0 0 0 -2.5833083633413203 -22.853740480992084 0 -22.853740480992084 86.052527668204789 0 0 0 0 -9.8729941789669056 117.48363192557008 0 117.48363192557008 41.027822687610751 0 0 0 0 -11.71444847207006 8.3478824986784019 0 8.3478824986784019 20.062380927617539 0 0 0 0 -10.315999401628702 48.305827924167716 0 48.305827924167716 -101.64574976181029 0 0 0 0 2.2387877962412501 -3.0239057993813105 0 -3.0239057993813105 31.111317690228759 0 0 0 0 1.2193175810256709 -17.235319858438743 0 -17.235319858438743 350.3318328356836 0 0 0 0 0.05736509916478455 0.17057837295337208 0 0.17057837295337208 13.578552156971341 0 0 0 0 620.29233591657521 -913.58117716364359 0 -913.58117716364359 1333.0811009851168 0 0 0 0 24.085892759297217 1139.2886822460723 0 1139.2886822460723 3474.826352630058 0 0 0 0 -158.43625639345791 1048.9030473529565 0 1048.9030473529565 3496.2620560485302 0 0 0 0 5.5999573889037677 -7.8028256900886817 0 -7.8028256900886817 15.128033354318319 0 0 0 0 -268.08437953055414 229.15249778908401 0 229.15249778908401 930.48487348009076 0 0 0 0 -359.67837003899359 -244.86797828310955 0 -244.86797828310955 3493.8273797090192 0 0 0 0 286.02307276474448 102.69827301020632 0 102.69827301020632 -127.3046676648155 0 0 0 0 11.639587221907476 -20.165189276675434 0 -20.165189276675434 30.909890070132349 0 0 0 0 39.892875226674704 -507.84605019984156 0 -507.84605019984156 743.88871030079645 0 0 0 0 -585.6188140651949 -36.542428586337337 0 -36.542428586337337 189.42318239716406 0 0 0 0 -282.40610679592339 216.69542855983309 0 216.69542855983309 264.66088133261655 0 0 0 0 -301.22005264511006 -177.60387465443637 0 -177.60387465443637 -66.80347240735864 0 0 0 0 147.27698006256571 286.06585754492335 0 286.06585754492335 116.03900674641045 0 0 0 0 -1.6107641593327475 2.4368992797153766 0 2.4368992797153766 -3.9640936829698887 0 0 0 0 10.697730722299962 -18.228377243977548 0 -18.228377243977548 44.172244566967606 0 0 0 0 -11.02145445008907 7.775698899554726 0 7.775698899554726 10.621522308948386 0 0 0 0 -274.52751348702805 -52.544388177455403 0 -52.544388177455403 283.68167899697437 0 0 0 0 -64.786231105852494 26.423545751655183 0 26.423545751655183 72.959159379411176 0 0 0 0 -37.896912296574783 0.50075024148100056 0 0.50075024148100056 65.174876471850439 0 0 0 0 -67.400580860784217 1.4667437546590918 0 1.4667437546590918 65.260782719298732 0 0 0 0 -463.39807742883954 4.8764328556208056 0 4.8764328556208056 172.12723009208639 0 0 0 0 -145.90219669326237 175.04856032947464 0 175.04856032947464 211.70347054899321 0 0 0 0 -31.864179796179485 56.620825640158728 0 56.620825640158728 410.79706495740538 0 0 0 0 19.598001812829352 380.58520075972774 0 380.58520075972774 91.614886105540791 0 0 0 0 -1.0521467024863114 256.11012339181616 0 256.11012339181616 569.86513261204527 0 0 0 0 -120.05158239162279 128.31584220045261 0 128.31584220045261 964.11337529626326 0 0 0 0 -250.68036077421431 351.71395150659009 0 351.71395150659009 322.53230784941115 0 0 0 0 58.800236902271394 -353.85788882260022 0 -353.85788882260022 942.54395827713597 0 0 0 0 208.21399741074833 -522.52586562584474 0 -522.52586562584474 170.22209134645072 0 0 0 0 215.00130912134878 -635.28332179274912 0 -635.28332179274912 988.43646775734669 0 0 0 0 -342.43857409805753 -1580.9390163289136 0 -1580.9390163289136 3492.127952577961 0 0 0 0 900.94826872414524 -999.01076558687782 0 -999.01076558687782 -79.836301405835911 0 0 0 0 792.73940119381325 -1956.4358318931045 0 -1956.4358318931045 1448.7440313763382 0 0 0 0 -444.55271077205788 -432.30371250272583 0 -432.30371250272583 2601.6939804277354 0 0 0 0 -578.35969573087903 -914.81948651868879 0 -914.81948651868879 3501.4402676486061 0 0 0 0 -456.17195110983039 -1143.3918004281441 0 -1143.3918004281441 2222.6153480184003 0 0 0 0 -197.52157567166171 -659.38585083706857 0 -659.38585083706857 2385.0818786664204 0 0 0 0 -234.93317976107755 -522.69150835457549 0 -522.69150835457549 2020.6900594742183 0 0 0 0 -161.033418941403 -231.97151608155855 0 -231.97151608155855 2116.8771248903649 0 0 0 0 -174.13907841930725 -145.80572640530863 0 -145.80572640530863 1550.4433909718209 0 0 0 0 -62.377634026865621 156.70287790528528 0 156.70287790528528 1192.6329286791006 0 0 0 0 -105.16378214163268 338.15094545694592 0 338.15094545694592 1844.2381131014699 0 0 0 0 -85.864591817449423 71.806723237794358 0 71.806723237794358 1609.0567027913439 0 0 0 0 -30.830949771415476 557.43906525832426 0 557.43906525832426 565.34674066255684 0 0 0 0 2.6929254147928532 232.2645449215488 0 232.2645449215488 544.33655548818933 0 0 0 0 32.274550182427106 -22.104291546529566 0 -22.104291546529566 1068.0019445798825 0 0 0 0 68.110270521873417 363.04246603303909 0 363.04246603303909 937.17424776206462 0 0 0 0 96.185812420723778 381.20961259679461 0 381.20961259679461 885.97003584803315 0 0 0 0 30.812301432039931 411.86661027747323 0 411.86661027747323 1090.6776444038405 0 0 0 0 32.663825333612976 470.40053215681837 0 470.40053215681837 946.9921555036417 0 0 0 0 32.184900057776872 -99.246924092714835 0 -99.246924092714835 -1559.8875031413991 0 0 0 0 -2.4125086930366484 3.5040868165488916 0 3.5040868165488916 -2.3071834313565915 0 0 0 0 -101.92465113923026 689.98078736546449 0 689.98078736546449 -1550.0340205785028 0 0 0 0 -7.2837901202156186 6.6867424156249768 0 6.6867424156249768 -8.5179162126060533 0 0 0 0 30.505235703653398 576.50923451501149 0 576.50923451501149 46.39615845651042 0 0 0 0 616.81258346138839 289.23542517906753 0 289.23542517906753 82.668415733171059 0 0 0 0 45.723412119783234 649.80633738434699 0 649.80633738434699 228.29097471894056 0 0 0 0 -19.092699699931359 62.963901480979985 0 62.963901480979985 -86.870186835378263 0 0 0 0 -19.073130426983393 24.801521697920549 0 24.801521697920549 -11.889775802813801 0 0 0 0 80.656395737598928 38.683271908870665 0 38.683271908870665 -557.74799117014481 0 0 0 0 -58.84912129207612 -20.582765717859729 0 -20.582765717859729 -147.04042511312582 0 0 0 0 68.740136340038532 639.04263597250974 0 639.04263597250974 -248.67106360044272 0 0 0 0 -18.244899939597161 234.87403153209016 0 234.87403153209016 -25.807974087983894 0 0 0 0 128.70078887269761 184.67442147669499 0 184.67442147669499 -116.59788961120648 0 0 0 0 -55.792786961975537 183.72229123618308 0 183.72229123618308 39.056997364095878 0 0 0 0 -37.736612808165773 91.666061955256737 0 91.666061955256737 -31.134989511501772 0 0 0 0 5.0135249553071617 70.860367644345388 0 70.860367644345388 -46.770402776441188 0 0 0 0 -3.3697553132232656 40.429888704289624 0 40.429888704289624 -146.11878998473003 0 0 0 0 -8.8438718490287371 29.694985544990757 0 29.694985544990757 23.350566649505382 0 0 0 0 -59.058470621575907 10.366018628654274 0 10.366018628654274 43.839540027653129 0 0 0 0 -0.48269397865798247 3.2718828891340905 0 3.2718828891340905 9.3672859545720542 0 0 0 0 95.131784166377429 267.81443297974329 0 267.81443297974329 1162.4839816327949 0 0 0 0 97.139319483724876 467.56405341413483 0 467.56405341413483 1879.9646573986429 0 0 0 0 -258.87968712566544 459.35444434428791 0 459.35444434428791 1938.4522374802036 0 0 0 0 201.45038089953687 -105.23021808070189 0 -105.23021808070189 1582.7540518994574 0 0 0 0 206.71364076580176 438.10448248226749 0 438.10448248226749 299.49914926238125 0 0 0 0 617.83993084887527 1050.6903277480615 0 1050.6903277480615 1021.5688910389727 0 0 0 0 209.97712546052935 -39.302515025097819 0 -39.302515025097819 78.317534290268668 0 0 0 0 10.387512205931895 8.9949751519691006 0 8.9949751519691006 0.85164553730956527 0 0 0 0 939.91826228818218 190.49750831243 0 190.49750831243 -13.130596990791673 0 0 0 0 -0.47881581000943119 4.9198451358795507 0 4.9198451358795507 7.0609666193681164 0 0 0 0 -1605.1564057871883 -154.35817370655423 0 -154.35817370655423 1200.3891757004603 0 0 0 0 -507.12821144184727 44.657342188540497 0 44.657342188540497 -156.7252801907307 0 0 0 0 -243.57238592450403 615.79908446489571 0 615.79908446489571 972.6905744919095 0 0 0 0 -294.24276598659617 134.50100273923454 0 134.50100273923454 876.31039075001536 0 0 0 0 -1120.3911998781186 368.97945126728882 0 368.97945126728882 1761.5886130403087 0 0 0 0 -203.97045618692141 678.29659240370529 0 678.29659240370529 1754.8218414963601 0 0 0 0 620.43405607597845 1007.0661170689855 0 1007.0661170689855 1861.1888155144334 0 0 0 0 726.10345041399046 1153.97141279376 0 1153.97141279376 1772.4910954478837 0 0 0 0 1097.2413232846136 -300.0292002401402 0 -300.0292002401402 1410.0835261265165 0 0 0 0 160.98138231980647 883.31111846763088 0 883.31111846763088 2407.8800062395676 0 0 0 0 298.32269304183774 -432.34435157324333 0 -432.34435157324333 569.09399649320039 0 0 0 0 718.05353396778401 647.89274648517312 0 647.89274648517312 986.62701710261172 0 0 0 0 2413.5405074364326 2219.4229908806483 0 2219.4229908806483 943.23106323559841 0 0 0 0 1467.563631232324 761.84169163986917 0 761.84169163986917 -146.86008159459743 0 0 0 0 -3.3753845326757923 2.5770067340360825 0 2.5770067340360825 22.130272431659535 0 0 0 0 -279.38773605092024 -95.634835085984378 0 -95.634835085984378 219.51291138421948 0 0 0 0 91.808337495199794 140.00426385719766 0 140.00426385719766 56.40449799754424 0 0 0 0 -62.961909381345777 134.55530983610515 0 134.55530983610515 81.061305964729399 0 0 0 0 1837.955575660525 1156.4204657436603 0 1156.4204657436603 -5.2281033046238008 0 0 0 0 759.82334014465323 110.96872944847564 0 110.96872944847564 3705.370110846241 0 0 0 0 0.030223579727135075 20.940542346907023 0 20.940542346907023 53.981070572786848 0 0 0 0 -152.94691377091408 16.550695625255685 0 16.550695625255685 81.555936261960596 0 0 0 0 -5.7750922072992399 -3.278166216740523 0 -3.278166216740523 51.956586824534895 0 0 0 0 11.794822490377214 65.679721588036045 0 65.679721588036045 27.60275424615611 0 0 0 0 71.716323821665128 48.472734846101957 0 48.472734846101957 31.876686149495072 0 0 0 0 -18.74362576571616 38.676474393581884 0 38.676474393581884 55.741689160771784 0 0 0 0 104.46404569769902 129.07348710340011 0 129.07348710340011 -159.88033571593405 0 0 0 0 -0.44452550298244609 12.044844143717942 0 12.044844143717942 14.857518413520324 0 0 0 0 48.882273611216831 42.238391330850277 0 42.238391330850277 35.180376494725351 0 0 0 0 99.219112707533782 224.63764980147243 0 224.63764980147243 -3.1140330368507421 0 0 0 0 -686.58311682856242 437.86347264418134 0 437.86347264418134 -59.499297154223314 0 0 0 0 222.62998196212038 81.749964112641464 0 81.749964112641464 0.14756380318431184 0 0 0 0 -0.12980361309462474 9.3216626180223976 0 9.3216626180223976 14.050217231819317 0 0 0 0 -278.26107040917748 725.65976029339799 0 725.65976029339799 34.269579371484724 0 0 0 0 -111.80796331499067 457.78867338781129 0 457.78867338781129 -5.7381988984852796 0 0 0 0 -60.092198387442295 895.88369800204964 0 895.88369800204964 -381.70999555131129 0 0 0 0 188.15920635219999 377.75266957500844 0 377.75266957500844 -1535.3293294228206 0 0 0 0 148.85065417491523 232.28350642630539 0 232.28350642630539 -170.28471648026607 0 0 0 0 57.602132576832446 -1073.6617156245484 0 -1073.6617156245484 -597.13183023101737 0 0 0 0 -1.8621089403476565 6.2060511258073632 0 6.2060511258073632 1.1394758923574244 0 0 0 0 417.03917238924237 191.66826114090873 0 191.66826114090873 582.26227470337471 0 0 0 0 -234.49105825061679 -164.91962060757942 0 -164.91962060757942 429.23984334489069 0 0 0 0 -98.020922827727532 364.30610086389788 0 364.30610086389788 1349.8134520861495 0 0 0 0 152.96179771625498 111.68604800636967 0 111.68604800636967 -252.36546969177652 0 0 0 0 -225.06839536744991 -351.15807656165964 0 -351.15807656165964 3149.7060784849891 0 0 0 0 492.33159656400369 1356.2341235798481 0 1356.2341235798481 2508.1491072064673 0 0 0 0 -82.745182000521538 -267.15336560374271 0 -267.15336560374271 3040.9764416571506 0 0 0 0 417.40859393734212 671.0922529842428 0 671.0922529842428 876.37538900977961 0 0 0 0 -0.75184314630580351 4.8573961669022356 0 4.8573961669022356 9.0255856600273603 0 0 0 0 -43.658562390597751 -28.906985575813451 0 -28.906985575813451 2333.3949228802085 0 0 0 0 58.057364657734183 301.61418898995908 0 301.61418898995908 1355.4080215011973 0 0 0 0 16.216522661277224 561.0373863992827 0 561.0373863992827 2607.6909053508571 0 0 0 0 -254.37088704162116 -39.986825381125527 0 -39.986825381125527 2815.2256135778007 0 0 0 0 645.22460510310248 92.147168210802192 0 92.147168210802192 2831.8758124950982 0 0 0 0 -197.96110007335244 -14.048022447926996 0 -14.048022447926996 2885.1323962921524 0 0 0 0 -228.794722677621 -131.87625178144663 0 -131.87625178144663 3498.6980742969754 0 0 0 0 -422.55923996086091 -517.30318978930973 0 -517.30318978930973 2835.7342563330094 0 0 0 0 -197.72793474944186 338.62316151438154 0 338.62316151438154 3298.2325097278517 0 0 0 0 -157.53751101454316 392.45097158325734 0 392.45097158325734 3136.3376031648877 0 0 0 0 -152.02914280231738 240.04013726926496 0 240.04013726926496 3499.9828618555935 0 0 0 0 -199.47560163598757 327.81162025663798 0 327.81162025663798 3106.609507279798 0 0 0 0 89.238485259417558 662.14440635317078 0 662.14440635317078 2622.3278908343054 0 0 0 0 -133.09836920086292 477.27076976426997 0 477.27076976426997 2880.1642405291059 0 0 0 0 -168.48248506786467 387.45665496436959 0 387.45665496436959 3015.4300161982974 0 0 0 0 15.647532182426904 6.0148920419899667 0 6.0148920419899667 2.0106905552013927 0 0 0 0 57.114969648297262 322.18809333141689 0 322.18809333141689 2362.4089414215123 0 0 0 0 3.5291225426244637 18.239408132183598 0 18.239408132183598 69.363501838910452 0 0 0 0 -205.42092642995974 366.15283023342636 0 366.15283023342636 2868.9774135380285 0 0 0 0 135.70406395262742 66.427437398902839 0 66.427437398902839 1368.5796213477515 0 0 0 0 7.572969513094904 41.894941472557548 0 41.894941472557548 44.970455569491605 0 0 0 0 0.20704085532752245 7.865051335422379 0 7.865051335422379 1.4438662903567518 0 0 0 0 11.045640842631201 16.170493840974814 0 16.170493840974814 63.233207133976975 0 0 0 0 14.749000519453148 32.695132730041223 0 32.695132730041223 56.637550099359942 0 0 0 0 6.3139609252311857 23.21361781955784 0 23.21361781955784 54.713716440572171 0 0 0 0 36.53480837626644 -62.310861761880346 0 -62.310861761880346 46.84368195006391 0 0 0 0 -2.7111532985689566 -5.4030886792751076 0 -5.4030886792751076 50.828858761990944 0 0 0 0 605.7731598760447 30.852882132134255 0 30.852882132134255 -838.04235535790212 0 0 0 0 3.8253267119880547 20.066405108787876 0 20.066405108787876 65.875058158271713 0 0 0 0 1331.1792364987305 880.3409080732381 0 880.3409080732381 -778.83589994424256 0 0 0 0 444.47556327671509 390.53434721333178 0 390.53434721333178 281.3835950421053 0 0 0 0 571.16546485789809 842.94633150561276 0 842.94633150561276 712.45628587294777 0 0 0 0 685.62128398918003 853.27613379698596 0 853.27613379698596 160.26456967061677 0 0 0 0 973.43606246297986 1316.395214316377 0 1316.395214316377 767.71678402892576 0 0 0 0 644.0257869505258 439.0360065123823 0 439.0360065123823 196.4087104161008 0 0 0 0 125.13862442645859 315.07882105557655 0 315.07882105557655 392.97972935465077 0 0 0 0 477.38966009852902 548.42088584825615 0 548.42088584825615 398.49120881305134 0 0 0 0 534.03637815431603 569.04603010047867 0 569.04603010047867 403.39707255708345 0 0 0 0 145.21491997219903 725.67314721151888 0 725.67314721151888 3615.4009814284364 0 0 0 0 6.8559208336875344 -1.792495628822536 0 -1.792495628822536 11.825617541759584 0 0 0 0 500.44627121283054 439.27396372521616 0 439.27396372521616 508.97814827669754 0 0 0 0 438.30143422841593 441.38946506794309 0 441.38946506794309 569.11748533970967 0 0 0 0 412.13947942094774 500.00211938159555 0 500.00211938159555 480.14463559369324 0 0 0 0 145.31427500090467 457.19063983077649 0 457.19063983077649 520.82937513182696 0 0 0 0 657.01247584104806 397.73170437307272 0 397.73170437307272 486.78398169056891 0 0 0 0 174.5937759553419 705.04127409034118 0 705.04127409034118 2613.0531174380303 0 0 0 0 56.094705059357693 412.88955649405398 0 412.88955649405398 547.83763033628929 0 0 0 0 160.38635419603096 850.37885177916905 0 850.37885177916905 3119.9344453377707 0 0 0 0 -34.40846162129435 579.00170575700031 0 579.00170575700031 3175.4667052554942 0 0 0 0 117.90033972764229 443.59345823061813 0 443.59345823061813 3196.7078207747982 0 0 0 0 348.16072783861171 370.53269444133912 0 370.53269444133912 3488.5347116985286 0 0 0 0 246.79127744799433 542.67210873212025 0 542.67210873212025 3243.3155112029417 0 0 0 0 263.36021186461625 663.95685659787887 0 663.95685659787887 3499.8013286688729 0 0 0 0 32.489752157633582 433.21299065359926 0 433.21299065359926 3271.7659501477592 0 0 0 0 -12.410832841743902 540.45466778799528 0 540.45466778799528 3499.7356580800479 0 0 0 0 35.062376557277993 993.51682512416664 0 993.51682512416664 3499.3171897098578 0 0 0 0 129.82156492071962 945.481341851857 0 945.481341851857 2986.8846951479936 0 0 0 0 717.57914843093317 524.97539805484121 0 524.97539805484121 2769.0006559934045 0 0 0 0 299.32393223991551 815.17839245439245 0 815.17839245439245 2577.1358034879268 0 0 0 0 275.91784855706072 490.24669855956381 0 490.24669855956381 1556.8651212496552 0 0 0 0 564.64567795685616 31.82520145104354 0 31.82520145104354 1438.244455797183 0 0 0 0 720.01037013889652 311.59847413991156 0 311.59847413991156 593.55303966559586 0 0 0 0 449.63042379301396 742.921978832288 0 742.921978832288 645.63341431552544 0 0 0 0 542.604605216339 506.22188391644522 0 506.22188391644522 785.4460448242171 0 0 0 0 519.11930794761997 463.64050119035255 0 463.64050119035255 566.84969959181035 0 0 0 0 329.41773333969422 388.65861352992215 0 388.65861352992215 570.92263695232759 0 0 0 0 307.31711260663315 594.25153854941163 0 594.25153854941163 638.42877305707407 0 0 0 0 575.25973904177772 656.43925390338154 0 656.43925390338154 613.10214144346537 0 0 0 0 446.58042782754626 618.26730968169068 0 618.26730968169068 879.1513091010238 0 0 0 0 523.90509851449315 306.28501688487086 0 306.28501688487086 617.87265897143516 0 0 0 0 204.39913363016603 416.56535449220974 0 416.56535449220974 579.85226108229108 0 0 0 0 281.08512028698419 158.43281336540531 0 158.43281336540531 326.10543157386564 0 0 0 0 239.34028200485531 227.10148030093933 0 227.10148030093933 237.60455260827439 0 0 0 0 345.03531093180379 443.220694202696 0 443.220694202696 444.94604173273547 0 0 0 0 45.741020923263932 189.18593994421462 0 189.18593994421462 370.99950906190497 0 0 0 0 184.53502575631853 117.07141541076271 0 117.07141541076271 109.9034517006512 0 0 0 0 98.856428072988592 17.878611980610003 0 17.878611980610003 167.06747879736577 0 0 0 0 31.026827372016896 -73.295023769052932 0 -73.295023769052932 7.7024715545110212 0 0 0 0 17.372675857499416 25.87043214795267 0 25.87043214795267 89.372306490724441 0 0 0 0 30.407279618633765 8.9810871238296386 0 8.9810871238296386 -30.555419217576855 0 0 0 0 30.519740403584819 47.782191997073824 0 47.782191997073824 26.384378558897879 0 0 0 0 148.08337094912281 219.66462042650528 0 219.66462042650528 494.1764807656873 0 0 0 0 20.301488245271685 33.79953156960255 0 33.79953156960255 35.658292220992735 0 0 0 0 13.891962720642633 10.461898651413705 0 10.461898651413705 6.4350786381337457 0 0 0 0 29.80284263713645 38.93592820635422 0 38.93592820635422 30.929567083818256 0 0 0 0 26.760272173987687 -6.675139310220402 0 -6.675139310220402 242.90287476161029 0 0 0 0 156.45465114562262 359.19293374981498 0 359.19293374981498 686.99430542244227 0 0 0 0 249.75410015775606 361.37775767256244 0 361.37775767256244 309.34793418859499 0 0 0 0 349.05816241303273 593.03164829334855 0 593.03164829334855 585.30384557881189 0 0 0 0 189.23627874079466 715.64444401885703 0 715.64444401885703 797.43290355261706 0 0 0 0 62.129250974835486 351.44940725987544 0 351.44940725987544 1086.396408004246 0 0 0 0 362.08842000264622 1028.7542600321722 0 1028.7542600321722 1364.5802150378877 0 0 0 0 272.65249849710744 299.2292960916493 0 299.2292960916493 428.74622866384016 0 0 0 0 -187.22235857561327 884.31983545668845 0 884.31983545668845 4223.6923680313193 0 0 0 0 1954.5144357456893 3233.2468809163256 0 3233.2468809163256 70.170579591514979 0 0 0 0 1142.1481771621975 505.82338938820612 0 505.82338938820612 -1352.2402014967302 0 0 0 0 24.93489256235036 9.1857175988043593 0 9.1857175988043593 5.1135205624927806 0 0 0 0 1317.4006961861378 107.54476486272142 0 107.54476486272142 -280.58759943116456 0 0 0 0 58.827639085193852 35.438369286790248 0 35.438369286790248 19.421193804015218 0 0 0 0 -172.81210215581086 154.13884078049887 0 154.13884078049887 39.030150996833981 0 0 0 0 -180.45018988395532 126.6669903823713 0 126.6669903823713 305.35254472518136 0 0 0 0 -180.4030137438167 3.4507230320523377 0 3.4507230320523377 102.92788343378925 0 0 0 0 -5.9518906984133295 5.5893315234170871 0 5.5893315234170871 23.349500243291317 0 0 0 0 646.94468847877579 1079.4362519904353 0 1079.4362519904353 471.67619305648259 0 0 0 0 -219.68207843029995 -21.795678691087232 0 -21.795678691087232 234.67997131206721 0 0 0 0 13.960985648547648 -149.41159784807678 0 -149.41159784807678 322.72679697799413 0 0 0 0 -364.39762899215202 145.78702592667833 0 145.78702592667833 327.55569329208811 0 0 0 0 -75.057825205640256 -61.518658839002455 0 -61.518658839002455 150.36837407898747 0 0 0 0 -191.95236996492531 162.84149845010688 0 162.84149845010688 63.066453780353186 0 0 0 0 -28.043576639298706 -13.575097423936157 0 -13.575097423936157 98.935490553174503 0 0 0 0 3.3413964782921539 -50.517825455415732 0 -50.517825455415732 137.69394693217328 0 0 0 0 114.36474827280472 19.392675968607364 0 19.392675968607364 177.54063709540151 0 0 0 0 29.701577058613111 -21.52662122529 0 -21.52662122529 183.98455231391017 0 0 0 0 75.697875300988926 58.87321909111779 0 58.87321909111779 186.5468423696293 0 0 0 0 31.461022777582912 -0.39809627586510032 0 -0.39809627586510032 136.71800636340049 0 0 0 0 40.810097212353867 17.539941030594491 0 17.539941030594491 58.449936384539797 0 0 0 0 4.7174153919639679 0.61832205608076407 0 0.61832205608076407 -3.4373780493624508 0 0 0 0 -9.0302610938397265 -52.934899793872319 0 -52.934899793872319 105.03554975862789 0 0 0 0 9.7778037403554663 -6.4572763924225001 0 -6.4572763924225001 23.304244359773293 0 0 0 0 3.5522785441138325 -3.1238255186535966 0 -3.1238255186535966 8.5423524672302165 0 0 0 0 8.0945200392768371 -0.37932522257527523 0 -0.37932522257527523 17.561964755446894 0 0 0 0 4.9629323306708102 5.0661514283710858 0 5.0661514283710858 18.712455046828836 0 0 0 0 -12.951345821492396 -0.32686563346942421 0 -0.32686563346942421 -9.0399197802325943 0 0 0 0 3.5989847024083783 -8.6852523975601201 0 -8.6852523975601201 29.316882834470334 0 0 0 0 8.6092702163550712 23.134858452460321 0 23.134858452460321 53.142615767901589 0 0 0 0 45.204208086637664 27.316255432684557 0 27.316255432684557 84.343212675237737 0 0 0 0 -5.6419202518879814 -1.2324315346575361 0 -1.2324315346575361 37.450030614925801 0 0 0 0 13.162818611556975 15.753766500912533 0 15.753766500912533 34.230243633074949 0 0 0 0 -11.9308490893807 18.155051843748062 0 18.155051843748062 45.616736192117543 0 0 0 0 -62.73375022596781 3.3188803623661443 0 3.3188803623661443 105.37165109055059 0 0 0 0 36.352477764181458 -53.105259947747982 0 -53.105259947747982 2.4154310966623598 0 0 0 0 21.495144199087008 35.830431829651388 0 35.830431829651388 123.63180910520896 0 0 0 0 29.80594648969236 46.648810314665752 0 46.648810314665752 137.08208731143532 0 0 0 0 82.827909343162901 45.122372714653466 0 45.122372714653466 100.76867767658769 0 0 0 0 36.092544954786717 -4.0893881351948949 0 -4.0893881351948949 85.624801123203724 0 0 0 0 65.781116762739657 94.831068582647276 0 94.831068582647276 167.14917095115379 0 0 0 0 0.63932717367197256 3.0288040658597311 0 3.0288040658597311 269.79823771411611 0 0 0 0 -10.038585470778798 32.411696894349006 0 32.411696894349006 198.84807191743312 0 0 0 0 -14.60942880247012 -3.0112494001805317 0 -3.0112494001805317 112.27388406091814 0 0 0 0 -17.53547521460753 -24.048979486379714 0 -24.048979486379714 124.21536378829478 0 0 0 0 -37.489072640197719 1.3786641533733928 0 1.3786641533733928 160.77801781852759 0 0 0 0 -139.22254139548318 -33.824352902909595 0 -33.824352902909595 215.68515860065236 0 0 0 0 -430.07535567414197 -432.98724567578029 0 -432.98724567578029 396.50900193825237 0 0 0 0 15.875986779147297 10.501343813659332 0 10.501343813659332 172.28750420871074 0 0 0 0 -2.531478062978973 -40.016782348116784 0 -40.016782348116784 135.13371085519762 0 0 0 0 -165.17044550777791 -344.40650348510098 0 -344.40650348510098 -52.926773224360659 0 0 0 0 30.951478560404212 17.160895331533538 0 17.160895331533538 160.47406576762359 0 0 0 0 -56.635519744713747 60.967375176711357 0 60.967375176711357 144.76875824554008 0 0 0 0 82.002318307952919 -115.07336802505961 0 -115.07336802505961 94.607118279345741 0 0 0 0 42.451062044438515 7.3768003780136979 0 7.3768003780136979 26.400624904507495 0 0 0 0 25.861434364851448 -68.927883055337588 0 -68.927883055337588 192.23583142871212 0 0 0 0 12.888639764726989 -6.6020313202996164 0 -6.6020313202996164 23.162719847479494 0 0 0 0 69.387608434575668 -96.206154432537005 0 -96.206154432537005 -172.94357911780571 0 0 0 0 94.988708320946898 -70.163609282943071 0 -70.163609282943071 -195.85323460679865 0 0 0 0 130.64102515877312 334.98082363137655 0 334.98082363137655 -32.994446825607156 0 0 0 0 114.26449790040351 -168.38253359269584 0 -168.38253359269584 238.39555617219958 0 0 0 0 0.61693019003315186 4.0209286859740274 0 4.0209286859740274 -0.72751676854470304 0 0 0 0 154.30340524710118 -212.54773758808005 0 -212.54773758808005 226.18579494423648 0 0 0 0 353.28123171711559 -130.44530815347389 0 -130.44530815347389 76.127695887807931 0 0 0 0 119.79862994326601 -14.218639529390998 0 -14.218639529390998 47.884918214185745 0 0 0 0 217.26568631978444 -21.127580965014204 0 -21.127580965014204 -157.81664067196107 0 0 0 0 31.948191737694451 11.131680091984876 0 11.131680091984876 -1.3127745715158206 0 0 0 0 108.75534378230441 -117.4801038079022 0 -117.4801038079022 -41.959289397687826 0 0 0 0 -50.619814618325108 57.81269348862952 0 57.81269348862952 133.93430047230504 0 0 0 0 193.83743886601951 143.24137710323339 0 143.24137710323339 157.60507300382596 0 0 0 0 7.3224645533118746 68.369959841853415 0 68.369959841853415 20.0552731717396 0 0 0 0 3.2185450177098502 3.8883447062010674 0 3.8883447062010674 -0.035746768165445975 0 0 0 0 -19.05302203404608 -1.9559574065679044 0 -1.9559574065679044 82.694906962391542 0 0 0 0 -161.59480298176641 -88.57537598903582 0 -88.57537598903582 398.61163533681247 0 0 0 0 -88.045503337700211 51.513185954994697 0 51.513185954994697 105.22116838912189 0 0 0 0 2.1736923727219875 3.4037132743407454 0 3.4037132743407454 -0.15699627291089246 0 0 0 0 134.91197057231238 140.79590922589523 0 140.79590922589523 70.82183767753304 0 0 0 0 149.18996095352122 40.395447187074751 0 40.395447187074751 -154.39658612146013 0 0 0 0 -23.557656478751596 -39.695244444475975 0 -39.695244444475975 32.904051872756099 0 0 0 0 63.643079306690197 66.976176213192957 0 66.976176213192957 75.224241513980814 0 0 0 0 -39.589989963056723 54.368424159107235 0 54.368424159107235 224.09868696373451 0 0 0 0 5.8957496281109343 20.229423379616492 0 20.229423379616492 165.65877426008228 0 0 0 0 -39.628787879402807 65.743313410050177 0 65.743313410050177 149.78059488957661 0 0 0 0 3.1973932232722291 38.85461863274395 0 38.85461863274395 106.75748748138358 0 0 0 0 -7.6486238178276835 -80.29786451122709 0 -80.29786451122709 346.76062676964102 0 0 0 0 -31.799516292392582 37.716332016654633 0 37.716332016654633 260.89912544116669 0 0 0 0 -7.048826432437636 -0.79732071816761163 0 -0.79732071816761163 235.76726593060721 0 0 0 0 -24.506709223256621 45.755113135205647 0 45.755113135205647 379.3468633880766 0 0 0 0 -25.941579953552719 -49.004873610319919 0 -49.004873610319919 394.09275109263672 0 0 0 0 -61.839126541410224 -50.283988209663221 0 -50.283988209663221 453.90589752300366 0 0 0 0 -29.282518002761208 -156.83501528557463 0 -156.83501528557463 444.86046011295139 0 0 0 0 16.766449633421871 -153.75513667350242 0 -153.75513667350242 717.34156896331842 0 0 0 0 -33.436951677736943 67.299189873163414 0 67.299189873163414 796.05181578226984 0 0 0 0 34.275453572085098 -135.13220637951963 0 -135.13220637951963 734.62609413302562 0 0 0 0 68.14497052155275 -263.15697622823063 0 -263.15697622823063 1041.8580269062295 0 0 0 0 -27.079390141658223 -163.67880303013953 0 -163.67880303013953 752.34531849937048 0 0 0 0 -46.282128703399394 -34.053733929323244 0 -34.053733929323244 613.52517357664328 0 0 0 0 -46.673739248413767 -152.92167188709573 0 -152.92167188709573 597.96049774614312 0 0 0 0 -10.437536031697164 16.58631983046098 0 16.58631983046098 632.84834098868305 0 0 0 0 -12.800349322616967 40.464160521391022 0 40.464160521391022 457.64346427457349 0 0 0 0 -3.0729651284273132 3.3152729247985917 0 3.3152729247985917 408.55662396556727 0 0 0 0 60.625545473201782 218.27896505219178 0 218.27896505219178 408.34927720883206 0 0 0 0 3.678169904389506 77.038965750660282 0 77.038965750660282 633.36115332497866 0 0 0 0 45.505626612553897 243.2029462861683 0 243.2029462861683 727.19209513364694 0 0 0 0 264.15282589879553 230.08667990266076 0 230.08667990266076 -153.02719739338499 0 0 0 0 224.5563567358804 302.07487303946982 0 302.07487303946982 176.40762599925074 0 0 0 0 85.685129395762488 134.13485541095724 0 134.13485541095724 308.05328952328273 0 0 0 0 84.472865546133107 146.2208825274829 0 146.2208825274829 239.39784043439795 0 0 0 0 59.308971146928343 48.565151570073795 0 48.565151570073795 163.19057647112641 0 0 0 0 190.37627287202122 174.51789011685833 0 174.51789011685833 18.457296765431238 0 0 0 0 191.4861065892128 165.57991507400038 0 165.57991507400038 11.836133414748474 0 0 0 0 189.70059985456101 129.60154539755968 0 129.60154539755968 45.129482839263801 0 0 0 0 130.74099133878008 15.696909512725142 0 15.696909512725142 -113.36099624585768 0 0 0 0 342.92621484856863 -68.633412733253863 0 -68.633412733253863 -373.71772059919022 0 0 0 0 -651.68313317115462 -1227.53476676641 0 -1227.53476676641 -658.41536291262491 0 0 0 0 -163.70617478295566 -176.24444446708003 0 -176.24444446708003 173.86144825467636 0 0 0 0 47.879697951416425 -83.418513590882583 0 -83.418513590882583 137.71861774707406 0 0 0 0 2653.58407246961 -740.91166576468095 0 -740.91166576468095 -1250.2495756214885 0 0 0 0 280.63889827423554 480.69688950139607 0 480.69688950139607 230.06209051662881 0 0 0 0 262.42113772692028 434.0877985383122 0 434.0877985383122 273.66253861006408 0 0 0 0 124.61447357269935 279.659711789227 0 279.659711789227 320.71734763125278 0 0 0 0 151.41001916432288 552.66290374263554 0 552.66290374263554 896.81541908025247 0 0 0 0 -31.190823473836645 93.277702666533514 0 93.277702666533514 933.47584377344901 0 0 0 0 -38.98821673558632 71.493059385822562 0 71.493059385822562 1085.410776867604 0 0 0 0 226.05967499071994 607.5490965917561 0 607.5490965917561 288.81439899687939 0 0 0 0 2.162963545660574 -4.8191256402143701 0 -4.8191256402143701 20.337710749121953 0 0 0 0 1676.9181689329998 -2139.0006535947032 0 -2139.0006535947032 7297.356330820825 0 0 0 0 179.72563400142326 832.98427720348809 0 832.98427720348809 1806.4047127457743 0 0 0 0 190.19380775462923 906.90855040948372 0 906.90855040948372 1142.2369375811832 0 0 0 0 -197.73231417838542 -13.129019344625704 0 -13.129019344625704 1828.667131689941 0 0 0 0 1.4675672941614284 3.0101591466655293 0 3.0101591466655293 32.947208413837245 0 0 0 0 2691.5694832243425 2868.7878860181845 0 2868.7878860181845 -7203.782468024925 0 0 0 0 -207.90186723308398 33.221568967509484 0 33.221568967509484 2990.4625733103894 0 0 0 0 308.54249850101041 -1154.4879931357809 0 -1154.4879931357809 1485.8876016559134 0 0 0 0 286.48172983565746 -737.99848000467682 0 -737.99848000467682 1562.9194059362571 0 0 0 0 116.42845339345149 -338.81301843507936 0 -338.81301843507936 663.45966560128727 0 0 0 0 -151.26571776242054 35.996545972568128 0 35.996545972568128 1371.7216080252474 0 0 0 0 24.832741847816607 -55.703223246577721 0 -55.703223246577721 112.35245549002678 0 0 0 0 -259.85110334882211 -169.59972002779978 0 -169.59972002779978 42.100848804682755 0 0 0 0 -939.64964367393895 46.138387090437391 0 46.138387090437391 693.15566366139683 0 0 0 0 1369.795645323311 723.5279145230561 0 723.5279145230561 -181.85812351647473 0 0 0 0 38.315285073386974 -75.59609582498382 0 -75.59609582498382 138.53866698743082 0 0 0 0 -140.58298363911899 -181.36919189528271 0 -181.36919189528271 32.628932450177672 0 0 0 0 -217.01320266616949 -184.74684898569831 0 -184.74684898569831 47.396049688933999 0 0 0 0 -202.22211169699403 -132.78451925770423 0 -132.78451925770423 51.261445267358795 0 0 0 0 -106.67503650790627 -198.77325701480004 0 -198.77325701480004 60.445853512243048 0 0 0 0 -2463.3125684975857 -269.73847902343914 0 -269.73847902343914 2242.4734276445015 0 0 0 0 -163.56031487943278 -207.59511707770434 0 -207.59511707770434 63.628742165659787 0 0 0 0 -21.199455269413647 1.4351856189314276 0 1.4351856189314276 299.99811755641713 0 0 0 0 -198.25514412308041 -147.37567355503052 0 -147.37567355503052 310.42400423827348 0 0 0 0 -14.210752656808609 39.622324571835634 0 39.622324571835634 278.45776853740972 0 0 0 0 -123.71942883711858 -37.512237770490174 0 -37.512237770490174 307.18993421334017 0 0 0 0 -7.9097027391817143 -2.9818432239348169 0 -2.9818432239348169 7.2914533463570592 0 0 0 0 2.0367873671614234 76.512257662487173 0 76.512257662487173 293.99356057170371 0 0 0 0 -27.961007952112823 45.712589355771343 0 45.712589355771343 288.71248119327356 0 0 0 0 24.376655495454543 45.896864513699256 0 45.896864513699256 242.07885842717951 0 0 0 0 -26.912278553250644 -50.068747991106648 0 -50.068747991106648 192.74147707532393 0 0 0 0 -16.555950598381514 13.339674101553101 0 13.339674101553101 225.66092829799163 0 0 0 0 -4.0313833744612566 -0.65078823234944139 0 -0.65078823234944139 239.77768408303382 0 0 0 0 -56.106194465064164 21.253075378343055 0 21.253075378343055 271.30802078544366 0 0 0 0 -72.904489634720449 -33.142794970888644 0 -33.142794970888644 231.41770415803694 0 0 0 0 -67.465994650369254 -117.61759202898247 0 -117.61759202898247 131.38360614139674 0 0 0 0 -48.07043421198091 -43.752102434184053 0 -43.752102434184053 190.96795238289633 0 0 0 0 43.947799946206437 -74.584829487218983 0 -74.584829487218983 127.5263695211149 0 0 0 0 -18.145420984004886 -269.49532060515412 0 -269.49532060515412 -294.39528995861474 0 0 0 0 -91.813426560343487 -99.922165015854262 0 -99.922165015854262 192.47641545400256 0 0 0 0 3.2739923253755023 -63.885969508686685 0 -63.885969508686685 157.5207755344527 0 0 0 0 -14.515839527261894 -6.7589541337975163 0 -6.7589541337975163 75.010766322757235 0 0 0 0 13.605896782234204 -46.52155651498181 0 -46.52155651498181 46.544320799107645 0 0 0 0 19.493707845984318 -33.789404899376677 0 -33.789404899376677 116.90734113977669 0 0 0 0 40.610758232485807 -26.137172790270672 0 -26.137172790270672 75.793382376503018 0 0 0 0 -3.9191685218244245 -12.788287250722789 0 -12.788287250722789 10.766866376605673 0 0 0 0 -40.645830289772221 -60.155514606303768 0 -60.155514606303768 239.24217456405677 0 0 0 0 -41.959043571670463 -33.120154762131278 0 -33.120154762131278 213.97442506150401 0 0 0 0 -55.577663546668646 -55.936066173366271 0 -55.936066173366271 238.26528270583367 0 0 0 0 -0.46260379141988039 -50.225527687897738 0 -50.225527687897738 220.92131674315897 0 0 0 0 -15.674557314654066 -15.841903048072709 0 -15.841903048072709 127.52279169225949 0 0 0 0 1.7341347783768519 -7.0403951940699585 0 -7.0403951940699585 12.467978327980092 0 0 0 0 114.66715283764324 95.7780775623105 0 95.7780775623105 -225.24675983194902 0 0 0 0 114.07917080799962 152.66359311666747 0 152.66359311666747 142.29401148173201 0 0 0 0 89.333754360296098 -192.39118363954185 0 -192.39118363954185 -37.872553272754885 0 0 0 0 53.298282738385751 -103.38915238445043 0 -103.38915238445043 -140.73728534983456 0 0 0 0 1.7465831506210634 -81.670726454609394 0 -81.670726454609394 -106.32109686522745 0 0 0 0 354.78940911407062 37.842395222061896 0 37.842395222061896 -90.597160161047213 0 0 0 0 229.71665228968141 -353.43108109073364 0 -353.43108109073364 -114.02160263124824 0 0 0 0 442.95845898709103 537.76522707980075 0 537.76522707980075 708.53708489556448 0 0 0 0 -4.4605564474097052 -1.0796199596827591 0 -1.0796199596827591 2.4519087750457516 0 0 0 0 378.97441906533732 -455.93807589242351 0 -455.93807589242351 134.37593113486946 0 0 0 0 -467.40376221618317 221.05552186100977 0 221.05552186100977 684.25486896996154 0 0 0 0 696.41450823831769 -290.76093068474438 0 -290.76093068474438 91.391431331041531 0 0 0 0 675.22764789872554 571.22963897623924 0 571.22963897623924 716.03632949624443 0 0 0 0 242.31670071577389 357.62755654682405 0 357.62755654682405 1155.2269738411705 0 0 0 0 64.950658298052986 708.92841419122124 0 708.92841419122124 730.52928626864741 0 0 0 0 297.86277232986697 633.17213998132502 0 633.17213998132502 746.91640337649733 0 0 0 0 -37.702856447629074 71.448992639365315 0 71.448992639365315 1104.8271511904895 0 0 0 0 -344.73031835871529 392.09681026446196 0 392.09681026446196 1180.2347515372821 0 0 0 0 10.072502675168858 5.799733051579409 0 5.799733051579409 1.4895557621164457 0 0 0 0 -13.026806239203779 300.8074310382508 0 300.8074310382508 783.89648635307094 0 0 0 0 206.72948987000109 225.88964601917905 0 225.88964601917905 381.11083728387894 0 0 0 0 -20.187701550826773 140.09121786141168 0 140.09121786141168 -49.44876793322328 0 0 0 0 5.9226156467050917 -4.8787463906326707 0 -4.8787463906326707 0.024266100530702772 0 0 0 0 46.104573766471958 88.888543116692745 0 88.888543116692745 158.05350086561521 0 0 0 0 -6.8019889512442351 4.625934775315045 0 4.625934775315045 -0.13631281113941895 0 0 0 0 11.254597966159963 -51.359165243877214 0 -51.359165243877214 36.971630639265641 0 0 0 0 4.6995808351987565 1.7254163440824755 0 1.7254163440824755 1.2360040631548941 0 0 0 0 209.05744237829708 531.58575788358576 0 531.58575788358576 1585.989444481791 0 0 0 0 121.6030060846258 63.487073658718145 0 63.487073658718145 -134.5818269508145 0 0 0 0 -93.69168395395991 194.56566024795029 0 194.56566024795029 1266.6917009863537 0 0 0 0 141.0752970396079 25.516826421255246 0 25.516826421255246 622.03826103709434 0 0 0 0 794.72391893781833 428.69860973118921 0 428.69860973118921 1073.4458924890932 0 0 0 0 523.15202105044182 781.80404645496492 0 781.80404645496492 1379.5229342141683 0 0 0 0 289.26721174064141 669.08905713426066 0 669.08905713426066 1334.8457144998902 0 0 0 0 -132.20104172973811 463.62330368867697 0 463.62330368867697 1373.9176911002323 0 0 0 0 299.51217479500008 484.25934972482764 0 484.25934972482764 1158.5798142042404 0 0 0 0 -54.419787325490915 493.69063999473656 0 493.69063999473656 1177.5559666431145 0 0 0 0 475.58541555650481 389.63367652622765 0 389.63367652622765 146.33502461794706 0 0 0 0 -48.693816857402908 126.05895754387166 0 126.05895754387166 279.47148906700022 0 0 0 0 -10.218092174251098 283.10488535004606 0 283.10488535004606 374.39798653814069 0 0 0 0 36.930941972152596 -57.125347847591911 0 -57.125347847591911 59.366492297391233 0 0 0 0 -2.930415380539622 -4.1026286911583725 0 -4.1026286911583725 6.6842599850594695 0 0 0 0 -5.949178841392559 -4.8019027085402968 0 -4.8019027085402968 7.8692014692274199 0 0 0 0 -49.548288832129529 -1.305030832932971 0 -1.305030832932971 69.104182022507302 0 0 0 0 24.828846902881473 -37.572404240427204 0 -37.572404240427204 52.676170548322261 0 0 0 0 -12.167858119051999 52.068395521731873 0 52.068395521731873 3.9007511633753893 0 0 0 0 -25.411133379638613 -32.315354747559468 0 -32.315354747559468 520.61330180543791 0 0 0 0 45.233064483681574 185.57963146510883 0 185.57963146510883 533.17035768661663 0 0 0 0 -0.93700578999322026 -1.7927813392923611 0 -1.7927813392923611 2.0106833492610576 0 0 0 0 57.41770449928481 334.83034799798043 0 334.83034799798043 934.98971558177436 0 0 0 0 -107.28303686774825 -97.367574600109947 0 -97.367574600109947 -74.778278994701395 0 0 0 0 -225.60197080047556 -269.09828586001095 0 -269.09828586001095 71.165283896538313 0 0 0 0 -195.10980612431194 -307.63508841366274 0 -307.63508841366274 -239.00495194099494 0 0 0 0 -242.1998956138882 -149.89881800294825 0 -149.89881800294825 58.653687083642581 0 0 0 0 -232.9925689872922 -134.52804028709215 0 -134.52804028709215 46.400593764119549 0 0 0 0 -241.94817007057679 -145.07105991722801 0 -145.07105991722801 -3.9601179598248564 0 0 0 0 -160.54096467167119 -97.014865503013425 0 -97.014865503013425 18.324507999281195 0 0 0 0 -349.97684685648346 -90.939080749303685 0 -90.939080749303685 58.550397457855979 0 0 0 0 -267.32895059471019 -84.355762612437786 0 -84.355762612437786 57.944976198996301 0 0 0 0 -251.45301691277427 -142.2023919995554 0 -142.2023919995554 29.186716395961412 0 0 0 0 -266.75183060109248 -147.70066095407674 0 -147.70066095407674 42.699495055872831 0 0 0 0 -40.61624564972908 -47.970137656644511 0 -47.970137656644511 -0.8112104023603024 0 0 0 0 -71.778449516767068 -35.167770501459017 0 -35.167770501459017 10.506199281402132 0 0 0 0 -163.95847784474034 -74.561784444694695 0 -74.561784444694695 14.978651295707095 0 0 0 0 -42.591346538393282 -55.170348618725257 0 -55.170348618725257 -18.783159564452944 0 0 0 0 -18.527886456699434 -2.5710523805792036 0 -2.5710523805792036 9.529829940511263 0 0 0 0 -112.76823152073672 -74.143263340851263 0 -74.143263340851263 -21.538396379444748 0 0 0 0 -1.7360168154350788 -4.6352541348043985 0 -4.6352541348043985 4.6073589519899798 0 0 0 0 74.027738118156321 233.15212942382641 0 233.15212942382641 859.59900623476278 0 0 0 0 44.632658479970729 235.38426177046813 0 235.38426177046813 870.5134298717021 0 0 0 0 40.747973838313243 562.42234968615048 0 562.42234968615048 1279.4370034096501 0 0 0 0 -0.87138000796981707 -1.4816394902513537 0 -1.4816394902513537 3.0372648997088731 0 0 0 0 -62.0120991742765 -243.84458195569459 0 -243.84458195569459 -151.29046575270331 0 0 0 0 -260.70242863159001 -84.922800651038415 0 -84.922800651038415 583.32788087880181 0 0 0 0 -139.10964990773846 80.39733501032606 0 80.39733501032606 731.23553543591333 0 0 0 0 -119.07030640299195 -3.4097952023221296 0 -3.4097952023221296 770.28063462942373 0 0 0 0 -164.72443967419736 79.758389495458687 0 79.758389495458687 915.68836854686379 0 0 0 0 -50.787789215881958 108.19084026226119 0 108.19084026226119 509.25041225248424 0 0 0 0 -62.94859595877324 151.93818317619298 0 151.93818317619298 753.19476546918304 0 0 0 0 -2.7856279101249672 -6.1671090234017072 0 -6.1671090234017072 4.9805990276977923 0 0 0 0 26.24879922835953 -63.074303196161054 0 -63.074303196161054 715.64092151429213 0 0 0 0 -37.434050051169834 0.11119114435496158 0 0.11119114435496158 40.905866942383 0 0 0 0 22.445874642148738 -3.4327081952433218 0 -3.4327081952433218 23.402401664105128 0 0 0 0 -19.648535811301372 17.613393996092782 0 17.613393996092782 44.084781295998255 0 0 0 0 -5.1144108456197843 -3.8647073616473904 0 -3.8647073616473904 8.9596982814971682 0 0 0 0 58.7671041185165 -93.155732706625713 0 -93.155732706625713 265.8829869093679 0 0 0 0 -20.99328320530428 10.717601860125342 0 10.717601860125342 40.842794750657049 0 0 0 0 -20.058904159345275 -5.9557405124214711 0 -5.9557405124214711 30.858402721933089 0 0 0 0 -36.296858562422841 -9.9701705471729838 0 -9.9701705471729838 30.835992080363212 0 0 0 0 -0.090400986700069477 1.8905407694132634 0 1.8905407694132634 3.6539897797057534 0 0 0 0 113.06642580786971 -155.39873039014492 0 -155.39873039014492 -38.654744731829851 0 0 0 0 308.88045303782542 8.308709060336696 0 8.308709060336696 66.382334987727518 0 0 0 0 -57.205368770812527 216.21265694400063 0 216.21265694400063 92.480629878322361 0 0 0 0 4.4227644294923882 12.03737508806573 0 12.03737508806573 22.48403541012263 0 0 0 0 1.4626772189972144 42.534067196320393 0 42.534067196320393 276.72316890781804 0 0 0 0 0.35394863137382587 3.8136108131216133 0 3.8136108131216133 11.006395319659873 0 0 0 0 -28.88540758181901 -7.6280042111902731 0 -7.6280042111902731 15.688332167279441 0 0 0 0 -0.042237840041206474 -27.618907593677047 0 -27.618907593677047 -4.5786483724950813 0 0 0 0 84.435743095512876 -454.85323777726808 0 -454.85323777726808 1468.0736207599693 0 0 0 0 0.44288763739754783 1.4650077922477749 0 1.4650077922477749 4.3877624234469295 0 0 0 0 3.4565825665096472 143.73485320870532 0 143.73485320870532 101.22183226544439 0 0 0 0 64.77875241321658 -297.92948019596224 0 -297.92948019596224 512.16889678144798 0 0 0 0 -119.26607032833613 52.981945459985582 0 52.981945459985582 1116.0032355048024 0 0 0 0 -34.715830675571397 173.9536720586475 0 173.9536720586475 874.35175575182075 0 0 0 0 105.2092960335484 378.43800681464927 0 378.43800681464927 1122.0698576847644 0 0 0 0 0.36326210936832826 -19.171907405019738 0 -19.171907405019738 1874.9326576885069 0 0 0 0 -10.868634445613566 297.90714007161296 0 297.90714007161296 1515.8752896217288 0 0 0 0 24.817069697076249 378.79039556298812 0 378.79039556298812 1124.7617039604047 0 0 0 0 47.692738915146606 408.83752461478434 0 408.83752461478434 1016.3730874834 0 0 0 0 0.24787520034020238 429.1954895113995 0 429.1954895113995 1042.054141518136 0 0 0 0 -31.084363927210234 482.576779124116 0 482.576779124116 1035.9545258999497 0 0 0 0 39.300716338632583 444.70525257967893 0 444.70525257967893 988.58820228363038 0 0 0 0 -8.3082661167153447 531.43042985183274 0 531.43042985183274 1040.4086208565204 0 0 0 0 52.285335088909846 399.83606441951997 0 399.83606441951997 1033.974052162208 0 0 0 0 -14.388653861048397 337.69938641174667 0 337.69938641174667 848.8898523990938 0 0 0 0 17.051580969501856 275.77904101757667 0 275.77904101757667 719.48191084573045 0 0 0 0 -159.64671468602023 167.96352056319301 0 167.96352056319301 718.23112720390054 0 0 0 0 64.537054922002426 247.42416506656446 0 247.42416506656446 438.1006227481339 0 0 0 0 33.83152993413978 421.86715319192444 0 421.86715319192444 712.25055651470336 0 0 0 0 -91.603099163024808 451.0735256038497 0 451.0735256038497 1144.9774460266635 0 0 0 0 293.92541696206854 482.36785969490302 0 482.36785969490302 847.83737590717783 0 0 0 0 244.25856257376677 218.65774533987133 0 218.65774533987133 1291.6276155411833 0 0 0 0 -25.523203473458125 615.1008810306048 0 615.1008810306048 1484.0067893265077 0 0 0 0 -67.720638276383397 403.67733786952158 0 403.67733786952158 896.05529078443942 0 0 0 0 702.72133537387731 766.14642448794621 0 766.14642448794621 636.44565801369026 0 0 0 0 0.39322559545430458 2.5784184588993142 0 2.5784184588993142 8.1054312378876148 0 0 0 0 -298.81430054743288 488.4350692986045 0 488.4350692986045 1608.9795946214945 0 0 0 0 -608.37211163084407 -150.19482677572523 0 -150.19482677572523 830.91715588065563 0 0 0 0 -218.46538224123549 106.1049166967714 0 106.1049166967714 662.73008136284625 0 0 0 0 -0.49487276468517194 436.77779019730474 0 436.77779019730474 1078.310450036297 0 0 0 0 345.81442000892082 710.15191580721967 0 710.15191580721967 1130.3683134044404 0 0 0 0 -25.116368150326281 -11.907842605709448 0 -11.907842605709448 116.62071761165498 0 0 0 0 -5.4876001291983414 40.643316956535273 0 40.643316956535273 3.247266652280814 0 0 0 0 0.077471826233627417 0.30532563694461601 0 0.30532563694461601 0.17070790231804978 0 0 0 0 -0.12994696386013449 59.435366756591975 0 59.435366756591975 37.172061428165762 0 0 0 0 -35.541399042370585 40.416333246510476 0 40.416333246510476 57.659229246935865 0 0 0 0 -13.977425393491615 31.13495043135481 0 31.13495043135481 41.446938403430977 0 0 0 0 -13.717293034198441 5.852323856746807 0 5.852323856746807 56.417929164934321 0 0 0 0 1.2881093543489612 -1.0575641216964868 0 -1.0575641216964868 49.675684883623035 0 0 0 0 0.76804496843221925 0.33282023296894181 0 0.33282023296894181 -0.66038354929537491 0 0 0 0 -7.1165913926367352 9.2084619421548268 0 9.2084619421548268 57.292627005204849 0 0 0 0 27.922998789224266 31.708241037988046 0 31.708241037988046 17.329275530311861 0 0 0 0 -21.391692793662173 8.1835038049684954 0 8.1835038049684954 88.081837320934937 0 0 0 0 -1.6688728327363709 0.01415244297334084 0 0.01415244297334084 -0.69545870493794837 0 0 0 0 18.616930956359852 13.299493535865622 0 13.299493535865622 27.580519956238277 0 0 0 0 -2.5568035972469776 2.6438155704311441 0 2.6438155704311441 7.216856451778078 0 0 0 0 -16.637330715578763 26.862007623410136 0 26.862007623410136 45.866013248756644 0 0 0 0 -7.26075716055405 1.4044016395127983 0 1.4044016395127983 24.29319440137624 0 0 0 0 -29.079002883796988 4.5727980898191163 0 4.5727980898191163 55.059276427797158 0 0 0 0 -27.35302847768601 -36.034504500526964 0 -36.034504500526964 36.529383177519776 0 0 0 0 0.37386567903814616 58.847147787470021 0 58.847147787470021 25.279452847724315 0 0 0 0 -0.086643981434117237 -37.616289079232956 0 -37.616289079232956 12.260247865717247 0 0 0 0 -0.45024142849826998 0.088079642732139973 0 0.088079642732139973 0.10619049286635374 0 0 0 0 0.19764466231448735 -53.809978671328281 0 -53.809978671328281 44.43593804297052 0 0 0 0 -58.146196602509519 11.786539030548738 0 11.786539030548738 -64.330809330087504 0 0 0 0 -94.436226841943167 10.900228468955902 0 10.900228468955902 189.68815295257082 0 0 0 0 -112.38640654835723 172.74323157100298 0 172.74323157100298 84.727290315273422 0 0 0 0 -0.35088183828579622 -183.05244536423561 0 -183.05244536423561 988.9810972919222 0 0 0 0 -94.214228510700508 207.9084887484405 0 207.9084887484405 29.198365912016015 0 0 0 0 0.51693316435950076 3.1033686666136902 0 3.1033686666136902 7.8229565785142938 0 0 0 0 113.94879945279945 -817.15327353262182 0 -817.15327353262182 1477.8328726222207 0 0 0 0 329.44418968706782 138.89870886298013 0 138.89870886298013 866.3795739683992 0 0 0 0 24.324834629612823 -154.8776455660045 0 -154.8776455660045 686.23335842457891 0 0 0 0 265.88141000894677 -124.40757520292391 0 -124.40757520292391 20.018619004171342 0 0 0 0 -0.0087985668075371282 -76.063477663294179 0 -76.063477663294179 540.5233534869185 0 0 0 0 218.53858728567226 -379.6223971027066 0 -379.6223971027066 862.91055201913696 0 0 0 0 -117.0286752883635 9.9142515981657198 0 9.9142515981657198 28.263733394918745 0 0 0 0 2.9849089091945187 8.22253772760115 0 8.22253772760115 17.299114884709212 0 0 0 0 -124.59720467720058 -133.17261001621955 0 -133.17261001621955 759.10083834220131 0 0 0 0 258.68098991186554 -457.94138429995655 0 -457.94138429995655 587.39552072013976 0 0 0 0 0.2998018911863829 2.4562006738993603 0 2.4562006738993603 7.6389435376232768 0 0 0 0 313.47882997937654 -667.29566528866781 0 -667.29566528866781 940.92551526359603 0 0 0 0 -60.839362581839396 -95.039316549278738 0 -95.039316549278738 924.01736224357592 0 0 0 0 -90.417387833462215 35.366923974806923 0 35.366923974806923 26.129964262327121 0 0 0 0 3.4457614412691258 10.073481027492335 0 10.073481027492335 18.048221094276727 0 0 0 0 333.0984289577209 -118.06244171543221 0 -118.06244171543221 199.54562344319129 0 0 0 0 247.15837910998971 -435.76573185042798 0 -435.76573185042798 631.66557770837608 0 0 0 0 -162.77238938449591 45.520491034076258 0 45.520491034076258 369.19802489999347 0 0 0 0 -150.94056406089749 -18.175602659772267 0 -18.175602659772267 403.94379004057555 0 0 0 0 -45.091871550601354 275.34305612922617 0 275.34305612922617 772.85717405733885 0 0 0 0 -960.42155806414394 304.95278902804421 0 304.95278902804421 814.71929032129992 0 0 0 0 -383.44072321696513 -385.63125597097405 0 -385.63125597097405 1004.8041912040353 0 0 0 0 -437.23282953967919 -222.90502242901857 0 -222.90502242901857 1260.7277157039207 0 0 0 0 -619.41158967932643 -567.55720260240923 0 -567.55720260240923 711.47138236497995 0 0 0 0 -178.78268226060936 156.16665116208969 0 156.16665116208969 34.802295689871244 0 0 0 0 -212.46575259862402 23.964384392951615 0 23.964384392951615 901.4264221687572 0 0 0 0 -183.87281887733047 -129.25738932009335 0 -129.25738932009335 97.957042246853234 0 0 0 0 -218.51842386063117 -252.37387144465174 0 -252.37387144465174 616.81001760729123 0 0 0 0 -177.57194649080861 -40.818983661105449 0 -40.818983661105449 129.86667040818429 0 0 0 0 -82.424571863497249 -45.435711423682733 0 -45.435711423682733 94.011977614383795 0 0 0 0 -66.718153859396807 -64.884944851604814 0 -64.884944851604814 12.44076604177053 0 0 0 0 11.715010490607156 -32.993665448245771 0 -32.993665448245771 75.277377228309916 0 0 0 0 -544.10078349959838 -200.45578622229732 0 -200.45578622229732 35.137667778457399 0 0 0 0 -280.31315739265119 -160.98830776828981 0 -160.98830776828981 16.958987107907888 0 0 0 0 -186.74423740993552 -84.09747690767108 0 -84.09747690767108 -21.92088423185487 0 0 0 0 -201.12704795510035 -217.92246202245587 0 -217.92246202245587 -221.77486668823258 0 0 0 0 -397.8735257512858 15.186226799422002 0 15.186226799422002 -13.322894726836239 0 0 0 0 396.9932638336536 408.80101047187054 0 408.80101047187054 759.59993576641136 0 0 0 0 486.40856609625939 1240.1850605106247 0 1240.1850605106247 1657.4781623241142 0 0 0 0 -757.00006722616581 280.40325368088816 0 280.40325368088816 1821.2789256589458 0 0 0 0 -130.6642006487964 171.26762881624018 0 171.26762881624018 1745.5259619130957 0 0 0 0 1.7510045773856593 -9.7900137234316986 0 -9.7900137234316986 29.576326849629424 0 0 0 0 -354.86188763679047 -828.17344923140627 0 -828.17344923140627 399.95321560130105 0 0 0 0 -503.75178918462439 563.88312978556496 0 563.88312978556496 2512.5791934173321 0 0 0 0 -469.996534414292 -941.29456517491053 0 -941.29456517491053 1632.2350162999937 0 0 0 0 -2.5975068634189817 -9.2328051756327909 0 -9.2328051756327909 -6.0735317201202008 0 0 0 0 160.97848112402289 37.644398365075176 0 37.644398365075176 -1.8027695770724677 0 0 0 0 357.13152363675999 409.54717141266156 0 409.54717141266156 626.18566513780934 0 0 0 0 -1817.104669947531 158.71905012460775 0 158.71905012460775 3339.1466964444844 0 0 0 0 3402.5662667125462 -1346.1039853865223 0 -1346.1039853865223 828.63669500508695 0 0 0 0 99.306373959141638 -62.14118955747108 0 -62.14118955747108 -31.656182700207864 0 0 0 0 308.66592423231577 217.17635359119595 0 217.17635359119595 114.68914379429771 0 0 0 0 112.18418551943978 106.77586069359677 0 106.77586069359677 138.41546332842699 0 0 0 0 344.68716817683526 -4.2817591800849186 0 -4.2817591800849186 -70.228594487958617 0 0 0 0 -213.84026025502473 740.47200011638779 0 740.47200011638779 1157.1455896890839 0 0 0 0 -394.81352981775035 -462.50798306740762 0 -462.50798306740762 1154.5996578085967 0 0 0 0 -5.9381600950276789 2.5100981086270622 0 2.5100981086270622 0.007664310565814958 0 0 0 0 -673.41009423996547 -67.132745702947432 0 -67.132745702947432 402.19886453877552 0 0 0 0 3.3230716127706046 -19.236947582792709 0 -19.236947582792709 9.239074333163444 0 0 0 0 -4.6316348780953831 -33.428219549616188 0 -33.428219549616188 13.653476878695074 0 0 0 0 -13.774260219924997 -31.190298166601224 0 -31.190298166601224 13.407726730772993 0 0 0 0 -16.912946493902837 -15.189347296384767 0 -15.189347296384767 8.5442422946216539 0 0 0 0 -2.4824974484648301 -13.474740249398565 0 -13.474740249398565 22.550645368115511 0 0 0 0 10.889416918394295 -5.3365178155468413 0 -5.3365178155468413 7.4529318946458716 0 0 0 0 -2.3811400332060657 -14.603081104534795 0 -14.603081104534795 -4.3681839932505682 0 0 0 0 26.675587276041369 1.6712420170370024 0 1.6712420170370024 12.883176413859474 0 0 0 0 -0.46897918462510857 -3.0085707016560548 0 -3.0085707016560548 6.3086611949329026 0 0 0 0 104.25176751081472 35.518497082113754 0 35.518497082113754 -44.841188468308246 0 0 0 0 7.5059601521418706 -16.173511995301155 0 -16.173511995301155 5.4732621700543405 0 0 0 0 -36.710924125820384 -92.100943060402642 0 -92.100943060402642 5.2582274474261794 0 0 0 0 -45.085861163397567 5.3279179413875681 0 5.3279179413875681 28.868669031275203 0 0 0 0 5.2237343366014102 4.0480919017863926 0 4.0480919017863926 -54.818047744396608 0 0 0 0 38.037360521553637 -108.28435610260931 0 -108.28435610260931 -9.3820962269019219 0 0 0 0 95.584439484175164 17.502304170557181 0 17.502304170557181 69.821553554575075 0 0 0 0 49.321551062998026 59.64971202291099 0 59.64971202291099 39.701342192653101 0 0 0 0 136.00938573113376 35.669976060715271 0 35.669976060715271 -167.83856171266962 0 0 0 0 67.394600100404205 168.46779401571257 0 168.46779401571257 301.45439847552188 0 0 0 0 0.18872475262288013 2.757021999679182 0 2.757021999679182 7.362549602315049 0 0 0 0 30.634890225241179 -60.791435003720835 0 -60.791435003720835 -20.690671958807798 0 0 0 0 1.7067728048587014 -109.48307669245696 0 -109.48307669245696 233.15652221196069 0 0 0 0 73.859260295292188 150.10372722638203 0 150.10372722638203 66.86090863521531 0 0 0 0 6.8349276262898293 15.06135088808486 0 15.06135088808486 22.478189093737399 0 0 0 0 0.27108271512031479 14.278339051084913 0 14.278339051084913 51.523267537966603 0 0 0 0 14.672128823734056 26.004459800664335 0 26.004459800664335 56.046924240530643 0 0 0 0 20.317927392343336 50.203765719517833 0 50.203765719517833 68.823064415078989 0 0 0 0 7.5497683481830773 14.917484582548269 0 14.917484582548269 21.863621539041702 0 0 0 0 30.082467337882463 8.2437253014359158 0 8.2437253014359158 -7.0883883706992492 0 0 0 0 -5.3000486511384679 -2.8035370587895159 0 -2.8035370587895159 38.67104512185324 0 0 0 0 -9.6252279813706991 -23.115250339767954 0 -23.115250339767954 -18.892233604914509 0 0 0 0 -20.596387659920765 -11.006882638757816 0 -11.006882638757816 59.871452166873496 0 0 0 0 0.57721567381290484 2.3430797924698226 0 2.3430797924698226 25.363176353681524 0 0 0 0 -2.1246202538436592 0.52942681137938052 0 0.52942681137938052 13.048509200103581 0 0 0 0 13.625657212439819 10.014218828437151 0 10.014218828437151 33.511996214961982 0 0 0 0 9.1791172973292934 4.0705957689398815 0 4.0705957689398815 18.780676824522693 0 0 0 0 3.9060613754526798 -2.2487963492312701 0 -2.2487963492312701 46.018591998901684 0 0 0 0 -2.1679691663779286 -1.9281705528449038 0 -1.9281705528449038 5.9531282826577296 0 0 0 0 6.6881168223002785 4.4413452152484751 0 4.4413452152484751 14.001352301028646 0 0 0 0 2.473598698805322 1.2505663177210238 0 1.2505663177210238 5.1743415134358699 0 0 0 0 3.6343583604907508 1.3023292588768527 0 1.3023292588768527 51.486628582020785 0 0 0 0 3.9281060040771081 -1.9563940744628781 0 -1.9563940744628781 49.841927307432343 0 0 0 0 -1.6722362320927102 -10.077308331006776 0 -10.077308331006776 20.852848260620021 0 0 0 0 -7.3267920437636773 -9.8960498871287115 0 -9.8960498871287115 24.69087862039774 0 0 0 0 -79.668537581670421 58.57139110047865 0 58.57139110047865 109.05042469517321 0 0 0 0 35.432032319212112 -66.104182943185151 0 -66.104182943185151 -23.954426497039094 0 0 0 0 16.827625807556387 76.118905684554193 0 76.118905684554193 136.39382286186446 0 0 0 0 -2.4302349039991764 -1.7877518300152815 0 -1.7877518300152815 0.055048771132646834 0 0 0 0 -7.36168732239571 -9.5236754425786785 0 -9.5236754425786785 71.917814781882043 0 0 0 0 -18.879858890399582 -25.316139032193973 0 -25.316139032193973 47.239113443225506 0 0 0 0 -20.313824815568339 30.38963681478009 0 30.38963681478009 35.716191071274807 0 0 0 0 -4.6801085064785486 -12.692866099022851 0 -12.692866099022851 23.16967177413494 0 0 0 0 -13.596994933550377 -50.349793288172805 0 -50.349793288172805 11.684425415031001 0 0 0 0 -3.5904584169775262 -18.213971149321878 0 -18.213971149321878 18.336820704982529 0 0 0 0 -41.325552713888101 -36.222751356777735 0 -36.222751356777735 51.018693205478485 0 0 0 0 -64.295603866141107 -51.940957163009443 0 -51.940957163009443 0.12551622050523292 0 0 0 0 -50.228603956113233 -76.215103651331447 0 -76.215103651331447 38.589465149794705 0 0 0 0 -12.491012067896008 -38.790677342185518 0 -38.790677342185518 -99.808369695063448 0 0 0 0 -110.4485906305772 -3.2690957419181359 0 -3.2690957419181359 -40.556210035487311 0 0 0 0 -20.644747334634303 -6.2565413444535807 0 -6.2565413444535807 47.990428095916286 0 0 0 0 -24.604752707845734 -29.360977034246844 0 -29.360977034246844 4.1532416950794868 0 0 0 0 -4.910041829570325 0.93394712246733613 0 0.93394712246733613 0.13380584196303857 0 0 0 0 -107.08311990963921 -14.908470240225142 0 -14.908470240225142 -0.35972912015859038 0 0 0 0 -13.708710188999248 -1.2287658701534383 0 -1.2287658701534383 18.814500785258133 0 0 0 0 -22.7816012401744 7.9258340959072058 0 7.9258340959072058 38.443334641250033 0 0 0 0 -8.6210565145019142 -11.765151862161332 0 -11.765151862161332 29.801341799088846 0 0 0 0 -20.003614936181318 6.6869706563977616 0 6.6869706563977616 42.750738543984284 0 0 0 0 -19.329308562056838 -2.740308176212892 0 -2.740308176212892 54.625658354373172 0 0 0 0 -3.4893180242859483 1.688034879861334 0 1.688034879861334 12.204466768829647 0 0 0 0 -18.304805798935377 -21.236427655196167 0 -21.236427655196167 34.387592494269484 0 0 0 0 -24.126535511765269 33.355137614358682 0 33.355137614358682 116.93328456225572 0 0 0 0 -12.933933213976818 -3.6050706776288877 0 -3.6050706776288877 68.278264506598248 0 0 0 0 -58.86007669231617 -82.977623300808773 0 -82.977623300808773 28.178182706411462 0 0 0 0 -117.094983016437 -94.724378366150631 0 -94.724378366150631 73.522686825861456 0 0 0 0 -51.759043782821891 18.961606994766043 0 18.961606994766043 34.588067525643055 0 0 0 0 -48.977008230415777 -51.249584785968182 0 -51.249584785968182 116.22814567061141 0 0 0 0 -36.407909286028371 -124.22365059665754 0 -124.22365059665754 82.56036557884363 0 0 0 0 -42.367816087303027 19.214109619882947 0 19.214109619882947 235.18725716274639 0 0 0 0 -78.821342539453667 -61.255479482028022 0 -61.255479482028022 149.23809207751765 0 0 0 0 -27.144836442308588 17.773474298446672 0 17.773474298446672 122.95541688640878 0 0 0 0 -7.0679544713602809 30.079431976366322 0 30.079431976366322 214.15677792933275 0 0 0 0 -52.291363243400156 116.02127455288428 0 116.02127455288428 600.33892264432325 0 0 0 0 179.96592788716407 -319.20923807852523 0 -319.20923807852523 -145.93066056128737 0 0 0 0 -58.357278886744098 -298.65391414333862 0 -298.65391414333862 500.13045667692495 0 0 0 0 95.728356620749764 -401.1745101280103 0 -401.1745101280103 125.53756026623887 0 0 0 0 -75.22230487845718 -63.521052760122984 0 -63.521052760122984 290.6557510420098 0 0 0 0 -9.8911465287510509 -86.764647433112259 0 -86.764647433112259 48.122200772122596 0 0 0 0 -17.757096083185388 -158.22003237696481 0 -158.22003237696481 144.58803411593544 0 0 0 0 -13.054974664200927 -84.234087640914368 0 -84.234087640914368 157.16683952011226 0 0 0 0 -26.556964318704559 183.4977027008681 0 183.4977027008681 49.508415401462116 0 0 0 0 -7.9399725331650544 15.817429034504045 0 15.817429034504045 29.842628875088522 0 0 0 0 -13.415628428252603 14.782224780472461 0 14.782224780472461 47.645868794314083 0 0 0 0 -8.0561349709951173 353.84737753412628 0 353.84737753412628 789.55839497662964 0 0 0 0 -264.3180237849374 -138.37351962774119 0 -138.37351962774119 275.15291952552798 0 0 0 0 -9.6506430728732084 5.6396930338123639 0 5.6396930338123639 51.927743137748621 0 0 0 0 -3.9583308301043871 -4.0725950828273199 0 -4.0725950828273199 68.497048635384999 0 0 0 0 -10.845963066200056 1.2255174509627977 0 1.2255174509627977 67.278445490865124 0 0 0 0 -9.6705838822963415 16.553684952290496 0 16.553684952290496 67.99597694993281 0 0 0 0 -10.799788885553426 -9.3535660632842337 0 -9.3535660632842337 77.408940799912671 0 0 0 0 -13.035665059410958 10.00948222194873 0 10.00948222194873 26.327596365477859 0 0 0 0 19.723952120413742 76.494723253767006 0 76.494723253767006 -233.92192865557445 0 0 0 0 21.378811726721324 -122.528764483126 0 -122.528764483126 21.847424873580167 0 0 0 0 124.21427603965094 -54.320413333058241 0 -54.320413333058241 -294.23027686333808 0 0 0 0 -14.396404227263702 -5.6502190997853177 0 -5.6502190997853177 79.132728587712336 0 0 0 0 -3.1448307703831233 -19.863636863185093 0 -19.863636863185093 83.766670264943969 0 0 0 0 -4.1851235237061957 -20.10062622734479 0 -20.10062622734479 26.40286972384942 0 0 0 0 -12.525298749395006 -13.416319546930026 0 -13.416319546930026 31.238259353063768 0 0 0 0 -12.093788963250475 -5.0133312777899874 0 -5.0133312777899874 28.051407732827869 0 0 0 0 -4.5603226452787631 1.2149332069562746 0 1.2149332069562746 9.2953019275530551 0 0 0 0 -19.772900224761997 -4.7825353016369263 0 -4.7825353016369263 65.377377171636908 0 0 0 0 -31.216442050419573 -4.4004388441899209 0 -4.4004388441899209 92.415471698754118 0 0 0 0 -26.036681894544017 10.821905968474312 0 10.821905968474312 61.000726045596821 0 0 0 0 -20.526247075744323 -8.2232502230144746 0 -8.2232502230144746 62.139005181785251 0 0 0 0 -19.223229860112923 -2.960592301021677 0 -2.960592301021677 19.143952795156096 0 0 0 0 -12.594326822763833 6.0949390696550836 0 6.0949390696550836 41.561520265000581 0 0 0 0 -34.150068788057979 8.5126818627322791 0 8.5126818627322791 60.363791954245244 0 0 0 0 -50.94774742883601 48.426325294803974 0 48.426325294803974 16.739110336624435 0 0 0 0 -2.8098053601942894 13.897202193197181 0 13.897202193197181 42.789883579333463 0 0 0 0 -21.386454261313702 -2.445503931852727 0 -2.445503931852727 63.056549983459263 0 0 0 0 -30.603150098064361 15.844511137736845 0 15.844511137736845 41.889727735047927 0 0 0 0 -39.450026269678347 26.388294512980792 0 26.388294512980792 57.588011019561236 0 0 0 0 -21.875150661438347 8.151860237392853 0 8.151860237392853 49.504495645824818 0 0 0 0 -35.437604067371467 2.3965871254076774 0 2.3965871254076774 72.838226724576089 0 0 0 0 -37.062641081802028 -27.083523262828379 0 -27.083523262828379 84.902287525028328 0 0 0 0 -28.010822973628819 -0.65924559331324417 0 -0.65924559331324417 69.748422449556529 0 0 0 0 -33.432680158584844 -14.778304688419666 0 -14.778304688419666 78.639048786310013 0 0 0 0 -6.7161260494649468 -377.53039472377714 0 -377.53039472377714 -226.16271181889169 0 0 0 0 -15.859659693281266 -18.081719645286679 0 -18.081719645286679 33.131754180247782 0 0 0 0 -14.968670544434399 6.2875887245858024 0 6.2875887245858024 45.873998804185447 0 0 0 0 -12.684720853364038 -2.7647856772964605 0 -2.7647856772964605 47.723052593652255 0 0 0 0 -50.929356155532332 -3.1669528989878017 0 -3.1669528989878017 31.080852204933763 0 0 0 0 -27.032903960808653 -5.9003605105463066 0 -5.9003605105463066 49.835434441483812 0 0 0 0 -10.952828606331849 -7.0324878472208994 0 -7.0324878472208994 48.33452627851085 0 0 0 0 -18.719850953063542 -12.936801122341421 0 -12.936801122341421 50.498702725511976 0 0 0 0 -16.199691773833884 -23.748450448434568 0 -23.748450448434568 63.949642670691702 0 0 0 0 -16.661790922404819 -10.480119155844463 0 -10.480119155844463 39.082489565155754 0 0 0 0 -11.780405204555791 -9.6766693613681127 0 -9.6766693613681127 18.87111540872138 0 0 0 0 -12.224922699591946 -5.485789794036128 0 -5.485789794036128 32.458944095887745 0 0 0 0 -25.343980453384575 -4.4462745746131986 0 -4.4462745746131986 41.243163489358267 0 0 0 0 -24.345967950902377 -18.744090173306176 0 -18.744090173306176 46.376880116993561 0 0 0 0 -24.588086206722437 -20.234044823788281 0 -20.234044823788281 57.08430565695744 0 0 0 0 -7.3560669648560815 -19.736991684794546 0 -19.736991684794546 20.593598559314302 0 0 0 0 -178.15358650623239 -199.66368390395291 0 -199.66368390395291 147.90972852119012 0 0 0 0 -7.96353560675011 -30.07858028672689 0 -30.07858028672689 -16.085741011575806 0 0 0 0 88.417133293096413 188.09739777130017 0 188.09739777130017 -109.0408867806982 0 0 0 0 358.42040416582313 -182.03596257757454 0 -182.03596257757454 126.93945792788872 0 0 0 0 105.06702162907641 -5.1474962013671757 0 -5.1474962013671757 523.02683466725284 0 0 0 0 930.62265368531007 311.61118482863822 0 311.61118482863822 487.21064485335228 0 0 0 0 1035.5814748842968 -458.4848528602306 0 -458.4848528602306 685.65635844144708 0 0 0 0 -570.7747310200466 44.459561908566684 0 44.459561908566684 681.86672686453676 0 0 0 0 -213.43383315128449 151.56390077805554 0 151.56390077805554 34.614231507548539 0 0 0 0 -120.85907723850687 -79.110678693497903 0 -79.110678693497903 828.73164340671792 0 0 0 0 -111.80671998464095 -36.380575512834184 0 -36.380575512834184 268.18779764836654 0 0 0 0 -390.66938313151331 -27.566301719940384 0 -27.566301719940384 830.38492204417707 0 0 0 0 -455.00807452064328 149.18510737536417 0 149.18510737536417 347.61335526182665 0 0 0 0 -389.21885946634575 -90.814340937071393 0 -90.814340937071393 549.5134182003967 0 0 0 0 -245.87983475351393 224.24714918828977 0 224.24714918828977 1202.1672797820356 0 0 0 0 -196.31783787594031 188.33640996011673 0 188.33640996011673 785.58407233954858 0 0 0 0 56.47850546409245 633.45645150208293 0 633.45645150208293 729.38010710320668 0 0 0 0 54.807709937973414 561.79770922515308 0 561.79770922515308 545.66005978506291 0 0 0 0 292.4103326484983 239.02684214810142 0 239.02684214810142 192.96628458600026 0 0 0 0 522.23760455271531 446.07275167061107 0 446.07275167061107 289.32554523629369 0 0 0 0 317.79139698112704 1039.510268201826 0 1039.510268201826 853.66139799319353 0 0 0 0 -225.34754940082166 -142.22938982743108 0 -142.22938982743108 742.5762498861659 0 0 0 0 3.2300559223513119 -206.09618989544106 0 -206.09618989544106 1832.9391812652466 0 0 0 0 -7.6612638530205004 78.621777339809341 0 78.621777339809341 712.67702608229592 0 0 0 0 -38.567581552248157 691.86073999608925 0 691.86073999608925 1625.725466463482 0 0 0 0 230.97684132315408 -21.459096445963951 0 -21.459096445963951 192.54722521300573 0 0 0 0 -41.406429945851414 147.64788344251065 0 147.64788344251065 117.86634191263875 0 0 0 0 -7.0851276998873196 1.8439692797795928 0 1.8439692797795928 24.418069301609762 0 0 0 0 915.22316398807743 992.09343528970567 0 992.09343528970567 -346.23286732207634 0 0 0 0 1171.9511448933335 716.81082551708823 0 716.81082551708823 -192.6037025017722 0 0 0 0 323.89980344941796 1048.2657799097942 0 1048.2657799097942 201.99431304679456 0 0 0 0 451.89435403497191 792.09570764719683 0 792.09570764719683 574.83149648364997 0 0 0 0 376.37159047975729 -1187.253988757082 0 -1187.253988757082 1786.2855052109808 0 0 0 0 293.41209259762945 374.48952900176846 0 374.48952900176846 186.57953083245229 0 0 0 0 -2.8159085072598025 -6.5929573833090096 0 -6.5929573833090096 40.571176269597146 0 0 0 0 183.0117912313799 -101.04473854036405 0 -101.04473854036405 754.645746016472 0 0 0 0 699.5694132899705 -304.9377272653673 0 -304.9377272653673 665.37334352119797 0 0 0 0 396.95750293682431 -913.95586358377568 0 -913.95586358377568 379.03832940304346 0 0 0 0 697.25216767848906 -452.6489250230552 0 -452.6489250230552 -181.78816521970293 0 0 0 0 220.51520330040512 628.25193248501455 0 628.25193248501455 402.76147707341443 0 0 0 0 -737.92164886104183 562.97550495189353 0 562.97550495189353 858.440046454205 0 0 0 0 0.12526433572501006 10.928825936149778 0 10.928825936149778 105.95003231839672 0 0 0 0 -0.35930528709513965 -2.4275281821880235 0 -2.4275281821880235 9.5144678850781048 0 0 0 0 -1234.7084517378626 -212.52526102313641 0 -212.52526102313641 851.73794835748413 0 0 0 0 105.38963884096847 -233.17709236406336 0 -233.17709236406336 334.27480779533289 0 0 0 0 28.356729516710402 -286.40590388846704 0 -286.40590388846704 713.40404224538361 0 0 0 0 105.53341859484681 -173.22938542766951 0 -173.22938542766951 498.09804802499275 0 0 0 0 -0.19155351202623194 -1.0357473344578292 0 -1.0357473344578292 1.5517722188177814 0 0 0 0 -51.746582906533149 143.98371247038267 0 143.98371247038267 -97.217705099406885 0 0 0 0 -37.754249223973602 161.47098024301522 0 161.47098024301522 -223.16269859459135 0 0 0 0 -41.551428555991151 29.051594071854197 0 29.051594071854197 -5.3243106479312701 0 0 0 0 -1.7823315580317285 2.9869363358272523 0 2.9869363358272523 0.043426931861006324 0 0 0 0 567.97080557648587 422.8761840644911 0 422.8761840644911 316.50329308579967 0 0 0 0 -389.95893679776782 527.0537916971407 0 527.0537916971407 181.20233073559575 0 0 0 0 2123.2992276967852 1176.250778099733 0 1176.250778099733 -486.90481254603492 0 0 0 0 857.45073764856352 -1636.1595496436785 0 -1636.1595496436785 -727.61840656059212 0 0 0 0 -3.2161758352587597 1.0163536106684745 0 1.0163536106684745 6.3375317490729088 0 0 0 0 -65.483302968699718 91.355735555225692 0 91.355735555225692 -115.66093756760347 0 0 0 0 -23.722737956191565 17.89632204548677 0 17.89632204548677 24.049702533760779 0 0 0 0 -49.565294830954372 35.891295791760058 0 35.891295791760058 40.310693191014934 0 0 0 0 -16.971481708803275 11.849572259727069 0 11.849572259727069 164.89476449699964 0 0 0 0 -509.59101810308493 30.201175765884727 0 30.201175765884727 202.75091548188357 0 0 0 0 -41.696562091933629 18.74880230382405 0 18.74880230382405 40.807202981566661 0 0 0 0 -17.423423092341885 25.628412103137624 0 25.628412103137624 7.695785262992672 0 0 0 0 -24.804842058179574 23.928802232216285 0 23.928802232216285 23.105673444824362 0 0 0 0 -12.837942326932534 27.202061548499842 0 27.202061548499842 27.0244322948638 0 0 0 0 -87.312541750049604 -28.118823804649764 0 -28.118823804649764 41.951965645741438 0 0 0 0 -35.625091784764777 59.830752446851584 0 59.830752446851584 65.042313094609199 0 0 0 0 -41.423074797914524 32.468261810378863 0 32.468261810378863 20.24002381315222 0 0 0 0 -43.830502622365429 20.697021530420216 0 20.697021530420216 39.146650098446116 0 0 0 0 -32.573664592786301 27.211267392530491 0 27.211267392530491 7.8844291835359854 0 0 0 0 -9.7702483270490283 12.511017399934744 0 12.511017399934744 30.702798261745926 0 0 0 0 -27.386791882945467 14.123010800465863 0 14.123010800465863 8.00273801775203 0 0 0 0 -33.692850889099645 24.550294779055548 0 24.550294779055548 31.430190782863065 0 0 0 0 -15.890729922959508 0.6782910968959186 0 0.6782910968959186 39.06122898159083 0 0 0 0 -13.717552229073164 16.795299720561097 0 16.795299720561097 13.102381899540916 0 0 0 0 -19.114012115045625 1.1186702349950792 0 1.1186702349950792 54.555461712103352 0 0 0 0 34.166788722563069 24.486512258015864 0 24.486512258015864 231.28263046021402 0 0 0 0 6.3105059152221656 -170.49152736992437 0 -170.49152736992437 287.25504094205826 0 0 0 0 -41.23347650217147 -259.62227784231618 0 -259.62227784231618 502.49240763120179 0 0 0 0 127.73308904152145 -80.030664876287119 0 -80.030664876287119 53.719275355102582 0 0 0 0 138.27003783086548 -262.42201527036013 0 -262.42201527036013 520.63296426781289 0 0 0 0 11.526924343001156 -201.68634580450089 0 -201.68634580450089 663.64454757161184 0 0 0 0 128.84638445669498 -282.27269580122356 0 -282.27269580122356 586.56949753482331 0 0 0 0 5.5916637723012173 -230.00581190271714 0 -230.00581190271714 610.34722027492535 0 0 0 0 19.171952371922089 -197.49240204565285 0 -197.49240204565285 534.77913634219658 0 0 0 0 -58.345653019085148 -225.30632332095593 0 -225.30632332095593 618.13055827125208 0 0 0 0 -32.541881362423965 -123.95474401154684 0 -123.95474401154684 645.58255183706933 0 0 0 0 -54.798220123124338 -211.08884490303535 0 -211.08884490303535 673.42662422474586 0 0 0 0 131.98675391898723 -280.01962874790479 0 -280.01962874790479 704.46563047308882 0 0 0 0 -7.1781882169852906 -143.10756681668499 0 -143.10756681668499 771.66472032119782 0 0 0 0 -49.125463790995127 -197.67828288421333 0 -197.67828288421333 546.46171586032506 0 0 0 0 -49.81047282972122 -184.97380083100779 0 -184.97380083100779 560.43066866791196 0 0 0 0 -63.103201563422772 -130.14367246562688 0 -130.14367246562688 605.78514762970008 0 0 0 0 -48.296077793602308 -205.35163562958041 0 -205.35163562958041 576.58796459856967 0 0 0 0 -65.501103373013393 -205.22322960438032 0 -205.22322960438032 594.1750637784935 0 0 0 0 -47.883884427118574 -238.06365097109665 0 -238.06365097109665 590.96567895521366 0 0 0 0 -37.120898142929946 -231.22806443006266 0 -231.22806443006266 594.64269148750236 0 0 0 0 -60.431098633647707 -235.1837483575946 0 -235.1837483575946 652.20935127150551 0 0 0 0 -39.420337035315811 -205.83803431525575 0 -205.83803431525575 566.86193483394891 0 0 0 0 -44.605400326899144 -142.20273398426434 0 -142.20273398426434 684.11168875984731 0 0 0 0 -88.569087245577975 -200.40347833967098 0 -200.40347833967098 639.18099517511837 0 0 0 0 -16.291098226016402 -123.37576321988672 0 -123.37576321988672 640.8456650533044 0 0 0 0 -30.267676722975011 -102.61976990156109 0 -102.61976990156109 617.74562435333064 0 0 0 0 -73.729900422355058 -113.92430304935988 0 -113.92430304935988 669.70062167164724 0 0 0 0 28.558725485934701 -208.54385837812151 0 -208.54385837812151 568.20410868841645 0 0 0 0 -27.225888795658648 -205.73027016961441 0 -205.73027016961441 599.83890086469182 0 0 0 0 -66.407912532857154 81.390536769526079 0 81.390536769526079 576.70954235095815 0 0 0 0 -3.0485102826104971 3.1810078271547457 0 3.1810078271547457 6.4421423021051254 0 0 0 0 -15.281068811177285 7.0476937968117355 0 7.0476937968117355 13.682774343679814 0 0 0 0 112.48308487357826 -96.118537612026557 0 -96.118537612026557 103.24891871511136 0 0 0 0 -46.896629256485539 -32.195217619004325 0 -32.195217619004325 625.3976158847322 0 0 0 0 -19.487154455013069 13.481949803711814 0 13.481949803711814 40.808061207073479 0 0 0 0 -87.06350042720419 25.212133054622882 0 25.212133054622882 38.799204468617972 0 0 0 0 -24.607572592422002 17.147199277256732 0 17.147199277256732 -9.240526299810881 0 0 0 0 -8.9696846410958173 0.30624338894609338 0 0.30624338894609338 6.7763565332283093 0 0 0 0 -24.327253393673345 11.712126756663565 0 11.712126756663565 31.539345028995285 0 0 0 0 6.8096090957133129 0.50931177322490839 0 0.50931177322490839 33.460915444422426 0 0 0 0 -19.070705258834064 -2.5651043052122269 0 -2.5651043052122269 13.333164946615454 0 0 0 0 -39.52877398839064 27.097166854432544 0 27.097166854432544 52.708198213185824 0 0 0 0 -14.734813703742475 5.5044811720363214 0 5.5044811720363214 24.905034165281904 0 0 0 0 -15.341663317729013 -3.4603666506870425 0 -3.4603666506870425 24.222545579019311 0 0 0 0 -11.246660996825085 9.6069390567099617 0 9.6069390567099617 46.572650673038879 0 0 0 0 -15.248192054102219 7.0432764683282585 0 7.0432764683282585 40.093325573790935 0 0 0 0 -14.884838886640864 5.5383437127247817 0 5.5383437127247817 42.347470829394297 0 0 0 0 -15.088956307001354 2.0400285934883868 0 2.0400285934883868 40.442559948736744 0 0 0 0 -28.964087891850795 8.9131101683015004 0 8.9131101683015004 47.803256887134921 0 0 0 0 -15.370943980611628 -5.2637480613484513 0 -5.2637480613484513 60.745166970555147 0 0 0 0 -83.013598089863081 44.011130777027574 0 44.011130777027574 42.721112187973631 0 0 0 0 -53.65213214855612 37.635238901006232 0 37.635238901006232 31.580102885984559 0 0 0 0 -29.450019320865977 11.623124066369201 0 11.623124066369201 41.389228724077839 0 0 0 0 -47.872068891389063 4.2968498423142591 0 4.2968498423142591 46.409941732490552 0 0 0 0 -29.245459352302078 7.1077621654776522 0 7.1077621654776522 44.777631822013063 0 0 0 0 -66.890182264221949 6.1066367900712066 0 6.1066367900712066 65.310329521802487 0 0 0 0 -56.113573153437756 25.839263945221319 0 25.839263945221319 38.795913278299849 0 0 0 0 -51.809420843335829 47.123066737280169 0 47.123066737280169 44.792643709286494 0 0 0 0 -17.592180564794035 16.984727384682628 0 16.984727384682628 82.832422097591916 0 0 0 0 -10.58129962289771 4.3616533443844432 0 4.3616533443844432 38.821636013305351 0 0 0 0 -51.602133150507143 27.89613140698566 0 27.89613140698566 32.392011053652823 0 0 0 0 -108.60700358947724 43.046072141765762 0 43.046072141765762 56.469582525740407 0 0 0 0 -5.367756819167667 -2.9072611965579753 0 -2.9072611965579753 14.183615977302445 0 0 0 0 1.7130206316593473 3.1727842385084699 0 3.1727842385084699 4.865852863431023 0 0 0 0 -35.365953202970559 -8.4178239057728206 0 -8.4178239057728206 18.373676428236649 0 0 0 0 -80.453902296372689 47.516050035294029 0 47.516050035294029 38.906468778368435 0 0 0 0 -89.526182880093984 28.328992438775458 0 28.328992438775458 60.204871115944115 0 0 0 0 -9.5401524561184488 9.278999908696278 0 9.278999908696278 20.686822071336792 0 0 0 0 -9.5173831021904363 5.8364215832677573 0 5.8364215832677573 17.040431053085868 0 0 0 0 -16.588930804390372 -4.2725255258565689 0 -4.2725255258565689 17.911348786152857 0 0 0 0 12.078735237315414 29.985226378470543 0 29.985226378470543 47.716625690078217 0 0 0 0 -5.0013775499151691 1.5032056466751911 0 1.5032056466751911 7.6387058576072917 0 0 0 0 -6.6249779128280863 20.421711293236271 0 20.421711293236271 36.221432106331008 0 0 0 0 -23.043508724367712 37.112509580656479 0 37.112509580656479 26.886777224834077 0 0 0 0 -21.197684544148114 16.250581552955087 0 16.250581552955087 37.455258254090936 0 0 0 0 -22.882195187762761 28.031114630709453 0 28.031114630709453 62.644586320744565 0 0 0 0 -17.527238773369845 36.077305566521318 0 36.077305566521318 62.00001474493456 0 0 0 0 -15.846136304264292 8.2469984769850271 0 8.2469984769850271 58.710229555378646 0 0 0 0 -7.8670958383263496 9.6188862103881547 0 9.6188862103881547 48.853904406641959 0 0 0 0 -1.2248108576043073 -5.3717131713022752 0 -5.3717131713022752 10.253263287333709 0 0 0 0 -16.177132563479972 -4.2758708190085599 0 -4.2758708190085599 56.241498733201297 0 0 0 0 -31.66135333589137 -11.050915448934774 0 -11.050915448934774 69.57869109864032 0 0 0 0 -19.277886051617372 18.257411841866769 0 18.257411841866769 64.315696247591404 0 0 0 0 -19.42384946846812 20.228548598757243 0 20.228548598757243 52.661666366824647 0 0 0 0 -8.4636723173731081 16.691167012088492 0 16.691167012088492 42.570226413479617 0 0 0 0 -2.6160714434835697 33.399406650940335 0 33.399406650940335 77.426904064774206 0 0 0 0 3.6580016605403216 98.946477797871921 0 98.946477797871921 203.19604787565186 0 0 0 0 -12.048812887036421 14.030001876387736 0 14.030001876387736 20.692675970282551 0 0 0 0 -7.1120548338127456 8.1278677745028673 0 8.1278677745028673 26.014338770635305 0 0 0 0 -16.090258078922488 10.085986896327086 0 10.085986896327086 14.461547627273831 0 0 0 0 -28.64176034395939 72.563138087948573 0 72.563138087948573 -22.243334108643467 0 0 0 0 0.25918579207502646 13.17712203467169 0 13.17712203467169 30.012839452183741 0 0 0 0 -9.855858932372227 -1.2594659923905667 0 -1.2594659923905667 32.600227603513687 0 0 0 0 -1.4933487485231716 11.094499041859358 0 11.094499041859358 43.996713240785795 0 0 0 0 -203.79023372726169 13.44354787606062 0 13.44354787606062 -7.7617693610081915 0 0 0 0 -1.4262354648558624 0.68222140934365427 0 0.68222140934365427 6.2200247271312676 0 0 0 0 -31.993999915790482 39.963068085980922 0 39.963068085980922 -15.917126889635256 0 0 0 0 -197.61047294446621 37.012152573426192 0 37.012152573426192 58.055762855416106 0 0 0 0 29.672705892448448 15.842287344483339 0 15.842287344483339 63.570783571009088 0 0 0 0 -31.7098246916749 -44.893578847635212 0 -44.893578847635212 188.47560467113726 0 0 0 0 -3.0922990928238505 -168.64174613829073 0 -168.64174613829073 199.32311905047391 0 0 0 0 -111.7750103018252 67.668425661660876 0 67.668425661660876 -35.755862482910743 0 0 0 0 -2.6131851700791699 -1.0292824525249316 0 -1.0292824525249316 -0.29563024560538764 0 0 0 0 -133.56388121329383 44.831703340706554 0 44.831703340706554 115.59948021831951 0 0 0 0 -52.386855626138981 -24.365549596650908 0 -24.365549596650908 157.38376779190367 0 0 0 0 40.62714772844447 -112.9020333704193 0 -112.9020333704193 54.077755652265296 0 0 0 0 -129.31811501834659 -45.393111616829628 0 -45.393111616829628 393.31978922546114 0 0 0 0 -97.376659464119257 36.997865162578819 0 36.997865162578819 511.5120685353013 0 0 0 0 116.65736820481425 -199.54271472819164 0 -199.54271472819164 324.68238368003222 0 0 0 0 -282.72765767645024 3.1958017821034446 0 3.1958017821034446 353.62141543112375 0 0 0 0 4.6223532840367243 -0.65362535266665844 0 -0.65362535266665844 -0.91349840243155711 0 0 0 0 1.3143987768492735 1.0347430006428837 0 1.0347430006428837 0.51793063286299912 0 0 0 0 -43.138050963105457 235.85754285853045 0 235.85754285853045 -15.095338405662915 0 0 0 0 -66.676589897258054 -11.858051817614978 0 -11.858051817614978 72.125065881344199 0 0 0 0 -191.63315410485347 58.205320936162025 0 58.205320936162025 21.782676763512427 0 0 0 0 0.77925682523838535 1.471145216286061 0 1.471145216286061 5.7719619953251708 0 0 0 0 -31.277108636284538 -52.34747827026149 0 -52.34747827026149 86.536566770708305 0 0 0 0 -185.78562394690198 77.451463896621135 0 77.451463896621135 58.775015607534101 0 0 0 0 -65.017115273983109 84.433859386081167 0 84.433859386081167 1.5691726918739732 0 0 0 0 -33.243128747326637 236.81910104838607 0 236.81910104838607 -106.28250576784194 0 0 0 0 -4.861295002615921 -14.209833623211985 0 -14.209833623211985 4.2479341458865036 0 0 0 0 -8.0948070732668889 0.69674385216967849 0 0.69674385216967849 25.05839313633534 0 0 0 0 5.19009425524996 2.9200976958072715 0 2.9200976958072715 34.454313509595522 0 0 0 0 -2.1427791925181054 -9.9707938080900931 0 -9.9707938080900931 44.218707998217724 0 0 0 0 391.49531829894931 -281.87751367890723 0 -281.87751367890723 -628.6495314157728 0 0 0 0 -29.451440174220643 -54.573624971582575 0 -54.573624971582575 59.039109359825048 0 0 0 0 -89.854982889293751 -54.316675147871138 0 -54.316675147871138 209.16160570615511 0 0 0 0 -99.496600547267775 201.74711293891323 0 201.74711293891323 52.140443420714291 0 0 0 0 -59.129869457641234 167.55240330391098 0 167.55240330391098 52.43775322688586 0 0 0 0 64.28578851647643 584.44455003748044 0 584.44455003748044 710.44689771232515 0 0 0 0 -100.09189409919418 -5.8355871288586059 0 -5.8355871288586059 -50.388791350572319 0 0 0 0 -85.456611164374181 227.09522184645539 0 227.09522184645539 326.47304896634159 0 0 0 0 -244.75279043068485 -49.908727795191226 0 -49.908727795191226 572.70709302475916 0 0 0 0 -196.34801962168831 24.080862583872658 0 24.080862583872658 351.52974312122592 0 0 0 0 -220.53861027392452 -150.56088576756338 0 -150.56088576756338 442.27973841244784 0 0 0 0 -108.95134551000615 -126.03686242503863 0 -126.03686242503863 359.33136305131848 0 0 0 0 -29.815994337990901 -355.34414531994935 0 -355.34414531994935 242.95311471120294 0 0 0 0 -199.8949649399969 -254.65651226987575 0 -254.65651226987575 958.41685820180282 0 0 0 0 -19.935554883751095 -75.289866225634114 0 -75.289866225634114 -57.520012041390146 0 0 0 0 9.2670210921576199 -48.02093424024315 0 -48.02093424024315 74.339812839352817 0 0 0 0 1.0409642520540672 -184.78117961295789 0 -184.78117961295789 263.93971141300426 0 0 0 0 9.9843524677094138 -58.818190211368346 0 -58.818190211368346 232.098367568291 0 0 0 0 3.0420499012648179 -35.58361499543571 0 -35.58361499543571 256.27862453065063 0 0 0 0 -125.7717118496779 -52.767194550853219 0 -52.767194550853219 382.33734974983963 0 0 0 0 93.446679097168015 17.989282942203204 0 17.989282942203204 199.8364021483103 0 0 0 0 96.430779600269034 65.258500337353325 0 65.258500337353325 315.83047288566377 0 0 0 0 13.027237488366836 -12.749076429921843 0 -12.749076429921843 265.70443317093304 0 0 0 0 75.938132781780496 -40.1262884706357 0 -40.1262884706357 223.05056893834262 0 0 0 0 51.881774905282896 -13.778546643638037 0 -13.778546643638037 184.44312018773417 0 0 0 0 65.317013842719462 12.451352766822311 0 12.451352766822311 233.14401208666095 0 0 0 0 42.718277836899347 16.204799755850217 0 16.204799755850217 106.62695510411868 0 0 0 0 10.601139575157504 28.459162600094714 0 28.459162600094714 167.89633883877013 0 0 0 0 52.409128434888316 -21.516067299420683 0 -21.516067299420683 152.40166048794708 0 0 0 0 8.3713871028457447 34.343479922687038 0 34.343479922687038 192.55392312049662 0 0 0 0 -25.808846596655059 -14.835982330908337 0 -14.835982330908337 204.393132972491 0 0 0 0 20.209726978080653 -33.817720276796535 0 -33.817720276796535 88.819912399936584 0 0 0 0 4.7642009516066537 41.139158193878757 0 41.139158193878757 49.162672635568015 0 0 0 0 -53.230994614513634 128.29621887731992 0 128.29621887731992 165.85534462641954 0 0 0 0 -26.70535697385526 122.00993991708128 0 122.00993991708128 130.37131640651933 0 0 0 0 -50.10353868977927 110.24386643414073 0 110.24386643414073 9.8141181250284717 0 0 0 0 1.2340561268064243 -0.22566204399631573 0 -0.22566204399631573 -0.57700587911163836 0 0 0 0 -57.147515259595025 47.865864592589787 0 47.865864592589787 134.34776969910308 0 0 0 0 -26.460522110402195 6.6254063326796313 0 6.6254063326796313 37.605862972966861 0 0 0 0 3.102061623186728 43.377812753200487 0 43.377812753200487 180.50515767678735 0 0 0 0 -127.06624325269706 40.920594471217555 0 40.920594471217555 93.229214341781699 0 0 0 0 0.16525610940711033 63.462489935022859 0 63.462489935022859 78.07837431349617 0 0 0 0 -52.949486035617355 -34.397042270858947 0 -34.397042270858947 129.63300958607579 0 0 0 0 -212.75359300152036 33.906231906117682 0 33.906231906117682 60.410518076743756 0 0 0 0 -56.799160502988286 -13.137749901259667 0 -13.137749901259667 33.897571757363039 0 0 0 0 -293.17580609593551 -89.448205136694014 0 -89.448205136694014 86.099549479340567 0 0 0 0 -0.0031754217667456786 -8.0294537114513638 0 -8.0294537114513638 43.263765129721051 0 0 0 0 28.230999636027263 42.353000927458197 0 42.353000927458197 168.74562071899254 0 0 0 0 251.73086120503194 275.43049699648691 0 275.43049699648691 170.84973748122138 0 0 0 0 115.94168097699821 61.326837915186843 0 61.326837915186843 160.94479069551016 0 0 0 0 -131.26487235772379 -53.970499915420078 0 -53.970499915420078 -2.8814876722863119 0 0 0 0 -138.75367125181356 -11.51893451379874 0 -11.51893451379874 40.686899469958007 0 0 0 0 -66.876701898475176 -13.245479482386145 0 -13.245479482386145 -9.4842797247911221 0 0 0 0 -12.19583197318434 87.289959042358532 0 87.289959042358532 83.196883769502165 0 0 0 0 -62.176079081619264 -16.10674206933254 0 -16.10674206933254 -49.956417819084891 0 0 0 0 2.3851438275063179 -17.543321218172327 0 -17.543321218172327 69.494189825503469 0 0 0 0 -4.992058203916713 -47.394130771055643 0 -47.394130771055643 -161.1053163959441 0 0 0 0 -201.4583431671025 -120.20863377088608 0 -120.20863377088608 -9.700404224848171 0 0 0 0 113.07484983731592 -61.497538409221306 0 -61.497538409221306 -58.985337129430263 0 0 0 0 -450.29238068581981 -51.829570876227081 0 -51.829570876227081 187.76993577920803 0 0 0 0 29.654829753677632 143.60569315274006 0 143.60569315274006 95.815586220851401 0 0 0 0 -153.22994524174283 111.82729520241264 0 111.82729520241264 -140.97017764895645 0 0 0 0 -314.01457807749557 -148.02039337983297 0 -148.02039337983297 203.95908002195938 0 0 0 0 18.13936439105828 88.37250228504854 0 88.37250228504854 160.28260179314384 0 0 0 0 23.64931905394883 177.39333006383822 0 177.39333006383822 171.11085049462417 0 0 0 0 -43.511684099648846 93.829304869637781 0 93.829304869637781 103.3111776659498 0 0 0 0 -11.178543957089143 -19.419513175434929 0 -19.419513175434929 6.2453171706424371 0 0 0 0 -4.3699672329555215 11.483262641938246 0 11.483262641938246 111.10475569594701 0 0 0 0 90.777916199393076 -17.23673942698224 0 -17.23673942698224 97.624875198174777 0 0 0 0 5.5571640327085561 -20.983287650203096 0 -20.983287650203096 96.314953232715226 0 0 0 0 -321.35245941337052 -440.81971023406368 0 -440.81971023406368 338.15001149399905 0 0 0 0 -99.218576096522611 -157.94856063933548 0 -157.94856063933548 139.1159121973069 0 0 0 0 -10.200717481972978 8.3664769050295931 0 8.3664769050295931 136.85793608612229 0 0 0 0 120.53311423859304 70.023312276967772 0 70.023312276967772 120.20762749756977 0 0 0 0 -378.58829892323217 -102.61485861842812 0 -102.61485861842812 199.34491993926349 0 0 0 0 151.22123682356118 -240.87273946030837 0 -240.87273946030837 154.37355471697811 0 0 0 0 22.691533224902741 -41.307115233095828 0 -41.307115233095828 49.141277843591524 0 0 0 0 -1.7548707800854118 -62.639908495048076 0 -62.639908495048076 173.15544724666688 0 0 0 0 -59.916191913865219 -163.81864970985225 0 -163.81864970985225 112.58041812232113 0 0 0 0 -429.87271379726371 -102.3604235272287 0 -102.3604235272287 252.81818446890975 0 0 0 0 -176.98264163262525 35.692091703924234 0 35.692091703924234 152.4028354256443 0 0 0 0 -9.3045986055697441 4.552362337446084 0 4.552362337446084 159.49713178509109 0 0 0 0 -19.874450006303505 115.48607178653765 0 115.48607178653765 254.8687891347945 0 0 0 0 -47.716463591229058 -90.44099281193121 0 -90.44099281193121 245.77870885873563 0 0 0 0 -117.15820336982574 112.50009264938126 0 112.50009264938126 342.88865214055113 0 0 0 0 29.861113141953865 60.69800438429229 0 60.69800438429229 312.29043819467188 0 0 0 0 -41.886852837695187 70.429040131020884 0 70.429040131020884 297.08914882258978 0 0 0 0 26.43358656675673 167.02742520890752 0 167.02742520890752 362.44627075726748 0 0 0 0 5.0119880504209533 17.32780041013919 0 17.32780041013919 -11.431578009433224 0 0 0 0 125.25024711769993 253.6865068984589 0 253.6865068984589 299.20186070415366 0 0 0 0 40.449199504224453 190.20650901304907 0 190.20650901304907 382.70688396182959 0 0 0 0 49.516811941603919 186.30101160221966 0 186.30101160221966 281.35797639961856 0 0 0 0 -18.043203866921658 160.22433840207668 0 160.22433840207668 305.18531038762012 0 0 0 0 118.65687211365821 203.01515000045038 0 203.01515000045038 253.37084352693637 0 0 0 0 94.890324521294133 215.00386041263118 0 215.00386041263118 266.77515769036836 0 0 0 0 84.490611078683287 233.97377205968951 0 233.97377205968951 317.34071110175864 0 0 0 0 -22.960283384511968 80.153826625348302 0 80.153826625348302 156.78857941690512 0 0 0 0 5.45113155535023 170.48990070945001 0 170.48990070945001 245.56501443154048 0 0 0 0 29.205392673222264 133.62052416326333 0 133.62052416326333 302.32993254228495 0 0 0 0 -129.12867758523052 101.27858360137907 0 101.27858360137907 266.12769185045727 0 0 0 0 -7.2082355092853732 139.66444902912372 0 139.66444902912372 212.91639425554604 0 0 0 0 -161.52368027662976 -61.122840671389895 0 -61.122840671389895 119.04681612877175 0 0 0 0 -202.98167758657951 67.694081175326573 0 67.694081175326573 100.26396836496133 0 0 0 0 -150.40082049191426 -16.708068746053868 0 -16.708068746053868 233.35266663628863 0 0 0 0 -259.38075343847959 -6.7749748537735286 0 -6.7749748537735286 370.70678590722036 0 0 0 0 -384.30157189876854 -52.661854812504316 0 -52.661854812504316 286.40922195513849 0 0 0 0 -8.3829119365739544 2.6711399742204591 0 2.6711399742204591 178.50132950374021 0 0 0 0 455.8492036809937 736.34898066477126 0 736.34898066477126 684.58261945818231 0 0 0 0 248.34517235930116 30.677293325305072 0 30.677293325305072 -178.644429545202 0 0 0 0 -0.74957718781898497 -1.2255295724030546 0 -1.2255295724030546 15.392121355022226 0 0 0 0 -142.36245834788156 38.993197127243548 0 38.993197127243548 261.86291435774183 0 0 0 0 -12.979584660982937 122.94321961923561 0 122.94321961923561 206.97875298700819 0 0 0 0 -16.974190137872387 -7.4526294310506316 0 -7.4526294310506316 186.3230372854205 0 0 0 0 -507.02270188846069 -289.13127025511858 0 -289.13127025511858 960.03385009510384 0 0 0 0 -8.8507819163156469 24.304229521821441 0 24.304229521821441 13.789813419576362 0 0 0 0 791.7514943778524 -704.8669981573903 0 -704.8669981573903 585.80342842774917 0 0 0 0 -274.24446011680629 -88.452493112212323 0 -88.452493112212323 232.62372543351375 0 0 0 0 146.27201013246577 -146.37053613898388 0 -146.37053613898388 21.494580757855147 0 0 0 0 -90.241100324629315 -160.64766896025685 0 -160.64766896025685 -368.24189253457007 0 0 0 0 -30.926374322541172 -48.190557873740843 0 -48.190557873740843 81.841203474770708 0 0 0 0 34.348964591816639 -76.361747406099312 0 -76.361747406099312 29.954149306955514 0 0 0 0 -60.791487705675536 -100.44831701197836 0 -100.44831701197836 282.00245857348636 0 0 0 0 -17.404347889564178 101.05288754247886 0 101.05288754247886 129.25581235795471 0 0 0 0 103.34887028897265 92.933053582997672 0 92.933053582997672 128.08020252561255 0 0 0 0 -1.5996365206439691 -5.6055779303662021 0 -5.6055779303662021 3.5882234584186676 0 0 0 0 243.87400468405235 235.04336324320684 0 235.04336324320684 256.1145097034896 0 0 0 0 -2.3863786017345774 113.68359425385279 0 113.68359425385279 227.60212216441323 0 0 0 0 -9.2930720579906279 69.36137518994019 0 69.36137518994019 157.24340260631288 0 0 0 0 -66.082730490797985 46.965255306189647 0 46.965255306189647 174.46240748261334 0 0 0 0 -57.328907352014539 24.341192443942418 0 24.341192443942418 174.17059764562873 0 0 0 0 -11.46036749429212 3.3292216557778502 0 3.3292216557778502 61.883026084449341 0 0 0 0 -75.760265671248362 68.121782245987561 0 68.121782245987561 131.31084337810171 0 0 0 0 -56.159317768912729 -18.140878741818597 0 -18.140878741818597 88.059396289128927 0 0 0 0 -126.23641645333669 -34.699116714575212 0 -34.699116714575212 110.68761899930541 0 0 0 0 78.721532478862173 48.795705461670877 0 48.795705461670877 21.210257565078791 0 0 0 0 -24.546962637140496 52.754033017525217 0 52.754033017525217 120.1177376377309 0 0 0 0 189.75322296409286 197.80878837220371 0 197.80878837220371 259.49913638224825 0 0 0 0 189.75322296402737 197.80878837205819 0 197.80878837205819 259.49913638341241 0 0 0 0 189.75322296405511 197.80878837218916 0 197.80878837218916 259.49913638370344 0 0 0 0 101.43708406399014 119.69198324529134 0 119.69198324529134 345.89228562058997 0 0 0 0 -1.3491750881654665 17.81268825198454 0 17.81268825198454 -19.808044388844436 0 0 0 0 -28.241117749130694 191.02175980712491 0 191.02175980712491 350.28986767653259 0 0 0 0 -26.638165429173114 -9.341370700232801 0 -9.341370700232801 86.560651774838334 0 0 0 0 -12.21155153985751 186.79227843738045 0 186.79227843738045 347.86248431760805 0 0 0 0 19.83586204198582 192.66641893607448 0 192.66641893607448 280.77237511030398 0 0 0 0 -7.246527935052768 197.34781049517915 0 197.34781049517915 293.59524187624993 0 0 0 0 -102.78307942278184 116.27860486900317 0 116.27860486900317 274.56733329893905 0 0 0 0 32.151898467925093 164.18502075328433 0 164.18502075328433 166.5793987197776 0 0 0 0 -4.503554456135288 2.1964529973241156 0 2.1964529973241156 10.09071998012567 0 0 0 0 -22.6423298531775 13.158242001969484 0 13.158242001969484 63.733913432697591 0 0 0 0 -19.36158339268826 -1.1275686853696243 0 -1.1275686853696243 38.295016165720881 0 0 0 0 -14.944435369234725 -10.648055461701006 0 -10.648055461701006 90.250339058336067 0 0 0 0 -15.235110437272542 8.2042593305362175 0 8.2042593305362175 52.39009415612972 0 0 0 0 -49.341401409712944 -12.4015955134455 0 -12.4015955134455 58.381145929226477 0 0 0 0 -22.674031140377586 20.595257763996415 0 20.595257763996415 94.61851044181094 0 0 0 0 -14.706149006069609 -1.560206709895283 0 -1.560206709895283 29.550994408971746 0 0 0 0 -36.677681524507726 10.325685200004955 0 10.325685200004955 118.57376075420689 0 0 0 0 -13.594026476486306 4.8103371796605643 0 4.8103371796605643 92.188250171238906 0 0 0 0 -12.698824497934083 8.6574494483429589 0 8.6574494483429589 105.65903229481773 0 0 0 0 13.711277423919455 -15.184221047864412 0 -15.184221047864412 86.4254917375074 0 0 0 0 -13.094327310619658 -15.510391855360155 0 -15.510391855360155 33.158078849993842 0 0 0 0 -14.583518723491579 -25.851590860933356 0 -25.851590860933356 124.06195039540762 0 0 0 0 64.147309563836188 27.714637510376633 0 27.714637510376633 64.989981843347778 0 0 0 0 75.219563366790226 65.113516215908021 0 65.113516215908021 156.85706372791901 0 0 0 0 -0.62068397139842446 -7.9503543864361035 0 -7.9503543864361035 -9.5091363230317825 0 0 0 0 19.562492023533196 -20.457759136799723 0 -20.457759136799723 96.954223489126889 0 0 0 0 3.9260752192681139 29.656343130605819 0 29.656343130605819 68.137053106824169 0 0 0 0 29.629435955567487 -5.8490271747705265 0 -5.8490271747705265 49.172451296806685 0 0 0 0 -9.4100005912532652 12.985224234958878 0 12.985224234958878 43.083775633458572 0 0 0 0 -16.716731940924547 -10.353850260311447 0 -10.353850260311447 106.62714426720413 0 0 0 0 4.3232257037416275 10.008329132047947 0 10.008329132047947 72.900011316291057 0 0 0 0 0.35866615799841384 12.722141302294403 0 12.722141302294403 20.337520069355378 0 0 0 0 0.79472765768605313 -0.90555593283352209 0 -0.90555593283352209 3.2482180098159006 0 0 0 0 4.3624685358616944 36.33055324619545 0 36.33055324619545 12.51562224108784 0 0 0 0 -8.0824326010447294 0.97934673559939256 0 0.97934673559939256 24.876186427522043 0 0 0 0 -1.3223214278715023 13.266248068860648 0 13.266248068860648 13.653581743701949 0 0 0 0 237.18099711436599 -424.78038631591494 0 -424.78038631591494 447.81389970306191 0 0 0 0 253.55149058896859 -37.103260284398857 0 -37.103260284398857 26.084952929930296 0 0 0 0 -14.860934014738632 15.619339385921194 0 15.619339385921194 -6.6025321454071673 0 0 0 0 -17.384300684385831 4.9661587705455474 0 4.9661587705455474 11.730849442689276 0 0 0 0 486.31728838171603 369.07181210234558 0 369.07181210234558 283.15449468482257 0 0 0 0 -21.102693922681716 -8.9942373168742051 0 -8.9942373168742051 2.0375334475393174 0 0 0 0 -1.6413479736470258 1.6373112270855756 0 1.6373112270855756 4.4299320552432278 0 0 0 0 152.12793797173799 418.99942249672313 0 418.99942249672313 782.87751533956907 0 0 0 0 43.04402342060348 160.31526314132498 0 160.31526314132498 892.74165998015087 0 0 0 0 152.81390701523949 348.43955413542614 0 348.43955413542614 528.91129557610839 0 0 0 0 -18.321911161376583 3.6809313399299697 0 3.6809313399299697 8.5465931779517064 0 0 0 0 -8.8227029640257868 -13.201007467328964 0 -13.201007467328964 35.351280415270594 0 0 0 0 -25.439221595093983 -10.071355931585458 0 -10.071355931585458 18.35976116367965 0 0 0 0 -21.350894483997024 5.5863238900565193 0 5.5863238900565193 13.513315779178811 0 0 0 0 -37.16890729820102 7.658591102102946 0 7.658591102102946 34.271955772870569 0 0 0 0 185.27038674880168 282.01442848745501 0 282.01442848745501 391.6619772289705 0 0 0 0 -12.752914294437989 8.1328405071633654 0 8.1328405071633654 12.720422729950656 0 0 0 0 107.1163412288588 241.55608323824708 0 241.55608323824708 450.08698577649193 0 0 0 0 164.24427524809471 229.32466601129272 0 229.32466601129272 314.13086794232368 0 0 0 0 138.00394777517977 199.85513384066871 0 199.85513384066871 393.93214550413541 0 0 0 0 289.38366496715298 366.99923686135298 0 366.99923686135298 449.8189904242754 0 0 0 0 -2.7111806889674099 5.5277226165031408 0 5.5277226165031408 4.86404529406542 0 0 0 0 58.286493141837127 150.31455899337016 0 150.31455899337016 348.68899325127222 0 0 0 0 138.81020909326435 216.5051940385747 0 216.5051940385747 345.30819239316043 0 0 0 0 134.63813559142363 231.70039880138938 0 231.70039880138938 415.86029076817795 0 0 0 0 112.74769986573301 258.8086386390496 0 258.8086386390496 388.82648237453213 0 0 0 0 -7.0530427769135713 101.63666372785519 0 101.63666372785519 628.60853289605438 0 0 0 0 21.940204590971916 100.23180530971149 0 100.23180530971149 454.54674091162815 0 0 0 0 36.494477472157087 110.82669500036718 0 110.82669500036718 459.3455516549875 0 0 0 0 56.764101995267993 -100.43251334998058 0 -100.43251334998058 480.33340302105353 0 0 0 0 21.285721355890928 -14.750148447004904 0 -14.750148447004904 285.54336418690218 0 0 0 0 107.29345653487053 88.394348804846231 0 88.394348804846231 791.9144875589991 0 0 0 0 383.31047006824519 472.17026536316553 0 472.17026536316553 797.22791066076024 0 0 0 0 110.74310907393738 115.42877507509547 0 115.42877507509547 669.9919888357108 0 0 0 0 44.83766137465318 193.70220632902056 0 193.70220632902056 763.01057289505843 0 0 0 0 -344.68789003580969 -87.152258453264949 0 -87.152258453264949 830.73890450350154 0 0 0 0 -34.196215626526282 -210.09548105559224 0 -210.09548105559224 363.04679702418798 0 0 0 0 -193.33393567516691 341.76640447083446 0 341.76640447083446 955.0073192002601 0 0 0 0 -171.29730234756153 118.75823956581735 0 118.75823956581735 -60.381705409294227 0 0 0 0 -2.1667762035191114 -2.344396576515777 0 -2.344396576515777 -1.5988877026427701 0 0 0 0 -189.42999110957834 -61.420157737089994 0 -61.420157737089994 157.44727038757992 0 0 0 0 206.01349368621095 -175.32977650337125 0 -175.32977650337125 192.71286510737627 0 0 0 0 207.96804597683331 -312.82268582723191 0 -312.82268582723191 375.28958082922964 0 0 0 0 -58.252644873517056 -59.432435468341282 0 -59.432435468341282 67.234062230934796 0 0 0 0 -5.1275894575125953 -5.504472099471343 0 -5.504472099471343 -7.8762372844462334 0 0 0 0 -93.344047861481158 46.248733139138494 0 46.248733139138494 31.067864669792471 0 0 0 0 101.76063980517006 -201.21287353486878 0 -201.21287353486878 55.203198603732744 0 0 0 0 39.995714209218249 -23.862921323117916 0 -23.862921323117916 27.291303151345346 0 0 0 0 -21.727771891682096 -52.906226279894327 0 -52.906226279894327 112.20013577619829 0 0 0 0 -4.5776748228927318 -40.181008165280218 0 -40.181008165280218 18.702818373966693 0 0 0 0 1.1356549656848607 1.2513294285196253 0 1.2513294285196253 0.61271656372883854 0 0 0 0 259.22272505614274 -126.35695932638191 0 -126.35695932638191 -246.94745509318454 0 0 0 0 -43.421596517557646 -21.721524036111077 0 -21.721524036111077 97.755788856346044 0 0 0 0 646.83263457076168 -8.2563735991570866 0 -8.2563735991570866 87.676934168674052 0 0 0 0 134.22852607851814 -242.98398727928179 0 -242.98398727928179 1243.9827655838162 0 0 0 0 207.06330351846555 -268.44889584825432 0 -268.44889584825432 153.01794556652021 0 0 0 0 226.37461198061089 731.36859101691607 0 731.36859101691607 1189.1001817337528 0 0 0 0 2.9497224017427008 -6.0138713931114864 0 -6.0138713931114864 6.9562380902070799 0 0 0 0 303.47241833435783 445.26168919236807 0 445.26168919236807 1218.2725228690033 0 0 0 0 -39.313423801967474 -400.65969195629441 0 -400.65969195629441 837.03873413968495 0 0 0 0 -101.24593131262236 -205.62452763305191 0 -205.62452763305191 550.88249466435809 0 0 0 0 -82.272474379555661 -254.97226221822348 0 -254.97226221822348 461.28354097186457 0 0 0 0 -118.96942684346709 4.0651600443270581 0 4.0651600443270581 401.14253850956447 0 0 0 0 17.932597377020102 207.51267826117692 0 207.51267826117692 868.57497716522266 0 0 0 0 -13.203340591640881 -11.470723426042241 0 -11.470723426042241 181.27982446389797 0 0 0 0 -153.09999286251377 65.815229666470259 0 65.815229666470259 213.37101348466967 0 0 0 0 228.58921110267624 164.19584479592595 0 164.19584479592595 -362.05098282127437 0 0 0 0 -83.547289918947172 172.57266649586381 0 172.57266649586381 -56.326583384186961 0 0 0 0 -14.391166569748748 20.073110300283588 0 20.073110300283588 37.310108541099908 0 0 0 0 6.3355733240757672 -7.7050371580589854 0 -7.7050371580589854 32.950844628852792 0 0 0 0 -17.386468428131593 -9.7208233705532621 0 -9.7208233705532621 93.395727250612254 0 0 0 0 1.1433813656456646 2.9253763028010553 0 2.9253763028010553 0.42401624823621376 0 0 0 0 2.0198817525967554 25.505352788168238 0 25.505352788168238 31.978006569494028 0 0 0 0 0.01879656703447358 3.2340671001766168 0 3.2340671001766168 17.362603558092815 0 0 0 0 -27.611135266380217 -13.979216193365573 0 -13.979216193365573 73.008655612356961 0 0 0 0 -2.6629524556849122 -0.66331658566792839 0 -0.66331658566792839 5.832097150345362 0 0 0 0 -11.105092500849878 -2.8954614835965913 0 -2.8954614835965913 51.321572288437892 0 0 0 0 -0.53470332357565076 5.9074634566888058 0 5.9074634566888058 25.461177883974869 0 0 0 0 -31.533737865486501 141.58973896508542 0 141.58973896508542 -161.40507357534079 0 0 0 0 -3.4167919607135158 2.910290483052961 0 2.910290483052961 6.4916576210506491 0 0 0 0 -95.477510168535218 42.567714832912316 0 42.567714832912316 -81.920043815393001 0 0 0 0 -0.063799620584194944 0.28575299137082766 0 0.28575299137082766 23.750969566957792 0 0 0 0 -1.2172643194195849 0.86837591645493717 0 0.86837591645493717 9.4010148129871709 0 0 0 0 5.4218382851257907 89.360896268204669 0 89.360896268204669 -13.390562275177217 0 0 0 0 -5.1212217965591629 -10.465096811269177 0 -10.465096811269177 118.973341155448 0 0 0 0 -18.567419540354855 -43.562033198661084 0 -43.562033198661084 -63.357345039607026 0 0 0 0 -1.488715415125367 0.077682860832709366 0 0.077682860832709366 24.165307589220959 0 0 0 0 -49.913765416242605 -11.926215529580077 0 -11.926215529580077 29.229134439905465 0 0 0 0 -184.77684405219392 73.959268280999822 0 73.959268280999822 69.296630762692075 0 0 0 0 -118.75464602513966 98.170948871294968 0 98.170948871294968 139.07483436903567 0 0 0 0 -74.842291245304679 113.94514562297263 0 113.94514562297263 28.214577578793978 0 0 0 0 -13.488302643673705 -44.184475503032445 0 -44.184475503032445 118.44252890076677 0 0 0 0 127.7856559728848 -190.60025411918468 0 -190.60025411918468 61.508585063659666 0 0 0 0 -71.807260485868255 -295.07075203661589 0 -295.07075203661589 589.06075973184488 0 0 0 0 0.031422809461269519 -36.364823407260701 0 -36.364823407260701 -83.747808159983833 0 0 0 0 -0.0085237626599124761 -1.0247356306242352 0 -1.0247356306242352 9.4865554613307381 0 0 0 0 -158.1839561945857 84.855652141959581 0 84.855652141959581 591.51171937491745 0 0 0 0 345.497479591196 -494.79631162465375 0 -494.79631162465375 477.7682270933874 0 0 0 0 512.70903603785439 26.484623745931458 0 26.484623745931458 128.28643160925276 0 0 0 0 -0.17734736703429513 -223.18198057051632 0 -223.18198057051632 1022.55770885128 0 0 0 0 0.25335973067058148 42.76036646940338 0 42.76036646940338 326.64467638966744 0 0 0 0 0.33431477102590446 5.8024165344783398 0 5.8024165344783398 6.4474274061448114 0 0 0 0 -421.8612192355256 -83.254608914052369 0 -83.254608914052369 1198.2309224203345 0 0 0 0 -311.89545809211177 134.57029511700784 0 134.57029511700784 493.80551945776097 0 0 0 0 -156.94637294161475 -168.23922164613032 0 -168.23922164613032 751.8116068848467 0 0 0 0 -87.650055462055661 -519.771258828594 0 -519.771258828594 1024.9150077009654 0 0 0 0 -162.42536947962685 -266.67955655220612 0 -266.67955655220612 582.42216409475077 0 0 0 0 -158.12098896451471 -150.44686227588682 0 -150.44686227588682 517.13822295096907 0 0 0 0 126.11082506643152 -173.34667978884318 0 -173.34667978884318 103.3652578461697 0 0 0 0 -103.89554619550097 -218.85357387391923 0 -218.85357387391923 501.15676990647626 0 0 0 0 21.540639444539465 -252.72150151587266 0 -252.72150151587266 477.1357615503257 0 0 0 0 10.507891319155659 22.324716675220174 0 22.324716675220174 20.479568292037726 0 0 0 0 -27.30490239002313 -172.75691183807066 0 -172.75691183807066 383.45353476103628 0 0 0 0 -9.4310893809797562 -16.797008495574119 0 -16.797008495574119 260.51736744680966 0 0 0 0 -39.582227857243822 -2.3460048608976649 0 -2.3460048608976649 45.966277898332919 0 0 0 0 -18.325059119861262 -9.4610880606724663 0 -9.4610880606724663 30.253777486124733 0 0 0 0 -16.755028748833496 -44.938090961164562 0 -44.938090961164562 6.7583702309057117 0 0 0 0 4.4321062515787162 40.165722961490246 0 40.165722961490246 61.636741257316316 0 0 0 0 6.7719068852775308 16.290745989233983 0 16.290745989233983 38.319854638088145 0 0 0 0 -8.607090385376523 -6.2412229354122246 0 -6.2412229354122246 46.374206406908343 0 0 0 0 -6.3496899473843769 1.3096794945304282 0 1.3096794945304282 51.271709877899411 0 0 0 0 -36.836085548805613 12.373416034461115 0 12.373416034461115 54.619411959967692 0 0 0 0 -58.745953648958789 41.090803203864198 0 41.090803203864198 65.951622812368441 0 0 0 0 -43.293837047228976 11.163536689775356 0 11.163536689775356 72.719819544523489 0 0 0 0 -44.141299392432586 55.188553445470461 0 55.188553445470461 79.044974631047808 0 0 0 0 -32.234061947541768 55.778644475896726 0 55.778644475896726 60.536460840885411 0 0 0 0 -44.353090334362975 57.156085420916497 0 57.156085420916497 61.986434966729576 0 0 0 0 0.33183337968190074 98.371465579224605 0 98.371465579224605 94.318730451501324 0 0 0 0 -130.32501410396611 24.364932369349845 0 24.364932369349845 225.57772984380426 0 0 0 0 -170.68218346401127 -61.884885422066873 0 -61.884885422066873 60.399714270140976 0 0 0 0 -149.82578269348471 -64.303592008756823 0 -64.303592008756823 -6.5953085181245115 0 0 0 0 -6.2869874460868163 3.3394701612407971 0 3.3394701612407971 11.017748985462163 0 0 0 0 -119.05426216279602 -10.479305855667917 0 -10.479305855667917 73.25128563816952 0 0 0 0 -101.02331483270615 48.324195443812641 0 48.324195443812641 119.41642255338957 0 0 0 0 -31.413784317719546 -392.80151508565177 0 -392.80151508565177 624.91508905924093 0 0 0 0 -66.060052491905481 -43.216279809001207 0 -43.216279809001207 635.72318178981914 0 0 0 0 37.866589212778308 176.40101284439334 0 176.40101284439334 949.2634939008226 0 0 0 0 349.42694749643852 -13.144547119592971 0 -13.144547119592971 758.82133226320002 0 0 0 0 293.28726161914074 227.17816691094504 0 227.17816691094504 628.32124378676417 0 0 0 0 168.86066453218518 -108.54304184682587 0 -108.54304184682587 983.91668624711929 0 0 0 0 89.143805707180036 -10.046378290978282 0 -10.046378290978282 863.42432861399357 0 0 0 0 87.302254741411488 126.66462207670882 0 126.66462207670882 1095.4638186087031 0 0 0 0 0.1447555855014678 0.96319056164363559 0 0.96319056164363559 7.2811025933002824 0 0 0 0 260.4644812052311 448.2739474068303 0 448.2739474068303 490.12694449975061 0 0 0 0 289.40322976833977 40.219436720275553 0 40.219436720275553 -4.9697650654179597 0 0 0 0 -261.18768725292102 -48.962961952264777 0 -48.962961952264777 166.48531647356049 0 0 0 0 -0.49354007267369066 1.1614155013235763 0 1.1614155013235763 16.710016193082161 0 0 0 0 -94.354227068817636 -13.598137313434563 0 -13.598137313434563 151.22103749349844 0 0 0 0 -8.1540219255366537 -26.639522696767926 0 -26.639522696767926 91.033936283375624 0 0 0 0 43.1009337344085 -185.2519134099806 0 -185.2519134099806 278.41601970856937 0 0 0 0 11.29135162743296 2.341589525537529 0 2.341589525537529 147.81757411526632 0 0 0 0 -15.721358652308481 -26.622289996886138 0 -26.622289996886138 340.74030059217603 0 0 0 0 -65.651748607722766 -42.032786132814181 0 -42.032786132814181 336.65980548148946 0 0 0 0 -12.914312455506661 39.205982491745999 0 39.205982491745999 357.91606620408811 0 0 0 0 -64.818294971049909 -25.235851306380937 0 -25.235851306380937 480.08905960172342 0 0 0 0 -47.736426845474853 -10.205056753910867 0 -10.205056753910867 429.32839444762703 0 0 0 0 -35.137742599235935 19.792631204705685 0 19.792631204705685 352.58862478252422 0 0 0 0 -141.53082663039822 -56.01149303193688 0 -56.01149303193688 474.83366618852779 0 0 0 0 -51.530122675738426 -174.76900488927174 0 -174.76900488927174 465.31325400269452 0 0 0 0 -106.34414673798256 12.655089417109593 0 12.655089417109593 600.63859039443014 0 0 0 0 -61.38770762220247 -101.16949984796065 0 -101.16949984796065 427.29840091900951 0 0 0 0 -65.19369052345337 -93.554296612427606 0 -93.554296612427606 519.70340963654598 0 0 0 0 -118.06218134398023 -89.357301669404933 0 -89.357301669404933 502.87583934636677 0 0 0 0 -25.347064459690046 -48.044658523559519 0 -48.044658523559519 476.97957346147814 0 0 0 0 -59.930371341952196 -18.683300798088112 0 -18.683300798088112 444.35549186632352 0 0 0 0 -61.162033498162543 4.8983831914493976 0 4.8983831914493976 620.59654721028346 0 0 0 0 -172.84166491484029 57.122956342583166 0 57.122956342583166 239.20682763577315 0 0 0 0 -113.89486471769033 -101.36196737763839 0 -101.36196737763839 341.2564045537174 0 0 0 0 0.59192154798895302 2.8670237137781101 0 2.8670237137781101 5.3148702233686436 0 0 0 0 -67.723548350091733 -106.32253632240645 0 -106.32253632240645 395.06985469626761 0 0 0 0 0.52768550436738337 1.358337882908554 0 1.358337882908554 2.5163084130054827 0 0 0 0 -56.480142515881653 -187.12050326572671 0 -187.12050326572671 807.73941091691813 0 0 0 0 6.8739371308156478 170.59554553574799 0 170.59554553574799 607.56404977762031 0 0 0 0 -64.72185820872437 331.49719353662931 0 331.49719353662931 64.931085120524131 0 0 0 0 17.665823856467796 199.47462178763863 0 199.47462178763863 573.05518600783034 0 0 0 0 -6.271005826921737 157.60218921383648 0 157.60218921383648 529.30023468168292 0 0 0 0 52.356372653110611 130.69554709351314 0 130.69554709351314 539.486530357437 0 0 0 0 119.91940825330494 105.63416192357272 0 105.63416192357272 374.06519831503783 0 0 0 0 86.211306508092548 130.95269339275728 0 130.95269339275728 331.16780838909108 0 0 0 0 245.39916404810788 82.977723261557003 0 82.977723261557003 267.3846499604515 0 0 0 0 121.30950288709209 105.5677195467033 0 105.5677195467033 274.33977081289595 0 0 0 0 97.388467205051711 118.10828187308925 0 118.10828187308925 523.21818408788386 0 0 0 0 170.87976434071061 247.91905741655683 0 247.91905741655683 484.0589935771759 0 0 0 0 73.768948977106447 17.645818718217924 0 17.645818718217924 439.53047123991018 0 0 0 0 2.3599125634214033 -0.92376601572334849 0 -0.92376601572334849 1.3309339993134923 0 0 0 0 139.46291683260552 263.59724007220484 0 263.59724007220484 594.54482958088738 0 0 0 0 195.48848851647813 210.42241935334596 0 210.42241935334596 644.09199647416608 0 0 0 0 206.16944035908182 178.26300933929792 0 178.26300933929792 588.67636511803357 0 0 0 0 23.730010875147855 153.33691105602156 0 153.33691105602156 653.40599391255091 0 0 0 0 116.8228160681283 -28.391156078901986 0 -28.391156078901986 849.67397486198934 0 0 0 0 176.27918569533244 118.64673650448526 0 118.64673650448526 658.64405940005599 0 0 0 0 -74.144618003869255 137.31177958540866 0 137.31177958540866 542.31339721190943 0 0 0 0 14.666085959250267 93.926112285585987 0 93.926112285585987 654.93046744165167 0 0 0 0 -152.76013250948017 263.45894107712047 0 263.45894107712047 844.07212516772779 0 0 0 0 399.23062447823395 213.19185389037557 0 213.19185389037557 645.55492922452686 0 0 0 0 149.43341531364968 48.817696014694775 0 48.817696014694775 522.61523246920478 0 0 0 0 -73.508866112485521 121.99872981193221 0 121.99872981193221 917.79902869966281 0 0 0 0 4.6141905210092702 -1.4659234384407789 0 -1.4659234384407789 1.9371622884210407 0 0 0 0 140.61060997433526 250.80661794112007 0 250.80661794112007 -105.65193029439251 0 0 0 0 2.6385432626742968 1.9667097948199803 0 1.9667097948199803 1.0958132269375724 0 0 0 0 185.28663240782066 435.10347607316135 0 435.10347607316135 467.08685497632541 0 0 0 0 98.300748802340422 178.70896389423342 0 178.70896389423342 144.00063958521059 0 0 0 0 116.72269144179779 17.670864936175917 0 17.670864936175917 108.89423516873467 0 0 0 0 55.380376966202675 63.267360691602335 0 63.267360691602335 203.34207392545432 0 0 0 0 -74.535849630970915 -23.886408533522626 0 -23.886408533522626 116.40765746113357 0 0 0 0 -90.480109645051016 -44.63100341910831 0 -44.63100341910831 20.397320699443299 0 0 0 0 62.281527460550933 43.466887312611334 0 43.466887312611334 63.849658069699217 0 0 0 0 5.2967896867374886 2.8264568085433375 0 2.8264568085433375 7.2628895182125781 0 0 0 0 -70.233816415307501 3.6603201724292376 0 3.6603201724292376 30.13228983848785 0 0 0 0 -125.98369273781259 86.409828424531497 0 86.409828424531497 25.862376732031407 0 0 0 0 231.96133522858872 61.93532526898889 0 61.93532526898889 -27.915471540076396 0 0 0 0 8.9496874644355557 -0.58227453999097634 0 -0.58227453999097634 31.247703814558918 0 0 0 0 -46.905042960441335 52.719691804677268 0 52.719691804677268 15.529091390115354 0 0 0 0 2.5684942550033716 0.9157251650295386 0 0.9157251650295386 13.691254198919701 0 0 0 0 11.231821730093213 -8.465744756961378 0 -8.465744756961378 16.084784570771998 0 0 0 0 22.253831101953629 -26.608235259835773 0 -26.608235259835773 25.532383201616696 0 0 0 0 53.933858709995548 30.957030494769242 0 30.957030494769242 -15.786161913796604 0 0 0 0 79.782420342699879 -93.542757481749504 0 -93.542757481749504 -67.607576665792294 0 0 0 0 7.9855662012856783 -183.16091389334633 0 -183.16091389334633 311.62822753262299 0 0 0 0 16.973515192008463 -19.439298229870239 0 -19.439298229870239 20.923993925081398 0 0 0 0 -38.20859398099185 56.913784304329283 0 56.913784304329283 99.693214434293623 0 0 0 0 91.177460445060206 -150.96902350294204 0 -150.96902350294204 501.91634190137484 0 0 0 0 137.20398713912709 -188.32052119412765 0 -188.32052119412765 307.82233597939558 0 0 0 0 269.92309056587328 -21.638189293451433 0 -21.638189293451433 -113.56528212563353 0 0 0 0 100.59110687971224 -327.92805986612802 0 -327.92805986612802 556.69967867448304 0 0 0 0 -38.677725480323716 -99.540602341590784 0 -99.540602341590784 1047.7118957635539 0 0 0 0 62.587697451897839 -300.37202864636038 0 -300.37202864636038 1268.6193034280695 0 0 0 0 27.717439546645323 -81.190884619931921 0 -81.190884619931921 306.70205678905404 0 0 0 0 -9.1598119131822386 26.31153414597793 0 26.31153414597793 676.23917777429961 0 0 0 0 -35.352632782165529 -150.84259356654002 0 -150.84259356654002 830.88027310710822 0 0 0 0 35.259845574684732 -175.54055403575603 0 -175.54055403575603 799.75766506825676 0 0 0 0 0.52674863991705934 -76.091444708788913 0 -76.091444708788913 1062.0800297122842 0 0 0 0 -161.09828689591052 -139.77788267524579 0 -139.77788267524579 1255.8633232533866 0 0 0 0 -147.49899115007833 -23.127869280557775 0 -23.127869280557775 1043.5919613314072 0 0 0 0 -9.6433555904068271 -19.179654560753988 0 -19.179654560753988 1060.5076990877133 0 0 0 0 17.471937018183553 -136.95996415869467 0 -136.95996415869467 1072.5829431967431 0 0 0 0 101.56601673902151 53.16082579176873 0 53.16082579176873 1100.5573017478937 0 0 0 0 111.55598929083737 178.08937190284325 0 178.08937190284325 1313.8782466735865 0 0 0 0 -3.9141313672928391 -21.879277197181409 0 -21.879277197181409 1330.4849469647743 0 0 0 0 211.59519632202864 -46.291993247708888 0 -46.291993247708888 847.93984714012186 0 0 0 0 278.30915851361715 -90.213888373138616 0 -90.213888373138616 1003.1641482700734 0 0 0 0 454.14480864564393 94.563295210835349 0 94.563295210835349 929.50847899188921 0 0 0 0 673.88672452445462 71.740502153272246 0 71.740502153272246 931.58576999630532 0 0 0 0 647.60617150581129 -137.50310924603764 0 -137.50310924603764 1009.1499247448101 0 0 0 0 446.43618121464624 -256.34345480416596 0 -256.34345480416596 1058.9379424301733 0 0 0 0 312.33426308970775 -240.59793559646278 0 -240.59793559646278 1059.1258696693731 0 0 0 0 166.99678599564641 -81.26259090040503 0 -81.26259090040503 886.63004841066868 0 0 0 0 83.01806794849108 -83.333391677815598 0 -83.333391677815598 1181.6943025879727 0 0 0 0 158.60399421841248 -117.38451900234759 0 -117.38451900234759 906.13295155850392 0 0 0 0 -57.89981427173916 55.226311704591353 0 55.226311704591353 1046.4574232286641 0 0 0 0 -42.198827891312249 353.62472547846846 0 353.62472547846846 997.67792077121157 0 0 0 0 -77.03187494426129 82.481520221855135 0 82.481520221855135 545.89753557008589 0 0 0 0 641.91276957351511 -113.80518008847139 0 -113.80518008847139 1074.2319960892346 0 0 0 0 0.24345264813482093 -0.32279714303127882 0 -0.32279714303127882 5.7182525582889951 0 0 0 0 326.60177288142677 405.34363903087069 0 405.34363903087069 456.72498312171956 0 0 0 0 1.9391162183300317 -1.044264125088489 0 -1.044264125088489 2.0081737879126003 0 0 0 0 273.73900609586781 -418.19905639981152 0 -418.19905639981152 549.51234395794199 0 0 0 0 126.93471437011976 100.48782003483211 0 100.48782003483211 1443.9177496018601 0 0 0 0 -17.702355715848171 -241.75703159955083 0 -241.75703159955083 517.03108310605603 0 0 0 0 -37.687388186453063 -154.47231606516289 0 -154.47231606516289 459.69852195014755 0 0 0 0 -36.413043386988306 -72.262684925392477 0 -72.262684925392477 441.09908707520663 0 0 0 0 219.62673858433482 -14.049478588472994 0 -14.049478588472994 323.19357524373663 0 0 0 0 86.549959733678406 -363.37060356611073 0 -363.37060356611073 636.24489556617118 0 0 0 0 203.15043067958527 -260.21897142204853 0 -260.21897142204853 102.80687487648174 0 0 0 0 -222.15938169737819 -370.46371844346868 0 -370.46371844346868 636.09505159681066 0 0 0 0 440.22121930148205 -463.9251016479011 0 -463.9251016479011 -498.65107558396994 0 0 0 0 466.78227634253653 -725.61320413889553 0 -725.61320413889553 526.78446065889875 0 0 0 0 168.25111875169605 -201.89341656557235 0 -201.89341656557235 285.89804173173616 0 0 0 0 -156.49974841841185 81.8739758306574 0 81.8739758306574 225.7575765921938 0 0 0 0 -273.16689476935073 -493.71387979074279 0 -493.71387979074279 -121.95551484434964 0 0 0 0 -195.65144793610546 15.017908495585289 0 15.017908495585289 200.97039908322768 0 0 0 0 -81.669618311648264 133.0126874986945 0 133.0126874986945 794.97196120263106 0 0 0 0 -90.64636218191589 136.20453529085069 0 136.20453529085069 1948.5469793379525 0 0 0 0 163.25029724513433 -345.2275572424951 0 -345.2275572424951 583.20797152980231 0 0 0 0 104.78884285042477 -323.74936961121784 0 -323.74936961121784 1114.4382561284056 0 0 0 0 354.25283422890152 -760.05612943981578 0 -760.05612943981578 1364.3531363557795 0 0 0 0 823.38735693807234 -523.6845954476039 0 -523.6845954476039 324.15024139734669 0 0 0 0 7.8314471363568563 -7.4896272471218701 0 -7.4896272471218701 7.6652253984074434 0 0 0 0 6.8330841825145399 -733.18288019229658 0 -733.18288019229658 1205.9773367128328 0 0 0 0 -522.61724506844439 -275.84691787048723 0 -275.84691787048723 1459.5148380260089 0 0 0 0 345.43339491191909 335.9452444614667 0 335.9452444614667 715.11118647507465 0 0 0 0 -622.39443790415316 -62.620169665242429 0 -62.620169665242429 680.78662085133146 0 0 0 0 -117.47275981311577 -85.36933028508065 0 -85.36933028508065 -50.635261069122862 0 0 0 0 -78.665943056893866 10.915991306051183 0 10.915991306051183 745.51938700058599 0 0 0 0 -4.1862093111372616 1.3480574378125496 0 1.3480574378125496 -0.45888180936866974 0 0 0 0 -152.58479967067251 -44.075609947194607 0 -44.075609947194607 734.71267032444666 0 0 0 0 -346.66171050144294 -53.826895198217244 0 -53.826895198217244 832.35465206200752 0 0 0 0 -113.34088021375283 -223.03370367039679 0 -223.03370367039679 833.95313604974945 0 0 0 0 -72.154998689626154 -10.609244653223868 0 -10.609244653223868 50.976020127336596 0 0 0 0 -68.168066379920674 -24.116632154259605 0 -24.116632154259605 29.120851769952424 0 0 0 0 -119.00267263741762 -193.37882734259711 0 -193.37882734259711 -65.709122043761454 0 0 0 0 -55.720170825960849 -33.380372965417337 0 -33.380372965417337 80.360205532739201 0 0 0 0 -14.619661227428097 -1.3049047589846836 0 -1.3049047589846836 2.1340963039504572 0 0 0 0 -4.8777265353110337 -1.2562361553445669 0 -1.2562361553445669 -0.28845254928040731 0 0 0 0 -499.11851557011323 180.64236500040897 0 180.64236500040897 38.400454397025896 0 0 0 0 -463.89705105519397 -93.656016280968288 0 -93.656016280968288 201.58074711650806 0 0 0 0 -125.73339789337479 327.42627591859673 0 327.42627591859673 54.362175917412969 0 0 0 0 184.65602553774397 -25.087755167890464 0 -25.087755167890464 201.45081687256243 0 0 0 0 230.57109597061435 -68.732931603471116 0 -68.732931603471116 420.48582468492168 0 0 0 0 224.15956449717305 -230.58574089820104 0 -230.58574089820104 -414.0469213088254 0 0 0 0 412.16914515861754 -164.24671582288556 0 -164.24671582288556 75.500303675748 0 0 0 0 265.58207600213973 -140.02231885162655 0 -140.02231885162655 656.76535493104575 0 0 0 0 408.16587384673767 186.7765391306566 0 186.7765391306566 212.99122206790798 0 0 0 0 -374.92949584798134 262.62613013741975 0 262.62613013741975 342.54898550875896 0 0 0 0 2.6222616044692213 2.8836623407875805 0 2.8836623407875805 2.07571304418002 0 0 0 0 254.19172212582453 321.7605484759697 0 321.7605484759697 338.9290894899932 0 0 0 0 320.42226664580903 67.696080286843426 0 67.696080286843426 -29.542161098569522 0 0 0 0 660.41723420589096 95.733633612051108 0 95.733633612051108 -42.928619591155439 0 0 0 0 352.05869601325594 181.75934839216643 0 181.75934839216643 95.570325305103324 0 0 0 0 274.48985081941919 439.21418302499296 0 439.21418302499296 469.87045708175083 0 0 0 0 29.163075099029811 108.54465041197363 0 108.54465041197363 81.501733304459776 0 0 0 0 -197.92725394007812 114.32420419517803 0 114.32420419517803 285.52547351443991 0 0 0 0 -163.72003188658709 225.62861946167141 0 225.62861946167141 196.23168018676006 0 0 0 0 62.36209601554765 -95.329498804405375 0 -95.329498804405375 347.3646594422753 0 0 0 0 -106.92380434786969 305.45908656729762 0 305.45908656729762 -167.90326863751397 0 0 0 0 -0.93180655801233314 -0.26162549123800005 0 -0.26162549123800005 0.037070251528440679 0 0 0 0 -205.04130771245309 44.553021016005914 0 44.553021016005914 26.011015810541721 0 0 0 0 -171.55517279571814 -0.43924895284544618 0 -0.43924895284544618 23.700487622094442 0 0 0 0 332.37894489012979 18.777234058785325 0 18.777234058785325 478.20373009503692 0 0 0 0 266.87271745745602 -82.002287226656335 0 -82.002287226656335 546.7788192729804 0 0 0 0 88.845491974242094 188.18282533643111 0 188.18282533643111 643.51511187383221 0 0 0 0 316.85211985714523 55.92776765882445 0 55.92776765882445 429.96590274713708 0 0 0 0 184.31615586310545 -49.222667538309906 0 -49.222667538309906 852.10874393934682 0 0 0 0 66.716257225579511 -56.391793428504116 0 -56.391793428504116 866.12408438736747 0 0 0 0 179.97280128951149 -8.5951594635054107 0 -8.5951594635054107 684.84286886288101 0 0 0 0 297.54607911268431 -157.35920648376668 0 -157.35920648376668 812.14980213982562 0 0 0 0 252.28678713078261 22.639171879894548 0 22.639171879894548 788.64701942881948 0 0 0 0 217.61281312142779 38.753444130719345 0 38.753444130719345 840.68040711101639 0 0 0 0 109.9276184224309 -92.575178100986705 0 -92.575178100986705 633.46783554925059 0 0 0 0 146.59080992706549 -4.5992090908275713 0 -4.5992090908275713 825.43493580600534 0 0 0 0 213.44403467863413 -77.246686310165387 0 -77.246686310165387 649.98647787041045 0 0 0 0 214.58809976532234 -34.673864680380575 0 -34.673864680380575 474.98109422254856 0 0 0 0 78.835286220530179 -20.028159590605355 0 -20.028159590605355 775.47912674954114 0 0 0 0 -34.287665916715923 137.53125333778371 0 137.53125333778371 513.32068341417562 0 0 0 0 232.48101606952241 -5.5638549100140153 0 -5.5638549100140153 480.5547403305427 0 0 0 0 191.20663612165617 8.7131029115580532 0 8.7131029115580532 616.13256775554692 0 0 0 0 86.54907501580783 8.8276333186258853 0 8.8276333186258853 496.65497187288747 0 0 0 0 100.91028029529116 -29.982969633136236 0 -29.982969633136236 270.59509293371957 0 0 0 0 -130.52955049679258 71.061771868109645 0 71.061771868109645 362.22388032721574 0 0 0 0 -102.70610885787983 -33.219345060487285 0 -33.219345060487285 -174.00301738703638 0 0 0 0 124.5637037856186 87.914276224016248 0 87.914276224016248 -127.96554392795588 0 0 0 0 19.729728438554957 -10.988141224905121 0 -10.988141224905121 434.82568679297583 0 0 0 0 521.42282182150302 -86.370620589506871 0 -86.370620589506871 209.22648226623278 0 0 0 0 215.02835421885857 -138.47096661784281 0 -138.47096661784281 281.53996850864132 0 0 0 0 267.64401325054104 225.91231521260539 0 225.91231521260539 311.69880945143814 0 0 0 0 71.430261123235141 146.02815660979559 0 146.02815660979559 158.64369361769241 0 0 0 0 573.58650354605106 151.14083485384981 0 151.14083485384981 113.23656043801839 0 0 0 0 6.8771278689482465 3.0101356031767779 0 3.0101356031767779 0.088186647482139335 0 0 0 0 708.49620913248827 -362.10462046172665 0 -362.10462046172665 -201.79070047833375 0 0 0 0 600.61896004621212 -70.694355611095489 0 -70.694355611095489 -197.70872437597063 0 0 0 0 666.28523901938388 -113.86756606137442 0 -113.86756606137442 -506.39791240734849 0 0 0 0 6.2190757206367309 0.68556085490963881 0 0.68556085490963881 -0.31459272132553551 0 0 0 0 268.8957805532973 320.61110044968154 0 320.61110044968154 327.44916211447708 0 0 0 0 822.03484695532154 213.45813233503691 0 213.45813233503691 -136.33829814988349 0 0 0 0 -130.0073808047473 -34.196334959102387 0 -34.196334959102387 -164.85064971990869 0 0 0 0 135.03685171735742 324.61993316846156 0 324.61993316846156 -498.30701341447275 0 0 0 0 -213.35971450222041 89.707689107084661 0 89.707689107084661 6.9440455507010483 0 0 0 0 2.5944487360315591 0.67525962871710021 0 0.67525962871710021 0.10782798046817632 0 0 0 0 -232.84570688746408 391.76198505450157 0 391.76198505450157 -136.12047589083977 0 0 0 0 26.769714011822543 14.107833957323237 0 14.107833957323237 6.0004375914577395 0 0 0 0 7.6899066857298433 6.4954756249524337 0 6.4954756249524337 3.0242391766566072 0 0 0 0 74.689733429123407 -24.083454230218194 0 -24.083454230218194 -23.613316992428736 0 0 0 0 3.8548735921459176 0.80766176869678219 0 0.80766176869678219 -2.7733024140138127 0 0 0 0 12.201091107130441 4.9229110402671026 0 4.9229110402671026 1.0434252230252703 0 0 0 0 7.9693000615652636 29.034519207179983 0 29.034519207179983 17.752430497850582 0 0 0 0 22.132456718809408 -7.1136637765666819 0 -7.1136637765666819 -20.021583037781056 0 0 0 0 174.00977519106164 -100.16294707448105 0 -100.16294707448105 -34.664088039968192 0 0 0 0 26.086150092076423 -116.04598963274384 0 -116.04598963274384 293.19756272001905 0 0 0 0 90.093876262955746 -40.842302233500959 0 -40.842302233500959 46.677773302812511 0 0 0 0 0.53173219321793397 -1.6358339858438526 0 -1.6358339858438526 0.62792968775088553 0 0 0 0 64.848757534480683 -79.354145736113423 0 -79.354145736113423 343.12585124925863 0 0 0 0 58.855195815231127 -150.02550741124105 0 -150.02550741124105 225.32042585264935 0 0 0 0 26.120249803934257 90.234722916527062 0 90.234722916527062 183.61627353188305 0 0 0 0 1.3483447138376405 0.72660985463831196 0 0.72660985463831196 -0.41971589977816848 0 0 0 0 177.02470407448163 113.39624051647479 0 113.39624051647479 151.51876366912256 0 0 0 0 620.79336009924918 241.08257079370924 0 241.08257079370924 -344.64944560076037 0 0 0 0 476.15785754584488 449.88818034069755 0 449.88818034069755 -20.173211508554232 0 0 0 0 408.66354760183799 -127.70164028900422 0 -127.70164028900422 80.250811082529253 0 0 0 0 10.75646025428523 -1.0023520042568634 0 -1.0023520042568634 7.3156199579170789 0 0 0 0 654.05569290833773 39.02179112001977 0 39.02179112001977 8.9599645173293538 0 0 0 0 -3.8479020916079207 133.43707967577484 0 133.43707967577484 248.0447848996082 0 0 0 0 18.062139523856786 58.796724337764317 0 58.796724337764317 299.50056558615688 0 0 0 0 26.998965683152164 129.00706401699972 0 129.00706401699972 207.9928850619126 0 0 0 0 17.437934385766766 139.45844595333529 0 139.45844595333529 201.24475248311501 0 0 0 0 16.095053120730881 75.781412590915352 0 75.781412590915352 185.43095538192028 0 0 0 0 46.83048861943189 110.06095514129629 0 110.06095514129629 217.95851139140541 0 0 0 0 213.98756507625785 141.10359524232081 0 141.10359524232081 127.8565937530966 0 0 0 0 81.933344211738586 81.382671718170059 0 81.382671718170059 137.24888260462103 0 0 0 0 60.35898461654142 168.68991371375705 0 168.68991371375705 130.5123602252097 0 0 0 0 1.8179229083149586 -0.97245250058657717 0 -0.97245250058657717 -0.59471282971631112 0 0 0 0 13.626291059701543 68.50046945950271 0 68.50046945950271 123.32790167734493 0 0 0 0 46.3609942667631 -47.319251740787422 0 -47.319251740787422 111.88280760034831 0 0 0 0 184.74115118401915 -93.733856345024833 0 -93.733856345024833 22.021696209287256 0 0 0 0 35.306107177796548 -56.370019860001776 0 -56.370019860001776 108.78600980783403 0 0 0 0 1.2781386657023219 -2.1716830719282072 0 -2.1716830719282072 0.79797894726905483 0 0 0 0 34.632286569534699 -20.724374008314044 0 -20.724374008314044 102.32301193014973 0 0 0 0 18.244069637155917 22.987801672104979 0 22.987801672104979 132.2558958500565 0 0 0 0 64.031144737025897 2.9153162380998765 0 2.9153162380998765 120.81900802060045 0 0 0 0 49.638123846714279 63.010035047684141 0 63.010035047684141 183.07298253937188 0 0 0 0 -21.90682843940408 13.421742930440814 0 13.421742930440814 175.37522471386546 0 0 0 0 91.155130692383409 -24.664703543864562 0 -24.664703543864562 224.35791549945134 0 0 0 0 0.47955616489161912 -1.5849302352601171 0 -1.5849302352601171 0.66805833679716109 0 0 0 0 73.687046398204075 25.121098235840691 0 25.121098235840691 92.27645867604997 0 0 0 0 30.332319205892418 -20.62626529283807 0 -20.62626529283807 191.2064221022506 0 0 0 0 21.653997069227444 -54.83257084833167 0 -54.83257084833167 290.57289492332529 0 0 0 0 98.484936205865552 -60.966837278763251 0 -60.966837278763251 199.90490631586727 0 0 0 0 -4.6323141085399584 -10.106796686951384 0 -10.106796686951384 218.79005918691473 0 0 0 0 53.829003800037754 -14.438923324973075 0 -14.438923324973075 218.72288879417465 0 0 0 0 49.908511247066144 -32.096075763964109 0 -32.096075763964109 161.16033328716003 0 0 0 0 12.263481944766681 -26.742888451462932 0 -26.742888451462932 153.36614459852717 0 0 0 0 -39.469788937820795 14.891307149786371 0 14.891307149786371 262.4152590467238 0 0 0 0 61.534666937956899 81.543397911269494 0 81.543397911269494 267.89101062341433 0 0 0 0 49.666971342549004 53.22317132673561 0 53.22317132673561 235.30215946041426 0 0 0 0 88.787769885100715 105.63207481137033 0 105.63207481137033 167.78550355365223 0 0 0 0 136.45267364379833 83.084715154538571 0 83.084715154538571 103.93334644925562 0 0 0 0 174.30931824578329 143.81870603599054 0 143.81870603599054 181.71619809856838 0 0 0 0 127.55376476075344 55.53948533791845 0 55.53948533791845 181.73342840083205 0 0 0 0 37.028543424540658 15.708992541673979 0 15.708992541673979 168.40582380545311 0 0 0 0 104.78825855870718 -6.7949509192326332 0 -6.7949509192326332 94.347832076553459 0 0 0 0 23.475961669718345 -47.299153553030919 0 -47.299153553030919 74.400289694707681 0 0 0 0 17.733517666155421 7.790432178777337 0 7.790432178777337 137.656129996245 0 0 0 0 25.676366972831602 -34.443647634525405 0 -34.443647634525405 161.18921209361724 0 0 0 0 325.78770395577158 175.63184078738959 0 175.63184078738959 255.94333828967137 0 0 0 0 506.64017604823312 532.07164296086739 0 532.07164296086739 621.24977257625505 0 0 0 0 2.2762175842625005 4.3603090951729442 0 4.3603090951729442 12.07476069124354 0 0 0 0 -10.470850923960825 -465.7946446632377 0 -465.7946446632377 887.16024834092241 0 0 0 0 586.11883354386191 231.91897829320078 0 231.91897829320078 136.54933096149762 0 0 0 0 222.08987438936492 -527.06175831561814 0 -527.06175831561814 660.15857431120094 0 0 0 0 162.07731387063905 -445.88956297897676 0 -445.88956297897676 1093.9476949311793 0 0 0 0 1107.2602838005105 114.68386054935672 0 114.68386054935672 107.22293866748805 0 0 0 0 44.108374028142862 194.91169039892338 0 194.91169039892338 1002.7959160992905 0 0 0 0 454.07528690949039 -99.444785892839718 0 -99.444785892839718 209.93814403183524 0 0 0 0 674.87564920446221 -430.14947128425774 0 -430.14947128425774 705.22896408993256 0 0 0 0 191.02011879951169 20.672030125035235 0 20.672030125035235 1181.6897602540521 0 0 0 0 170.52274994285699 138.77409583993631 0 138.77409583993631 512.41936797998642 0 0 0 0 103.96910308879433 -70.393865258854021 0 -70.393865258854021 321.93132496596081 0 0 0 0 74.635655644036888 141.31657725920013 0 141.31657725920013 416.371960540685 0 0 0 0 91.413937712726693 -80.810494861550978 0 -80.810494861550978 697.27838939751382 0 0 0 0 18.093789795240809 63.384450640180148 0 63.384450640180148 325.53857668915589 0 0 0 0 94.898985433514099 98.787508155803152 0 98.787508155803152 501.315217917876 0 0 0 0 234.27138986120917 280.25221965707897 0 280.25221965707897 389.3968875794726 0 0 0 0 264.16617260789553 91.536840700763605 0 91.536840700763605 57.260207401552179 0 0 0 0 138.39108610652602 158.91336566056088 0 158.91336566056088 243.85684956310433 0 0 0 0 195.56903528967814 178.70879287619391 0 178.70879287619391 201.05996409022919 0 0 0 0 122.79010504706639 170.4927082314407 0 170.4927082314407 289.29638529704698 0 0 0 0 130.27873593211461 192.97241935423881 0 192.97241935423881 150.33467501287305 0 0 0 0 109.4418216465674 3.739272525841443 0 3.739272525841443 129.88520139158209 0 0 0 0 51.278799841065847 138.00341935600227 0 138.00341935600227 190.38759232352186 0 0 0 0 325.65858915950957 -22.795717121251073 0 -22.795717121251073 -15.709627934222226 0 0 0 0 390.69542888188516 -139.51186856155073 0 -139.51186856155073 97.812652744301886 0 0 0 0 250.00771283419817 35.633939704279328 0 35.633939704279328 106.46947967127562 0 0 0 0 391.90164585080856 251.40050599092865 0 251.40050599092865 183.56230507974033 0 0 0 0 322.72727804685019 -36.9325513578151 0 -36.9325513578151 -76.194298569054808 0 0 0 0 514.26012798637385 113.13375033810371 0 113.13375033810371 -160.05039964384923 0 0 0 0 -50.791946337201807 -126.0945479948532 0 -126.0945479948532 -3.0245853779342724 0 0 0 0 440.04609649579288 -21.016467061053845 0 -21.016467061053845 -187.10659911575931 0 0 0 0 267.84507404272881 -132.42720380475657 0 -132.42720380475657 -193.10689786486046 0 0 0 0 300.81682422547601 78.809259667832521 0 78.809259667832521 -18.221043318757438 0 0 0 0 -202.2174059633694 205.52205512015098 0 205.52205512015098 78.941383369958203 0 0 0 0 466.95862014555314 3.6674264229841356 0 3.6674264229841356 -47.065950759926636 0 0 0 0 170.17441330333349 77.69133193957714 0 77.69133193957714 -26.345576976033044 0 0 0 0 225.76126361508432 301.35611456163679 0 301.35611456163679 56.182338087419339 0 0 0 0 162.44733764627017 188.06567591380735 0 188.06567591380735 -118.86156613908679 0 0 0 0 -91.48166313114416 74.570478203069797 0 74.570478203069797 182.79831265080429 0 0 0 0 3.8204899961448007 10.663874874999735 0 10.663874874999735 27.590396616285702 0 0 0 0 -163.24364793887435 -136.77430824010298 0 -136.77430824010298 -73.524689944075362 0 0 0 0 142.33411669398629 -0.079413128452870296 0 -0.079413128452870296 -222.58048289344151 0 0 0 0 162.00723154826483 141.66952604664039 0 141.66952604664039 -377.69642353913878 0 0 0 0 -0.1277935871767113 -46.418716323025365 0 -46.418716323025365 -186.27699339656101 0 0 0 0 191.50654690118245 -91.264307852736238 0 -91.264307852736238 -217.5511506956027 0 0 0 0 387.01036441826727 13.960864852197119 0 13.960864852197119 -161.7107576538765 0 0 0 0 275.93212164381112 99.498281563435739 0 99.498281563435739 -81.521747007776867 0 0 0 0 156.91962680636516 54.088428222576113 0 54.088428222576113 -95.700364149197412 0 0 0 0 158.38087672104257 232.92261240915377 0 232.92261240915377 289.31350898138771 0 0 0 0 129.36766001773321 460.29031421754189 0 460.29031421754189 826.95809638970968 0 0 0 0 204.87228559886876 -47.611717032409615 0 -47.611717032409615 113.31830033063306 0 0 0 0 624.46840696084837 237.13653939435972 0 237.13653939435972 199.98890448139719 0 0 0 0 -211.94772783432018 -154.54637208108761 0 -154.54637208108761 1330.1626920613617 0 0 0 0 -209.66910682095113 -147.80551294716497 0 -147.80551294716497 456.36350759847846 0 0 0 0 549.9811053181993 47.067838336824025 0 47.067838336824025 -864.94522725218667 0 0 0 0 -333.96858839830202 168.43666190049225 0 168.43666190049225 474.19506081493455 0 0 0 0 -0.11799258537780943 0.89954742865264592 0 0.89954742865264592 3.5615113386394768 0 0 0 0 -9.9094799024933309 -77.162354156076617 0 -77.162354156076617 183.52890848600873 0 0 0 0 -208.61118879999049 273.51339850818476 0 273.51339850818476 560.21772192248318 0 0 0 0 -232.19490139957634 30.972730821165896 0 30.972730821165896 498.39289259873112 0 0 0 0 69.660316339030032 -113.94572214840446 0 -113.94572214840446 38.420574969768495 0 0 0 0 59.038493933501741 67.197743315549815 0 67.197743315549815 -15.318691126632075 0 0 0 0 -25.935073386574004 -233.77093989887908 0 -233.77093989887908 -165.85414577456322 0 0 0 0 1.215699434432512 2.9417391445146492 0 2.9417391445146492 3.320217505524397 0 0 0 0 3.2579688290916113 0.43643524328665695 0 0.43643524328665695 0.80256859985951223 0 0 0 0 339.54554290752685 -238.49810543453918 0 -238.49810543453918 -216.06380248121422 0 0 0 0 -220.64765928737324 157.15096400209131 0 157.15096400209131 552.18755728280848 0 0 0 0 115.99978875001943 -164.32881152251684 0 -164.32881152251684 153.72629495771071 0 0 0 0 -0.58503079064303165 -255.59843881033021 0 -255.59843881033021 1118.5248312203366 0 0 0 0 0.29075936592214191 -0.82355837684084587 0 -0.82355837684084587 3.4688633857880404 0 0 0 0 -42.687207959087118 -53.147941115130379 0 -53.147941115130379 768.76123326379093 0 0 0 0 3.1869640166158533 1.4167391172676105 0 1.4167391172676105 0.12005138439959495 0 0 0 0 11.636167693594871 167.1041368976903 0 167.1041368976903 634.13504112596456 0 0 0 0 138.43738995784997 -112.93696401038278 0 -112.93696401038278 124.8637003185213 0 0 0 0 4.6545589901813926 3.6318610905870656 0 3.6318610905870656 7.1951015204595805 0 0 0 0 -5.8835905544910929 91.165388550778516 0 91.165388550778516 -36.379050065706906 0 0 0 0 -3.2118541141571768 1.6393306790796487 0 1.6393306790796487 73.516229373184615 0 0 0 0 69.564705966315159 -341.93043079716517 0 -341.93043079716517 184.89073380586706 0 0 0 0 -72.391644545026793 -340.1715332596541 0 -340.1715332596541 697.61032848899231 0 0 0 0 115.30341220619812 -300.90652418252284 0 -300.90652418252284 324.67770814029063 0 0 0 0 -97.88155576211102 -360.60238546064829 0 -360.60238546064829 688.15641694420628 0 0 0 0 -0.03932962690927648 -0.87582385813298558 0 -0.87582385813298558 8.2818732519246794 0 0 0 0 58.263435686774756 -588.67517967182721 0 -588.67517967182721 659.81289629935964 0 0 0 0 -57.847646308084222 357.22692837853901 0 357.22692837853901 836.77976867598863 0 0 0 0 -349.75784699473115 41.287095522011441 0 41.287095522011441 153.23794185778752 0 0 0 0 -1.0623898512028251 0.59450035619616415 0 0.59450035619616415 20.555458453475879 0 0 0 0 -270.20384168266901 148.42255996141648 0 148.42255996141648 291.21649349035579 0 0 0 0 31.389424428580242 -25.679613850705209 0 -25.679613850705209 152.02214765978715 0 0 0 0 -273.95474054089755 165.95098880278965 0 165.95098880278965 264.91144805966906 0 0 0 0 272.44602343537053 421.77927475946808 0 421.77927475946808 -535.23389200233214 0 0 0 0 -212.45961188030697 306.62299791099122 0 306.62299791099122 -180.36448866192222 0 0 0 0 -1.4361175994608075 -1.386331943208198 0 -1.386331943208198 -1.1507555404288965 0 0 0 0 -5.5419348400441777 -114.97897077831294 0 -114.97897077831294 56.962361728597898 0 0 0 0 69.689147681694521 36.842817838009523 0 36.842817838009523 -58.887926306852023 0 0 0 0 83.431464036080797 84.206813575003252 0 84.206813575003252 -25.303052377683343 0 0 0 0 -41.330317619083871 0.054162188719601545 0 0.054162188719601545 54.034335826294409 0 0 0 0 0.07653156181989057 11.822573799986678 0 11.822573799986678 32.338355442701761 0 0 0 0 -3.7884536920218359 -0.84126525396825969 0 -0.84126525396825969 7.5501818390292783 0 0 0 0 -103.58956889151341 -28.251187679084069 0 -28.251187679084069 38.178855504119383 0 0 0 0 -10.93836024928699 -2.8167374710577775 0 -2.8167374710577775 8.8135230883164226 0 0 0 0 -62.412855935848711 83.897188146014742 0 83.897188146014742 69.874672208257834 0 0 0 0 -8.7061417516342772 -18.22301374462586 0 -18.22301374462586 30.930646561971116 0 0 0 0 -23.952745079803208 -57.820268930077873 0 -57.820268930077873 171.75671165765471 0 0 0 0 -67.732737397628341 31.630285466639805 0 31.630285466639805 -10.147140816941828 0 0 0 0 7.6653092229662434 78.43808285506384 0 78.43808285506384 18.076920515290112 0 0 0 0 3.7417025092472613 76.705553975095427 0 76.705553975095427 -46.852013101197372 0 0 0 0 -113.12225458772173 98.547988405212891 0 98.547988405212891 28.195528332023969 0 0 0 0 -122.5141732230519 108.62904823830365 0 108.62904823830365 14.538291230070172 0 0 0 0 -112.06886034118361 69.079128860317724 0 69.079128860317724 -66.384842106356245 0 0 0 0 -132.33067022903379 106.35995418275434 0 106.35995418275434 -43.875345717802702 0 0 0 0 -133.13023879351306 204.34969441069757 0 204.34969441069757 -106.07466689393914 0 0 0 0 1.312480015019446 -0.029454898379825067 0 -0.029454898379825067 -1.1369896849863892 0 0 0 0 -126.70373754553748 86.919480111489975 0 86.919480111489975 83.196503563505757 0 0 0 0 -158.08517689629298 40.825682234943088 0 40.825682234943088 15.493393208555062 0 0 0 0 13.683573019483447 76.314210839209409 0 76.314210839209409 7.7307244268531576 0 0 0 0 0.58500949596581009 -0.31316876796262605 0 -0.31316876796262605 0.2287716547584222 0 0 0 0 -90.311401689974446 72.66782176713059 0 72.66782176713059 -62.781483875529375 0 0 0 0 -44.370395888910934 -32.427435299310218 0 -32.427435299310218 145.94255600964789 0 0 0 0 -181.63674763683593 148.48244406331651 0 148.48244406331651 189.28737657220336 0 0 0 0 67.790235489328552 -52.753735524995136 0 -52.753735524995136 -5.2998054058007256 0 0 0 0 21.968642597328198 297.73741034549857 0 297.73741034549857 56.985849864973716 0 0 0 0 10.343038383722252 7.6942951907171988 0 7.6942951907171988 8.4852869994596674 0 0 0 0 -4.8642294935034442 279.18010199760101 0 279.18010199760101 359.08847340539796 0 0 0 0 80.664590329575731 -46.546094909728708 0 -46.546094909728708 403.40384141189861 0 0 0 0 1.7915624562964829 3.3771944638255409 0 3.3771944638255409 19.10635419273062 0 0 0 0 -2.0141766985570939 -22.01089065445376 0 -22.01089065445376 -18.73928213070667 0 0 0 0 -229.75244289737748 68.752193267311938 0 68.752193267311938 92.600911396257288 0 0 0 0 -170.61734943379815 30.113667578771128 0 30.113667578771128 7.0557869525928254 0 0 0 0 -30.069346655046502 34.402508538080383 0 34.402508538080383 254.5865368499235 0 0 0 0 23.224006905849819 12.177555679513716 0 12.177555679513716 189.94337266999719 0 0 0 0 -4.7932762259852097 -11.124650293126251 0 -11.124650293126251 223.28639364460105 0 0 0 0 5.9180527363818882 -0.8049131810399146 0 -0.8049131810399146 0.52908789340471785 0 0 0 0 28.336869805652896 -23.827865654297511 0 -23.827865654297511 183.92594608192485 0 0 0 0 2.7302332371659119 -0.48732907107164536 0 -0.48732907107164536 0.4108507223471074 0 0 0 0 -3.5523322521949012 45.624553679536803 0 45.624553679536803 186.07217005088421 0 0 0 0 21.418276994900737 -3.0968887677051384 0 -3.0968887677051384 63.259940506561179 0 0 0 0 26.268935517423415 32.515705866218013 0 32.515705866218013 111.23636865488334 0 0 0 0 11.221008865873955 81.842301325617882 0 81.842301325617882 118.77487534287479 0 0 0 0 28.20362154356917 95.958786190454703 0 95.958786190454703 6.2902441862715932 0 0 0 0 2.6075333698918257 90.346686464010418 0 90.346686464010418 52.752120259608091 0 0 0 0 32.264129584671537 117.54242363200456 0 117.54242363200456 10.382398361552987 0 0 0 0 60.786847835377557 161.69725006185763 0 161.69725006185763 53.485435207891896 0 0 0 0 50.819691876768047 132.14716369829421 0 132.14716369829421 -31.240040241456882 0 0 0 0 -15.964070790210826 60.668112912764627 0 60.668112912764627 86.812924558767008 0 0 0 0 -36.443202326729079 140.54388144546465 0 140.54388144546465 50.502429009091429 0 0 0 0 -40.504947611278169 38.011334130337644 0 38.011334130337644 140.51897667165395 0 0 0 0 -42.814301519543733 61.302825403297902 0 61.302825403297902 178.96239142673039 0 0 0 0 -3.3118973296998604 0.86370184650542825 0 0.86370184650542825 -0.071531787520154211 0 0 0 0 -27.408434502347973 87.406906209113004 0 87.406906209113004 -91.220642570353448 0 0 0 0 -244.63329261040781 25.607158117336439 0 25.607158117336439 91.177760283602765 0 0 0 0 -65.808531877911264 246.9584353677642 0 246.9584353677642 11.747638098400785 0 0 0 0 7.5174119475741463 115.78983710336979 0 115.78983710336979 -86.265458170697457 0 0 0 0 -288.29171039782705 51.608806306255246 0 51.608806306255246 211.12972743186037 0 0 0 0 -176.14225736533808 -88.218587502273294 0 -88.218587502273294 193.86327564235762 0 0 0 0 -194.37091251853235 162.65597313358739 0 162.65597313358739 17.611484649836711 0 0 0 0 114.58052003759076 87.286701456423543 0 87.286701456423543 -126.68774912689423 0 0 0 0 186.63104507272328 228.74832412882097 0 228.74832412882097 12.497468825956275 0 0 0 0 23.942016306476944 -127.3279978719911 0 -127.3279978719911 340.42752812889671 0 0 0 0 12.884226976871332 165.93340207230199 0 165.93340207230199 378.5738739260305 0 0 0 0 149.21073775833429 2.4812544268424972 0 2.4812544268424972 309.25282762831193 0 0 0 0 100.00408394703845 -156.42266721569467 0 -156.42266721569467 279.53449766872836 0 0 0 0 152.71487954821791 -100.08549641051985 0 -100.08549641051985 225.6963382821632 0 0 0 0 -21.070532291403651 -4.4697773422826685 0 -4.4697773422826685 199.77392148691797 0 0 0 0 63.182890531540124 -44.648862836714898 0 -44.648862836714898 207.34755348226827 0 0 0 0 108.73958196717649 -35.320587583106317 0 -35.320587583106317 -17.373993851698287 0 0 0 0 36.62329044046237 -169.21408258244628 0 -169.21408258244628 255.03660882773238 0 0 0 0 -41.894347188823303 -17.361149903381374 0 -17.361149903381374 317.05958245661805 0 0 0 0 25.831753472701166 -159.65345088721551 0 -159.65345088721551 339.75551348700174 0 0 0 0 0.94981124942324868 -0.38606244776242349 0 -0.38606244776242349 0.36508499973679776 0 0 0 0 1.7752979995857672 -0.78538278240654336 0 -0.78538278240654336 3.8303233673088357 0 0 0 0 -144.2368008762769 -11.870895799768732 0 -11.870895799768732 205.14963497688586 0 0 0 0 -90.198958127868536 -93.554701340637621 0 -93.554701340637621 255.68978829829939 0 0 0 0 -91.27596492907287 -32.174331338854245 0 -32.174331338854245 195.00521394814814 0 0 0 0 -33.167558603167436 -65.336638957447576 0 -65.336638957447576 101.38957067501906 0 0 0 0 -52.809902380373387 -86.462597210929744 0 -86.462597210929744 194.06395243097859 0 0 0 0 -46.463973014260773 -59.250069849216743 0 -59.250069849216743 131.3611339151721 0 0 0 0 -86.877724523166762 -38.417081824332854 0 -38.417081824332854 131.64379701513462 0 0 0 0 3.5877608858772874 -77.619022928236518 0 -77.619022928236518 101.33079870665156 0 0 0 0 -48.507380145443676 -24.865954008640983 0 -24.865954008640983 50.811665348899623 0 0 0 0 -18.327439509719625 -46.566606690797926 0 -46.566606690797926 58.654763803826427 0 0 0 0 -54.884796424183151 -28.091648759504096 0 -28.091648759504096 71.176704315850657 0 0 0 0 -28.779837882530501 -51.575942978484363 0 -51.575942978484363 58.727845055644138 0 0 0 0 -39.800094660171595 -25.986713216883867 0 -25.986713216883867 32.691167896124263 0 0 0 0 -5.6305436960478801 -14.609096776862543 0 -14.609096776862543 36.838746963232552 0 0 0 0 -3.2755628775553305 -6.9004246346862601 0 -6.9004246346862601 15.491903046000516 0 0 0 0 -7.1261081399796389 4.4965172589799351 0 4.4965172589799351 8.7534206012216345 0 0 0 0 13.630413228616817 0.74411556882841978 0 0.74411556882841978 17.433523857585897 0 0 0 0 -10.333269831974228 0.23359013021606501 0 0.23359013021606501 4.7257032375928816 0 0 0 0 -10.689867374948449 -6.3490006549197915 0 -6.3490006549197915 37.737159380918456 0 0 0 0 -12.057724771375433 1.9993815457746678 0 1.9993815457746678 36.078487791757652 0 0 0 0 -21.179541556509321 5.6610709013793894 0 5.6610709013793894 83.530800536133029 0 0 0 0 -20.14952539838805 5.2533466494942331 0 5.2533466494942331 56.797833958964475 0 0 0 0 -16.094465084127023 -1.7317555344941411 0 -1.7317555344941411 82.516767166940554 0 0 0 0 -12.548362746832936 -13.312288002838613 0 -13.312288002838613 52.060309725187835 0 0 0 0 -504.43527855998178 172.23282805166667 0 172.23282805166667 911.7442172135984 0 0 0 0 260.38294444520517 -609.59754455218922 0 -609.59754455218922 903.75963695100143 0 0 0 0 939.98063281184295 -136.78465957555818 0 -136.78465957555818 369.19508926578874 0 0 0 0 -256.13878283588065 493.569445262307 0 493.569445262307 404.05634806953776 0 0 0 0 -32.424811360997651 -21.211291879925458 0 -21.211291879925458 24.513445185411733 0 0 0 0 -29.701898724608384 37.82180839468748 0 37.82180839468748 99.404665484594943 0 0 0 0 -2.3660611310712678 1.7016979817078666 0 1.7016979817078666 18.137209358055205 0 0 0 0 109.48378586953851 -203.72331723931188 0 -203.72331723931188 219.22282990643203 0 0 0 0 -21.304397312583596 -27.131777501263592 0 -27.131777501263592 29.876725098141232 0 0 0 0 -22.251288674025908 -5.3429561909111243 0 -5.3429561909111243 20.448291220977584 0 0 0 0 -14.206424243961337 58.359972982077977 0 58.359972982077977 257.86525989239692 0 0 0 0 17.333025508876702 -159.62476381884193 0 -159.62476381884193 367.2739134520516 0 0 0 0 -416.68959246594937 366.86909222183294 0 366.86909222183294 -136.29829600786798 0 0 0 0 102.20206038209074 -190.21397007043214 0 -190.21397007043214 495.56332110001392 0 0 0 0 3.7597725118112133 9.9672607690645165 0 9.9672607690645165 14.566615822053773 0 0 0 0 -17.10771686046985 -105.1993746443477 0 -105.1993746443477 471.93679287256714 0 0 0 0 -290.53378952689263 678.43071136221943 0 678.43071136221943 -276.8685941063095 0 0 0 0 2.2984570476199315 3.4099370924703942 0 3.4099370924703942 4.5835647936441974 0 0 0 0 64.541755016203751 160.45540602047367 0 160.45540602047367 -12.155244049638895 0 0 0 0 -283.32224465194213 393.56872256045426 0 393.56872256045426 75.73607411703415 0 0 0 0 -114.79137390280471 226.1784903677858 0 226.1784903677858 106.38529375696271 0 0 0 0 -75.371305246077554 165.31056797620022 0 165.31056797620022 -342.70015181141497 0 0 0 0 -147.26652418413539 198.51130430947501 0 198.51130430947501 94.182022666031116 0 0 0 0 23.307441874859407 51.178390025273529 0 51.178390025273529 115.3801852321759 0 0 0 0 129.95707193786484 -57.4053827726093 0 -57.4053827726093 0.10089217267704953 0 0 0 0 -248.814365426113 -72.628681515383505 0 -72.628681515383505 312.30302568795378 0 0 0 0 75.79392285555582 -33.53411562848305 0 -33.53411562848305 73.741259605767539 0 0 0 0 -142.50062851659078 120.39517095144765 0 120.39517095144765 -113.54579845415083 0 0 0 0 -219.84151884632536 86.572147446012423 0 86.572147446012423 44.237618615716201 0 0 0 0 -245.06511946846138 174.11875841059532 0 174.11875841059532 -55.070567679285887 0 0 0 0 -308.25749548898443 212.16041620780197 0 212.16041620780197 -10.016667315681843 0 0 0 0 -289.92000400443612 275.38902671493338 0 275.38902671493338 -100.87466231984399 0 0 0 0 328.03151146312575 23.52546901552887 0 23.52546901552887 -32.666948505931941 0 0 0 0 -120.78688898888231 25.843611687477278 0 25.843611687477278 282.0940795353963 0 0 0 0 -1.6027333920892595 -1.4755291725952659 0 -1.4755291725952659 2.3230151921508195 0 0 0 0 55.694816935058043 73.853612369828625 0 73.853612369828625 6.2011682339766594 0 0 0 0 43.818309469345195 -26.130968981456363 0 -26.130968981456363 199.90646169530373 0 0 0 0 -141.49214632516851 24.149967010991531 0 24.149967010991531 819.2183561555139 0 0 0 0 -141.87199881449123 58.424495847473736 0 58.424495847473736 631.00216117162199 0 0 0 0 231.17571413971746 -94.421375725858525 0 -94.421375725858525 468.3470310759003 0 0 0 0 151.72883950661344 35.871599824036821 0 35.871599824036821 281.9221342519495 0 0 0 0 210.41795557630394 70.065167643737368 0 70.065167643737368 355.5127918850194 0 0 0 0 274.04371553172678 13.535723703800613 0 13.535723703800613 186.98780347741558 0 0 0 0 351.03214130040578 165.50262405486137 0 165.50262405486137 354.85803403446334 0 0 0 0 67.124833947340449 195.85120254784852 0 195.85120254784852 21.555485485361714 0 0 0 0 7.7508709802987141 135.34328078325416 0 135.34328078325416 369.2106470145045 0 0 0 0 73.908700734504237 102.46833224020156 0 102.46833224020156 -28.443364733502676 0 0 0 0 -296.13086108648895 341.27118755583797 0 341.27118755583797 144.61342860780314 0 0 0 0 134.60133530829262 207.37117871183364 0 207.37117871183364 147.64374428176598 0 0 0 0 31.38754663510008 78.348537096859218 0 78.348537096859218 -14.294901608707733 0 0 0 0 -39.686464684646126 215.62598066636201 0 215.62598066636201 -10.235931533502935 0 0 0 0 20.852127828464184 66.400761892891097 0 66.400761892891097 133.36682682274912 0 0 0 0 -174.13009549070875 189.9963800855362 0 189.9963800855362 291.14467166581562 0 0 0 0 92.302081263817627 11.091580941742222 0 11.091580941742222 102.23628777794329 0 0 0 0 -22.750520205830981 20.12789991786849 0 20.12789991786849 56.341236325348291 0 0 0 0 36.901690683778725 93.665257036273033 0 93.665257036273033 26.914847311287303 0 0 0 0 -2.2025602762173904 38.800900484334896 0 38.800900484334896 9.0256320346934871 0 0 0 0 -32.91010536344038 -7.8346682837855042 0 -7.8346682837855042 50.382096764544258 0 0 0 0 -13.664665681415499 33.508463871057756 0 33.508463871057756 32.315862718678545 0 0 0 0 2.1370870221076999 25.921436496905116 0 25.921436496905116 -17.724041326860629 0 0 0 0 56.067715523367042 43.029805771431711 0 43.029805771431711 -11.381891009936226 0 0 0 0 -8.6153296670381678 -15.401688775698858 0 -15.401688775698858 -15.76712516553016 0 0 0 0 79.54260107787195 69.100374434354308 0 69.100374434354308 -32.407798200030811 0 0 0 0 -42.777507494083693 70.402577371864027 0 70.402577371864027 7.1945682033137928 0 0 0 0 107.87284989320324 33.39166767855022 0 33.39166767855022 -28.347338710038457 0 0 0 0 0.23429755497764404 4.9991294059325426 0 4.9991294059325426 -2.7663112481981216 0 0 0 0 60.817757297172648 12.173883418532569 0 12.173883418532569 -92.541573798604077 0 0 0 0 -1.8851485880728021 9.4079918932354971 0 9.4079918932354971 -2.5230372042836677 0 0 0 0 544.55521209613289 56.87581096197755 0 56.87581096197755 -446.56414441144807 0 0 0 0 5.7460036283726161 17.294534189711086 0 17.294534189711086 22.206471401733779 0 0 0 0 18.527709936006431 135.42589779724949 0 135.42589779724949 145.06485605018679 0 0 0 0 185.24323869014552 439.94030947278225 0 439.94030947278225 502.645292738227 0 0 0 0 70.146274332684698 -181.6742051778192 0 -181.6742051778192 -63.006252719344047 0 0 0 0 -9.0652537378773559 -8.4003205989174603 0 -8.4003205989174603 -31.73384961237025 0 0 0 0 -17.634986004242819 -40.759792016346182 0 -40.759792016346182 -133.80615864633728 0 0 0 0 -41.344596976734465 30.939575280885038 0 30.939575280885038 112.29503832248156 0 0 0 0 97.279343816800974 108.52976377865707 0 108.52976377865707 85.639444486453613 0 0 0 0 0.13101159897611581 -0.47935515368531334 0 -0.47935515368531334 0.77951273727271086 0 0 0 0 13.816945294553079 14.087964555121289 0 14.087964555121289 23.158393000485376 0 0 0 0 1.5913760460101258 4.6376591492247741 0 4.6376591492247741 6.4062870653272341 0 0 0 0 5.3086346574436796 13.003886443119477 0 13.003886443119477 38.722391179554421 0 0 0 0 5.3250651900507364 53.781570244851537 0 53.781570244851537 33.583154920027937 0 0 0 0 -68.261629377237114 -16.121872731011536 0 -16.121872731011536 26.068617846325651 0 0 0 0 4.9611062670307255 7.9713927797785971 0 7.9713927797785971 14.706622576350483 0 0 0 0 -29.726327732438222 7.1195990339874697 0 7.1195990339874697 43.847470243345015 0 0 0 0 -45.239800517320873 10.09214314853557 0 10.09214314853557 55.838996773025428 0 0 0 0 -51.748008761947858 -32.509082056927582 0 -32.509082056927582 -5.6046347883529961 0 0 0 0 -17.042608168856532 17.337094260339654 0 17.337094260339654 76.314763755646709 0 0 0 0 -42.650989828579768 -1.6244722633483946 0 -1.6244722633483946 45.902562063280271 0 0 0 0 -14.619072543244329 18.479411671652088 0 18.479411671652088 52.177476189699519 0 0 0 0 -40.773952005511092 44.529464932762494 0 44.529464932762494 75.757603162153828 0 0 0 0 1.2418087174636376 20.377384022446762 0 20.377384022446762 48.016927339395636 0 0 0 0 -11.113347273352701 7.4280673760185891 0 7.4280673760185891 52.023633063201004 0 0 0 0 -11.144241856043664 6.6741267249435623 0 6.6741267249435623 52.106501183252476 0 0 0 0 -3.6510962259872031 4.528534483824842 0 4.528534483824842 32.830828900540837 0 0 0 0 1.8076497940392073 5.3154442128316077 0 5.3154442128316077 39.960555140060023 0 0 0 0 0.53088058635694324 9.3433080372360564 0 9.3433080372360564 35.840343252577441 0 0 0 0 6.4806053201573377 15.877245327284982 0 15.877245327284982 35.822895555009381 0 0 0 0 1.6355511517709473 4.1310890726835297 0 4.1310890726835297 -0.031766196077565922 0 0 0 0 3.917039622271659 4.5778600443709365 0 4.5778600443709365 4.3673316806216462 0 0 0 0 3.7073650786387589 5.7817618818517076 0 5.7817618818517076 16.340825334013061 0 0 0 0 -4.010753496039797 8.7649742704506934 0 8.7649742704506934 13.073787298108073 0 0 0 0 -161.95491248584221 -52.544447185093304 0 -52.544447185093304 71.83332482762853 0 0 0 0 96.404740344645688 23.859054837808799 0 23.859054837808799 -20.874384703231044 0 0 0 0 6.4397372127250492 5.3960818290143209 0 5.3960818290143209 -4.7260278265953417 0 0 0 0 -25.472617136221743 -0.31655225923350372 0 -0.31655225923350372 80.36269473523862 0 0 0 0 -9.8468387750781403 14.500120740758575 0 14.500120740758575 65.301902310086007 0 0 0 0 -27.187746300256549 22.856031429999348 0 22.856031429999348 61.323465090201353 0 0 0 0 -48.78736240710532 6.6783027923047484 0 6.6783027923047484 79.386776851897594 0 0 0 0 -48.627244118257295 -29.179982955418382 0 -29.179982955418382 69.18772191707103 0 0 0 0 4.645872475691025 5.7745107876535133 0 5.7745107876535133 14.700544733441149 0 0 0 0 9.2540137651540135 10.743594191948432 0 10.743594191948432 4.4124106321833096 0 0 0 0 31.39857714176469 11.135594341867545 0 11.135594341867545 -15.605283225377207 0 0 0 0 -25.223588148313866 73.76908634317806 0 73.76908634317806 20.687728654389502 0 0 0 0 45.750567033981497 88.579306004357932 0 88.579306004357932 16.286503513667412 0 0 0 0 8.1116603157005862 13.451980370984998 0 13.451980370984998 18.117191871309927 0 0 0 0 9.4870713204820802 17.927452473826186 0 17.927452473826186 5.5351099783240869 0 0 0 0 -63.143284096027855 187.10969127132557 0 187.10969127132557 -202.26815283155156 0 0 0 0 10.03712292738193 6.8719069584011052 0 6.8719069584011052 2.9957924517525285 0 0 0 0 -66.129887508686807 41.460633373910241 0 41.460633373910241 -19.001057980729456 0 0 0 0 39.51999117611922 7.1243548042912153 0 7.1243548042912153 -128.25458068204171 0 0 0 0 -84.237120230993241 84.607779361433131 0 84.607779361433131 -84.669402025334421 0 0 0 0 20.981006015419553 81.74713655688538 0 81.74713655688538 -272.58118201495745 0 0 0 0 5.2443630670469421 6.1206264303965554 0 6.1206264303965554 2.8481109786253427 0 0 0 0 59.320564310533882 -16.19675781278238 0 -16.19675781278238 -112.52555579919135 0 0 0 0 2.6998848142233527 13.500892870505524 0 13.500892870505524 30.560019635018321 0 0 0 0 -14.17474595722706 32.042735899609397 0 32.042735899609397 26.150048490490008 0 0 0 0 -326.15787032218213 113.77941316576835 0 113.77941316576835 76.302497054015703 0 0 0 0 -176.10276812042684 -152.04490953341883 0 -152.04490953341883 137.24886339771911 0 0 0 0 -7.3682418104144745 -18.508066557915299 0 -18.508066557915299 -126.42515947899665 0 0 0 0 58.573423634023129 167.54841255161682 0 167.54841255161682 299.97187847486202 0 0 0 0 -116.90037024294179 -41.222725073806942 0 -41.222725073806942 311.31241353667428 0 0 0 0 2.5425159295641784 3.1646287189611755 0 3.1646287189611755 3.5029898049839403 0 0 0 0 101.43655289863636 -159.36803019075523 0 -159.36803019075523 66.721637011865823 0 0 0 0 460.0178131733237 -83.124004924200563 0 -83.124004924200563 37.782834037250723 0 0 0 0 25.47344268510642 -4.6205715281321318 0 -4.6205715281321318 104.06102576808553 0 0 0 0 123.22673408247556 62.318825590838969 0 62.318825590838969 22.137316231266595 0 0 0 0 155.54514985529568 135.46544385129528 0 135.46544385129528 180.32249950059486 0 0 0 0 158.4022646469075 -95.804852019140526 0 -95.804852019140526 287.548328573248 0 0 0 0 114.91298189000963 61.100037234834872 0 61.100037234834872 62.772307426814223 0 0 0 0 -238.66019606272312 -56.876588511489899 0 -56.876588511489899 61.122991984797409 0 0 0 0 -128.05144351525814 127.64952862607606 0 127.64952862607606 162.30855499983954 0 0 0 0 -2.6095149352516493 1.581508362352178 0 1.581508362352178 1.3429922422329668 0 0 0 0 255.71557346885947 224.10560627282757 0 224.10560627282757 152.33016171926283 0 0 0 0 -3.1951838979180103 3.9127277106899534 0 3.9127277106899534 0.72551599992111449 0 0 0 0 206.47301189845075 181.45268752135598 0 181.45268752135598 147.92810603742691 0 0 0 0 192.0554481597319 172.74710108493673 0 172.74710108493673 152.24258042905058 0 0 0 0 -33.081560043920035 43.09982371411752 0 43.09982371411752 -0.83498428080929443 0 0 0 0 -39.226106705278653 52.622763828268944 0 52.622763828268944 16.469659326618057 0 0 0 0 -41.829010782377736 67.597503848293854 0 67.597503848293854 59.478461317281472 0 0 0 0 16.625154039813026 33.655723216301169 0 33.655723216301169 -136.78947524003888 0 0 0 0 17.677699768024468 62.006917431401234 0 62.006917431401234 -16.501467320644224 0 0 0 0 -48.361261192929305 18.065287026814076 0 18.065287026814076 -14.423672440287191 0 0 0 0 9.4638279689992117 1.8510321399139116 0 1.8510321399139116 -1.8685523877157166 0 0 0 0 -9.9645500490032646 40.788850357901538 0 40.788850357901538 -23.562299323697516 0 0 0 0 10.04175181747884 3.5700667911168793 0 3.5700667911168793 -0.56021297733858688 0 0 0 0 69.1698589305106 20.382198121558758 0 20.382198121558758 -170.70372028530437 0 0 0 0 8.1436873721413576 1.7118710096292489 0 1.7118710096292489 -6.3113884247395617 0 0 0 0 38.452643939732297 18.845891847024177 0 18.845891847024177 -8.192958045310661 0 0 0 0 15.648910256715794 4.1763273161932659 0 4.1763273161932659 -0.55247176497974237 0 0 0 0 43.012789328346116 88.384170734374493 0 88.384170734374493 -72.286735223593496 0 0 0 0 -2.1529548254552253 1.34021552231291 0 1.34021552231291 1.7223770016626645 0 0 0 0 110.46078231908905 -100.1198186907568 0 -100.1198186907568 75.470107503562758 0 0 0 0 196.27287536976291 65.710054337621841 0 65.710054337621841 18.803187891397101 0 0 0 0 11.904783525913444 -3.3177520894005283 0 -3.3177520894005283 -6.6615561838552821 0 0 0 0 149.25570676821371 -39.043663227119396 0 -39.043663227119396 -66.307439904202511 0 0 0 0 335.79420036476586 -37.267022369449478 0 -37.267022369449478 -174.65735422699072 0 0 0 0 169.13430118724136 -33.507695793268795 0 -33.507695793268795 -365.17430057607999 0 0 0 0 198.6308617918985 127.38083932924565 0 127.38083932924565 -78.511402192802052 0 0 0 0 48.744419185732568 -74.307828053767707 0 -74.307828053767707 -90.661832894285908 0 0 0 0 64.447443112539986 118.66290372273033 0 118.66290372273033 -25.04398344639776 0 0 0 0 -1.7416389709566786 -2.0413445981074716 0 -2.0413445981074716 1.0396029295250955 0 0 0 0 61.061474187906242 -39.78670203818001 0 -39.78670203818001 116.0775628286101 0 0 0 0 221.55397594525675 37.971778333234397 0 37.971778333234397 -12.002098897601172 0 0 0 0 1.7663188514827368 -0.44521102255882994 0 -0.44521102255882994 -0.91237829292713002 0 0 0 0 253.42128782902 123.08427004743862 0 123.08427004743862 97.141755697592089 0 0 0 0 197.35867415511166 120.84283214552352 0 120.84283214552352 113.48799157952453 0 0 0 0 225.22804694269962 141.71022192644341 0 141.71022192644341 121.55866705221342 0 0 0 0 212.75641711659591 150.24041686201963 0 150.24041686201963 115.92445364811647 0 0 0 0 250.60998324318183 172.90910195179595 0 172.90910195179595 129.01762507125386 0 0 0 0 271.97225691880885 173.37702488051582 0 173.37702488051582 127.83361845431318 0 0 0 0 269.89806639417202 103.29789580952274 0 103.29789580952274 36.505686173666618 0 0 0 0 201.85687942618461 244.83169714929682 0 244.83169714929682 236.79273616701539 0 0 0 0 0.636968653205642 -0.15985882266627982 0 -0.15985882266627982 -1.2086974872580498 0 0 0 0 7.1230661459637759 0.76123271290697403 0 0.76123271290697403 -3.2359786385997822 0 0 0 0 4.0222555757116147 1.1614333402337635 0 1.1614333402337635 -1.7334114160756258 0 0 0 0 8.3858814408090439 2.6556882045988459 0 2.6556882045988459 -2.9345482182143314 0 0 0 0 362.31056135774088 375.29257158401833 0 375.29257158401833 325.66643792248942 0 0 0 0 199.06634539944571 172.38736946435529 0 172.38736946435529 159.13784086494707 0 0 0 0 325.76760868869405 148.95116258531198 0 148.95116258531198 105.0076190820464 0 0 0 0 275.57629494031426 180.68077892086512 0 180.68077892086512 139.79124634069376 0 0 0 0 314.72003991822589 125.10257838980397 0 125.10257838980397 70.611011900873564 0 0 0 0 388.03230597154993 65.422720642011882 0 65.422720642011882 15.43589892219461 0 0 0 0 686.23146189156341 174.97604347793822 0 174.97604347793822 15.992609966246164 0 0 0 0 488.75115477740246 -92.388967982902614 0 -92.388967982902614 206.08291014958377 0 0 0 0 404.90785374688221 44.394676129395521 0 44.394676129395521 22.610000792272331 0 0 0 0 121.01913895556208 -45.252483289095835 0 -45.252483289095835 85.114634584482701 0 0 0 0 190.70862918401144 -30.071677223484585 0 -30.071677223484585 148.6438711056835 0 0 0 0 925.19075412768143 183.25310924313817 0 183.25310924313817 -50.50398190416854 0 0 0 0 648.44140689947244 -76.9963765208322 0 -76.9963765208322 -79.731541985733202 0 0 0 0 443.01995873394389 78.528638180192502 0 78.528638180192502 49.830520137329586 0 0 0 0 84.368376384716612 20.948800379934255 0 20.948800379934255 247.05372610696213 0 0 0 0 435.64927394678693 100.57215551867557 0 100.57215551867557 75.421691393305082 0 0 0 0 664.62668373149245 349.74851112724718 0 349.74851112724718 350.49516614898494 0 0 0 0 758.13594516632566 274.42041287473694 0 274.42041287473694 -57.005479826257215 0 0 0 0 -0.69428922704902618 0.39833224393149536 0 0.39833224393149536 0.13065045977594991 0 0 0 0 913.85910767224595 302.97584460666258 0 302.97584460666258 -51.795784267121235 0 0 0 0 -287.82865073114044 -359.01281088556243 0 -359.01281088556243 -162.78993777563664 0 0 0 0 163.88854151806481 -46.241194063823059 0 -46.241194063823059 -242.03115391076062 0 0 0 0 1.7253563450028686 2.4463742736922427 0 2.4463742736922427 -4.0216293436116501 0 0 0 0 3.6874922181433867 -3.0400725644348512 0 -3.0400725644348512 -0.51235137812449238 0 0 0 0 -102.77078451156922 -195.9226278666174 0 -195.9226278666174 -158.06521476267517 0 0 0 0 243.37371061812701 -127.79792480896867 0 -127.79792480896867 58.265498839191423 0 0 0 0 35.911854364061583 -40.361321907148522 0 -40.361321907148522 -194.2368027042703 0 0 0 0 145.55129358458544 49.289446308530387 0 49.289446308530387 -133.83524691568164 0 0 0 0 48.758728094880098 44.242640698352261 0 44.242640698352261 19.474220805284858 0 0 0 0 147.36055932035015 20.089496979332125 0 20.089496979332125 15.705301943991799 0 0 0 0 221.9966643516882 208.86874345183423 0 208.86874345183423 122.93018374432722 0 0 0 0 11.361792939456556 -5.4095127494802711 0 -5.4095127494802711 3.1756182352184936 0 0 0 0 108.38957309020589 279.88465723968693 0 279.88465723968693 412.21959255640832 0 0 0 0 714.99962468080048 471.29313142389947 0 471.29313142389947 480.87948825828789 0 0 0 0 91.078809571925376 73.807602639033576 0 73.807602639033576 276.29376618556853 0 0 0 0 705.6989187043564 -62.366930557775049 0 -62.366930557775049 -247.86560840275706 0 0 0 0 339.45341101476151 -87.981215018015064 0 -87.981215018015064 124.67222522758675 0 0 0 0 770.83226501657191 -201.53522665302808 0 -201.53522665302808 134.6398624520225 0 0 0 0 447.16842048964963 -76.719257086340804 0 -76.719257086340804 -44.978079031825473 0 0 0 0 43.722523516653382 179.05667589656878 0 179.05667589656878 89.336713939726906 0 0 0 0 99.158475111624284 126.54205593130609 0 126.54205593130609 57.821206105694728 0 0 0 0 -19.441224245412741 157.12403352250112 0 157.12403352250112 192.16634427703684 0 0 0 0 -15.870974185436353 161.93237039085943 0 161.93237039085943 86.353198243265069 0 0 0 0 6.16661838011035 0.68598269231279119 0 0.68598269231279119 -0.20665966785301038 0 0 0 0 -42.613321989814722 101.03350005855464 0 101.03350005855464 222.12546891055172 0 0 0 0 -29.066959529503038 97.980020055616478 0 97.980020055616478 159.91505234020588 0 0 0 0 6.3963626228178327 47.411153376668153 0 47.411153376668153 5.8456833118762006 0 0 0 0 22.480016390897617 16.22646614261339 0 16.22646614261339 -49.09240879934805 0 0 0 0 1.2539789682286937 -51.674036565611459 0 -51.674036565611459 -98.486798448320769 0 0 0 0 75.837947517968132 21.566046329149685 0 21.566046329149685 27.052610461993027 0 0 0 0 57.431427310111758 65.432513444256983 0 65.432513444256983 145.40895535703385 0 0 0 0 109.41516168675116 115.8821397362226 0 115.8821397362226 -22.647550364456038 0 0 0 0 101.74555025167138 194.76094989911417 0 194.76094989911417 236.16508621296816 0 0 0 0 288.55517553037498 -426.39024314736162 0 -426.39024314736162 -303.12468278396409 0 0 0 0 13.032279431391331 -3.1052492779444236 0 -3.1052492779444236 0.049818001924677446 0 0 0 0 116.97056786822941 75.258350523781701 0 75.258350523781701 208.3557884595939 0 0 0 0 138.37598741290958 157.88390700708521 0 157.88390700708521 85.190937188795942 0 0 0 0 67.771230983646092 -415.67256049810749 0 -415.67256049810749 186.71024717385808 0 0 0 0 -29.339268354015076 449.71665209945422 0 449.71665209945422 462.73061447604778 0 0 0 0 -70.410212691449487 270.01573559940243 0 270.01573559940243 455.51889714794379 0 0 0 0 512.70587704825812 425.85480637556975 0 425.85480637556975 456.45374078917087 0 0 0 0 7.5968917474791482 1.5177322129757869 0 1.5177322129757869 -3.7159988924431531 0 0 0 0 143.10334597068504 222.15521115436422 0 222.15521115436422 -52.613158695177844 0 0 0 0 14.045361437605607 117.69931523505511 0 117.69931523505511 19.715476909103018 0 0 0 0 47.472301893729309 -81.832182142843521 0 -81.832182142843521 -195.47104703254081 0 0 0 0 -64.337598362359131 252.22009429025638 0 252.22009429025638 397.03313387315211 0 0 0 0 -111.61711581400959 125.77764501118872 0 125.77764501118872 489.66541588419932 0 0 0 0 -263.12233215855031 0.53912898517683061 0 0.53912898517683061 815.36097986903042 0 0 0 0 -181.48601590612088 -10.213612457391719 0 -10.213612457391719 803.94216357768164 0 0 0 0 -28.809027291774328 -73.906155854778262 0 -73.906155854778262 458.94569126580609 0 0 0 0 -97.499375367555331 -151.86854627488901 0 -151.86854627488901 667.96916550240712 0 0 0 0 -103.37856933900548 20.873372382418893 0 20.873372382418893 456.20849294836808 0 0 0 0 -60.662098745968251 -126.11664080260744 0 -126.11664080260744 669.49575187028677 0 0 0 0 117.02746488402772 -637.45721830763796 0 -637.45721830763796 891.46346798596278 0 0 0 0 195.24678349028545 -273.06084340342204 0 -273.06084340342204 360.75316541677603 0 0 0 0 -101.39370794958086 378.28591942973253 0 378.28591942973253 1250.4947954642557 0 0 0 0 -277.51201051829321 -74.543762271641754 0 -74.543762271641754 1455.6497079876572 0 0 0 0 7.1728837898799469 -5.2123590687620052 0 -5.2123590687620052 5.662257206407844 0 0 0 0 111.18166286536143 972.16951589296514 0 972.16951589296514 2346.4094006650084 0 0 0 0 397.00105259237921 -521.42003497434507 0 -521.42003497434507 1479.6778275232427 0 0 0 0 -111.20293132424013 263.58223883223218 0 263.58223883223218 1376.1226808751089 0 0 0 0 14.379394703679282 271.22498062856175 0 271.22498062856175 1041.1852005245601 0 0 0 0 14.206586725288531 -19.582040790612602 0 -19.582040790612602 21.23827145630186 0 0 0 0 -67.441584168094778 -65.609876263735714 0 -65.609876263735714 42.224282593044336 0 0 0 0 -39.260985687367793 181.78725735103217 0 181.78725735103217 1339.163322440987 0 0 0 0 94.987311313067039 12.98394255356834 0 12.98394255356834 66.95997644450199 0 0 0 0 338.85570302901942 -397.48877697333592 0 -397.48877697333592 -9.2213936170883244 0 0 0 0 -86.889897046024089 -39.932704937890776 0 -39.932704937890776 96.230937914166134 0 0 0 0 33.972553969291766 55.41567133675926 0 55.41567133675926 19.564582722486193 0 0 0 0 -44.859080566299781 7.8941285892933593 0 7.8941285892933593 103.8968772281878 0 0 0 0 -10.808003792683053 -4.1410338555127026 0 -4.1410338555127026 19.305214104758491 0 0 0 0 12.373880324392303 -26.828547904304287 0 -26.828547904304287 46.53459610450227 0 0 0 0 -11.107376360819309 -4.8181518213480672 0 -4.8181518213480672 16.114819263628249 0 0 0 0 -68.282938748337983 -36.539042808914019 0 -36.539042808914019 48.881013787686243 0 0 0 0 -6.1490787620950869 -7.8504119527697185 0 -7.8504119527697185 32.006726718424034 0 0 0 0 -12.292531146433703 0.5745335026620495 0 0.5745335026620495 37.526463927358236 0 0 0 0 -24.338819013155444 -10.308380341668453 0 -10.308380341668453 81.130352977008442 0 0 0 0 1.3735733895191515 57.381030452721461 0 57.381030452721461 20.244185796928832 0 0 0 0 -11.633052617737121 -26.477851091294724 0 -26.477851091294724 41.785576865404437 0 0 0 0 -16.771701845598187 -2.6403290176685061 0 -2.6403290176685061 16.422142415427544 0 0 0 0 -2.1772164828580571 -10.505966163560515 0 -10.505966163560515 1.0696246967854677 0 0 0 0 -0.77973956778065201 -25.425771054409452 0 -25.425771054409452 36.603963510964917 0 0 0 0 -19.698324841847352 -22.88943946771451 0 -22.88943946771451 -94.534050651098369 0 0 0 0 -1.5575987747793221 -5.4644759195064978 0 -5.4644759195064978 8.0726767210019119 0 0 0 0 4.2473386932078228 -18.291638215792553 0 -18.291638215792553 8.1065507103061663 0 0 0 0 -44.264892188519298 34.631463618432463 0 34.631463618432463 41.435235232798732 0 0 0 0 -13.901002063455962 -33.447913411797344 0 -33.447913411797344 23.297543172342557 0 0 0 0 54.047376318812894 11.673108539311215 0 11.673108539311215 -88.161042102474312 0 0 0 0 7.3527678857206737 -15.821625680730975 0 -15.821625680730975 17.146839416802244 0 0 0 0 3.0139135128243382 -1.9502157566651341 0 -1.9502157566651341 -6.1475226916328012 0 0 0 0 -18.256563157481651 -28.177580878338631 0 -28.177580878338631 25.732370961595734 0 0 0 0 -40.198177484147891 -32.344165318299929 0 -32.344165318299929 31.912153415534704 0 0 0 0 116.2938399268387 -122.20686133521667 0 -122.20686133521667 105.09397058991453 0 0 0 0 -44.500895166351256 -64.621643152546312 0 -64.621643152546312 309.93307952814212 0 0 0 0 -41.315467784856537 -96.338395819865127 0 -96.338395819865127 339.12889892727253 0 0 0 0 -27.798594249056805 19.192036632726285 0 19.192036632726285 184.80109000885568 0 0 0 0 26.775643532891991 -161.22698068706814 0 -161.22698068706814 435.66943319687743 0 0 0 0 95.655024200376829 -65.348469869887595 0 -65.348469869887595 158.66406982836634 0 0 0 0 3.3861555852781748 -92.997757309654844 0 -92.997757309654844 99.109480921775685 0 0 0 0 2.0369751124089817 -52.772281419885985 0 -52.772281419885985 161.98288915106059 0 0 0 0 77.718912094023835 -55.900884359143674 0 -55.900884359143674 85.886984900367679 0 0 0 0 193.23437502659044 -174.09937355355578 0 -174.09937355355578 791.73153210993041 0 0 0 0 681.23328947238406 272.34583686697624 0 272.34583686697624 632.89422799549357 0 0 0 0 622.31445320039074 143.0898570700956 0 143.0898570700956 1484.4866479663033 0 0 0 0 308.02589381164262 -40.202039704046911 0 -40.202039704046911 668.94454557960853 0 0 0 0 823.3254983130546 349.79409401923658 0 349.79409401923658 657.79191559866013 0 0 0 0 297.45449503612326 629.21973221429653 0 629.21973221429653 1110.0096187052852 0 0 0 0 1236.3878973253304 215.48555833491264 0 215.48555833491264 649.30480182259635 0 0 0 0 857.47353656976702 577.36140895200515 0 577.36140895200515 948.94914426769537 0 0 0 0 44.043277819335344 338.68830928006355 0 338.68830928006355 587.06761662103236 0 0 0 0 -51.710542785651342 203.59724952617034 0 203.59724952617034 1270.5190926571813 0 0 0 0 -141.40948468973511 179.45989234952867 0 179.45989234952867 1264.8287355465909 0 0 0 0 3.3595670664575223 -3.5345221903802582 0 -3.5345221903802582 3.7777174792815345 0 0 0 0 399.26786472953427 111.67008866844117 0 111.67008866844117 1056.7107668221433 0 0 0 0 31.63832258491675 -200.35432461217715 0 -200.35432461217715 871.54402501930963 0 0 0 0 -1.3999025508019258 466.85553667060594 0 466.85553667060594 930.11960498647386 0 0 0 0 381.56372342214672 40.120968975737924 0 40.120968975737924 1235.8243641168374 0 0 0 0 -321.32428126180093 215.03226618487133 0 215.03226618487133 1192.6957830333558 0 0 0 0 37.758693928182765 536.75476993912162 0 536.75476993912162 436.6974441384591 0 0 0 0 38.551215993393271 424.5220649703333 0 424.5220649703333 1468.3168597936019 0 0 0 0 -390.28802732513577 1115.8087664877239 0 1115.8087664877239 1983.3487038311087 0 0 0 0 -127.65160489937875 -51.976732752160387 0 -51.976732752160387 1836.4650748874701 0 0 0 0 646.48354985188962 316.52549591101342 0 316.52549591101342 266.01679262415564 0 0 0 0 -1.5514778146943158 -5.3591347546705776 0 -5.3591347546705776 8.33044679694639 0 0 0 0 2.2992587328534597 -1.7796743259150531 0 -1.7796743259150531 9.5666078783739863 0 0 0 0 27.161675869811006 21.373376763694978 0 21.373376763694978 1725.0799606461223 0 0 0 0 -34.492394500750379 4.456752581820183 0 4.456752581820183 27.681581709031889 0 0 0 0 -13.727433184007168 -18.291189158702764 0 -18.291189158702764 21.513013902847888 0 0 0 0 -3.8970529368270945 0.2372348105564015 0 0.2372348105564015 26.209186135377422 0 0 0 0 -17.659501573223679 -7.5705910408614727 0 -7.5705910408614727 70.473170196026331 0 0 0 0 -3.4634383781958604 2.4555650443471677 0 2.4555650443471677 28.209792297641798 0 0 0 0 84.17996556640901 -113.45792526174046 0 -113.45792526174046 316.35750559582357 0 0 0 0 -12.521681717829239 -9.8360883572527911 0 -9.8360883572527911 16.115084944024147 0 0 0 0 109.12495359563673 -121.50173059067311 0 -121.50173059067311 154.20675438804756 0 0 0 0 -252.94014024294847 295.61466882305103 0 295.61466882305103 1125.0701733963656 0 0 0 0 -4.3415270638615766 -20.8063454940675 0 -20.8063454940675 58.667866159790719 0 0 0 0 -4.2554229164949788 -7.8352189784887827 0 -7.8352189784887827 20.294880553474343 0 0 0 0 1130.0798196632131 525.17437587822496 0 525.17437587822496 102.85106745009762 0 0 0 0 1139.1548458310208 214.74674323976797 0 214.74674323976797 605.99715168403054 0 0 0 0 1471.9212347293226 472.26552824704595 0 472.26552824704595 75.098778900894104 0 0 0 0 1344.8962142681048 42.247811758439639 0 42.247811758439639 283.29781408768031 0 0 0 0 2416.6662092924935 855.89643584930309 0 855.89643584930309 96.459358117121155 0 0 0 0 1190.3510861687128 1162.290956737339 0 1162.290956737339 1297.7035227845045 0 0 0 0 -0.60465611005714237 1.57007555459945 0 1.57007555459945 16.819543867661622 0 0 0 0 -5.0088615485958314 -2.120482780707567 0 -2.120482780707567 105.52819078923852 0 0 0 0 -38.278159217313259 2.4186698996563791 0 2.4186698996563791 130.61895896458009 0 0 0 0 -122.12523381557912 -42.470157222807757 0 -42.470157222807757 281.13170487227035 0 0 0 0 675.32919191149631 807.95634869407513 0 807.95634869407513 204.31929351954022 0 0 0 0 693.39314201563866 859.28777197590716 0 859.28777197590716 256.91173588547099 0 0 0 0 -4.3818745895428632 2.039982245795132 0 2.039982245795132 75.298142674392039 0 0 0 0 797.9451578540793 874.58913012577977 0 874.58913012577977 193.85015321363608 0 0 0 0 846.53165782629367 629.09105366554286 0 629.09105366554286 360.01604652489914 0 0 0 0 -19.755245981467624 -0.38090591825312003 0 -0.38090591825312003 75.358200474198384 0 0 0 0 8.8958896315816673 -16.945887715399294 0 -16.945887715399294 84.44339607805523 0 0 0 0 -129.50703754431197 175.70788991701193 0 175.70788991701193 -332.6597532716587 0 0 0 0 -20.56345418156944 -38.74285921716303 0 -38.74285921716303 41.471685390751901 0 0 0 0 -8.6962665902874505 13.426092648120175 0 13.426092648120175 119.4132133176463 0 0 0 0 3.0769880532716343 -14.374598808764858 0 -14.374598808764858 72.227869098463998 0 0 0 0 -65.868387982479845 -200.51023596631001 0 -200.51023596631001 -93.939277853023668 0 0 0 0 -52.750068053746986 69.490982539498646 0 69.490982539498646 -189.09450049176667 0 0 0 0 -377.88666648220408 -114.0111636947986 0 -114.0111636947986 -117.89092532466748 0 0 0 0 41.401804598888972 -35.072406456457401 0 -35.072406456457401 14.925901482174694 0 0 0 0 -340.58116940871514 124.95017609212664 0 124.95017609212664 -157.58074573240447 0 0 0 0 -337.08933937870643 140.26706427029785 0 140.26706427029785 -291.02417401199637 0 0 0 0 -435.1093034526466 126.41125493396612 0 126.41125493396612 -92.646716921830375 0 0 0 0 -6.2714905752159211 41.353113277221382 0 41.353113277221382 178.96191614237978 0 0 0 0 13.890469277484499 139.08533309301424 0 139.08533309301424 480.29527671120013 0 0 0 0 35.938553084100022 154.4771683228264 0 154.4771683228264 398.74246671004221 0 0 0 0 -101.1225440635335 -50.097509365426959 0 -50.097509365426959 405.95223394346976 0 0 0 0 18.460215840468663 94.585677766335721 0 94.585677766335721 302.83159350111964 0 0 0 0 47.265039469082694 136.65371347799373 0 136.65371347799373 346.91743948683143 0 0 0 0 -70.007737047752016 159.08073401431466 0 159.08073401431466 692.69346398225753 0 0 0 0 -988.01771313236168 -1134.0942637630287 0 -1134.0942637630287 166.01039234669952 0 0 0 0 0.95764328553348221 -2.3873437944569122 0 -2.3873437944569122 1.7147784172531004 0 0 0 0 -60.695657646881955 -588.8835908449546 0 -588.8835908449546 171.15771204665361 0 0 0 0 -125.50819876001333 -351.85025961135398 0 -351.85025961135398 -641.06577404696873 0 0 0 0 165.9772579766086 -23.215804373146966 0 -23.215804373146966 445.02634959214629 0 0 0 0 -6.8024203873963645 -6.6647625344136117 0 -6.6647625344136117 5.7334738209056155 0 0 0 0 140.06232664334129 -346.33869576127108 0 -346.33869576127108 805.31796651819604 0 0 0 0 -192.28925378885742 -519.62854659913501 0 -519.62854659913501 751.17142869767122 0 0 0 0 -226.43900323670005 364.51072183115684 0 364.51072183115684 -299.69026350924833 0 0 0 0 -550.93505872227615 -153.30817972587101 0 -153.30817972587101 766.45342219543818 0 0 0 0 -222.84733843315189 -106.52258918949155 0 -106.52258918949155 379.49174322916224 0 0 0 0 -375.03128161263885 53.219613945184392 0 53.219613945184392 222.51518736552771 0 0 0 0 -323.86338720464482 39.149113598632539 0 39.149113598632539 -33.083184224480647 0 0 0 0 -266.06805200336385 271.28982411107427 0 271.28982411107427 46.123791785552385 0 0 0 0 -577.11426527278672 682.55847145403823 0 682.55847145403823 263.20896961399558 0 0 0 0 784.94997545214437 -931.02917016614629 0 -931.02917016614629 610.45360454102047 0 0 0 0 -1034.9974198447817 221.03038305015434 0 221.03038305015434 1520.4605280505639 0 0 0 0 -204.55912641892792 -703.60207384208479 0 -703.60207384208479 1374.9324440794626 0 0 0 0 259.74194905468903 -880.20152636673447 0 -880.20152636673447 851.17338159962674 0 0 0 0 123.68825546344669 -517.95289791199684 0 -517.95289791199684 558.5222683601005 0 0 0 0 574.62119561410236 -569.15049676005583 0 -569.15049676005583 415.87045332320849 0 0 0 0 606.33481399166521 188.17813258982642 0 188.17813258982642 -149.17242044083105 0 0 0 0 0.76582786987080498 1.473040748106583 0 1.473040748106583 14.097646923894018 0 0 0 0 256.70593255448375 -222.38110354492892 0 -222.38110354492892 224.93758015798085 0 0 0 0 182.06453649377181 -134.98578386419376 0 -134.98578386419376 47.6021443531572 0 0 0 0 -9.3819254537700481 2.7151302940954523 0 2.7151302940954523 140.53857650239428 0 0 0 0 -578.72533688778003 91.417015213224659 0 91.417015213224659 247.85214437139075 0 0 0 0 2.2772873822159454 -21.938492539957224 0 -21.938492539957224 109.3736346479127 0 0 0 0 -91.77758397515754 406.66183573803573 0 406.66183573803573 85.338850791697041 0 0 0 0 -16.578691424398695 -36.236465827448122 0 -36.236465827448122 66.878105140193782 0 0 0 0 -52.59299947384276 29.087983883957136 0 29.087983883957136 192.93320753812884 0 0 0 0 -111.1777140587219 -48.933615787318558 0 -48.933615787318558 46.676588395697763 0 0 0 0 243.44128199686043 388.89422031345566 0 388.89422031345566 -12.651326862687711 0 0 0 0 -7.5732347228149592 16.177669084383524 0 16.177669084383524 121.17820363467035 0 0 0 0 1.7831502689661818 -47.58704581999379 0 -47.58704581999379 53.239580761117054 0 0 0 0 -21.567892588446213 -17.524898537179126 0 -17.524898537179126 70.468259237326407 0 0 0 0 -3.0148264810022871 -20.605586992987718 0 -20.605586992987718 0.72570396778081658 0 0 0 0 -3.8317463339808455 -110.11101651595709 0 -110.11101651595709 -155.90126833785325 0 0 0 0 33.219817248074833 -18.112519711370624 0 -18.112519711370624 -25.230600385584694 0 0 0 0 24.198240238205017 -80.510597831404311 0 -80.510597831404311 -257.49005044428122 0 0 0 0 -107.94315353850834 -180.72478155057252 0 -180.72478155057252 -170.58556367145866 0 0 0 0 -3.0576679728437028 -0.71077190525480916 0 -0.71077190525480916 0.30986532427790792 0 0 0 0 -79.748438062899368 2.6358763306889159 0 2.6358763306889159 34.888485966865119 0 0 0 0 -13.868585684010213 -16.483224447872999 0 -16.483224447872999 40.14894261637528 0 0 0 0 -1.9389713542659592 -32.844998366770596 0 -32.844998366770596 22.740831747440097 0 0 0 0 -11.651206358925265 -59.708882682592957 0 -59.708882682592957 25.703578336166174 0 0 0 0 3.0761372538654541 -24.017266634888074 0 -24.017266634888074 38.258306974268635 0 0 0 0 -4.0516566231675171 -7.1627671626659293 0 -7.1627671626659293 7.167063709815622 0 0 0 0 -4.3222899316912091 -17.021174563152755 0 -17.021174563152755 20.590226434357845 0 0 0 0 7.9474960776387888 -7.0521646507218065 0 -7.0521646507218065 25.364201443531783 0 0 0 0 -8.8939430176851602 -26.390256276225045 0 -26.390256276225045 10.573473296721204 0 0 0 0 5.8601427573971918 -21.812157239385098 0 -21.812157239385098 18.307439778359026 0 0 0 0 -7.6411867373753921 -31.77713543245045 0 -31.77713543245045 24.163296630536934 0 0 0 0 -8.0601767120196097 -49.704345511773766 0 -49.704345511773766 6.3059880278090219 0 0 0 0 -12.127444228643981 15.621174283557593 0 15.621174283557593 92.218692226910207 0 0 0 0 -34.895963627351669 -33.659337115831548 0 -33.659337115831548 42.059194124764474 0 0 0 0 -79.593413680997401 -110.67090524146442 0 -110.67090524146442 77.255004509468563 0 0 0 0 -57.286718694678484 -110.90032447091562 0 -110.90032447091562 -32.507614166006533 0 0 0 0 43.612345017037114 -20.498025252278467 0 -20.498025252278467 -65.267206610697031 0 0 0 0 41.280737566708872 -33.677146644832092 0 -33.677146644832092 10.66969155882019 0 0 0 0 -34.69663996579402 -52.892282700253418 0 -52.892282700253418 4.4492358402749232 0 0 0 0 43.040644696622621 -15.908056682255392 0 -15.908056682255392 -99.984643049156148 0 0 0 0 6.6533738682188215 -6.5470845751267177 0 -6.5470845751267177 3.0539660409258431 0 0 0 0 56.367226929995326 -77.752632730909539 0 -77.752632730909539 -159.13198512097733 0 0 0 0 -75.329584914277802 -191.83401050826069 0 -191.83401050826069 24.049264351215243 0 0 0 0 7.0164999729422561 -109.64656502709477 0 -109.64656502709477 60.963217462896864 0 0 0 0 56.365621079326104 -84.889450961257424 0 -84.889450961257424 -40.335756775977643 0 0 0 0 17.542778403239936 -78.178326968965848 0 -78.178326968965848 -6.3242722404211236 0 0 0 0 -58.125401222199429 -13.946108757895352 0 -13.946108757895352 6.7263438034111189 0 0 0 0 -55.176127217891917 -109.11953681254454 0 -109.11953681254454 148.26456632679401 0 0 0 0 50.637070205772034 -131.64819757287114 0 -131.64819757287114 20.436338462196545 0 0 0 0 20.230434942066495 -151.98139714944227 0 -151.98139714944227 75.158852132837637 0 0 0 0 5.8126814994866436 -223.38009160702859 0 -223.38009160702859 234.18599669794094 0 0 0 0 -10.508153748899531 -69.374923896304153 0 -69.374923896304153 138.45526675037399 0 0 0 0 9.3602864741587837 -43.201532469012818 0 -43.201532469012818 213.80033509862733 0 0 0 0 -0.19609549275537574 -24.534966480696767 0 -24.534966480696767 -0.30542537604924291 0 0 0 0 -3.2549036679447454 -139.13107218288678 0 -139.13107218288678 -135.48062377558199 0 0 0 0 8.88404482443093 -115.37338038762755 0 -115.37338038762755 -134.60731171036605 0 0 0 0 -58.260238025522995 -179.34998907769295 0 -179.34998907769295 93.73829903531805 0 0 0 0 -1.4031162935425527 -69.657571901272604 0 -69.657571901272604 50.161457169464484 0 0 0 0 -158.30406835981194 -106.75931636908763 0 -106.75931636908763 223.05084201670252 0 0 0 0 -236.48163174351794 -102.40819896040011 0 -102.40819896040011 101.03196578651932 0 0 0 0 -90.397898533521584 -27.758123036535835 0 -27.758123036535835 126.56490150213858 0 0 0 0 -183.68152544867189 -3.5828354765235417 0 -3.5828354765235417 -51.692940547087346 0 0 0 0 -257.33889171186092 -244.89913379138306 0 -244.89913379138306 -308.43642138869836 0 0 0 0 -281.07071004035538 -34.527455269694883 0 -34.527455269694883 -18.697830985489418 0 0 0 0 -132.39208344146755 -100.18225709240869 0 -100.18225709240869 43.141725554735785 0 0 0 0 -141.54595465026068 -150.24844240227139 0 -150.24844240227139 -80.89149946969701 0 0 0 0 -113.6499564314945 -67.675880277936812 0 -67.675880277936812 -129.11950165573035 0 0 0 0 367.97502732246721 12.292466065220651 0 12.292466065220651 -305.22781574219516 0 0 0 0 -497.48733910498777 -97.328832069574673 0 -97.328832069574673 -57.470233978507167 0 0 0 0 -706.11866188781642 -373.88877060833875 0 -373.88877060833875 -95.4503111448048 0 0 0 0 1.7324572624624999 -3.0873405484781156 0 -3.0873405484781156 -3.1885209845173108 0 0 0 0 -560.34531065035299 -224.10176267094357 0 -224.10176267094357 -18.344173821385994 0 0 0 0 -80.349954918769072 -81.290763818087726 0 -81.290763818087726 47.499224449078611 0 0 0 0 26.642610925544432 -85.902105412289529 0 -85.902105412289529 40.989456047647764 0 0 0 0 -116.17969772771903 -140.97606533126782 0 -140.97606533126782 -90.970427414464211 0 0 0 0 -71.991657755272172 -215.6086775654876 0 -215.6086775654876 29.653398796400324 0 0 0 0 -62.520782605584373 -49.760670279260921 0 -49.760670279260921 -8.5498809025375522 0 0 0 0 -308.47530335495503 -155.54197757366637 0 -155.54197757366637 1.5057514485961292 0 0 0 0 -304.85117487870775 -169.00506387349196 0 -169.00506387349196 -150.14422557874059 0 0 0 0 -212.37628717936968 -153.88898775188864 0 -153.88898775188864 -197.69286242009548 0 0 0 0 -117.8408642151644 -148.73420799891755 0 -148.73420799891755 -79.89567568486018 0 0 0 0 -214.6776944138237 -36.809737146309999 0 -36.809737146309999 0.96456248761205643 0 0 0 0 -66.627164092922499 21.613669991227766 0 21.613669991227766 84.402001730955817 0 0 0 0 -54.425881129704976 -52.137060603320037 0 -52.137060603320037 -41.417938282556861 0 0 0 0 -129.82404383026733 54.223742626301828 0 54.223742626301828 51.438250670900743 0 0 0 0 -192.43061697824669 -61.146042027025032 0 -61.146042027025032 -21.382548127945483 0 0 0 0 -143.36723230585267 -8.9774820707843901 0 -8.9774820707843901 151.69581195458704 0 0 0 0 -108.94161663110208 58.824310749945653 0 58.824310749945653 179.88186775178838 0 0 0 0 -145.26311700075439 51.454150465741805 0 51.454150465741805 58.999488143050257 0 0 0 0 5.7236122776166667 57.761923682179258 0 57.761923682179258 175.83546984656277 0 0 0 0 -67.49471024933473 58.745431912599088 0 58.745431912599088 188.57343532279629 0 0 0 0 -49.695206409314778 32.70463012554319 0 32.70463012554319 50.613975733251209 0 0 0 0 4.4323942012306361 84.370477626944194 0 84.370477626944194 160.38306643837677 0 0 0 0 22.862692437125588 41.002786816790831 0 41.002786816790831 227.38687297908837 0 0 0 0 -18.014458047171502 63.486282223177113 0 63.486282223177113 416.94303613256488 0 0 0 0 213.66383657829874 -163.99201414895288 0 -163.99201414895288 272.60299874225257 0 0 0 0 26.524400547535151 4.3019574653844757 0 4.3019574653844757 49.82311696612669 0 0 0 0 37.291808944065451 -45.401117512355995 0 -45.401117512355995 253.3872717018121 0 0 0 0 396.72106550712465 -445.55516332365193 0 -445.55516332365193 411.75909255143051 0 0 0 0 288.77793811603078 -72.076281621386443 0 -72.076281621386443 254.14532578846047 0 0 0 0 384.02414586670091 81.286824802092269 0 81.286824802092269 450.88705048000702 0 0 0 0 299.26238068492967 -188.15140189786689 0 -188.15140189786689 691.85404752022077 0 0 0 0 221.94124851571996 22.372908666122385 0 22.372908666122385 423.07240919318428 0 0 0 0 36.401166284140345 70.177478156731922 0 70.177478156731922 478.43965425794522 0 0 0 0 110.01649251594608 45.533606325941946 0 45.533606325941946 187.75094226947203 0 0 0 0 200.85404340929074 27.336649380611902 0 27.336649380611902 298.41253551496629 0 0 0 0 -2.1744965155358091 -1.1127400027646956 0 -1.1127400027646956 3.8230245962704572 0 0 0 0 193.72466253837001 -307.9137354599934 0 -307.9137354599934 576.381502772766 0 0 0 0 170.27239547803174 -287.80402824332305 0 -287.80402824332305 605.53432086932298 0 0 0 0 206.16604546486587 -291.4588039219052 0 -291.4588039219052 596.10747151589749 0 0 0 0 604.49710017342341 -157.15520552792805 0 -157.15520552792805 263.84366355245584 0 0 0 0 575.69704167402233 -424.46533971208919 0 -424.46533971208919 285.60902887456939 0 0 0 0 566.17040683537675 -293.12440638895532 0 -293.12440638895532 -13.668145111741978 0 0 0 0 259.62717369311713 -188.41333801480505 0 -188.41333801480505 237.38469930183237 0 0 0 0 1.2410672776209695 7.9253453014362218 0 7.9253453014362218 29.929878366951215 0 0 0 0 -137.87348061164977 16.724428175180037 0 16.724428175180037 16.4964270399214 0 0 0 0 41.74414443384012 -145.21435604993712 0 -145.21435604993712 59.608832862681083 0 0 0 0 114.83480681822221 -29.672070250197976 0 -29.672070250197976 112.78145501360268 0 0 0 0 213.01280201082864 -189.23625377127064 0 -189.23625377127064 139.20787603782355 0 0 0 0 -3.0732817909459484 -1.6140128588065465 0 -1.6140128588065465 5.0264293957375656 0 0 0 0 118.61165240985429 -49.211548495714851 0 -49.211548495714851 35.550702449112578 0 0 0 0 -9.8788518903002114 -121.73124852194815 0 -121.73124852194815 151.36498962108817 0 0 0 0 -3.0339645304457328 -1.776228987251244 0 -1.776228987251244 3.7818200709129002 0 0 0 0 -37.110456833696844 -253.45251904964425 0 -253.45251904964425 82.631895895570779 0 0 0 0 324.06286511417125 -278.5074244389325 0 -278.5074244389325 242.77208899487596 0 0 0 0 -51.774588719660471 1.455877579191565 0 1.455877579191565 64.963922090115375 0 0 0 0 -140.39927175582909 87.284061095456764 0 87.284061095456764 40.408405770307581 0 0 0 0 391.82734195713783 -308.5101205626961 0 -308.5101205626961 211.00527514203804 0 0 0 0 4.1021958407823913 16.432280413856276 0 16.432280413856276 50.965572833821952 0 0 0 0 -149.02336941879537 54.746894849084129 0 54.746894849084129 66.82280381171222 0 0 0 0 -165.56773688292401 43.007962496400069 0 43.007962496400069 97.752537440293054 0 0 0 0 -177.97133801558655 127.35905710177224 0 127.35905710177224 25.440470895489852 0 0 0 0 -242.64206298939052 51.258563193650843 0 51.258563193650843 82.209745034472689 0 0 0 0 -158.27122192046969 2.6894865848694849 0 2.6894865848694849 111.80228849008927 0 0 0 0 50.341603033474598 -12.188623432342865 0 -12.188623432342865 51.367061498481235 0 0 0 0 -129.91460937340577 140.1057156398324 0 140.1057156398324 47.914778837845915 0 0 0 0 97.11639120939526 -261.64297188956516 0 -261.64297188956516 244.32985531604186 0 0 0 0 -59.221363097328322 -144.98520097892288 0 -144.98520097892288 192.16599017846238 0 0 0 0 -40.327909569052849 -330.25406224046992 0 -330.25406224046992 520.21328208030172 0 0 0 0 8.668025835728665 26.839434577626641 0 26.839434577626641 73.309513181417259 0 0 0 0 14.451414682358426 38.998837504802815 0 38.998837504802815 95.442331311246619 0 0 0 0 -348.93693418349176 94.436180841212263 0 94.436180841212263 419.97380211721611 0 0 0 0 -81.977566211418889 -337.73704089925013 0 -337.73704089925013 597.50091218830494 0 0 0 0 -10.188176214693158 75.768878987386415 0 75.768878987386415 404.35665391033399 0 0 0 0 21.441129505002664 -52.346260756736228 0 -52.346260756736228 730.01339134541922 0 0 0 0 31.066051849084033 -384.81006852534119 0 -384.81006852534119 174.04511077993811 0 0 0 0 -63.168462253237522 -291.45804141485132 0 -291.45804141485132 710.46241222442768 0 0 0 0 42.1734289995984 -560.60226666560266 0 -560.60226666560266 697.30707517539099 0 0 0 0 433.51131782400262 -4.2012362306923023 0 -4.2012362306923023 -2.4832138840865809 0 0 0 0 -124.64924820970191 -210.52153520310458 0 -210.52153520310458 -409.11670842634703 0 0 0 0 -1.5467572863544348 -0.75025500347986451 0 -0.75025500347986451 -0.049439390454956822 0 0 0 0 97.710325335494417 -274.60678749380168 0 -274.60678749380168 10.749412417440908 0 0 0 0 -177.13307804510259 -221.37488423896139 0 -221.37488423896139 108.96162573699257 0 0 0 0 225.03531729571296 -425.20718058448256 0 -425.20718058448256 27.670587396889459 0 0 0 0 -199.29382251762217 -385.7445308557908 0 -385.7445308557908 1615.0947943725914 0 0 0 0 486.16316981687123 -1094.9059070374642 0 -1094.9059070374642 686.25020603217854 0 0 0 0 0.54865562244351551 -7.2244773978312047 0 -7.2244773978312047 3.4080297451964157 0 0 0 0 47.323306395624968 -186.43228067291784 0 -186.43228067291784 1931.013592181851 0 0 0 0 282.08771029351374 721.78992711764477 0 721.78992711764477 1251.7725546103611 0 0 0 0 882.33356697000272 -387.0569108446216 0 -387.0569108446216 911.48548166365072 0 0 0 0 475.20641373973558 279.41477950311673 0 279.41477950311673 960.93628576700212 0 0 0 0 336.46516823450793 -138.44476828135726 0 -138.44476828135726 550.46052650979254 0 0 0 0 340.62560005204432 -8.1254713646703749 0 -8.1254713646703749 663.67013698890514 0 0 0 0 283.18620630540681 -283.74229437937174 0 -283.74229437937174 879.93262191532267 0 0 0 0 22.585954664853489 -8.9906864019212662 0 -8.9906864019212662 602.64700059572351 0 0 0 0 -21.022595257556532 -111.44703711739567 0 -111.44703711739567 861.31828086565656 0 0 0 0 -91.025757656279893 4.059201425901847 0 4.059201425901847 836.78344775208279 0 0 0 0 -76.152504119927471 -80.732588512291841 0 -80.732588512291841 1135.268050914794 0 0 0 0 -174.39191766222575 5.8517301486444921 0 5.8517301486444921 677.86673424889159 0 0 0 0 -185.61599474139985 22.288769987848355 0 22.288769987848355 913.43408791058755 0 0 0 0 -106.78443763990435 -1.1252628807560541 0 -1.1252628807560541 677.84219600375536 0 0 0 0 129.93103894984597 64.843154370988486 0 64.843154370988486 325.82965331623745 0 0 0 0 6.4661123617079284 14.106258112270552 0 14.106258112270552 983.92443114150956 0 0 0 0 -56.116382870444795 115.88546283593314 0 115.88546283593314 636.87431316058792 0 0 0 0 -62.656285304772609 156.8510466229709 0 156.8510466229709 1095.1053896770027 0 0 0 0 -69.983510316847969 136.66879569456069 0 136.66879569456069 642.5627184610712 0 0 0 0 298.91577553961542 435.20599261848838 0 435.20599261848838 458.66699322818022 0 0 0 0 3.9983882674181821 -6.4732553937029227 0 -6.4732553937029227 -12.135835375092327 0 0 0 0 15.798728259411291 -22.184036294956968 0 -22.184036294956968 -33.056353239993769 0 0 0 0 -0.98999764051352201 -11.126539777306874 0 -11.126539777306874 12.577839246225267 0 0 0 0 -19.825386931198409 -28.757159785865042 0 -28.757159785865042 -6.0212257025959843 0 0 0 0 4.679743492385164 -14.075621325869044 0 -14.075621325869044 12.928089993360373 0 0 0 0 20.476991513085522 -91.327795243385481 0 -91.327795243385481 177.87905047301319 0 0 0 0 16.35773337296996 -57.042100556303922 0 -57.042100556303922 -27.496431495805155 0 0 0 0 -52.878398782173463 159.75909836424034 0 159.75909836424034 300.90262619911664 0 0 0 0 32.526593810945997 -18.88047849904433 0 -18.88047849904433 -4.7059851468147826 0 0 0 0 -11.600193708509323 -33.829516565292579 0 -33.829516565292579 -20.884691470866528 0 0 0 0 -40.776103046209755 -49.969411285870592 0 -49.969411285870592 34.541519560094457 0 0 0 0 13.050030487415825 -66.910496700549629 0 -66.910496700549629 20.698089207035082 0 0 0 0 116.59595990085836 -37.190524593172086 0 -37.190524593172086 -11.493527411945252 0 0 0 0 2.9188709738284508 -4.6219538012073702 0 -4.6219538012073702 -6.7408973474520479 0 0 0 0 -265.19252826535012 -99.431026068145002 0 -99.431026068145002 -120.83626408131749 0 0 0 0 -141.32969957470414 -268.41166419579531 0 -268.41166419579531 17.856161337644153 0 0 0 0 -58.747143805568157 -221.36395150334101 0 -221.36395150334101 40.837564536428545 0 0 0 0 -8.0884778065319551 -401.2421517519324 0 -401.2421517519324 167.19640330927359 0 0 0 0 -425.83615513578843 -219.28631034827777 0 -219.28631034827777 83.54528414455126 0 0 0 0 -112.60816122162214 -175.65894819840832 0 -175.65894819840832 32.305255116260014 0 0 0 0 -228.22740636797062 -293.34495980097563 0 -293.34495980097563 -34.111098654298985 0 0 0 0 -11.744456286804052 -376.16168901496712 0 -376.16168901496712 137.1800984244328 0 0 0 0 1.3201473226686744 38.830588949032972 0 38.830588949032972 98.585299506899901 0 0 0 0 14.960305755639595 40.024032516826992 0 40.024032516826992 71.458461863930552 0 0 0 0 -0.0066640814443549926 45.177677907548059 0 45.177677907548059 92.413937910598179 0 0 0 0 5.53249650099088 37.295580755617266 0 37.295580755617266 101.50188393183635 0 0 0 0 22.630206744863159 54.70374528170214 0 54.70374528170214 98.916451634756413 0 0 0 0 23.172500785609209 52.836969564119499 0 52.836969564119499 101.87984524112835 0 0 0 0 -20.131376662756423 -21.511228333476538 0 -21.511228333476538 2.1587435197579907 0 0 0 0 1.5098331065850972 -1.6282587663147865 0 -1.6282587663147865 1.8342570166152257 0 0 0 0 52.177058342564067 86.43544981208106 0 86.43544981208106 124.02730974471206 0 0 0 0 41.320007726483539 46.289442170847906 0 46.289442170847906 105.80005913057539 0 0 0 0 20.615237271033379 54.268496549524571 0 54.268496549524571 126.18095522277872 0 0 0 0 30.09066600397162 56.742977559464634 0 56.742977559464634 91.74529620364774 0 0 0 0 10.70370518134348 26.76268547251675 0 26.76268547251675 86.433344279226731 0 0 0 0 9.2181128858078836 12.278131554354331 0 12.278131554354331 43.216970442867023 0 0 0 0 35.766690365569957 2.7113342306911363 0 2.7113342306911363 64.508245873235865 0 0 0 0 21.261696916426843 50.50219374174776 0 50.50219374174776 107.04751181133906 0 0 0 0 33.702331790504672 4.732976479390345 0 4.732976479390345 9.7505890153697692 0 0 0 0 21.46452807889608 27.903099019895308 0 27.903099019895308 41.8426147459395 0 0 0 0 29.885323760282574 13.100913328460592 0 13.100913328460592 15.676607819914352 0 0 0 0 14.497076109656973 17.747490098961862 0 17.747490098961862 14.325372487743152 0 0 0 0 -0.11030449348777438 13.189883808372542 0 13.189883808372542 -6.2768663574534003 0 0 0 0 17.863759823055705 3.676391339951806 0 3.676391339951806 -1.2461875803710427 0 0 0 0 11.484650006561425 8.6733586121481494 0 8.6733586121481494 -9.9307914306991734 0 0 0 0 11.573828005043708 25.373599131082301 0 25.373599131082301 17.07148839749425 0 0 0 0 14.791145791048166 44.118379613857542 0 44.118379613857542 47.225618660071632 0 0 0 0 -4.8203322231959191 21.826445788690762 0 21.826445788690762 70.736899666540921 0 0 0 0 -9.8203292768581605 42.953181812401453 0 42.953181812401453 44.219563992228359 0 0 0 0 -0.0067298083109853489 43.458849658414692 0 43.458849658414692 2.8380545993713895 0 0 0 0 4.4127070873708476 -11.319701039705251 0 -11.319701039705251 -61.186482090532081 0 0 0 0 3.6254113684273861 6.1002521039263229 0 6.1002521039263229 -3.4902041855675634 0 0 0 0 -0.010537722485633377 0.14370532950428583 0 0.14370532950428583 -0.12213195779185071 0 0 0 0 0.82167106890719155 3.3724610991521331 0 3.3724610991521331 5.572162835902418 0 0 0 0 0.0064137975525070043 2.3633135150084854 0 2.3633135150084854 4.3818128194179735 0 0 0 0 18.014606683101817 -2.4252845554583473 0 -2.4252845554583473 -23.871911291658762 0 0 0 0 4.9433369863160692 1.801153856315068 0 1.801153856315068 -24.873239095595636 0 0 0 0 6.2849761092381016 -4.221006045336253 0 -4.221006045336253 -23.537346605502535 0 0 0 0 0.92144492177495829 1.3965676710911907 0 1.3965676710911907 0.55644723663462514 0 0 0 0 -7.0466791294939597 -9.0851841903840977 0 -9.0851841903840977 -13.091338338592323 0 0 0 0 1.5338763847942332 1.3344999712940009 0 1.3344999712940009 -0.37173845598726984 0 0 0 0 -2.4071853883982612 15.048392706441518 0 15.048392706441518 18.993690512128524 0 0 0 0 0.99285424196902217 4.5458332715982142 0 4.5458332715982142 8.7549956323567244 0 0 0 0 0.99426896603537163 4.8988394391999464 0 4.8988394391999464 6.5471099436690565 0 0 0 0 -0.005258789583741267 3.4894681963814946 0 3.4894681963814946 10.506338428458548 0 0 0 0 9.5727224433060201 1.5295386396319373 0 1.5295386396319373 4.4228060698660556 0 0 0 0 0.12084197305672362 5.6715163140177225 0 5.6715163140177225 15.143343857778547 0 0 0 0 1.1675202322983789 5.2809480989036537 0 5.2809480989036537 11.675781930977905 0 0 0 0 -9.2096194171360821 3.608355733933422 0 3.608355733933422 14.617577875673305 0 0 0 0 -0.44259023782268825 5.6564263330938047 0 5.6564263330938047 11.977910885892925 0 0 0 0 -21.049453178371095 42.837839141866425 0 42.837839141866425 5.8541282613005023 0 0 0 0 -14.468850117335933 6.6345681005132064 0 6.6345681005132064 40.854351731046336 0 0 0 0 10.58224729714015 15.683967096407741 0 15.683967096407741 18.104426875943318 0 0 0 0 -0.79708437972203683 1.7494319569086656 0 1.7494319569086656 24.28723998156056 0 0 0 0 5.2870714326333577 10.576284405065167 0 10.576284405065167 12.848339457942984 0 0 0 0 0.31000326998099759 -0.17575299349815054 0 -0.17575299349815054 -0.27883618727014436 0 0 0 0 0.93705966753418046 2.5412969967934629 0 2.5412969967934629 10.387352835356012 0 0 0 0 -6.0348748235310268 26.37453973411175 0 26.37453973411175 -10.107594835288182 0 0 0 0 2.8562070953909497 8.5752433305546418 0 8.5752433305546418 15.585530265921307 0 0 0 0 -29.798306294695067 66.333678263996262 0 66.333678263996262 -15.274062729324214 0 0 0 0 4.9304695376872445 9.2861477113508784 0 9.2861477113508784 6.5524589730098057 0 0 0 0 5.881703784272645 15.343663074811047 0 15.343663074811047 -18.325563637430605 0 0 0 0 18.798244782248844 10.255685222917236 0 10.255685222917236 -16.468620940722758 0 0 0 0 8.3602651853911993 9.2179357392160455 0 9.2179357392160455 7.8829890543711372 0 0 0 0 3.0102212014874112 5.8297231895776349 0 5.8297231895776349 12.704630931548309 0 0 0 0 9.523734430068771 2.830002226124634 0 2.830002226124634 -10.470406951455516 0 0 0 0 12.912802572954888 6.5648179436611827 0 6.5648179436611827 1.6506418702192605 0 0 0 0 4.2471917319446568 3.1905539647716523 0 3.1905539647716523 -4.0590496126745279 0 0 0 0 10.721717378924154 -0.51660761705716141 0 -0.51660761705716141 -9.0485456617752789 0 0 0 0 10.68237165066779 0.95899610262131318 0 0.95899610262131318 -12.086430544615723 0 0 0 0 23.485459390127687 1.1928502206865232 0 1.1928502206865232 -3.6457282179326285 0 0 0 0 19.47717838489929 7.8172625991373934 0 7.8172625991373934 -10.559949752409011 0 0 0 0 6.9712723694207739 11.530369279047591 0 11.530369279047591 -7.129266277901479 0 0 0 0 25.453696725526097 20.016199225995479 0 20.016199225995479 -4.3523528987716418 0 0 0 0 13.738444642549453 35.539193369851091 0 35.539193369851091 -25.853678210056387 0 0 0 0 -10.79571224575659 27.517795958941861 0 27.517795958941861 0.83957989727787208 0 0 0 0 9.3568987035676088 18.093267989805824 0 18.093267989805824 22.972638464236752 0 0 0 0 3.3010653130331775 37.778009370580548 0 37.778009370580548 -27.025574036793842 0 0 0 0 -1.693744212438105 72.339155091854082 0 72.339155091854082 -6.2071558055031346 0 0 0 0 12.884361645770696 41.202655920002144 0 41.202655920002144 48.197956022966537 0 0 0 0 0.57774978681522882 2.2787502848192105 0 2.2787502848192105 8.9606903537167852 0 0 0 0 9.3806730892524683 10.983268958521876 0 10.983268958521876 -3.7298403951135697 0 0 0 0 5.1304941628556957 10.498070626484463 0 10.498070626484463 15.179285341443716 0 0 0 0 -5.1964902420322687 51.320092273657792 0 51.320092273657792 -28.413273403406492 0 0 0 0 0.49653649865558691 9.9859619946510065 0 9.9859619946510065 12.326420189725468 0 0 0 0 5.7277478689925232 9.0654157197178904 0 9.0654157197178904 9.4175260663366203 0 0 0 0 -13.208549789549579 17.159035795701129 0 17.159035795701129 -2.4629265430558007 0 0 0 0 33.75281487970642 32.144353701267391 0 32.144353701267391 1.1643766788765788 0 0 0 0 -11.970763116873059 16.660449321869237 0 16.660449321869237 62.31208232876088 0 0 0 0 44.263581786943178 23.532496344407264 0 23.532496344407264 -2.0498144057346508 0 0 0 0 22.836052021804676 0.92330985616263206 0 0.92330985616263206 29.084634345999802 0 0 0 0 9.8927783982699111 2.9978725356122595 0 2.9978725356122595 145.64262646365387 0 0 0 0 103.93199934098811 37.613514605262026 0 37.613514605262026 45.156813654655707 0 0 0 0 14.223848605018475 -6.1387396237514622 0 -6.1387396237514622 52.570042813400505 0 0 0 0 -0.89142253311001696 17.651684575474064 0 17.651684575474064 49.745818341281847 0 0 0 0 112.86448028755785 -72.932371425638848 0 -72.932371425638848 51.312603867481812 0 0 0 0 23.207108831926234 -33.196432459786593 0 -33.196432459786593 33.9302088183249 0 0 0 0 17.156123378519169 -23.099757146888805 0 -23.099757146888805 48.517645783787884 0 0 0 0 36.877235068784557 3.9992324841441587 0 3.9992324841441587 20.819867306374363 0 0 0 0 58.267050842059689 -31.272369606842403 0 -31.272369606842403 15.526970554674335 0 0 0 0 43.122383308191274 -2.7914627913705772 0 -2.7914627913705772 -1.4694935344305122 0 0 0 0 0.83437887917338571 0.62860484208692924 0 0.62860484208692924 0.4609913756767412 0 0 0 0 -124.70119195664665 -94.545241672691191 0 -94.545241672691191 168.39678866771283 0 0 0 0 66.714226819355645 15.675570697472722 0 15.675570697472722 -35.239126489490445 0 0 0 0 15.57417705830494 -14.600487691282069 0 -14.600487691282069 -4.4511103641998488 0 0 0 0 27.480183375244451 23.001862394841737 0 23.001862394841737 16.722342678258428 0 0 0 0 69.705579060499076 66.108620593477099 0 66.108620593477099 59.983836238709046 0 0 0 0 3.3019925420203435 19.590212350351067 0 19.590212350351067 106.0086261825054 0 0 0 0 12.896500324585759 -22.677318182002637 0 -22.677318182002637 37.395441775210202 0 0 0 0 1.6057509067650599 3.0648598751840197 0 3.0648598751840197 1.7960547442596067 0 0 0 0 11.702196244113111 19.510439644920552 0 19.510439644920552 41.258923355053412 0 0 0 0 -40.152897452236175 -20.311889696202343 0 -20.311889696202343 52.754096122662304 0 0 0 0 16.432840724630069 85.98056072881991 0 85.98056072881991 10.951725287886802 0 0 0 0 4.9647184376008227 -19.85903109422361 0 -19.85903109422361 91.152878172099008 0 0 0 0 -43.181353720048264 17.196636789594777 0 17.196636789594777 53.538399933169785 0 0 0 0 -18.831344858403099 28.947975070455868 0 28.947975070455868 136.75259242934408 0 0 0 0 -12.996205714402095 1.4183793905285711 0 1.4183793905285711 15.188784621241211 0 0 0 0 -10.469455976858667 8.1675591082126147 0 8.1675591082126147 44.209400422221847 0 0 0 0 -5.47219990476151 -17.970749659754802 0 -17.970749659754802 4.0228717930149287 0 0 0 0 -11.928582186134697 -9.1317106951558031 0 -9.1317106951558031 7.7403177395924558 0 0 0 0 -20.194412639689062 60.005965250391455 0 60.005965250391455 41.383473762713038 0 0 0 0 208.72561010949448 85.529975817611557 0 85.529975817611557 -1.167203871300444 0 0 0 0 8.9372642582103303 19.207173601765717 0 19.207173601765717 29.554239681664058 0 0 0 0 -24.098809419600812 22.81960279467603 0 22.81960279467603 41.290264134644531 0 0 0 0 26.732057892411035 66.631088801193982 0 66.631088801193982 -9.9739947108428169 0 0 0 0 37.975837898545251 23.216191170817183 0 23.216191170817183 -3.2781783498430741 0 0 0 0 17.752307286223186 28.308618490409572 0 28.308618490409572 39.357312197753345 0 0 0 0 20.006861273501727 -1.0246042646758724 0 -1.0246042646758724 143.07817405126843 0 0 0 0 49.065054934657439 36.280135049591991 0 36.280135049591991 39.909431467807735 0 0 0 0 59.414978352041203 61.725351207911444 0 61.725351207911444 59.119634075294016 0 0 0 0 -26.781376374866682 -41.576162490615388 0 -41.576162490615388 95.0298023600335 0 0 0 0 59.595150616379613 117.03735254718049 0 117.03735254718049 201.79614107084126 0 0 0 0 0.66360712444514203 -0.45299305022234648 0 -0.45299305022234648 0.557830774411741 0 0 0 0 -10.356901354367153 -3.2593445970487664 0 -3.2593445970487664 4.1895855807670159 0 0 0 0 -1.3708811606709332 -34.609949253615923 0 -34.609949253615923 -27.326533393672435 0 0 0 0 -1.0744999971394691 -39.007716826818069 0 -39.007716826818069 27.973037945514079 0 0 0 0 -19.844371455048076 -11.482596937341441 0 -11.482596937341441 0.51551628664310556 0 0 0 0 3.0803113717226447 4.9820410235199404 0 4.9820410235199404 7.4649297063756705 0 0 0 0 -15.486954524898465 -34.35706817630853 0 -34.35706817630853 3.5616021150635788 0 0 0 0 -30.920212272975959 -11.135784588397655 0 -11.135784588397655 20.595850265148329 0 0 0 0 19.954726438024434 -6.8286873627586999 0 -6.8286873627586999 13.106467707381114 0 0 0 0 -7.2597391369234323 10.294873583880147 0 10.294873583880147 30.386125978142047 0 0 0 0 104.89900836206698 40.292598033956892 0 40.292598033956892 38.721618464907806 0 0 0 0 64.282084393707009 24.992458639018878 0 24.992458639018878 -23.859426182709285 0 0 0 0 0.5690202220230276 89.360905785397335 0 89.360905785397335 36.984466814385087 0 0 0 0 -48.753384008539911 -20.737611481814383 0 -20.737611481814383 51.044690986556816 0 0 0 0 -41.873955028187538 28.558772751290235 0 28.558772751290235 133.75115939132229 0 0 0 0 -42.325672610677884 15.099253649306775 0 15.099253649306775 48.59353318043577 0 0 0 0 129.95080140587152 114.00039674081199 0 114.00039674081199 140.74788714548777 0 0 0 0 122.25694041477936 129.62017795722204 0 129.62017795722204 219.10062643348647 0 0 0 0 9.6935574609281367 -7.475343987211545 0 -7.475343987211545 4.9857143989507904 0 0 0 0 73.707339627308102 -110.25935243554704 0 -110.25935243554704 24.923544147604844 0 0 0 0 122.29538473091702 126.21054369300327 0 126.21054369300327 133.49968726768566 0 0 0 0 129.63372181177283 -197.31063371516575 0 -197.31063371516575 160.40756786722341 0 0 0 0 1.3607498612800555 103.59251697357104 0 103.59251697357104 280.55033040541457 0 0 0 0 80.154824552973878 74.751250389203051 0 74.751250389203051 82.560501403073431 0 0 0 0 116.13487903845362 117.46753305093443 0 117.46753305093443 132.25087090846682 0 0 0 0 134.1214990320467 114.05674729168095 0 114.05674729168095 78.883015412007808 0 0 0 0 131.69228925231687 127.58255634922534 0 127.58255634922534 80.326529496403964 0 0 0 0 131.73491738457426 114.20009501930326 0 114.20009501930326 87.125821541267214 0 0 0 0 138.30023605106635 138.10748031132971 0 138.10748031132971 126.51050186740031 0 0 0 0 151.45458895478839 111.16292836736648 0 111.16292836736648 88.062885366234696 0 0 0 0 47.140038816469314 81.922838241422141 0 81.922838241422141 86.453841601512977 0 0 0 0 77.636649358123691 59.03204298219498 0 59.03204298219498 82.806762301712297 0 0 0 0 113.64717004492667 120.16150288860081 0 120.16150288860081 88.730281473435753 0 0 0 0 -60.713628752119803 59.371150701714214 0 59.371150701714214 104.76642833479855 0 0 0 0 -61.475148019620519 46.624347263976233 0 46.624347263976233 59.704986158065822 0 0 0 0 -97.237296076001485 104.49476259753101 0 104.49476259753101 56.014054395403946 0 0 0 0 -87.958962682288984 51.257741523470031 0 51.257741523470031 112.04087846270704 0 0 0 0 59.845431531759687 34.400565085161361 0 34.400565085161361 80.433225023924024 0 0 0 0 -51.145465461178503 81.74196100631525 0 81.74196100631525 127.44641606410732 0 0 0 0 -106.97574756548602 -17.796940580603405 0 -17.796940580603405 74.80627497016394 0 0 0 0 170.72858751041548 160.17151237328653 0 160.17151237328653 131.06041180675675 0 0 0 0 157.0605750309293 69.066939637166797 0 69.066939637166797 101.24887851331732 0 0 0 0 77.194373550482396 103.74869847722584 0 103.74869847722584 101.21400931227618 0 0 0 0 117.92078981348186 1.3113251509930706 0 1.3113251509930706 125.32644637220073 0 0 0 0 139.37126520664515 133.55241713124269 0 133.55241713124269 149.30198362451483 0 0 0 0 365.3991465529956 101.57529576618981 0 101.57529576618981 108.66837021628453 0 0 0 0 180.45116219626948 -42.233617119469272 0 -42.233617119469272 272.11223499246989 0 0 0 0 368.51677260943393 371.11772360290342 0 371.11772360290342 -68.267748368612956 0 0 0 0 -27.438997176608609 199.39818022958934 0 199.39818022958934 413.17119473968341 0 0 0 0 4.7324138986944213 28.414073796942009 0 28.414073796942009 96.403496071894835 0 0 0 0 -190.94154738799602 186.60802190340564 0 186.60802190340564 96.250626072578598 0 0 0 0 -56.634520736134846 125.42634086367616 0 125.42634086367616 6.6954131284728646 0 0 0 0 -117.37735371517164 217.38716250604557 0 217.38716250604557 77.133373880409636 0 0 0 0 19.162627883189543 109.60860699981276 0 109.60860699981276 161.80631859431014 0 0 0 0 -27.560154873020565 61.305488288453489 0 61.305488288453489 145.85925475379918 0 0 0 0 -11.85701387283234 173.1153674864654 0 173.1153674864654 110.71352008983376 0 0 0 0 -6.3405101524258498 236.28168167234981 0 236.28168167234981 125.31009437706962 0 0 0 0 -123.94274851786122 185.9682401328173 0 185.9682401328173 211.99810839818383 0 0 0 0 -82.244269121234083 38.851704996674016 0 38.851704996674016 100.9592706309686 0 0 0 0 -158.84655238964706 69.915317836050235 0 69.915317836050235 -50.57857535436051 0 0 0 0 20.328257890303576 40.208024092658889 0 40.208024092658889 101.36829667660095 0 0 0 0 -23.330213729767173 26.794736882038961 0 26.794736882038961 71.028428402408352 0 0 0 0 20.204271395576143 36.666166400609654 0 36.666166400609654 101.51052922534291 0 0 0 0 75.054151556924808 15.75570300770778 0 15.75570300770778 -270.32593438954791 0 0 0 0 -6.0157054063012705 7.8769629498833922 0 7.8769629498833922 19.381937605375754 0 0 0 0 205.97005175778503 123.40992113070752 0 123.40992113070752 -268.46248105686391 0 0 0 0 25.657580055601102 46.392254823847907 0 46.392254823847907 108.4418117332134 0 0 0 0 13.297539128069957 39.914082076305931 0 39.914082076305931 108.00656254039495 0 0 0 0 71.913900662838387 85.714472138162819 0 85.714472138162819 123.81718587271462 0 0 0 0 74.492687930744978 52.238725419694674 0 52.238725419694674 97.687196375929489 0 0 0 0 76.087168641322478 53.565240508658462 0 53.565240508658462 91.755122263886733 0 0 0 0 102.36339237211268 74.333550375886261 0 74.333550375886261 78.981755305692786 0 0 0 0 28.688822408453689 61.168538304304093 0 61.168538304304093 115.53513874202326 0 0 0 0 -36.828166332326873 73.979121752927313 0 73.979121752927313 -117.63387357635656 0 0 0 0 -50.955824627494621 -303.23196530722817 0 -303.23196530722817 -110.92356085198844 0 0 0 0 -3.3097024513520141 -1.4382054589408995 0 -1.4382054589408995 0.15799346094746625 0 0 0 0 2.082587993864399 -2.8775779786375892 0 -2.8775779786375892 3.2314887599524127 0 0 0 0 232.78017412996553 265.13219820468657 0 265.13219820468657 267.44582431272283 0 0 0 0 152.96743924982002 142.49065416528902 0 142.49065416528902 -101.93535484308813 0 0 0 0 539.60251561652331 22.242333476053318 0 22.242333476053318 78.767041116865585 0 0 0 0 20.999912540180958 -61.395444801426493 0 -61.395444801426493 158.76590679294895 0 0 0 0 -0.025924883419301992 -0.40098163422182154 0 -0.40098163422182154 -0.17392194914998527 0 0 0 0 0.29012713918790212 0.018975151638954912 0 0.018975151638954912 0.64468353266767053 0 0 0 0 63.755995981329761 -31.523875922110165 0 -31.523875922110165 76.359852185327327 0 0 0 0 -73.542626148838281 62.780939298860176 0 62.780939298860176 114.62601827314938 0 0 0 0 -12.552159529177516 -16.370705127261317 0 -16.370705127261317 39.123511275101919 0 0 0 0 204.41176680963417 78.51821963871771 0 78.51821963871771 -22.545747970754746 0 0 0 0 -1.8399174348167451 0.91783067323169121 0 0.91783067323169121 22.159089061904922 0 0 0 0 109.0531549585985 27.081025503386627 0 27.081025503386627 88.791967187746195 0 0 0 0 17.843985742063069 31.428615177730535 0 31.428615177730535 47.553292361961212 0 0 0 0 -3.0814943316295285 11.482635973836295 0 11.482635973836295 46.248284676621552 0 0 0 0 -0.10194315296146783 -3.6763391904566021 0 -3.6763391904566021 50.191165764319521 0 0 0 0 75.181240092049848 40.599172087015177 0 40.599172087015177 68.518394425082079 0 0 0 0 -15.03694258894393 1.1329907937615644 0 1.1329907937615644 29.879708382271929 0 0 0 0 65.297894304317197 48.048890469981416 0 48.048890469981416 84.739664652355714 0 0 0 0 41.864767463387125 50.296332486977917 0 50.296332486977917 97.842241103233391 0 0 0 0 66.191025268843077 34.813438861128816 0 34.813438861128816 89.204871341354192 0 0 0 0 46.516784015051826 32.931373284249275 0 32.931373284249275 73.008594189901487 0 0 0 0 65.287254968260982 27.335493502403551 0 27.335493502403551 74.048771013651276 0 0 0 0 71.204968003824433 24.064414720138302 0 24.064414720138302 23.868561135590426 0 0 0 0 32.309165603702013 -3.8030865873588482 0 -3.8030865873588482 58.838093953643693 0 0 0 0 44.737358988615597 8.1894944652885897 0 8.1894944652885897 66.290942611580249 0 0 0 0 17.000159468193942 -0.13812962143856566 0 -0.13812962143856566 50.732149883624515 0 0 0 0 0.44804075375623142 -25.419436157306336 0 -25.419436157306336 73.571292770335276 0 0 0 0 70.738309226327146 -44.306999010448635 0 -44.306999010448635 33.893504579171349 0 0 0 0 15.187343380998231 30.134784822691621 0 30.134784822691621 78.98268575152278 0 0 0 0 44.892896737909197 -19.389492204780026 0 -19.389492204780026 156.41642211045837 0 0 0 0 -1.3167174343677024 -11.014733943234475 0 -11.014733943234475 76.922022470524837 0 0 0 0 -58.414618439806873 712.12047805740804 0 712.12047805740804 -25.970304490920171 0 0 0 0 2.5277795490055723 -0.39087041018501623 0 -0.39087041018501623 179.41582804190693 0 0 0 0 26.160512904409039 59.994384647035986 0 59.994384647035986 119.41752892232034 0 0 0 0 44.909091243658104 -13.905099696615295 0 -13.905099696615295 66.561767495746608 0 0 0 0 24.748358181294861 62.390845004061703 0 62.390845004061703 171.41851018626949 0 0 0 0 4.6012637456271861 15.239926150553742 0 15.239926150553742 11.652877493904953 0 0 0 0 52.18981850408818 9.59972124491469 0 9.59972124491469 107.08777084155008 0 0 0 0 2.2231558147141186 6.0222914083642536 0 6.0222914083642536 44.441503705456853 0 0 0 0 3.6759181626562452 -31.064512254832479 0 -31.064512254832479 71.373868220558506 0 0 0 0 -142.09293846827677 -327.22079236693753 0 -327.22079236693753 -275.49957687644928 0 0 0 0 -36.1981009936394 -17.895714511701954 0 -17.895714511701954 72.103535702626687 0 0 0 0 -19.254017079489252 32.688859403978086 0 32.688859403978086 223.08134039592551 0 0 0 0 -16.539885878025871 1.7789442160756153 0 1.7789442160756153 574.69218367924623 0 0 0 0 206.71649228026354 284.00730288543855 0 284.00730288543855 337.45322807254706 0 0 0 0 469.02534503176275 -368.54189283740197 0 -368.54189283740197 254.13388430499253 0 0 0 0 -156.62833973160275 -281.84190288138598 0 -281.84190288138598 970.88572657402256 0 0 0 0 255.29047194105436 22.969538873932834 0 22.969538873932834 -348.52097366795351 0 0 0 0 136.16663944209199 -195.25237981170721 0 -195.25237981170721 -77.146716561954236 0 0 0 0 5.320864652691605 6.0928633559253456 0 6.0928633559253456 7.4926360781734616 0 0 0 0 -88.710916476204602 686.31006583495036 0 686.31006583495036 308.43352888856498 0 0 0 0 98.826399622690133 -93.714034310632996 0 -93.714034310632996 65.730107580820913 0 0 0 0 107.74132948591364 -147.91668239483624 0 -147.91668239483624 289.94375322409542 0 0 0 0 5.5358523884040096 -36.708233367629873 0 -36.708233367629873 101.90618435162469 0 0 0 0 58.147081648793005 -115.66815094916456 0 -115.66815094916456 148.93808960578463 0 0 0 0 6.017449133580385 91.780946745559049 0 91.780946745559049 -157.44039621701813 0 0 0 0 39.890921336725114 7.7225848864400177 0 7.7225848864400177 -4.2712775399995735 0 0 0 0 -11.624240928244006 34.236153682146323 0 34.236153682146323 35.387127265516028 0 0 0 0 96.028127808050613 -62.122714778488444 0 -62.122714778488444 10.430098144686781 0 0 0 0 -343.46335488015745 461.24772663294061 0 461.24772663294061 275.48860651129507 0 0 0 0 11.286218556837252 32.33735434204501 0 32.33735434204501 75.589209625274052 0 0 0 0 -69.088084517883772 176.32079594390234 0 176.32079594390234 0.79826139082433656 0 0 0 0 26.971636780172048 19.947049142807373 0 19.947049142807373 94.575657591078198 0 0 0 0 23.213229566552627 10.935089700178651 0 10.935089700178651 77.2226780707133 0 0 0 0 9.9367089298214673 17.345269528144019 0 17.345269528144019 -13.003880789307971 0 0 0 0 21.571906307895915 29.702789097282221 0 29.702789097282221 97.979943800943147 0 0 0 0 35.991079390262712 25.201649809678202 0 25.201649809678202 91.823790179085336 0 0 0 0 33.113764761270204 30.063905145347235 0 30.063905145347235 89.988266100997862 0 0 0 0 32.17337855243909 40.408179837293574 0 40.408179837293574 94.320130163265276 0 0 0 0 45.590367900766708 37.600282269528179 0 37.600282269528179 91.902884776383871 0 0 0 0 29.070168305902371 36.175845326622948 0 36.175845326622948 97.824599243642297 0 0 0 0 30.191775518743725 37.044420000485843 0 37.044420000485843 98.195880308070628 0 0 0 0 19.278753230264073 39.818102123808558 0 39.818102123808558 103.27128521390841 0 0 0 0 21.644258634564949 39.038588766969042 0 39.038588766969042 102.2438185265928 0 0 0 0 40.511770359848299 45.705309204769947 0 45.705309204769947 97.054811847046949 0 0 0 0 -28.265054067814162 72.588156485733634 0 72.588156485733634 90.004709603468655 0 0 0 0 -46.026144910099902 56.484137730778457 0 56.484137730778457 176.77660519021447 0 0 0 0 14.919469139885678 38.829704445517564 0 38.829704445517564 104.45748571777949 0 0 0 0 1.6084689339545863 26.978399844129541 0 26.978399844129541 77.288720900702202 0 0 0 0 5.6279385131904949 18.741238708898244 0 18.741238708898244 28.29527486661101 0 0 0 0 -1.0028574406479418 -4.9118018801703016 0 -4.9118018801703016 9.2452139075517294 0 0 0 0 19.300395756440594 40.872773214956396 0 40.872773214956396 102.20626390178222 0 0 0 0 -10.558001645687 -9.0106166524637956 0 -9.0106166524637956 -101.53672811696015 0 0 0 0 -9.9157571255679144 6.0243461188797198 0 6.0243461188797198 11.418338425484095 0 0 0 0 -2.8852115480637508 12.683837336498982 0 12.683837336498982 63.069139878036367 0 0 0 0 -162.63089560865888 -26.939594724233757 0 -26.939594724233757 40.199419596719963 0 0 0 0 -159.85483918746422 -93.608314134988177 0 -93.608314134988177 62.466680901805375 0 0 0 0 -30.460727742527752 -4.5532878692883969 0 -4.5532878692883969 100.32498467819096 0 0 0 0 -60.326538342161257 86.087710470181719 0 86.087710470181719 81.260043472982943 0 0 0 0 -10.480255052911673 5.1664503282045189 0 5.1664503282045189 57.874572382534097 0 0 0 0 6.6974032079413064 -16.171669915071107 0 -16.171669915071107 83.351730149937794 0 0 0 0 7.6851844101081497 -37.452474920661189 0 -37.452474920661189 80.4208135229037 0 0 0 0 -26.603244317751205 -21.586264675373968 0 -21.586264675373968 125.37549084344573 0 0 0 0 -46.474215718807329 14.961826111346454 0 14.961826111346454 119.41588736662743 0 0 0 0 -34.855824374969004 -28.292576198786264 0 -28.292576198786264 278.09758341458655 0 0 0 0 -97.584199244028241 37.548312856285975 0 37.548312856285975 175.71389083730901 0 0 0 0 -52.747812014716942 82.080179667991615 0 82.080179667991615 124.07075444752627 0 0 0 0 -53.673583661959128 93.653396044883266 0 93.653396044883266 293.65645885673803 0 0 0 0 1.857652703498351 0.02278605684372792 0 0.02278605684372792 -0.38680959537768445 0 0 0 0 -85.059842688001481 -84.652376061223549 0 -84.652376061223549 115.05789896853821 0 0 0 0 -59.483435043406416 13.827079154158127 0 13.827079154158127 117.16815199135272 0 0 0 0 -101.52296744412303 19.322200899171321 0 19.322200899171321 140.7877225818811 0 0 0 0 -258.57217789426295 29.251418750534867 0 29.251418750534867 154.45523659183345 0 0 0 0 -210.30191089808977 -212.04644980471858 0 -212.04644980471858 39.977039081408293 0 0 0 0 69.705523331031827 -77.897731298111239 0 -77.897731298111239 85.996728174330201 0 0 0 0 123.56239504651649 -36.341101836249436 0 -36.341101836249436 -132.95463639836998 0 0 0 0 -4.870323989131311 -0.36539774571858885 0 -0.36539774571858885 -0.069725900441675037 0 0 0 0 -306.7499610181103 -300.71877343080996 0 -300.71877343080996 -122.3019537787477 0 0 0 0 79.678498894736549 -53.25994016696859 0 -53.25994016696859 84.11219985504431 0 0 0 0 -334.24610438549166 -10.941584409556413 0 -10.941584409556413 121.42993708543509 0 0 0 0 -116.06255328025873 18.73088260286022 0 18.73088260286022 176.41290521940391 0 0 0 0 177.25984892717861 23.036139874107903 0 23.036139874107903 62.085111011088884 0 0 0 0 -40.738882325292934 -117.56457168321504 0 -117.56457168321504 116.27308067854028 0 0 0 0 -236.93286311874067 -104.01719865467385 0 -104.01719865467385 119.23540437074917 0 0 0 0 -287.74458678874032 3.7500111537174234 0 3.7500111537174234 75.067596048029372 0 0 0 0 -110.10963507733697 -3.0136369545962225 0 -3.0136369545962225 110.15997688514472 0 0 0 0 -236.06507157726179 -95.795482588498999 0 -95.795482588498999 82.173532553817495 0 0 0 0 -237.352159341468 -101.16205321987763 0 -101.16205321987763 170.26892076908553 0 0 0 0 -227.23154633907961 -87.743376550963148 0 -87.743376550963148 61.985336098478001 0 0 0 0 -176.3296243352558 -48.57434865380128 0 -48.57434865380128 73.623784314811928 0 0 0 0 -293.62291980131818 -16.34731686205123 0 -16.34731686205123 68.091518740595347 0 0 0 0 -179.75487501700763 -15.534214328439703 0 -15.534214328439703 35.199231497303117 0 0 0 0 -194.0452851248283 -15.987442283680139 0 -15.987442283680139 42.803108844764211 0 0 0 0 -4.8208835486300972 8.8157477953567245 0 8.8157477953567245 34.314842886374407 0 0 0 0 -85.111145150060565 -105.08860136477051 0 -105.08860136477051 220.38072934231604 0 0 0 0 -277.14873231592162 -76.582930776850844 0 -76.582930776850844 143.04049589526403 0 0 0 0 -201.97765002693541 22.470153897247656 0 22.470153897247656 10.023648063914152 0 0 0 0 -369.93450870704987 144.41905327507993 0 144.41905327507993 -28.703080321274683 0 0 0 0 -405.61271337593075 -36.885804647899931 0 -36.885804647899931 114.06321788416244 0 0 0 0 -555.4291484202505 -96.584821222336814 0 -96.584821222336814 29.741304550028872 0 0 0 0 -611.03308697764965 150.08740886644955 0 150.08740886644955 91.45768301600765 0 0 0 0 -0.77593751886114148 3.0906357498796559 0 3.0906357498796559 19.271300444476196 0 0 0 0 -60.051428330532531 -454.56226124237264 0 -454.56226124237264 396.24159232930106 0 0 0 0 -276.92966484044359 104.3543372138156 0 104.3543372138156 143.4113079896706 0 0 0 0 -218.8000881653652 189.30934969915688 0 189.30934969915688 68.942268498918565 0 0 0 0 8.7749689259645471 31.18225034924858 0 31.18225034924858 106.60457223037145 0 0 0 0 -205.85044385187928 89.264908148821632 0 89.264908148821632 -16.601047219708562 0 0 0 0 -238.13903742555738 6.3641430615316494 0 6.3641430615316494 -226.64069079637557 0 0 0 0 442.52791191566058 -171.30005754099329 0 -171.30005754099329 83.898073368400219 0 0 0 0 -80.666924221889985 -139.39232913189335 0 -139.39232913189335 143.9936551009705 0 0 0 0 303.50025569103559 -225.16422822716777 0 -225.16422822716777 -14.98671114379249 0 0 0 0 7.1508618536390713 15.809177083327086 0 15.809177083327086 86.90793920039323 0 0 0 0 -299.94405038188972 13.27453115735625 0 13.27453115735625 94.408412391331694 0 0 0 0 -296.60383711151053 8.0713378098153044 0 8.0713378098153044 18.675033299317874 0 0 0 0 -141.65415326855924 -150.21562101508243 0 -150.21562101508243 50.975408663696726 0 0 0 0 -266.02698586644806 600.43422995733272 0 600.43422995733272 53.56352584844899 0 0 0 0 -331.42806216366 -116.23581196819578 0 -116.23581196819578 714.5389546933402 0 0 0 0 179.62088777974031 138.78102217015112 0 138.78102217015112 200.4271474233683 0 0 0 0 165.73278396693104 222.36899680102579 0 222.36899680102579 1088.8562992571897 0 0 0 0 -52.063833135854566 146.63977817796331 0 146.63977817796331 463.29897483293462 0 0 0 0 -1043.2728424084694 448.07104527131014 0 448.07104527131014 278.6594010239387 0 0 0 0 -485.15551415614163 -346.28008096267149 0 -346.28008096267149 589.83763568798895 0 0 0 0 0.53327825760143943 2.0165498376593831 0 2.0165498376593831 4.5073807749926118 0 0 0 0 179.66217531281518 -920.68157389399312 0 -920.68157389399312 356.94268105782248 0 0 0 0 -557.59172573137266 475.08106976505223 0 475.08106976505223 101.13667831411658 0 0 0 0 -174.70112836389603 98.254471488611671 0 98.254471488611671 97.788979961318546 0 0 0 0 -137.59981628093021 32.892516350759252 0 32.892516350759252 128.40682625155023 0 0 0 0 9.0481105378731108 33.418470679215858 0 33.418470679215858 108.66336947612422 0 0 0 0 -106.20852089659729 27.862397164390131 0 27.862397164390131 119.43236689205514 0 0 0 0 10.194334614115721 33.901698302109452 0 33.901698302109452 96.2410264300552 0 0 0 0 -1522.1237321311114 510.49168546391593 0 510.49168546391593 440.95134351099114 0 0 0 0 -142.72148218551717 55.530145390544931 0 55.530145390544931 117.33427527510503 0 0 0 0 -85.917693590106865 36.137991313793464 0 36.137991313793464 78.046523125747626 0 0 0 0 -23.665259477965265 -3.2894455177083728 0 -3.2894455177083728 94.525750955494004 0 0 0 0 9.3917850871126412 30.264812576116377 0 30.264812576116377 69.59935375430257 0 0 0 0 -57.797273378674277 30.026582958103972 0 30.026582958103972 105.64653080499556 0 0 0 0 -464.86294098634562 273.79294168835258 0 273.79294168835258 -458.40269137499854 0 0 0 0 -847.9932723721713 795.74605306610465 0 795.74605306610465 3.501192456613353 0 0 0 0 -322.50203396381011 361.29531409609353 0 361.29531409609353 556.75635303067975 0 0 0 0 -321.59015014000852 295.50586346907585 0 295.50586346907585 -389.36051657469216 0 0 0 0 1074.3810687794376 488.11873852662666 0 488.11873852662666 269.23310735964333 0 0 0 0 417.34719067889728 500.85954858001787 0 500.85954858001787 552.44621728573111 0 0 0 0 413.93279262339911 440.52683308208361 0 440.52683308208361 -59.264895347056154 0 0 0 0 576.43990054969845 644.62564314423162 0 644.62564314423162 -515.98691140169103 0 0 0 0 -252.59728416791017 667.24277908936347 0 667.24277908936347 142.26460809071796 0 0 0 0 576.57408377560023 654.33122461885796 0 654.33122461885796 168.34320886908972 0 0 0 0 810.8182038745108 721.43476872967585 0 721.43476872967585 96.355331909275264 0 0 0 0 526.02029425691308 930.88379700418591 0 930.88379700418591 1019.4668832870429 0 0 0 0 531.78824296429229 1055.9506658479077 0 1055.9506658479077 145.65707309036225 0 0 0 0 826.013147978907 839.10679719717155 0 839.10679719717155 -137.37995322726783 0 0 0 0 504.92410633759084 1223.8210357932912 0 1223.8210357932912 -443.62882579735015 0 0 0 0 257.45669942219638 688.4350020642305 0 688.4350020642305 -1254.4975937554627 0 0 0 0 -0.21313138596246084 -1.3989411910951901 0 -1.3989411910951901 12.638633633227954 0 0 0 0 3.0167564914154386 10.58790527017625 0 10.58790527017625 19.058523589285471 0 0 0 0 184.40639283164828 -553.70032299418199 0 -553.70032299418199 1480.1559868702025 0 0 0 0 1700.0771764539425 1302.2148707679262 0 1302.2148707679262 872.48417105490807 0 0 0 0 -990.97524346834052 461.58762818255491 0 461.58762818255491 948.94880411826307 0 0 0 0 490.06327225641508 1062.794338842672 0 1062.794338842672 566.0193701251992 0 0 0 0 -9.5176979322413899 1023.531375738683 0 1023.531375738683 2102.9893107644457 0 0 0 0 -570.26651502838104 -37.591800108435564 0 -37.591800108435564 392.38820055867836 0 0 0 0 -657.06623117092568 -277.88554716255749 0 -277.88554716255749 -116.29423866356956 0 0 0 0 -1935.5208758334547 -22.176253825131425 0 -22.176253825131425 1032.1868118589628 0 0 0 0 -1618.7117199258978 -488.50913582696012 0 -488.50913582696012 -36.407929753884673 0 0 0 0 -912.85444592547128 -18.265734093081846 0 -18.265734093081846 13.422481254063314 0 0 0 0 574.68899104888715 -944.00332698058628 0 -944.00332698058628 1178.6538331113879 0 0 0 0 -412.09961425626307 187.66982616181122 0 187.66982616181122 -102.95343324061832 0 0 0 0 71.65920989422915 775.27476548127743 0 775.27476548127743 2095.192425808229 0 0 0 0 2279.4337760281132 430.7503302422374 0 430.7503302422374 225.35704893538787 0 0 0 0 -193.8396824776994 -186.6902224786827 0 -186.6902224786827 190.11912679240049 0 0 0 0 -90.9507148663713 63.025649851802882 0 63.025649851802882 71.329536373901647 0 0 0 0 -62.844476577301975 40.356422814162215 0 40.356422814162215 80.265015397671959 0 0 0 0 687.25645701463486 -636.53998337192752 0 -636.53998337192752 -480.34054007225495 0 0 0 0 -0.06041364468331345 -3.0554288500153177 0 -3.0554288500153177 37.240642309635575 0 0 0 0 70.39702355223335 125.44498987897532 0 125.44498987897532 18.28664280596422 0 0 0 0 -1.6285257843308401 -7.3863677812552169 0 -7.3863677812552169 29.118974964850764 0 0 0 0 4.6010784054379599 358.79829073521978 0 358.79829073521978 318.27113006221771 0 0 0 0 73.315919926082643 237.58467178211868 0 237.58467178211868 338.19011167424833 0 0 0 0 437.26854777604046 642.28666679700837 0 642.28666679700837 46.126341676554148 0 0 0 0 240.39471559492227 106.66724189568049 0 106.66724189568049 -251.4684689544265 0 0 0 0 -73.947086113249725 323.93633389924071 0 323.93633389924071 761.12840928672449 0 0 0 0 5.6920498520385081 475.35735790633044 0 475.35735790633044 782.95124181636493 0 0 0 0 -122.80395921046576 273.8257160741523 0 273.8257160741523 949.02754022067529 0 0 0 0 -84.791006430781295 -175.14154761048849 0 -175.14154761048849 877.63397970986989 0 0 0 0 -12.463396263863096 -0.58262590741799158 0 -0.58262590741799158 13.786505683677316 0 0 0 0 117.00541598019112 -102.04960418367409 0 -102.04960418367409 322.72127304931928 0 0 0 0 -60.565737642147667 -46.025323896014015 0 -46.025323896014015 519.69281967448478 0 0 0 0 -7.3131239833279018 -3.0680825387347284 0 -3.0680825387347284 -0.45090499573353782 0 0 0 0 -57.040553689791068 -17.839215311330918 0 -17.839215311330918 139.9399479010608 0 0 0 0 -2.6945286318918118 -1.097758563884895 0 -1.097758563884895 0.20787588802698309 0 0 0 0 -338.68627751566385 -3.4660884821496438 0 -3.4660884821496438 499.26424545212649 0 0 0 0 -137.11971200999668 114.63793206527771 0 114.63793206527771 384.21301789986501 0 0 0 0 -112.38571947650246 -151.02223938810494 0 -151.02223938810494 0.93994380436379288 0 0 0 0 -133.7599329342421 94.601060363421311 0 94.601060363421311 493.00896893009485 0 0 0 0 -30.013399547729364 -7.5562947832768259 0 -7.5562947832768259 522.23662245894957 0 0 0 0 -142.54519531709028 168.52573034200032 0 168.52573034200032 616.54966631126445 0 0 0 0 -28.923236477409144 291.41015543215326 0 291.41015543215326 556.34009510559372 0 0 0 0 -122.65055540321289 174.5164511992989 0 174.5164511992989 582.69343394689349 0 0 0 0 -41.113184149787685 135.06926253527126 0 135.06926253527126 474.29755886788189 0 0 0 0 -53.326962351154663 148.23484439330059 0 148.23484439330059 460.11742113294895 0 0 0 0 -52.36657504905574 190.31549799245113 0 190.31549799245113 420.71910565653525 0 0 0 0 63.438834722022193 72.463863399374532 0 72.463863399374532 397.91780911482056 0 0 0 0 -17.753418093368111 154.85719262958446 0 154.85719262958446 481.22150161254103 0 0 0 0 -121.50223437834865 98.182064981134317 0 98.182064981134317 481.55598972322969 0 0 0 0 -17.671234890086225 29.294565316558874 0 29.294565316558874 391.42339866810653 0 0 0 0 16.70187746939871 39.717209934657149 0 39.717209934657149 327.0312785095266 0 0 0 0 21.061997351196666 83.691396613254255 0 83.691396613254255 424.4618535698537 0 0 0 0 -54.625700088829575 -8.3251854948357504 0 -8.3251854948357504 373.55351043572591 0 0 0 0 -63.372159869280324 -70.155912585865735 0 -70.155912585865735 44.789639406837523 0 0 0 0 -47.968448911512951 5.2517016100755427 0 5.2517016100755427 313.28822940298414 0 0 0 0 165.63298343374998 53.634009268957925 0 53.634009268957925 173.4822759872186 0 0 0 0 143.10875548836114 133.90516312351519 0 133.90516312351519 279.56680573348422 0 0 0 0 72.764404471445459 136.00714056191464 0 136.00714056191464 489.56931447972602 0 0 0 0 75.591011697877434 163.9499760598701 0 163.9499760598701 249.87056839474099 0 0 0 0 -90.553256904047885 71.75411968363187 0 71.75411968363187 336.03264077244239 0 0 0 0 -370.4871847815931 -23.935021934230463 0 -23.935021934230463 272.36681831366877 0 0 0 0 -60.695221153430907 53.479879126029118 0 53.479879126029118 232.88958598709723 0 0 0 0 -21.355650910265467 -46.485833728165744 0 -46.485833728165744 119.46621783907176 0 0 0 0 -109.2138367825321 -44.252449438034091 0 -44.252449438034091 119.93188442762221 0 0 0 0 -65.699417527025162 -14.063157005437461 0 -14.063157005437461 136.06073605590791 0 0 0 0 -159.68444927884809 14.337252431992965 0 14.337252431992965 236.56451608443604 0 0 0 0 -21.745090289544919 82.207624867922277 0 82.207624867922277 196.08071644910524 0 0 0 0 -79.864112440236568 62.99739622490597 0 62.99739622490597 192.12864609218377 0 0 0 0 13.220855388585676 90.90347256197856 0 90.90347256197856 142.1600757947017 0 0 0 0 -95.265460129309872 26.382291686095414 0 26.382291686095414 128.8575733913458 0 0 0 0 -105.65051401038693 31.399554352854466 0 31.399554352854466 130.80512850578816 0 0 0 0 -79.67015141079446 85.090552549248969 0 85.090552549248969 135.78496668801563 0 0 0 0 -60.438227966869931 65.989025841638068 0 65.989025841638068 139.3927747887501 0 0 0 0 41.089343367657989 109.66461563804296 0 109.66461563804296 96.980731320698396 0 0 0 0 47.827790344344038 94.424677979906846 0 94.424677979906846 108.54144992295187 0 0 0 0 132.10511246951955 170.43316610972761 0 170.43316610972761 136.22353310405742 0 0 0 0 145.89293813223367 132.02018727816903 0 132.02018727816903 78.17860025097616 0 0 0 0 150.97589085129312 143.30088900845294 0 143.30088900845294 72.847819532857102 0 0 0 0 159.60961522149319 97.858150592262973 0 97.858150592262973 35.76081634950242 0 0 0 0 159.26736588660197 103.27630003978993 0 103.27630003978993 42.628328970065922 0 0 0 0 255.32537324720533 131.61619819551561 0 131.61619819551561 13.802174611890223 0 0 0 0 361.40593852658412 310.49973082674114 0 310.49973082674114 161.1139639014873 0 0 0 0 170.74760954480166 166.46391956741718 0 166.46391956741718 91.234198627164005 0 0 0 0 13.517627171024737 136.75369586188216 0 136.75369586188216 223.1801866437745 0 0 0 0 -24.5588406117256 84.655529075733284 0 84.655529075733284 207.86283099300636 0 0 0 0 0.34509207888880411 2.6623489101488929 0 2.6623489101488929 3.0973318554534899 0 0 0 0 -22.334096423547066 -31.611013946425373 0 -31.611013946425373 45.073254887247458 0 0 0 0 12.312660687885909 49.354205065894348 0 49.354205065894348 42.305795242660679 0 0 0 0 87.135766826048894 -92.411164338140225 0 -92.411164338140225 58.75372351877013 0 0 0 0 27.028398990878031 11.2528096853639 0 11.2528096853639 22.42134527898088 0 0 0 0 -4.1658946892111253 1.9357237141514219 0 1.9357237141514219 23.186000128435751 0 0 0 0 8.4909776128521379 8.8647261202133336 0 8.8647261202133336 12.873058620872541 0 0 0 0 419.30362721211304 44.4593530674465 0 44.4593530674465 -12.992315193099785 0 0 0 0 223.05977052754861 -59.988709720804763 0 -59.988709720804763 8.6270146338065388 0 0 0 0 120.59898496136066 76.754433593443537 0 76.754433593443537 45.492538592283381 0 0 0 0 72.215147580868688 44.266070038916951 0 44.266070038916951 50.448075870270259 0 0 0 0 216.99918540177623 56.097711387745221 0 56.097711387745221 -13.239408778666984 0 0 0 0 148.84045919828259 19.04300008379505 0 19.04300008379505 1.5598611901223194 0 0 0 0 -1.2539129768379098 29.595716308031115 0 29.595716308031115 56.246973542205524 0 0 0 0 34.262602862169615 -47.478391294574976 0 -47.478391294574976 58.680042536230758 0 0 0 0 -0.11435343497050954 -0.5418700258553244 0 -0.5418700258553244 31.322241198632128 0 0 0 0 -8.9608620772612539 36.14497530823428 0 36.14497530823428 51.767397828196408 0 0 0 0 17.73152787836807 31.968803521973314 0 31.968803521973314 30.450645734148566 0 0 0 0 -5.5994635577192184 1.1492125629156362 0 1.1492125629156362 11.699890075076837 0 0 0 0 -10.799182246588771 -5.449057134668692 0 -5.449057134668692 61.364295713763568 0 0 0 0 12.43191110501175 -25.752305041838554 0 -25.752305041838554 30.83080103903194 0 0 0 0 27.601376186033576 23.260830033104867 0 23.260830033104867 37.293036178656621 0 0 0 0 -9.0304704813967192 -12.21110746992963 0 -12.21110746992963 25.364514281362062 0 0 0 0 -6.8582809856541189 0.10530931613175198 0 0.10530931613175198 22.742510059360939 0 0 0 0 -5.9218232950673038 5.0806980825240657 0 5.0806980825240657 3.9311971421663259 0 0 0 0 -18.367699759578151 -0.76576466600818094 0 -0.76576466600818094 33.603406043868745 0 0 0 0 -27.403867925645272 19.598117658628325 0 19.598117658628325 5.6572923583808006 0 0 0 0 -6.2325194290178914 6.775105431152042 0 6.775105431152042 28.097853752493393 0 0 0 0 -9.0341209887098444 -4.1004850665449339 0 -4.1004850665449339 4.2384601644298527 0 0 0 0 -0.91556810351031759 -0.047822307195694691 0 -0.047822307195694691 0.56238060141549795 0 0 0 0 7.0064032892043997 22.522803326712165 0 22.522803326712165 45.975773595841019 0 0 0 0 -5.8923584827192439 -1.5248509576713332 0 -1.5248509576713332 12.670196777630366 0 0 0 0 0.16391433792166143 -1.0606434433418883 0 -1.0606434433418883 9.9438813056112281 0 0 0 0 -2.0627479331661243 -2.1816916985399004 0 -2.1816916985399004 14.218375393165275 0 0 0 0 0.13178658131550947 2.1689782105240738 0 2.1689782105240738 16.439056508701469 0 0 0 0 -0.54906175973246718 1.5680228449855349 0 1.5680228449855349 11.660033177089645 0 0 0 0 -0.84575845373365155 2.8769595939302235 0 2.8769595939302235 17.242735352441741 0 0 0 0 -33.102071841901989 38.893740303807135 0 38.893740303807135 15.750900886254385 0 0 0 0 -53.449434248363104 23.679454846278531 0 23.679454846278531 7.1986645547076478 0 0 0 0 -97.619044644626001 20.703526671146392 0 20.703526671146392 13.057444146965281 0 0 0 0 1.5247248425866928 -2.7923409597569844 0 -2.7923409597569844 9.8536715355621709 0 0 0 0 225.89730665724301 284.52685327369545 0 284.52685327369545 276.48950993728704 0 0 0 0 115.99791340896172 159.59214383692597 0 159.59214383692597 257.04585868498543 0 0 0 0 4.2949891612397426 0.21658200186388399 0 0.21658200186388399 2.0297547040831461 0 0 0 0 219.44915727892703 300.20205193735455 0 300.20205193735455 440.17249906074721 0 0 0 0 426.04076174384818 151.34432451764224 0 151.34432451764224 236.1973713392581 0 0 0 0 175.47150675399575 246.31505466041563 0 246.31505466041563 430.38702549578738 0 0 0 0 136.63703941300696 127.37856759841088 0 127.37856759841088 274.16031474149349 0 0 0 0 100.1940674717261 275.72313053938615 0 275.72313053938615 674.87496174158878 0 0 0 0 77.096868920876432 177.72611389562553 0 177.72611389562553 391.12093752210785 0 0 0 0 1.0057890209811831 28.916867489358992 0 28.916867489358992 370.19878168312425 0 0 0 0 6.8050244579674199 95.890297517700674 0 95.890297517700674 514.83871344190993 0 0 0 0 50.598960016617639 88.372574698718381 0 88.372574698718381 464.8929872418812 0 0 0 0 -41.287930109794388 -1.5404622120331624 0 -1.5404622120331624 456.99007604542021 0 0 0 0 36.756299516154343 -25.199271280251196 0 -25.199271280251196 173.80359815078555 0 0 0 0 6.3409099525502359 2.8272301328505591 0 2.8272301328505591 1.0715030364281617 0 0 0 0 214.59708721324137 137.83723410698076 0 137.83723410698076 289.95022460047039 0 0 0 0 -44.813736558993241 47.664406552139553 0 47.664406552139553 595.1539730513523 0 0 0 0 77.00936977041016 -38.656971533078831 0 -38.656971533078831 184.97910220573249 0 0 0 0 77.661903866225657 232.45870885728073 0 232.45870885728073 890.80695076458505 0 0 0 0 254.72595368490602 81.18571136805258 0 81.18571136805258 579.9634634801514 0 0 0 0 144.34021286878783 216.45045053537615 0 216.45045053537615 964.53552755282726 0 0 0 0 261.39041307084199 383.93967651206913 0 383.93967651206913 831.02681837536511 0 0 0 0 290.96910236462122 127.70988674590626 0 127.70988674590626 1016.1627330069023 0 0 0 0 565.23810542357933 203.50100394310175 0 203.50100394310175 1012.62010660753 0 0 0 0 470.24017768545514 591.20727007549795 0 591.20727007549795 1475.0153714721673 0 0 0 0 318.74600144997771 318.17352311917966 0 318.17352311917966 702.5581776931358 0 0 0 0 254.07618166436532 418.11029551261163 0 418.11029551261163 1425.2434686123306 0 0 0 0 0.19090936397756586 0.17283427435761212 0 0.17283427435761212 3.9069742525309721 0 0 0 0 895.29564912587375 892.94814795244019 0 892.94814795244019 864.15404831417254 0 0 0 0 252.12804681190164 614.82083776482614 0 614.82083776482614 1493.0251231087022 0 0 0 0 0.25069302765098112 -0.69426204401381142 0 -0.69426204401381142 1.7669188046940008 0 0 0 0 11.380754711661666 67.691591219605471 0 67.691591219605471 584.25251717076753 0 0 0 0 226.71720622631028 430.53112740955839 0 430.53112740955839 797.36128190298768 0 0 0 0 266.40371189993056 277.65878605334592 0 277.65878605334592 340.37461496097967 0 0 0 0 265.18703559332926 368.81915159847995 0 368.81915159847995 431.24642700054392 0 0 0 0 217.55645024587966 336.56399546654575 0 336.56399546654575 432.00777201316669 0 0 0 0 -0.75503908397928754 -1.4689780425519814 0 -1.4689780425519814 8.2517770100312191 0 0 0 0 -228.52942535268289 28.007726948373602 0 28.007726948373602 65.957622832764173 0 0 0 0 -0.38309879228575472 -0.80970369089081373 0 -0.80970369089081373 7.7653581117268686 0 0 0 0 560.011243992441 449.56085100040946 0 449.56085100040946 281.34065235240269 0 0 0 0 17.10064624766278 75.2771404733503 0 75.2771404733503 38.323393715239945 0 0 0 0 -29.735436306684733 -48.963904783347971 0 -48.963904783347971 115.25102536090708 0 0 0 0 -99.232288268503453 19.286753956577741 0 19.286753956577741 -69.454720298555912 0 0 0 0 -104.00705366762531 31.16946746238682 0 31.16946746238682 177.71138743632764 0 0 0 0 17.136579123668071 24.052210672598449 0 24.052210672598449 89.684790559113026 0 0 0 0 20.182514109378644 -7.5465426881128224 0 -7.5465426881128224 280.49677048544618 0 0 0 0 21.627319923392861 110.98792323630187 0 110.98792323630187 243.25183749716962 0 0 0 0 -28.662401061661114 98.183066024423169 0 98.183066024423169 545.36362931481563 0 0 0 0 -53.582881989416137 3.0643691108853091 0 3.0643691108853091 555.38711858561146 0 0 0 0 -94.724869410157453 170.89101589623169 0 170.89101589623169 855.26317236441537 0 0 0 0 14.849964760399473 117.20030410681647 0 117.20030410681647 534.09172279592894 0 0 0 0 -357.47000110962563 -362.1365563054278 0 -362.1365563054278 112.2744251643926 0 0 0 0 -324.46459866240184 -171.91807272876758 0 -171.91807272876758 686.60214036358229 0 0 0 0 -183.98012522570752 190.45334375917992 0 190.45334375917992 1154.6261898876983 0 0 0 0 -118.42718946800414 2.1773964898166014 0 2.1773964898166014 558.50253375397006 0 0 0 0 246.82569836012271 244.24380987207405 0 244.24380987207405 1088.8190923577931 0 0 0 0 198.20690703951641 379.66739501107077 0 379.66739501107077 918.72055852616904 0 0 0 0 479.36259106566831 335.94365127939818 0 335.94365127939818 828.09762286493788 0 0 0 0 242.17522935529496 294.13960394157766 0 294.13960394157766 691.36321359401336 0 0 0 0 -16.28762117960332 340.54457312125305 0 340.54457312125305 944.49925905416603 0 0 0 0 -12.935015104381424 248.19437254151035 0 248.19437254151035 766.41068967689353 0 0 0 0 38.134940458023721 364.58025472809823 0 364.58025472809823 861.19050839461488 0 0 0 0 2.6832428163706936 1.6310233161332803 0 1.6310233161332803 1.1180449552147778 0 0 0 0 -9.7548783572694191 252.37045462393326 0 252.37045462393326 1028.7470180706659 0 0 0 0 -56.183576005749501 116.77712146217527 0 116.77712146217527 680.24679154135492 0 0 0 0 45.251635451049253 106.05736827731744 0 106.05736827731744 676.59159490192178 0 0 0 0 -55.334818109536627 140.93054213284631 0 140.93054213284631 698.50822759463335 0 0 0 0 184.56492382955304 217.00540408947563 0 217.00540408947563 648.61800785745436 0 0 0 0 -0.055143854679774978 149.29740398030117 0 149.29740398030117 637.15737274473213 0 0 0 0 65.751736640179502 104.89843682864739 0 104.89843682864739 491.79633379197912 0 0 0 0 -57.769189620261272 67.962581677624257 0 67.962581677624257 489.89405059566025 0 0 0 0 41.268936459006312 70.495101191769209 0 70.495101191769209 305.09259787590418 0 0 0 0 53.616531511579296 70.970567253469198 0 70.970567253469198 88.555088023713324 0 0 0 0 -10.370876050470486 102.92066128716397 0 102.92066128716397 307.82943140402222 0 0 0 0 36.878030147701281 62.784701811942796 0 62.784701811942796 96.579690693732118 0 0 0 0 0.015282482980494172 155.30851072876249 0 155.30851072876249 307.74318472033337 0 0 0 0 -11.464729986182871 144.36660945661424 0 144.36660945661424 -70.920592459602631 0 0 0 0 -54.610913707156556 84.267987412480579 0 84.267987412480579 97.599267973113456 0 0 0 0 -0.088113495993969101 26.279709710699535 0 26.279709710699535 -315.59207232086919 0 0 0 0 1.4488514721924162 85.195453812208143 0 85.195453812208143 -55.174854263750603 0 0 0 0 34.455984119004604 81.608527200518438 0 81.608527200518438 -297.51606033855933 0 0 0 0 -9.8852915221596049 -115.46138152555795 0 -115.46138152555795 -348.53147211562464 0 0 0 0 -4.2987695179840841 36.189253907234161 0 36.189253907234161 22.346622864031815 0 0 0 0 0.029691232571669602 0.60868355688117504 0 0.60868355688117504 -1.1908045533731126 0 0 0 0 28.419856848860661 51.112678596418846 0 51.112678596418846 -49.230496045289328 0 0 0 0 -15.48008403303362 -28.067731287417701 0 -28.067731287417701 -115.41283106824994 0 0 0 0 51.152995809992944 53.396042610955192 0 53.396042610955192 -191.25745093500882 0 0 0 0 48.537079468646851 124.78155788552067 0 124.78155788552067 -15.108171455023694 0 0 0 0 41.178987404935128 61.435223595355637 0 61.435223595355637 -46.396283201844199 0 0 0 0 27.145979708518098 58.055144920712337 0 58.055144920712337 84.940850750255777 0 0 0 0 9.646143423347894 68.883902182729798 0 68.883902182729798 0.054988672942272387 0 0 0 0 30.502504222829629 117.85181334797267 0 117.85181334797267 70.345499035960529 0 0 0 0 -51.610132500316922 103.17665557957662 0 103.17665557957662 58.802342289563967 0 0 0 0 -23.798454646913342 45.957846414559754 0 45.957846414559754 -9.1993910153687466 0 0 0 0 -23.796307523020005 54.416045218759692 0 54.416045218759692 -27.902455455856398 0 0 0 0 -14.094834319504571 35.783330840677081 0 35.783330840677081 -28.129771316381152 0 0 0 0 -11.785838866529957 26.847122833889443 0 26.847122833889443 -13.385502505056138 0 0 0 0 16.815915744278755 20.770611688436475 0 20.770611688436475 -86.717153973007953 0 0 0 0 11.63905263940228 85.248354141411255 0 85.248354141411255 -1.4927040211096028 0 0 0 0 50.504038829784008 59.485851450153859 0 59.485851450153859 -77.655879789628671 0 0 0 0 25.405666513649976 36.124162661097216 0 36.124162661097216 -61.379377300138003 0 0 0 0 -5.4878261979341847 5.2739378488076909 0 5.2739378488076909 2.1093971572402666 0 0 0 0 8.0916477967271021 22.3940491189569 0 22.3940491189569 -53.121530626500316 0 0 0 0 -1.8031756008613513 0.86309723516751546 0 0.86309723516751546 12.803558473482553 0 0 0 0 1.831811525752598 -2.7924385748415546 0 -2.7924385748415546 4.0546041771175965 0 0 0 0 18.511617191620473 47.961425636407512 0 47.961425636407512 101.75761062864763 0 0 0 0 -12.27443248654464 -7.1233946530483081 0 -7.1233946530483081 20.42345394667791 0 0 0 0 15.318082671075217 44.331302751736075 0 44.331302751736075 131.26767684941296 0 0 0 0 33.059068469821128 46.030170871206792 0 46.030170871206792 101.62552847599784 0 0 0 0 0.024573729559949922 27.802468509402388 0 27.802468509402388 96.472017077736382 0 0 0 0 33.119275326913254 39.332841047122201 0 39.332841047122201 18.74613106920151 0 0 0 0 -4.1310048764520388 9.1645532465045108 0 9.1645532465045108 -67.392656331699982 0 0 0 0 1.7946672969081874 -18.193491199723212 0 -18.193491199723212 -109.86870145666762 0 0 0 0 29.047992872705432 0.34719953203466503 0 0.34719953203466503 2.5982062154216692 0 0 0 0 0.20021768843358248 0.11964974947258611 0 0.11964974947258611 0.85463246339548959 0 0 0 0 -1.4999100467834794 2.0965402802189033 0 2.0965402802189033 -0.51260472469877527 0 0 0 0 56.425017784413683 71.444944207963999 0 71.444944207963999 77.430917521938682 0 0 0 0 40.348423686476025 51.246822439919924 0 51.246822439919924 121.56520819912839 0 0 0 0 63.808753493804254 88.127545597861172 0 88.127545597861172 97.734809942884567 0 0 0 0 22.285275190840505 50.103981854568701 0 50.103981854568701 100.87091867657773 0 0 0 0 0.072768023899540707 -1.8073795702403004 0 -1.8073795702403004 35.67491167067783 0 0 0 0 20.248359388548806 -7.5817034918368336 0 -7.5817034918368336 7.4070590959454421 0 0 0 0 -91.038327780565012 -17.437253477342892 0 -17.437253477342892 27.539478830687585 0 0 0 0 -2.3722989022942897 -2.1584230240114266 0 -2.1584230240114266 4.9491597889355035 0 0 0 0 13.449735897798163 -0.338341018956271 0 -0.338341018956271 0.04632790491450578 0 0 0 0 0.0027801363436508438 0.4404938192914889 0 0.4404938192914889 4.6989087674987786 0 0 0 0 -0.22112448325526657 19.510458432672749 0 19.510458432672749 -185.99017686372099 0 0 0 0 0.71993216625822143 -1.87993495048255 0 -1.87993495048255 5.4789582899225024 0 0 0 0 0.1943128669505296 -0.28003717021864816 0 -0.28003717021864816 4.9526713830670701 0 0 0 0 405.0135863939409 -28.709923370588513 0 -28.709923370588513 -201.52560800837819 0 0 0 0 89.887704643293631 110.87621639210556 0 110.87621639210556 58.320499897025002 0 0 0 0 -0.078903382467258698 -0.73084155187004285 0 -0.73084155187004285 0.2698820389505272 0 0 0 0 42.658472916846236 -19.526649500061467 0 -19.526649500061467 -31.108493341685971 0 0 0 0 0.01426316952287356 0.43915117673759863 0 0.43915117673759863 4.644779092970623 0 0 0 0 141.87268229927432 205.40233026344504 0 205.40233026344504 317.73578870076744 0 0 0 0 -198.92375612988101 -258.25391088804099 0 -258.25391088804099 445.41175221442245 0 0 0 0 -128.33445423012924 -156.77308074196117 0 -156.77308074196117 588.98698886834609 0 0 0 0 -2.166256800373052 137.87368612380669 0 137.87368612380669 392.58016503079853 0 0 0 0 273.87914304412442 43.096474545127421 0 43.096474545127421 291.04591515546781 0 0 0 0 -71.04951032588329 -20.997839140618453 0 -20.997839140618453 257.29898553830571 0 0 0 0 -44.514662753069729 17.69612331110693 0 17.69612331110693 682.01818516362982 0 0 0 0 233.49129541664882 -121.54043877629556 0 -121.54043877629556 451.17219870249392 0 0 0 0 -18.154400129220939 39.191738726265612 0 39.191738726265612 450.79404311635881 0 0 0 0 8.7791097755334171 67.732373039129016 0 67.732373039129016 393.40409136735252 0 0 0 0 -8.781003539253561 58.695643057435518 0 58.695643057435518 388.75498676282587 0 0 0 0 54.739113120172405 179.90017558407271 0 179.90017558407271 253.17649154295214 0 0 0 0 0.0012804134189198582 33.093830239391536 0 33.093830239391536 239.08023467026942 0 0 0 0 -19.75809620438833 101.76911214084339 0 101.76911214084339 354.03660675122228 0 0 0 0 -0.052397527056014886 28.25981081761347 0 28.25981081761347 405.26616998025565 0 0 0 0 6.8654835077710459 42.714735059744271 0 42.714735059744271 364.07203965972076 0 0 0 0 9.5929088844655581 29.674391522614314 0 29.674391522614314 397.78591388316272 0 0 0 0 60.186949497694059 -0.24821509514731588 0 -0.24821509514731588 413.29617279617378 0 0 0 0 66.70763935344425 44.198317216809301 0 44.198317216809301 371.10122984521149 0 0 0 0 62.714939287622315 42.002198801834311 0 42.002198801834311 399.10538135271872 0 0 0 0 0.14908697067313356 62.90406711387859 0 62.90406711387859 411.7978036658169 0 0 0 0 99.098591149868668 186.95660745336136 0 186.95660745336136 498.73942606944911 0 0 0 0 123.23732541949775 118.60369116504626 0 118.60369116504626 325.00386653104215 0 0 0 0 -0.017501264406761891 128.74125285655828 0 128.74125285655828 685.40521690929381 0 0 0 0 -22.689367411991981 48.439371613854746 0 48.439371613854746 387.1484055855326 0 0 0 0 66.716775301336241 29.249996496575477 0 29.249996496575477 184.58924994856716 0 0 0 0 9.7267533535406585 65.45369396116439 0 65.45369396116439 399.9682459872347 0 0 0 0 -31.325983532631398 73.726933998055756 0 73.726933998055756 384.31001298674528 0 0 0 0 8.5648498382936964 87.493825854522584 0 87.493825854522584 375.0857007795712 0 0 0 0 19.877428444777195 84.518976754116011 0 84.518976754116011 375.12136693144669 0 0 0 0 34.894826091574657 75.340710330056027 0 75.340710330056027 340.88900843753072 0 0 0 0 61.310548866187432 4.8771592584744212 0 4.8771592584744212 363.82032843533671 0 0 0 0 151.17182368556615 28.779449572240992 0 28.779449572240992 344.38361862798047 0 0 0 0 -36.543997798878138 145.31575236989738 0 145.31575236989738 343.43090506861336 0 0 0 0 20.549874111051565 116.43557971964037 0 116.43557971964037 313.56558890476117 0 0 0 0 11.501788878841126 96.374460183367773 0 96.374460183367773 304.34129549452337 0 0 0 0 -54.333796997835293 104.13081472567865 0 104.13081472567865 357.47515779688547 0 0 0 0 -32.180008786721885 158.44880493928213 0 158.44880493928213 216.83861899212934 0 0 0 0 -124.25843202927024 135.06169261176547 0 135.06169261176547 344.05959024274489 0 0 0 0 -78.565720471147756 65.966927864734316 0 65.966927864734316 254.38957128874608 0 0 0 0 -63.21734279378984 -22.421547851692594 0 -22.421547851692594 138.19009556145193 0 0 0 0 -56.626298258555494 147.95254139592726 0 147.95254139592726 359.87000139206066 0 0 0 0 -27.98218385069265 97.153301941565587 0 97.153301941565587 326.2222170594323 0 0 0 0 114.16261650657077 142.88594790117349 0 142.88594790117349 148.45643517708231 0 0 0 0 25.626519732213751 204.27989423734107 0 204.27989423734107 505.04769405414118 0 0 0 0 -34.582737104985938 96.956401714553067 0 96.956401714553067 437.68110659709782 0 0 0 0 -24.257601741825439 54.576337377282471 0 54.576337377282471 564.98116923845373 0 0 0 0 -79.284649394356279 125.51809708883957 0 125.51809708883957 407.97022497783473 0 0 0 0 -66.796777602480006 80.289537730393931 0 80.289537730393931 430.02321572783694 0 0 0 0 -48.869418292968476 78.337768330486142 0 78.337768330486142 423.35536159587718 0 0 0 0 -62.025910253220701 64.138808029114443 0 64.138808029114443 480.68564885403612 0 0 0 0 -4.6065293223863364 34.683973367966246 0 34.683973367966246 432.37169294917112 0 0 0 0 31.089759880120937 20.928440261690412 0 20.928440261690412 422.17078531019797 0 0 0 0 -17.696556532920994 -9.5040562969115854 0 -9.5040562969115854 451.26186818325368 0 0 0 0 -13.042403200173197 27.624716461505159 0 27.624716461505159 316.82878311589593 0 0 0 0 25.656870806503605 146.35715385908406 0 146.35715385908406 739.07850632580812 0 0 0 0 2.4304245904983421 0.73537036992948401 0 0.73537036992948401 0.79169088284308842 0 0 0 0 86.262349100228732 -15.452543957042508 0 -15.452543957042508 446.15837480873597 0 0 0 0 6.0528741881777002 2.1470590515814649 0 2.1470590515814649 0.94767060545328263 0 0 0 0 53.677901432693716 63.108332848831196 0 63.108332848831196 498.07825863149628 0 0 0 0 -1.911046995107327 18.230654585280718 0 18.230654585280718 528.05992850239272 0 0 0 0 148.24943059428608 170.16280236314924 0 170.16280236314924 366.16226167147397 0 0 0 0 240.99415235870617 37.848981711431406 0 37.848981711431406 491.8131124972424 0 0 0 0 45.323465459640147 69.780058222042499 0 69.780058222042499 486.60865862271748 0 0 0 0 -276.12496902600003 -213.77532982813136 0 -213.77532982813136 619.53755165195616 0 0 0 0 59.747041665244694 13.230712214739469 0 13.230712214739469 739.91376349283382 0 0 0 0 1.9469952193712636 -3.0236558684355259 0 -3.0236558684355259 3.9475221192832066 0 0 0 0 105.71928489683404 286.60705707331363 0 286.60705707331363 654.30276659506126 0 0 0 0 -328.38179599353816 710.35983482115262 0 710.35983482115262 1612.0178616403718 0 0 0 0 6.3616541595567107 -6.924980843029175 0 -6.924980843029175 6.5354527772032043 0 0 0 0 -144.77833106257958 100.67681112785067 0 100.67681112785067 -830.74492274467048 0 0 0 0 151.27805676205787 229.73534706387727 0 229.73534706387727 329.27593955266639 0 0 0 0 0.28366316568190086 -326.51271138733864 0 -326.51271138733864 -636.73831220432476 0 0 0 0 413.52257739231936 538.84554296629358 0 538.84554296629358 1239.972029224853 0 0 0 0 -99.167642037700716 48.35212254490034 0 48.35212254490034 84.040117784334143 0 0 0 0 -78.744350519645423 117.38562699555041 0 117.38562699555041 -110.32070371900045 0 0 0 0 -3.7929452945410409 -1.1371795981737023 0 -1.1371795981737023 7.1021693628306544 0 0 0 0 -107.02861803613405 -22.041782845124544 0 -22.041782845124544 57.378317484268337 0 0 0 0 -87.706255859178853 -18.4273181832707 0 -18.4273181832707 34.905093128923909 0 0 0 0 -88.92124464689141 -66.572836069892219 0 -66.572836069892219 146.66731648780114 0 0 0 0 29.897089555754746 -51.67666398199799 0 -51.67666398199799 67.820633216844726 0 0 0 0 46.446395658731717 -61.967706024959625 0 -61.967706024959625 13.895405639821547 0 0 0 0 8.6334847056580202 -154.91865532057273 0 -154.91865532057273 223.51734108445817 0 0 0 0 141.51991502148076 -58.784326259679801 0 -58.784326259679801 67.359185554189025 0 0 0 0 106.93069632759216 -111.12987345393776 0 -111.12987345393776 296.16353651913596 0 0 0 0 280.67787263162234 149.18908887694852 0 149.18908887694852 423.69873233765247 0 0 0 0 -226.07301486399092 165.35578889556928 0 165.35578889556928 313.29705963640299 0 0 0 0 625.27609993449016 -105.84513267914008 0 -105.84513267914008 586.11125474172877 0 0 0 0 -70.026321378312787 -164.58164468825998 0 -164.58164468825998 931.42490510700736 0 0 0 0 179.1972773392713 -381.96533659513807 0 -381.96533659513807 1102.8928181386291 0 0 0 0 -209.54020399198933 -514.66474914629634 0 -514.66474914629634 1225.529807457744 0 0 0 0 2.38889525739381 -5.9203367923450401 0 -5.9203367923450401 9.1218636297151647 0 0 0 0 567.85420749040566 -6.8332635085243965 0 -6.8332635085243965 421.76909636975324 0 0 0 0 -40.124960204836952 95.082856467633974 0 95.082856467633974 -101.49741105240901 0 0 0 0 -161.83974107533606 90.569472240080358 0 90.569472240080358 253.97528065310325 0 0 0 0 0.93681743929319361 -2.7487779287609726 0 -2.7487779287609726 4.9134432280456792 0 0 0 0 138.12330197871586 529.56334071255696 0 529.56334071255696 588.6087954496179 0 0 0 0 -130.24224553850777 -377.83866952895733 0 -377.83866952895733 33.797329866705695 0 0 0 0 -0.34433377279581068 -0.43370661875938765 0 -0.43370661875938765 3.2285991466077348 0 0 0 0 173.58270524966645 618.4397189174415 0 618.4397189174415 347.37130528076159 0 0 0 0 141.98867681579986 -40.556510814691137 0 -40.556510814691137 31.701794431675808 0 0 0 0 83.412392076298943 -30.153453245060518 0 -30.153453245060518 -6.4964307759073563 0 0 0 0 36.176054763944535 38.264686240414449 0 38.264686240414449 18.412190376295257 0 0 0 0 0.031922719719739145 -2.1292057623747382 0 -2.1292057623747382 5.8674678290740871 0 0 0 0 -232.27665351728393 -180.16066946353385 0 -180.16066946353385 739.67256013706901 0 0 0 0 16.170609587586696 13.254931243565807 0 13.254931243565807 7.5379967774642864 0 0 0 0 10.497548856470303 -2.4545983772113686 0 -2.4545983772113686 3.7600808373190375 0 0 0 0 15.676303904139786 5.515830457341508 0 5.515830457341508 4.1014268807339249 0 0 0 0 5.8337958841142381 1.5697217839733639 0 1.5697217839733639 0.28766980411455734 0 0 0 0 0.41985833174805975 -37.152353754598153 0 -37.152353754598153 -38.4529476956086 0 0 0 0 8.2465477617279248 -15.034338515208219 0 -15.034338515208219 118.79468495581477 0 0 0 0 -5.4723248203017647 -14.570265677262796 0 -14.570265677262796 118.81065942862188 0 0 0 0 -2.2888366399349476 -7.8075841825754253 0 -7.8075841825754253 17.345214971526815 0 0 0 0 -5.2866309314724074 -6.4887085868967063 0 -6.4887085868967063 10.107391268893991 0 0 0 0 -44.792917120803395 34.251972719081095 0 34.251972719081095 58.202923071876285 0 0 0 0 -104.2490587688535 -215.58174125739606 0 -215.58174125739606 129.22252340687555 0 0 0 0 -32.073350839947125 -69.815964211058599 0 -69.815964211058599 -0.35140568662609439 0 0 0 0 -39.168741088393119 -58.573978216618343 0 -58.573978216618343 29.014236531365896 0 0 0 0 18.713859849942764 -5.0488246911845636 0 -5.0488246911845636 -14.299052096073865 0 0 0 0 -9.618763258451505 -14.161105250868786 0 -14.161105250868786 33.896487170873456 0 0 0 0 8.8364057017170126 -28.911566260794643 0 -28.911566260794643 3.0114350641342753 0 0 0 0 0.96417686384120316 -15.269867308496032 0 -15.269867308496032 12.154221454335129 0 0 0 0 -5.2054933065553364 0.50693460218715813 0 0.50693460218715813 9.0516731749414134 0 0 0 0 -7.8500208463838135 -31.233390880515799 0 -31.233390880515799 3.9301867540762032 0 0 0 0 -21.365789349687475 -20.804934226413025 0 -20.804934226413025 11.145948832763679 0 0 0 0 1.0186673635031789 -13.051656739184192 0 -13.051656739184192 13.140676586560005 0 0 0 0 -11.423421034298372 5.0211754586198367 0 5.0211754586198367 75.950674833792618 0 0 0 0 -39.257205957332644 40.036424662786885 0 40.036424662786885 99.363922065851511 0 0 0 0 -172.37601118228486 -181.25139228324406 0 -181.25139228324406 156.34697863130714 0 0 0 0 -18.411216379739471 -24.983608807990095 0 -24.983608807990095 121.04950738541083 0 0 0 0 75.690846854220581 -172.20148859455367 0 -172.20148859455367 87.856794447026914 0 0 0 0 -7.6047018871116876 -13.690176274626385 0 -13.690176274626385 63.466685065530214 0 0 0 0 -5.3086337893273594 -40.090857184433844 0 -40.090857184433844 124.88142986240564 0 0 0 0 -9.4569137586675307 -0.65139308521213479 0 -0.65139308521213479 14.716335959796538 0 0 0 0 57.081321296682177 -9.4082209637017513 0 -9.4082209637017513 63.2056886194041 0 0 0 0 -10.352293992593244 -19.889481133901924 0 -19.889481133901924 34.302165573374452 0 0 0 0 -19.007916520323846 12.19348307744076 0 12.19348307744076 139.7103103236077 0 0 0 0 -21.974854178426995 -28.100354332571442 0 -28.100354332571442 72.606682723831909 0 0 0 0 -20.847401391587368 -8.8612196312424203 0 -8.8612196312424203 107.24665214232664 0 0 0 0 -11.801738380319589 -22.948382578139785 0 -22.948382578139785 17.434479693704333 0 0 0 0 -10.074753112755189 -19.93234134843442 0 -19.93234134843442 71.201992172471364 0 0 0 0 -9.5691975438353438 22.365005820491206 0 22.365005820491206 81.541557112170267 0 0 0 0 -12.281748989194057 -36.968530023750645 0 -36.968530023750645 40.7946306750855 0 0 0 0 -11.782024744812588 -9.8701062595500844 0 -9.8701062595500844 29.650755163573194 0 0 0 0 -22.922129477037743 -29.153171908117656 0 -29.153171908117656 30.341009362658951 0 0 0 0 -11.567604537664399 -14.219237173710241 0 -14.219237173710241 26.88948235663463 0 0 0 0 -8.9191869400001451 -37.258367450653168 0 -37.258367450653168 14.104286491972744 0 0 0 0 0.390294389799692 6.188393360435839 0 6.188393360435839 20.733313984135748 0 0 0 0 -18.437607450339669 -8.9322380775042802 0 -8.9322380775042802 39.693542663568223 0 0 0 0 -15.598927644491791 -12.256941394974476 0 -12.256941394974476 26.376927683715252 0 0 0 0 -23.649454486734612 -7.4541971310900408 0 -7.4541971310900408 39.627341770697967 0 0 0 0 -17.83464688065942 -11.064050355584186 0 -11.064050355584186 41.770984012677218 0 0 0 0 -18.28321678348766 -8.186935969570186 0 -8.186935969570186 36.103916937747272 0 0 0 0 -12.374943117318253 -12.3354484262818 0 -12.3354484262818 38.834029707279115 0 0 0 0 -10.327240623239049 -7.1430982389647397 0 -7.1430982389647397 37.487639536928782 0 0 0 0 -5.6334020909234823 -11.683416055697307 0 -11.683416055697307 41.838721447456919 0 0 0 0 -13.374152223021156 -11.145611365209334 0 -11.145611365209334 37.224438090403055 0 0 0 0 2.4684184402649407 0.68514285298078903 0 0.68514285298078903 41.156380444124807 0 0 0 0 -28.305643375225372 -12.506656632884187 0 -12.506656632884187 60.962009564478649 0 0 0 0 -29.1329385310828 6.7226280813047197 0 6.7226280813047197 71.39599837235437 0 0 0 0 2.6145801072070753 -19.7855451255964 0 -19.7855451255964 26.713970011071069 0 0 0 0 9.3100283608937389 -9.8669420345358958 0 -9.8669420345358958 32.610268748627277 0 0 0 0 -1.6094578171207661 -4.5523082375340813 0 -4.5523082375340813 33.460358294573666 0 0 0 0 -2.0513162607110811 -4.1610694869884703 0 -4.1610694869884703 33.721835913401321 0 0 0 0 -13.192886322266531 -14.630835220210429 0 -14.630835220210429 38.251521820915514 0 0 0 0 -3.3009430565343791 -16.969177027101978 0 -16.969177027101978 32.432101908361119 0 0 0 0 2.5801166301225749 -5.7253229794732761 0 -5.7253229794732761 36.61554195091594 0 0 0 0 3.0151172803137385 -16.424534811268558 0 -16.424534811268558 9.3272400518615584 0 0 0 0 -16.224974794187801 21.006177417511935 0 21.006177417511935 899.42935208776908 0 0 0 0 -71.998747741718034 137.59465901222211 0 137.59465901222211 664.56390263230423 0 0 0 0 117.05447091820861 41.910300352828926 0 41.910300352828926 738.30938900198089 0 0 0 0 -15.445432231816085 210.4520638571048 0 210.4520638571048 524.75550895711058 0 0 0 0 -4.5664747257764908 -13.931618165332793 0 -13.931618165332793 3.1349565230922316 0 0 0 0 59.00868750502741 197.05026889119472 0 197.05026889119472 411.41039065356927 0 0 0 0 151.63668201874316 510.36302478383004 0 510.36302478383004 352.03886173196952 0 0 0 0 -213.27250388325592 636.93302611890977 0 636.93302611890977 571.38283167101326 0 0 0 0 79.511409709670261 754.52663545008545 0 754.52663545008545 502.18276027568209 0 0 0 0 -259.50127633010379 401.19795021335449 0 401.19795021335449 725.8893236454187 0 0 0 0 576.29473430886355 544.36134775889514 0 544.36134775889514 427.14030949932931 0 0 0 0 20.207706066961372 -20.474889350914225 0 -20.474889350914225 16.515219685643615 0 0 0 0 -10.893527420500277 -338.57243951434793 0 -338.57243951434793 -57.141227360654739 0 0 0 0 -171.92728325669668 280.31559529981314 0 280.31559529981314 892.44473699207037 0 0 0 0 126.67727896114309 225.85318365850981 0 225.85318365850981 436.08806607041515 0 0 0 0 63.60105232809974 105.85922107250371 0 105.85922107250371 68.663081535385572 0 0 0 0 -28.536313214106258 12.106851633529004 0 12.106851633529004 394.9157372485206 0 0 0 0 -98.187797152059829 70.640473201045097 0 70.640473201045097 354.15736493081204 0 0 0 0 70.708893208751988 -2.4196498161545605 0 -2.4196498161545605 385.59214745661302 0 0 0 0 -46.11332169158598 83.940890178358131 0 83.940890178358131 542.75961997079139 0 0 0 0 50.914753436331864 221.04255462894798 0 221.04255462894798 338.50454482069472 0 0 0 0 47.967452145917882 131.03743575078852 0 131.03743575078852 295.42073864249687 0 0 0 0 40.10051651303425 96.762358956148091 0 96.762358956148091 336.07298132952565 0 0 0 0 -42.827985985963643 77.210284000860156 0 77.210284000860156 406.44910303254437 0 0 0 0 -20.532980916571688 -44.240905100070449 0 -44.240905100070449 241.02925682425848 0 0 0 0 32.264614651040354 -28.866161012823326 0 -28.866161012823326 22.078776571815865 0 0 0 0 1579.5212861793116 -323.14104881847743 0 -323.14104881847743 969.15870861842996 0 0 0 0 -994.9521498155591 -671.87742776233063 0 -671.87742776233063 2469.5624748315895 0 0 0 0 -953.64151925482292 214.81092943671683 0 214.81092943671683 1313.7361869542219 0 0 0 0 31.928033641466826 -27.240298283893978 0 -27.240298283893978 20.296148092509384 0 0 0 0 109.41762975301208 0.02745085728020058 0 0.02745085728020058 -131.86715485884997 0 0 0 0 -36.144295088630315 465.90097933305515 0 465.90097933305515 254.87016761602717 0 0 0 0 -70.721223236878359 -19.583646723564016 0 -19.583646723564016 832.46597763958562 0 0 0 0 729.72116836766145 -765.06759193132166 0 -765.06759193132166 1070.2426944143444 0 0 0 0 324.27525804654806 -18.302004811081133 0 -18.302004811081133 648.51775301559246 0 0 0 0 -96.001476748198911 -1417.8785730333766 0 -1417.8785730333766 1975.1042457215808 0 0 0 0 597.23350972665867 480.81959296199784 0 480.81959296199784 282.11186028493103 0 0 0 0 239.06463652189996 -117.62694853880384 0 -117.62694853880384 -75.906898196612019 0 0 0 0 4.7061392231700694 4.2612376624867494 0 4.2612376624867494 6.0781389874362617 0 0 0 0 5.2073601934020921 0.48221800334053455 0 0.48221800334053455 -2.5209347715552326 0 0 0 0 542.86157094753821 197.26962477018765 0 197.26962477018765 -16.479567215239513 0 0 0 0 547.56394900956366 669.84684195459704 0 669.84684195459704 322.63092103420058 0 0 0 0 -18.425818093286161 -13.124048058370846 0 -13.124048058370846 5.7094930732032338 0 0 0 0 -38.901677797886805 7.4306564758735476 0 7.4306564758735476 79.927530870285409 0 0 0 0 182.57554859045104 -49.401780933481859 0 -49.401780933481859 15.779891492551542 0 0 0 0 9.9829177642151308 13.693392685703628 0 13.693392685703628 22.799520927734221 0 0 0 0 -19.82252568455624 54.936996623931918 0 54.936996623931918 44.556805057276506 0 0 0 0 -220.40305968053144 -139.36188922770816 0 -139.36188922770816 232.25778874960088 0 0 0 0 3.4739263967151501 1.5386286283272739 0 1.5386286283272739 8.8986867016089946 0 0 0 0 49.952265549625736 -121.8587514670362 0 -121.8587514670362 517.43880057887873 0 0 0 0 34.584424376233073 -147.7059419347861 0 -147.7059419347861 703.65614668958005 0 0 0 0 -0.084152153346892078 -14.251318078912902 0 -14.251318078912902 18.097876494384707 0 0 0 0 17.908783548904466 -45.526472898156499 0 -45.526472898156499 62.499884221291722 0 0 0 0 9.8457607246220604 1.9069791907776903 0 1.9069791907776903 5.1602465095320014 0 0 0 0 -2.2735277590727492 -35.704950565632316 0 -35.704950565632316 386.1441085969218 0 0 0 0 -59.490152877278433 1.6260012715629273 0 1.6260012715629273 513.76354520181485 0 0 0 0 -3.4271159135969356 -82.682919389895687 0 -82.682919389895687 409.33822190231876 0 0 0 0 -82.467991926658215 7.4798230557644274 0 7.4798230557644274 513.07702804263681 0 0 0 0 -86.469034689764158 -19.85401189583763 0 -19.85401189583763 596.59190260924515 0 0 0 0 -10.389170859314618 94.727959646908857 0 94.727959646908857 403.25000216061017 0 0 0 0 -19.871471889918212 18.49329271940951 0 18.49329271940951 364.49099899641078 0 0 0 0 11.925240902246969 66.190545690729778 0 66.190545690729778 165.37699736772629 0 0 0 0 87.672242815465324 -30.018815611671016 0 -30.018815611671016 56.717085865464469 0 0 0 0 19.597154461037043 -20.953446342988428 0 -20.953446342988428 13.123301595491569 0 0 0 0 51.47950147213669 -21.606714602930879 0 -21.606714602930879 -102.25114516182293 0 0 0 0 -33.000718460518783 94.240604649683519 0 94.240604649683519 -38.928223353083013 0 0 0 0 72.366062824243727 20.018449715753377 0 20.018449715753377 -3.1301321139908396 0 0 0 0 35.87484402089467 6.9402138709701831 0 6.9402138709701831 50.435601773482631 0 0 0 0 54.910372468542846 -64.03870365289913 0 -64.03870365289913 147.82604737574002 0 0 0 0 42.240616507574487 -103.93714237838867 0 -103.93714237838867 127.07297389710584 0 0 0 0 537.11430834735756 604.32292340740969 0 604.32292340740969 93.544317197520286 0 0 0 0 262.433554443601 -75.962067764236053 0 -75.962067764236053 -239.71118849824416 0 0 0 0 -47.089364503339766 -152.82533382228939 0 -152.82533382228939 214.13992681883246 0 0 0 0 1.0777985471565765 -2.5709693857762197 0 -2.5709693857762197 10.968858907812717 0 0 0 0 -245.71518248606844 378.55692419391562 0 378.55692419391562 332.23585034368443 0 0 0 0 -243.69747270208245 202.26593014679383 0 202.26593014679383 1037.5124856798502 0 0 0 0 -222.96703773739318 -536.16796051095298 0 -536.16796051095298 772.70994835819147 0 0 0 0 -7.1401241641719935 -69.269592097387431 0 -69.269592097387431 439.59077356295893 0 0 0 0 -41.040418381241125 -98.873900610422425 0 -98.873900610422425 525.31647306709783 0 0 0 0 10.626492243350185 46.574280290027673 0 46.574280290027673 738.64821867870342 0 0 0 0 12.42362800490082 -122.44338223910745 0 -122.44338223910745 501.41828243047348 0 0 0 0 166.20050537916268 -24.581012523529353 0 -24.581012523529353 510.42664196561964 0 0 0 0 76.675333401723947 59.627970999972604 0 59.627970999972604 42.944241558285285 0 0 0 0 -63.069497498979899 1.9070464721553435 0 1.9070464721553435 662.9086483719002 0 0 0 0 3.7102593430632567 1.7538384976900829 0 1.7538384976900829 -0.22227045648062216 0 0 0 0 566.88255480910993 221.42018562654266 0 221.42018562654266 579.97688518471841 0 0 0 0 -648.54941613371182 -772.04784063705938 0 -772.04784063705938 426.24485974751587 0 0 0 0 -387.11365108444807 -192.0337269899901 0 -192.0337269899901 618.37635269993916 0 0 0 0 265.14692591787207 -244.51550657452754 0 -244.51550657452754 407.95164920657407 0 0 0 0 681.02037818483223 -653.54216370004724 0 -653.54216370004724 690.13571600601426 0 0 0 0 -757.12071870330419 -328.29909764040349 0 -328.29909764040349 641.73625120980068 0 0 0 0 273.60166954284796 -90.570939790282864 0 -90.570939790282864 -463.81440443685278 0 0 0 0 -272.59661077476278 7.6105720211294283 0 7.6105720211294283 431.59294712317205 0 0 0 0 -1.0539865810407836 -38.924881375067159 0 -38.924881375067159 138.55928285220011 0 0 0 0 -154.15832510572818 -324.85092056424764 0 -324.85092056424764 -124.54204584477702 0 0 0 0 -215.66846190587967 -161.89007957180729 0 -161.89007957180729 112.65992899303092 0 0 0 0 -218.32829544861477 -167.09693698759475 0 -167.09693698759475 142.11416199043015 0 0 0 0 -1.2003754795523491 152.13284026103065 0 152.13284026103065 158.77145130820429 0 0 0 0 -216.45268394466257 -142.01118357750238 0 -142.01118357750238 148.41262694700526 0 0 0 0 -207.2412461687818 131.62749512384471 0 131.62749512384471 218.70328366168542 0 0 0 0 -31.805276570011301 -128.61175636422195 0 -128.61175636422195 5.0506204756820807 0 0 0 0 -18.664560108228983 -16.995472575969814 0 -16.995472575969814 17.359930314571187 0 0 0 0 21.883697450558429 -51.597993792489433 0 -51.597993792489433 101.41090482950676 0 0 0 0 3.8584042406973031 -9.8436067891757375 0 -9.8436067891757375 43.843356210003904 0 0 0 0 -11.443934601849833 0.24328334817255381 0 0.24328334817255381 42.577623825403862 0 0 0 0 -6.9127555305129338 -16.281449068096663 0 -16.281449068096663 29.876742735528325 0 0 0 0 -9.1201666695314927 -2.609273247921891 0 -2.609273247921891 20.738220217106175 0 0 0 0 -6.2387045343186074 -3.2908335833355267 0 -3.2908335833355267 26.437455973353423 0 0 0 0 -6.1254308716591046 -27.599087377634991 0 -27.599087377634991 6.4379666118991281 0 0 0 0 24.371196219344711 12.028844745967945 0 12.028844745967945 4.2128683106420795 0 0 0 0 -9.0113426268703876 -2.7377751336664744 0 -2.7377751336664744 6.5247958156799086 0 0 0 0 32.192070602706735 -11.481756052999117 0 -11.481756052999117 24.692002884079557 0 0 0 0 34.683340122204754 -43.062166935204004 0 -43.062166935204004 71.663470701023471 0 0 0 0 -30.051976101418404 -4.3873534168487822 0 -4.3873534168487822 24.101601751266571 0 0 0 0 17.720732852091487 -55.3134221906422 0 -55.3134221906422 88.782751846330939 0 0 0 0 -24.534215571985612 5.3978887706057606 0 5.3978887706057606 30.863694599971893 0 0 0 0 -20.85299388817289 -12.404626187578145 0 -12.404626187578145 11.963489821538758 0 0 0 0 -2.7742804186359535 -13.734392311242118 0 -13.734392311242118 23.436495210276917 0 0 0 0 -9.2224037266338925 2.2041294610742455 0 2.2041294610742455 20.991494868510244 0 0 0 0 -10.630205129988553 8.2360069621208822 0 8.2360069621208822 67.028248317590624 0 0 0 0 13.952401376212038 -64.333509435437009 0 -64.333509435437009 81.543157404841622 0 0 0 0 -12.509444767455937 -22.04450920899157 0 -22.04450920899157 20.828154936686573 0 0 0 0 -7.6187995089441074 -11.557606272886915 0 -11.557606272886915 41.266359498113161 0 0 0 0 -6.2598061577994599 -23.284754082316795 0 -23.284754082316795 33.166231207374949 0 0 0 0 0.16784160635961598 -9.9606662226142362 0 -9.9606662226142362 43.664807279565139 0 0 0 0 -3.2274428805629327 -7.4376677564541751 0 -7.4376677564541751 46.562643222685438 0 0 0 0 -12.41865101201736 -22.571668482123911 0 -22.571668482123911 18.851133826654447 0 0 0 0 -12.972853336424862 -19.581538088164962 0 -19.581538088164962 56.746718980535661 0 0 0 0 -15.656363283423616 0.98758236841968028 0 0.98758236841968028 94.396402043508715 0 0 0 0 -4.4912297849188008 -30.955094836150238 0 -30.955094836150238 58.310548555353307 0 0 0 0 -10.487061472384596 -24.628821410757155 0 -24.628821410757155 53.933407803015143 0 0 0 0 -5.1754855980295247 -26.741512949185562 0 -26.741512949185562 42.64872523752274 0 0 0 0 -0.53441416380337614 -8.0219267583452165 0 -8.0219267583452165 41.841042709755129 0 0 0 0 -5.7562705378510657 -13.67251543310158 0 -13.67251543310158 43.665379599449807 0 0 0 0 1.8489787024011548 -14.202498771846876 0 -14.202498771846876 43.631997478663834 0 0 0 0 0.074441602106560367 -19.388014038977417 0 -19.388014038977417 38.065664766065311 0 0 0 0 0.77312397298828728 -11.114031110057113 0 -11.114031110057113 35.885795430425787 0 0 0 0 12.008886441222785 -11.584190232875699 0 -11.584190232875699 35.588688784744591 0 0 0 0 9.1551263102199982 -2.7570315601697075 0 -2.7570315601697075 34.145217464436428 0 0 0 0 11.351287577606399 -7.3052691430566483 0 -7.3052691430566483 26.181801998798619 0 0 0 0 4.3911656924403815 -6.6296188769265427 0 -6.6296188769265427 41.402503790683113 0 0 0 0 3.9746874494388464 -4.4227869252445089 0 -4.4227869252445089 41.559051915071905 0 0 0 0 -0.3930829077683029 -2.550014693319099 0 -2.550014693319099 42.857050076396263 0 0 0 0 9.135808139810365 -2.8495458039978985 0 -2.8495458039978985 36.31670186161864 0 0 0 0 13.298869441491661 18.457859629867016 0 18.457859629867016 22.812709715261008 0 0 0 0 -3.4930314776913671 -7.8053441788013807 0 -7.8053441788013807 5.5071603916658489 0 0 0 0 0.91170113765974747 3.2794761846907932 0 3.2794761846907932 66.821745064749848 0 0 0 0 -21.815822872460586 -24.706686163384347 0 -24.706686163384347 91.313852107574348 0 0 0 0 -31.044053909583297 25.422341181410957 0 25.422341181410957 57.208396736002896 0 0 0 0 -265.82261456268134 108.22683512809817 0 108.22683512809817 210.44325124823081 0 0 0 0 -3.2796491878092002 11.332104488903632 0 11.332104488903632 63.582374496316923 0 0 0 0 -2.0465182982197883 4.1483475923156945 0 4.1483475923156945 -2.5195849781623423 0 0 0 0 -1.9165836593106178 3.6895184837139823 0 3.6895184837139823 88.806868633117119 0 0 0 0 12.703062368789688 -38.200281107048795 0 -38.200281107048795 67.09809769577987 0 0 0 0 -21.668437348942689 -40.554077285858511 0 -40.554077285858511 66.783120045938631 0 0 0 0 -7.708034668310713 -1.7693651968860635 0 -1.7693651968860635 20.736114067790623 0 0 0 0 -18.219591775441131 -7.3327121331130911 0 -7.3327121331130911 20.458405582001433 0 0 0 0 -6.9423109378781067 -9.9728219404664937 0 -9.9728219404664937 30.404768900408243 0 0 0 0 -9.6781405373058078 -9.5885546976351179 0 -9.5885546976351179 35.96018080372869 0 0 0 0 -8.0327182706710119 25.69205458725628 0 25.69205458725628 38.130004082358937 0 0 0 0 -5.6158785584211337 -8.7305285035810982 0 -8.7305285035810982 34.148338180488253 0 0 0 0 -18.084794557069699 -21.645224063271598 0 -21.645224063271598 55.781130837392993 0 0 0 0 -17.831975978662626 -13.446010088184266 0 -13.446010088184266 5.5265984050056431 0 0 0 0 -2.9786520163894714 0.51279107980454341 0 0.51279107980454341 1.9182749596129725 0 0 0 0 -9.460279390815117 23.691134954904555 0 23.691134954904555 58.025970119953854 0 0 0 0 -6.149125677465463 -12.807552317230147 0 -12.807552317230147 78.109708410593157 0 0 0 0 2.0247333867944235 -13.478560425457545 0 -13.478560425457545 50.256207501399331 0 0 0 0 0.18581387934659688 -5.5381464072597737 0 -5.5381464072597737 49.86444164373097 0 0 0 0 -17.084651583897084 -7.7268744739267277 0 -7.7268744739267277 62.819425424393557 0 0 0 0 -16.147447584646898 10.041565267878468 0 10.041565267878468 67.899961127666757 0 0 0 0 -17.066075596644822 -10.760827074679582 0 -10.760827074679582 53.282808608957566 0 0 0 0 -5.5158114786471257 4.0149629731740628 0 4.0149629731740628 41.369291191086347 0 0 0 0 -8.3601785938069497 -4.5072501173926867 0 -4.5072501173926867 50.265067397616804 0 0 0 0 36.879830755680871 -12.983157380445846 0 -12.983157380445846 6.5726736200449523 0 0 0 0 54.410946981055588 -28.973294128885755 0 -28.973294128885755 9.9655379436444491 0 0 0 0 29.414366180019101 -20.626502420869656 0 -20.626502420869656 8.8246704205521382 0 0 0 0 38.118296748777425 -12.066693421213131 0 -12.066693421213131 -0.76468079030746594 0 0 0 0 27.142882940575305 -1.5465001783522894 0 -1.5465001783522894 6.8778329010528978 0 0 0 0 0.9617920499470074 -39.903014871480991 0 -39.903014871480991 -35.673033265378763 0 0 0 0 -0.83773612270107967 5.9364587943672191 0 5.9364587943672191 39.657489572442074 0 0 0 0 0.33107688755506215 0.99652039680656124 0 0.99652039680656124 6.2567736062223673 0 0 0 0 -0.31266746437455872 4.3978089322915324 0 4.3978089322915324 11.918465831145937 0 0 0 0 -1.4181584615773462 0.3665312542557615 0 0.3665312542557615 32.527273150892711 0 0 0 0 -46.964937065275308 55.539125669798523 0 55.539125669798523 24.522089135076385 0 0 0 0 16.158027911148793 1.337663097139739 0 1.337663097139739 9.9499993967474438 0 0 0 0 8.3433308627090241 0.52644053219228226 0 0.52644053219228226 25.608083090446598 0 0 0 0 31.67948532976925 -3.4386073156201746 0 -3.4386073156201746 1.1824416123272385 0 0 0 0 31.958013122083685 -7.6185882816498633 0 -7.6185882816498633 1.7011074377805926 0 0 0 0 22.199986780201471 -9.6417103873027372 0 -9.6417103873027372 11.277651224896545 0 0 0 0 37.779886445499017 -15.914909838156746 0 -15.914909838156746 7.5669624125002883 0 0 0 0 22.493497389081767 -11.182119879071251 0 -11.182119879071251 13.180642819483182 0 0 0 0 17.409387075021016 -6.4282709337358028 0 -6.4282709337358028 24.251147850533016 0 0 0 0 20.062598699283257 -17.622654882023198 0 -17.622654882023198 25.228300647271681 0 0 0 0 10.373288323405632 -17.05841685456835 0 -17.05841685456835 26.423466796375578 0 0 0 0 11.926433039328458 -21.600280184378789 0 -21.600280184378789 37.843250222344068 0 0 0 0 3.3632047696595464 -28.068202817656129 0 -28.068202817656129 41.998844640242169 0 0 0 0 23.066870307881175 -39.576867404335644 0 -39.576867404335644 23.676588264774182 0 0 0 0 15.052707988123984 -37.790501808827685 0 -37.790501808827685 35.334346755236766 0 0 0 0 31.869831005424771 -25.136993886146229 0 -25.136993886146229 15.969988448137883 0 0 0 0 3.3402859165713608 -49.611760497788055 0 -49.611760497788055 32.509932441083947 0 0 0 0 1.9237323015991734 -49.002050644330666 0 -49.002050644330666 53.388231990320492 0 0 0 0 -18.079253206867634 -42.588122384004237 0 -42.588122384004237 52.303245440627506 0 0 0 0 29.048861243067336 -57.163639677295578 0 -57.163639677295578 34.718499905051431 0 0 0 0 6.969704074337983 -67.961769814741274 0 -67.961769814741274 31.857030357641634 0 0 0 0 6.8259883378422614 -67.711724015929576 0 -67.711724015929576 42.775219569011824 0 0 0 0 25.253822872621527 -45.739192136810743 0 -45.739192136810743 17.763875772594474 0 0 0 0 54.4742968245165 -54.325119020679267 0 -54.325119020679267 19.233000219290261 0 0 0 0 43.600569614444339 -37.336769083351101 0 -37.336769083351101 7.9160148378578015 0 0 0 0 79.922969612809766 -51.791751791235583 0 -51.791751791235583 13.63582508845866 0 0 0 0 35.227430960919719 -64.338116819635616 0 -64.338116819635616 23.052433203076362 0 0 0 0 72.104156426728508 -80.127943891559312 0 -80.127943891559312 29.030059525655815 0 0 0 0 71.304466499558046 -52.54402567845591 0 -52.54402567845591 16.600483977847034 0 0 0 0 88.479937215699579 -71.737556414031133 0 -71.737556414031133 34.949200042348821 0 0 0 0 13.275428390128624 -80.209669733654209 0 -80.209669733654209 34.480493361741537 0 0 0 0 37.161099872968975 -72.171884085604688 0 -72.171884085604688 28.885949058647384 0 0 0 0 13.287948714598542 -80.451447022031061 0 -80.451447022031061 39.148919492115965 0 0 0 0 37.964188823036693 -75.406087099203432 0 -75.406087099203432 38.051667656272912 0 0 0 0 39.017885305886921 -78.925038615103404 0 -78.925038615103404 49.206077997063403 0 0 0 0 -18.0053023800441 -78.596221265339409 0 -78.596221265339409 48.23415467372979 0 0 0 0 17.10163642500288 -94.748226142408384 0 -94.748226142408384 51.532261163330986 0 0 0 0 -11.728224164366225 -65.965808517976257 0 -65.965808517976257 78.071035632943676 0 0 0 0 17.423140963383759 -91.206273914556732 0 -91.206273914556732 130.68294327477633 0 0 0 0 -45.074508448193683 -81.773414507137204 0 -81.773414507137204 198.40247288464161 0 0 0 0 16.154943960457899 -83.961894394466071 0 -83.961894394466071 89.36529921652982 0 0 0 0 113.75138609439364 -96.269292369412142 0 -96.269292369412142 81.005492916658113 0 0 0 0 96.02105721277124 -64.237796807851623 0 -64.237796807851623 39.522604149504332 0 0 0 0 94.494146359421336 -108.19369688804727 0 -108.19369688804727 62.242527547598002 0 0 0 0 92.787121275605216 23.218487471931439 0 23.218487471931439 42.931466409398126 0 0 0 0 164.63570031991691 -50.832560521776031 0 -50.832560521776031 12.745440493898059 0 0 0 0 81.491662642367032 -34.534479237954656 0 -34.534479237954656 20.296153680985299 0 0 0 0 105.34675674440467 -47.174775503332057 0 -47.174775503332057 4.079154232313158 0 0 0 0 92.541429420671761 -25.828146689649657 0 -25.828146689649657 -15.174372925233911 0 0 0 0 52.219722491941411 5.4277170555888006 0 5.4277170555888006 -13.792174346643151 0 0 0 0 69.384331585344626 -24.540458645620674 0 -24.540458645620674 2.4830023893136968 0 0 0 0 63.697471729558458 -29.174813551115221 0 -29.174813551115221 3.3576830203819554 0 0 0 0 -58.933299501221086 172.48427374793846 0 172.48427374793846 41.21436627546791 0 0 0 0 38.372476065382443 -11.365786815355023 0 -11.365786815355023 45.555015604542859 0 0 0 0 195.34395115241992 -102.52603231350258 0 -102.52603231350258 -142.25502208022226 0 0 0 0 0.26488147296202502 0.54543107147431513 0 0.54543107147431513 1.6157521214533972 0 0 0 0 266.39477501550607 -36.009587236928382 0 -36.009587236928382 -140.37640685210499 0 0 0 0 252.65688433101127 -40.396307671468094 0 -40.396307671468094 159.54959894753119 0 0 0 0 301.07831697703767 -18.701760205294704 0 -18.701760205294704 18.841073826726642 0 0 0 0 171.52743101663782 -115.03765795412983 0 -115.03765795412983 146.82209207233973 0 0 0 0 455.33419713297161 -114.87907980012278 0 -114.87907980012278 122.50013361800666 0 0 0 0 297.46860568422068 -1.2994468666583998 0 -1.2994468666583998 192.02656144036155 0 0 0 0 574.08871148472463 -466.77784980963406 0 -466.77784980963406 360.26207778717071 0 0 0 0 216.64362081917426 -36.227894822310191 0 -36.227894822310191 1583.1309541497103 0 0 0 0 -445.74567692307403 96.715742968577615 0 96.715742968577615 3493.1946584057587 0 0 0 0 -377.85379037447137 -316.06598108593607 0 -316.06598108593607 1637.0301303118413 0 0 0 0 -304.37222918564282 -940.24968459382035 0 -940.24968459382035 3493.4826244916621 0 0 0 0 -80.213107970188005 -1204.5373414438545 0 -1204.5373414438545 3492.6359330868727 0 0 0 0 1.3923541901980867 4.7906633297234578 0 4.7906633297234578 13.681355781009643 0 0 0 0 65.379862285371871 621.22369038915895 0 621.22369038915895 1750.7701371254952 0 0 0 0 290.28194751608612 -159.88289571125188 0 -159.88289571125188 331.08420606028085 0 0 0 0 -337.48674645782819 -244.11014111933036 0 -244.11014111933036 595.10566423173441 0 0 0 0 59.039207953211758 465.73314531218887 0 465.73314531218887 -63.521184752986301 0 0 0 0 -82.577834157968709 -318.12863253294199 0 -318.12863253294199 465.00561002187169 0 0 0 0 -218.9109945967665 -169.17547368587475 0 -169.17547368587475 410.06648689402209 0 0 0 0 104.73055663773461 -260.4469957476831 0 -260.4469957476831 404.24862263288014 0 0 0 0 251.15081778030179 -303.93068772504193 0 -303.93068772504193 316.4123922887884 0 0 0 0 87.677020852669628 -225.09813441784354 0 -225.09813441784354 341.12975378565898 0 0 0 0 54.559074407745925 -245.73860627563772 0 -245.73860627563772 331.52915695981937 0 0 0 0 201.85364253514149 -107.30442981005035 0 -107.30442981005035 69.08930860797409 0 0 0 0 147.22432523856827 -183.07773080881088 0 -183.07773080881088 186.84028926909377 0 0 0 0 86.925360931805699 -168.03505360460258 0 -168.03505360460258 194.28207482039579 0 0 0 0 -75.135291241841344 -146.33410699489468 0 -146.33410699489468 256.27767993827001 0 0 0 0 -73.058313907931165 -126.50231894141916 0 -126.50231894141916 333.96038756896451 0 0 0 0 -223.96555485876752 -131.81969343579112 0 -131.81969343579112 403.75155545274902 0 0 0 0 79.938035398438899 -150.5080712751078 0 -150.5080712751078 157.54286282979956 0 0 0 0 -102.58266067623549 -37.96264440552477 0 -37.96264440552477 202.9638035960088 0 0 0 0 -104.07980538911511 -28.007055327994749 0 -28.007055327994749 224.18202063093486 0 0 0 0 -179.38713358494022 -1.3273234078569658 0 -1.3273234078569658 388.13698658070643 0 0 0 0 -195.4543446005398 78.575997589199687 0 78.575997589199687 226.39168742366019 0 0 0 0 -193.94524702691137 102.73722469236236 0 102.73722469236236 98.276620975055266 0 0 0 0 -293.29836716052239 129.30957759109151 0 129.30957759109151 288.39454076238326 0 0 0 0 -181.9386553960976 14.175387412935379 0 14.175387412935379 298.45925397516112 0 0 0 0 -214.10361400688407 82.056337319663726 0 82.056337319663726 343.03653002852661 0 0 0 0 -222.82590014426978 -296.68562022679544 0 -296.68562022679544 939.82279593177373 0 0 0 0 -283.55998311898594 77.754827022126847 0 77.754827022126847 544.34878906328231 0 0 0 0 -292.16652688192062 91.775714108087413 0 91.775714108087413 551.5029270137602 0 0 0 0 -422.77540934407079 -147.99144130826971 0 -147.99144130826971 1239.8030226330156 0 0 0 0 -221.08040151797218 -93.896672146853234 0 -93.896672146853234 590.71002554503502 0 0 0 0 -210.14726505989455 65.28183721555979 0 65.28183721555979 412.89709874035907 0 0 0 0 526.68751141219059 -1194.3807818845526 0 -1194.3807818845526 1719.229024382119 0 0 0 0 -1.0247852515839477 1.5147308993244479 0 1.5147308993244479 12.301758818170299 0 0 0 0 -18.276145511104417 247.27588976406332 0 247.27588976406332 -476.61897808613685 0 0 0 0 -486.77125993892014 292.95263714848625 0 292.95263714848625 266.69325909375038 0 0 0 0 881.47971201148334 -1097.7506702238297 0 -1097.7506702238297 1603.4118865566561 0 0 0 0 1.8616341523290689 5.4418367230809253 0 5.4418367230809253 12.820728248899428 0 0 0 0 -315.00331798952766 125.82615137616813 0 125.82615137616813 287.93456880445956 0 0 0 0 -566.47738939055102 123.77210655988165 0 123.77210655988165 749.24374180322047 0 0 0 0 -436.51240842428035 248.95487518332448 0 248.95487518332448 333.50381164060673 0 0 0 0 31.871948753910601 42.035192815543269 0 42.035192815543269 -544.0800997715487 0 0 0 0 1596.6900706291804 -1573.7007521517662 0 -1573.7007521517662 311.97340698644985 0 0 0 0 -333.78436373622384 -46.93555680168356 0 -46.93555680168356 -96.094361938507063 0 0 0 0 142.21290984280949 223.9077692644787 0 223.9077692644787 -262.9506261338247 0 0 0 0 -248.13290357985341 114.38852958475036 0 114.38852958475036 203.43161722278455 0 0 0 0 -97.691536042309281 81.470917774960981 0 81.470917774960981 12.580357392376754 0 0 0 0 -377.13230696833972 -50.844453640096617 0 -50.844453640096617 461.77069062335067 0 0 0 0 2.9812578413584498 12.052297585581726 0 12.052297585581726 23.504847777804429 0 0 0 0 -194.00566283447438 -160.57652224421327 0 -160.57652224421327 360.37945170796593 0 0 0 0 -226.60340877898398 -215.84050378295069 0 -215.84050378295069 440.81677059948561 0 0 0 0 871.93004507228807 -717.49216698818782 0 -717.49216698818782 -373.34169874884537 0 0 0 0 -275.24609566422987 -371.90597450352288 0 -371.90597450352288 852.39993726790999 0 0 0 0 -84.996689422921918 -920.80725070327753 0 -920.80725070327753 2239.0678721937875 0 0 0 0 -256.48328718194102 561.06975098105613 0 561.06975098105613 456.46666549636575 0 0 0 0 -36.301322241094113 199.6080324330469 0 199.6080324330469 270.40934232841755 0 0 0 0 -28.600978580670699 -54.128896285117662 0 -54.128896285117662 1219.3051689925851 0 0 0 0 -33.33875613024054 257.76908597484726 0 257.76908597484726 252.4122120900247 0 0 0 0 -201.05682211741782 553.42106356044678 0 553.42106356044678 700.63339951074158 0 0 0 0 -165.07456400075949 244.1532544898655 0 244.1532544898655 806.54917250014842 0 0 0 0 291.33858514145459 976.86689608573215 0 976.86689608573215 1238.3402958107617 0 0 0 0 -555.85209516451403 266.53575282908969 0 266.53575282908969 2237.2454856906988 0 0 0 0 -576.01255144326842 361.8478810365159 0 361.8478810365159 2115.3284080424637 0 0 0 0 -917.16726945996948 -286.94853973302088 0 -286.94853973302088 3502.9887030146524 0 0 0 0 -205.17778878347661 -675.83039796257162 0 -675.83039796257162 1776.2180522610142 0 0 0 0 2455.7810873262974 -883.81217897452188 0 -883.81217897452188 -241.80308147014875 0 0 0 0 2.4483890375601591 -1.9748911407398229 0 -1.9748911407398229 27.393326816093747 0 0 0 0 -459.43625673940409 1015.5043166737814 0 1015.5043166737814 3491.1870730106348 0 0 0 0 776.02083104136898 1178.2366717068981 0 1178.2366717068981 1400.8308104582102 0 0 0 0 488.18387167371139 467.94902907323558 0 467.94902907323558 135.89848715600965 0 0 0 0 415.12017810553067 -27.500561565597309 0 -27.500561565597309 -170.89642022515909 0 0 0 0 -0.90909934103365453 -2.1350709203620104 0 -2.1350709203620104 69.867934694073995 0 0 0 0 69.017623542699297 -749.78860919315912 0 -749.78860919315912 1215.9254220358853 0 0 0 0 -543.06237918673332 154.97057325563219 0 154.97057325563219 -113.91424203028146 0 0 0 0 -256.0859115605889 -76.818070376823016 0 -76.818070376823016 -106.67190565200508 0 0 0 0 137.67923902505376 48.54616446578882 0 48.54616446578882 -366.14834709838033 0 0 0 0 -103.59254625980864 162.18911561290224 0 162.18911561290224 -352.24965288328212 0 0 0 0 -143.80153961505175 336.29974729580135 0 336.29974729580135 -119.79648328698386 0 0 0 0 -458.76221910266349 14.136758476946852 0 14.136758476946852 257.98438917385647 0 0 0 0 -1.6499852967781059 -2.7451829944278128 0 -2.7451829944278128 89.771875365777134 0 0 0 0 -371.97900676542497 157.62142344788572 0 157.62142344788572 269.68640536574821 0 0 0 0 212.70656418961664 144.97452574333693 0 144.97452574333693 -233.15664701264177 0 0 0 0 -171.63970197614594 9.4657685109596059 0 9.4657685109596059 22.934310012758942 0 0 0 0 -0.082892131509766986 6.927269439464304 0 6.927269439464304 19.847194099095162 0 0 0 0 -86.823741732317501 29.7497608656995 0 29.7497608656995 19.988227390138491 0 0 0 0 120.73582099971341 -73.566536954756884 0 -73.566536954756884 -32.132126884629542 0 0 0 0 -217.7381786165098 -288.73407211361337 0 -288.73407211361337 555.42913958223653 0 0 0 0 977.08466245463376 354.27824118643184 0 354.27824118643184 -435.88234782472136 0 0 0 0 612.05782259701482 -859.15224642553949 0 -859.15224642553949 882.84584417022415 0 0 0 0 498.4637022965457 419.20497026083012 0 419.20497026083012 -291.56199903448578 0 0 0 0 -299.82510642994953 250.18573497780017 0 250.18573497780017 -31.195284190034727 0 0 0 0 -189.10108175038386 172.55488628694729 0 172.55488628694729 -161.67441267463437 0 0 0 0 -224.63597865048422 99.742272244129708 0 99.742272244129708 102.063298156776 0 0 0 0 -159.12035784958277 15.473549911908776 0 15.473549911908776 7.2177368105622008 0 0 0 0 -99.884086901271075 -61.571114005550044 0 -61.571114005550044 -26.754573867583531 0 0 0 0 -123.74398132238525 34.073543284059269 0 34.073543284059269 -201.3915145097817 0 0 0 0 -151.47688168623756 -54.388353471411392 0 -54.388353471411392 -65.997663447953528 0 0 0 0 -60.378691125999467 -41.084703097425518 0 -41.084703097425518 95.629707850341219 0 0 0 0 -101.73123984436324 3.4033543284167536 0 3.4033543284167536 191.09737844785559 0 0 0 0 -121.95609284867896 -1.7512825492449338 0 -1.7512825492449338 100.96274186841765 0 0 0 0 -120.04136904937752 19.769837478859699 0 19.769837478859699 -30.295458490320016 0 0 0 0 -102.0475576543928 9.2082096163221649 0 9.2082096163221649 85.675502812082414 0 0 0 0 -63.322764523937508 -24.642461594070483 0 -24.642461594070483 13.573464564222377 0 0 0 0 -66.988334558335282 -78.043631408552756 0 -78.043631408552756 45.353715111476049 0 0 0 0 -59.672485055848824 -46.704538489888364 0 -46.704538489888364 101.19737827181234 0 0 0 0 -15.758223566262814 -78.693378905853024 0 -78.693378905853024 47.165505140685127 0 0 0 0 -18.446925556530005 -81.667793793756573 0 -81.667793793756573 26.891518311851542 0 0 0 0 -54.37562546251894 -62.015934785653371 0 -62.015934785653371 52.52468337121536 0 0 0 0 -88.001708062874741 -39.390093022917426 0 -39.390093022917426 13.374451773066539 0 0 0 0 -50.533864248336045 -59.733498934838281 0 -59.733498934838281 38.32352634450217 0 0 0 0 -62.482156132080831 -77.678457966510905 0 -77.678457966510905 50.631114996293036 0 0 0 0 -125.93427401845747 -64.82577172719175 0 -64.82577172719175 49.636707967736584 0 0 0 0 -96.563166251109465 -40.107812330810702 0 -40.107812330810702 18.523031979806547 0 0 0 0 -168.23960510649727 -39.318721077521332 0 -39.318721077521332 26.344969211641001 0 0 0 0 -121.80526942545376 -51.722009605829953 0 -51.722009605829953 54.342446631082566 0 0 0 0 -54.442831784265778 -44.974318174481596 0 -44.974318174481596 78.468010311386024 0 0 0 0 -112.81662661671459 -43.568066023777646 0 -43.568066023777646 61.73602247472445 0 0 0 0 -46.016525132545269 -39.32825743691501 0 -39.32825743691501 61.975001525623156 0 0 0 0 -22.838389830694553 -79.23095176985953 0 -79.23095176985953 42.988722722009697 0 0 0 0 -21.415037156291078 -70.334340166693437 0 -70.334340166693437 46.994419947805 0 0 0 0 -53.480140192555496 -70.389816179394984 0 -70.389816179394984 58.961028929908935 0 0 0 0 -22.191831586921051 -52.138543121885959 0 -52.138543121885959 69.02425292339467 0 0 0 0 -20.852541154097196 -64.186149682755058 0 -64.186149682755058 44.243806314440008 0 0 0 0 -33.183689130479479 -49.51416677475936 0 -49.51416677475936 68.534106254151993 0 0 0 0 -17.879559554324366 -37.777756782463143 0 -37.777756782463143 77.441477308588219 0 0 0 0 -17.024063342771967 -24.800633434911106 0 -24.800633434911106 89.184445364931889 0 0 0 0 -27.999731866960929 -22.541551438618626 0 -22.541551438618626 90.596172783218208 0 0 0 0 -3.7854976427631293 11.954584835433707 0 11.954584835433707 109.14105253620073 0 0 0 0 -25.940519753002757 -17.676341622711334 0 -17.676341622711334 93.403449561115849 0 0 0 0 -10.708886528381132 10.744504793532542 0 10.744504793532542 99.428733423756057 0 0 0 0 21.909226432588412 -14.456510985452041 0 -14.456510985452041 112.40035952699691 0 0 0 0 -25.729079057631907 -11.064381074873381 0 -11.064381074873381 37.369563939137151 0 0 0 0 -12.443687493247117 -3.8499277679586079 0 -3.8499277679586079 71.50791878371291 0 0 0 0 -10.0390642822911 -7.3769698176220686 0 -7.3769698176220686 88.623409222448572 0 0 0 0 -10.225476445070475 -9.0623377856173875 0 -9.0623377856173875 70.470820743452464 0 0 0 0 -22.623364122500675 35.080709406585811 0 35.080709406585811 102.22841325572517 0 0 0 0 -107.80669964295727 -147.76431159733693 0 -147.76431159733693 114.2697864380134 0 0 0 0 -1.4856099238620231 3.3423080300726493 0 3.3423080300726493 93.647670218904921 0 0 0 0 -0.10239954478055965 -1.6708350144280715 0 -1.6708350144280715 32.040455225960983 0 0 0 0 -170.61135164733872 84.76833339094992 0 84.76833339094992 88.369820866006194 0 0 0 0 -52.19515369979861 -2.8101862889752738 0 -2.8101862889752738 85.610229816113133 0 0 0 0 -16.747085582156778 -6.9966931441376801 0 -6.9966931441376801 38.100068723571894 0 0 0 0 -16.285779960297582 -11.603462115566799 0 -11.603462115566799 80.456606449311948 0 0 0 0 -4.8556800988072837 58.639978826533479 0 58.639978826533479 -31.48663315511476 0 0 0 0 -87.699465671242478 146.26854848763469 0 146.26854848763469 67.146068211215606 0 0 0 0 3.3154235072068445 79.782564178254688 0 79.782564178254688 23.172070898770471 0 0 0 0 -25.207777056062639 71.497547485952964 0 71.497547485952964 21.428231903875712 0 0 0 0 -10.195038320245841 5.2625599232656839 0 5.2625599232656839 9.0415892318618631 0 0 0 0 26.424149033207641 -9.8561074241079041 0 -9.8561074241079041 34.840728296720044 0 0 0 0 -64.613229663529381 190.86511165517186 0 190.86511165517186 105.67973423068179 0 0 0 0 -0.50514028401402067 -7.2466332177139066 0 -7.2466332177139066 12.797573901219494 0 0 0 0 44.114075158758624 -26.568598505036789 0 -26.568598505036789 50.525836296525085 0 0 0 0 -2.1641629678616834 1.6119841575737723 0 1.6119841575737723 -2.3203063072279093 0 0 0 0 308.60038337172296 -203.21155365603045 0 -203.21155365603045 91.950303788192741 0 0 0 0 13.44482796268133 -3.1803122835335671 0 -3.1803122835335671 -11.457943213921681 0 0 0 0 -128.07024045385629 -93.780078572337516 0 -93.780078572337516 160.87835662660655 0 0 0 0 0.1507672809880205 -7.7560429146270025 0 -7.7560429146270025 12.410258269121471 0 0 0 0 0.81600223684614548 -22.344682316892431 0 -22.344682316892431 -8.2795254111842951 0 0 0 0 -0.23254148482967263 -4.3238413707481556 0 -4.3238413707481556 1.5419052701997202 0 0 0 0 112.40032617491494 22.760963297336275 0 22.760963297336275 -265.1408430635347 0 0 0 0 -196.21907510961046 261.52777087126742 0 261.52777087126742 -257.92419068625895 0 0 0 0 -21.233156268309699 214.97144944555475 0 214.97144944555475 -67.772389885722077 0 0 0 0 61.46380077555942 -14.079858598830469 0 -14.079858598830469 170.9791853658171 0 0 0 0 25.121159000614362 131.13689438385154 0 131.13689438385154 352.89541889245447 0 0 0 0 0.51095587275382193 -2.475489948590635 0 -2.475489948590635 2.8106361577268331 0 0 0 0 34.388687891041883 -53.091528686290076 0 -53.091528686290076 472.57478042639559 0 0 0 0 196.1404413936425 -74.368573555941111 0 -74.368573555941111 141.96211177117948 0 0 0 0 54.53805141443587 -105.09090657651177 0 -105.09090657651177 -9.858788844459923 0 0 0 0 -65.043460698597471 13.790333025288419 0 13.790333025288419 827.32101261496427 0 0 0 0 -35.75815624289703 62.735958132354426 0 62.735958132354426 534.78676247137628 0 0 0 0 -43.675712410502172 -174.81127629623734 0 -174.81127629623734 1152.1690663634217 0 0 0 0 213.67379527356286 -164.09352033702453 0 -164.09352033702453 512.84038932708427 0 0 0 0 2.5444974142180286 9.2607185862652841 0 9.2607185862652841 679.39427876046102 0 0 0 0 103.82219178296782 -60.398327175127633 0 -60.398327175127633 140.28336464563472 0 0 0 0 -4.9986769547724776 190.33615753080812 0 190.33615753080812 90.62418106765108 0 0 0 0 139.05489882764829 119.19996509698831 0 119.19996509698831 -29.105271429122467 0 0 0 0 -279.84951181729338 -1350.538658394702 0 -1350.538658394702 3495.4694276947612 0 0 0 0 376.27833625500534 -343.62241347240342 0 -343.62241347240342 91.028607480920982 0 0 0 0 273.24680739807616 -511.08429022866767 0 -511.08429022866767 753.47092030585918 0 0 0 0 126.94300928962821 -443.09247274800146 0 -443.09247274800146 1009.40664485257 0 0 0 0 1046.0819182800278 -1850.6405461621944 0 -1850.6405461621944 1786.7349538667622 0 0 0 0 -395.42065953225841 -611.96054719063977 0 -611.96054719063977 2160.128919591034 0 0 0 0 -89.679249177956308 -699.88851212200825 0 -699.88851212200825 2106.6443087880398 0 0 0 0 -164.43074230354114 -104.91283234443699 0 -104.91283234443699 1191.8192365466384 0 0 0 0 -145.86447428777825 -217.33229872542506 0 -217.33229872542506 1452.7247972481273 0 0 0 0 -320.84421791450626 -22.73117215849561 0 -22.73117215849561 2259.8176918880199 0 0 0 0 -116.77757206774857 -57.654196965115261 0 -57.654196965115261 1765.8708691183474 0 0 0 0 -146.34983381028803 136.95355143641245 0 136.95355143641245 3249.374639412621 0 0 0 0 -180.66232712899148 -243.21626805900814 0 -243.21626805900814 2933.7501247446926 0 0 0 0 -203.19448117218371 -442.37052526217303 0 -442.37052526217303 2171.4091813564573 0 0 0 0 -381.62256026556958 -711.08902953313736 0 -711.08902953313736 2729.5134202232075 0 0 0 0 -416.37819174580545 -685.0294901863781 0 -685.0294901863781 3011.4261896142416 0 0 0 0 -0.58702610779128284 -134.18820323722503 0 -134.18820323722503 2904.0107089835255 0 0 0 0 -282.60584526377028 -309.38524175311977 0 -309.38524175311977 3499.0502194330297 0 0 0 0 302.40807502356745 -94.000197951481823 0 -94.000197951481823 2626.3729633994662 0 0 0 0 129.51084616611314 -358.53392435802016 0 -358.53392435802016 2746.2731617569807 0 0 0 0 561.24194584861357 1357.6578454955306 0 1357.6578454955306 2644.135101232554 0 0 0 0 0.77261442002839131 -2.5959036092764194 0 -2.5959036092764194 6.6406325143067022 0 0 0 0 -46.979223504857671 -54.811012762162136 0 -54.811012762162136 2633.2652921978352 0 0 0 0 -0.0019311566060867592 -3.1481461535477138 0 -3.1481461535477138 0.44770388811593875 0 0 0 0 -0.085648486725268036 -0.52532318153210156 0 -0.52532318153210156 3.761965589472311 0 0 0 0 -1.3970512237346151 -3.4429891076288186 0 -3.4429891076288186 0.6495203075101017 0 0 0 0 0.010929483489306474 -1.7082417289522311 0 -1.7082417289522311 4.7598397301084674 0 0 0 0 11.673695699995733 32.308915705376421 0 32.308915705376421 50.698245829593361 0 0 0 0 -2.7507753281611174 -9.673841037287275 0 -9.673841037287275 -4.7296677462290972 0 0 0 0 52.40001373838286 -62.888866818331735 0 -62.888866818331735 -16.590673553175293 0 0 0 0 -27.708772094216556 -13.182206343284633 0 -13.182206343284633 76.567289703081769 0 0 0 0 243.39139864746699 339.68300151426956 0 339.68300151426956 983.09505115459615 0 0 0 0 -37.109845079732168 446.76752350326569 0 446.76752350326569 1645.5479339736557 0 0 0 0 0.73807509038266006 -5.5674425550538178 0 -5.5674425550538178 -0.17271598077786621 0 0 0 0 141.28700860275939 559.46275436303301 0 559.46275436303301 611.07688732285169 0 0 0 0 -28.978131660877004 -39.168186648340452 0 -39.168186648340452 9.512570900231367 0 0 0 0 2.3372351041521595 -8.0540393974575721 0 -8.0540393974575721 14.063755598350326 0 0 0 0 172.61091100781096 385.95363933581393 0 385.95363933581393 956.3381999937701 0 0 0 0 -144.39524033687462 251.35117083552177 0 251.35117083552177 1275.2152710019545 0 0 0 0 -6.2282210213022609 146.4931405523821 0 146.4931405523821 928.56318190591992 0 0 0 0 23.054632823883423 265.86640593982702 0 265.86640593982702 708.22755172391771 0 0 0 0 -84.951200434001976 54.190409220420406 0 54.190409220420406 668.57277364422771 0 0 0 0 -3.3480509153542926 -6.6725300504549523 0 -6.6725300504549523 9.3606267969298642 0 0 0 0 -17.774004152931184 195.18076998321339 0 195.18076998321339 452.51596870017238 0 0 0 0 0.49163435826459789 -4.4975601613090816 0 -4.4975601613090816 10.407793504478121 0 0 0 0 47.393522340511481 -24.969912935230241 0 -24.969912935230241 201.78318265136477 0 0 0 0 3.8611737017135441 -7.2655627879290421 0 -7.2655627879290421 8.6878460284537198 0 0 0 0 -30.978276800485219 -6.5927250901077059 0 -6.5927250901077059 30.627696413983358 0 0 0 0 0.61293599240824115 -5.4643479794010288 0 -5.4643479794010288 10.883741662696593 0 0 0 0 -19.625968745358477 3.5624867143342271 0 3.5624867143342271 34.30175350180798 0 0 0 0 -9.7498389157287306 -12.611094485771901 0 -12.611094485771901 11.187665060162544 0 0 0 0 5.1959647453340381 -2.1714098077645758 0 -2.1714098077645758 15.5001712936064 0 0 0 0 -15.014941232045427 -16.65973516964732 0 -16.65973516964732 4.0170821705796698 0 0 0 0 -1.5404554085360016 -0.12831012604310388 0 -0.12831012604310388 4.7680345109056361 0 0 0 0 -9.5462567888550254 6.8528865184183019 0 6.8528865184183019 10.776759654967464 0 0 0 0 0.30484124942890822 -4.0160825993694536 0 -4.0160825993694536 8.5420942729564331 0 0 0 0 2.9734280107962263 -6.0841159065712418 0 -6.0841159065712418 6.9793384761142079 0 0 0 0 0.86868927779858041 -6.2915790828847094 0 -6.2915790828847094 9.8254449614105397 0 0 0 0 1.8392532361643248 -5.8888965039950563 0 -5.8888965039950563 12.037542870035395 0 0 0 0 1.9712782944901051 -5.361640592389449 0 -5.361640592389449 8.4912315385590773 0 0 0 0 5.0738999706083021 -8.7965041061033844 0 -8.7965041061033844 10.02467752317898 0 0 0 0 2.6668005532709458 -2.5309503109019715 0 -2.5309503109019715 7.9747704284382053 0 0 0 0 9.4478528964881434 -5.3981843110595946 0 -5.3981843110595946 4.7431606002551234 0 0 0 0 1.0922981684452076 -0.94491288083025893 0 -0.94491288083025893 4.8022472970420154 0 0 0 0 0.3427144246822319 0.40100775709215952 0 0.40100775709215952 2.9891669927461635 0 0 0 0 -0.33143994398466647 -1.0662858851692143 0 -1.0662858851692143 6.0751753056562166 0 0 0 0 -28.950577359840878 -15.83636880175618 0 -15.83636880175618 8.657584950360615 0 0 0 0 -4.1415953608183145 0.7708202493522549 0 0.7708202493522549 7.0679599532013526 0 0 0 0 11.435606445251185 -12.716945247433614 0 -12.716945247433614 0.28510439901583595 0 0 0 0 8.3860132485210777 13.266520871744433 0 13.266520871744433 16.970867385243764 0 0 0 0 -1.3835295827147203 -2.0667018893218483 0 -2.0667018893218483 10.47860693479015 0 0 0 0 -0.0088715503034269803 -4.1833133930844433 0 -4.1833133930844433 0.91331798752071336 0 0 0 0 4.3395142757361818 -1.2800640603818465 0 -1.2800640603818465 -4.5404127211950254 0 0 0 0 -95.021096499418491 -377.42129441562975 0 -377.42129441562975 614.46080007748424 0 0 0 0 -96.869148515571396 -170.42155746480603 0 -170.42155746480603 416.28005771529934 0 0 0 0 -94.70374235029027 -378.83909485584127 0 -378.83909485584127 615.72429157614897 0 0 0 0 162.9339044549406 -463.73165858401808 0 -463.73165858401808 265.32827063688819 0 0 0 0 23.74420496055302 -107.18598529160749 0 -107.18598529160749 28.106062468148593 0 0 0 0 47.518305344589749 -205.66123768922125 0 -205.66123768922125 273.05809715233045 0 0 0 0 -71.841269865419235 -72.67197190763909 0 -72.67197190763909 324.10809621810949 0 0 0 0 37.687943456000539 -74.169760920749468 0 -74.169760920749468 315.62221098576083 0 0 0 0 57.418796281008781 -146.60954503046923 0 -146.60954503046923 335.58186340386965 0 0 0 0 -25.15749352652756 -111.73412346479836 0 -111.73412346479836 500.49292448057895 0 0 0 0 143.59262641447822 -117.99559338067775 0 -117.99559338067775 499.13801808675271 0 0 0 0 34.307057577930664 -250.00578867318382 0 -250.00578867318382 683.60698160455649 0 0 0 0 -98.405567839649336 -152.22017459096185 0 -152.22017459096185 543.9310633083951 0 0 0 0 -23.057747002570068 -12.868676165460784 0 -12.868676165460784 756.58048419920851 0 0 0 0 -221.77244626608945 -272.75799878825364 0 -272.75799878825364 585.1253045714584 0 0 0 0 -279.34077894554866 -298.73445525847637 0 -298.73445525847637 890.26242972168802 0 0 0 0 -7.9935945874667595 -384.08130681574403 0 -384.08130681574403 446.2196099134344 0 0 0 0 -252.48011626830521 -55.595684934356541 0 -55.595684934356541 268.77658707217779 0 0 0 0 -350.63771337139042 -194.85912362851195 0 -194.85912362851195 594.90074609261865 0 0 0 0 -107.4328719284722 69.383590751005613 0 69.383590751005613 924.09494897994773 0 0 0 0 2.018282274265454 -2.0142277337599772 0 -2.0142277337599772 2.0422457877388567 0 0 0 0 25.728275449244848 -189.45662887681578 0 -189.45662887681578 69.651744308150228 0 0 0 0 -75.220575790008297 118.25938718635916 0 118.25938718635916 -130.35765560084656 0 0 0 0 -3.2850064299789246 -0.02759748684981389 0 -0.02759748684981389 2.1409707081700868 0 0 0 0 -67.695101023231473 38.094912072847364 0 38.094912072847364 -40.458721141754722 0 0 0 0 -106.13847412199721 62.992771194109082 0 62.992771194109082 40.384468296532305 0 0 0 0 -185.31028853970383 -156.54739530625375 0 -156.54739530625375 286.2116121758736 0 0 0 0 -481.42849988523449 -6.9448381428919674 0 -6.9448381428919674 328.38472194848964 0 0 0 0 -59.474810512247586 -23.818770266736465 0 -23.818770266736465 120.00666693930543 0 0 0 0 -287.36351012403793 183.71390805315605 0 183.71390805315605 23.228075916154921 0 0 0 0 -281.31176496943999 -58.870564295204531 0 -58.870564295204531 12.965102128331637 0 0 0 0 -351.47203452715758 51.823732278336138 0 51.823732278336138 570.53815435374781 0 0 0 0 -123.24270634199365 87.816181101685288 0 87.816181101685288 260.91695381194586 0 0 0 0 -258.4708110922038 -267.1283158853621 0 -267.1283158853621 511.98277808614148 0 0 0 0 -253.84062373685765 -224.71966898185565 0 -224.71966898185565 607.30364966779234 0 0 0 0 -268.85524819084276 -344.2097083306835 0 -344.2097083306835 728.88733649585629 0 0 0 0 -234.29024065427507 -346.31872978993124 0 -346.31872978993124 1099.8165411874179 0 0 0 0 52.55948676802609 -451.74890896995475 0 -451.74890896995475 643.79040269703364 0 0 0 0 -82.274633819793507 147.06480619967078 0 147.06480619967078 652.47117187321146 0 0 0 0 -87.647406238852909 188.22638051299509 0 188.22638051299509 1731.1202689968327 0 0 0 0 -13.84985692393343 -1018.9992917899699 0 -1018.9992917899699 1109.6188518465015 0 0 0 0 47.987818137670615 -16.114282527742944 0 -16.114282527742944 1272.2987664714219 0 0 0 0 586.21912105893875 229.37795259149789 0 229.37795259149789 621.77264953815393 0 0 0 0 172.62572778401864 -754.36910399709268 0 -754.36910399709268 1397.0714787693069 0 0 0 0 919.90317281028433 -483.36793154404313 0 -483.36793154404313 406.74596723989816 0 0 0 0 -308.39853950712768 1.756721587427819 0 1.756721587427819 223.99218422176773 0 0 0 0 576.38357066731078 -744.87505534736465 0 -744.87505534736465 -171.34133329472547 0 0 0 0 63.436883148150855 -194.78393620015777 0 -194.78393620015777 613.23441081479541 0 0 0 0 10.007951687195373 -29.203417090574476 0 -29.203417090574476 128.4877003800575 0 0 0 0 147.79613563023079 221.54443639125566 0 221.54443639125566 256.81603396340324 0 0 0 0 -304.20341237376687 -292.77511398878755 0 -292.77511398878755 -22.896695759871363 0 0 0 0 -176.87737960976392 104.61971337492832 0 104.61971337492832 290.39029215306982 0 0 0 0 -197.19961006849906 -6.0015111974878437 0 -6.0015111974878437 93.159506701427745 0 0 0 0 -83.198872009685147 72.838297369444263 0 72.838297369444263 36.248398996254764 0 0 0 0 -21.035524986067685 177.08297891404436 0 177.08297891404436 91.047884813786368 0 0 0 0 -29.989271858256682 94.709501312301768 0 94.709501312301768 166.56530488823046 0 0 0 0 37.191575385821579 253.74252356510624 0 253.74252356510624 -28.415845410510883 0 0 0 0 70.232527170468359 117.23110436421484 0 117.23110436421484 -235.73184796793066 0 0 0 0 -8.4630546550429173 4.4031531862082645 0 4.4031531862082645 0.40627152706271108 0 0 0 0 -14.435460591914307 32.556724534953901 0 32.556724534953901 13.344747932605515 0 0 0 0 -5.9261268602728574 9.7894732930901966 0 9.7894732930901966 4.6019353910511605 0 0 0 0 -85.966674309400332 69.11574647126281 0 69.11574647126281 93.764997862377641 0 0 0 0 -3.9506446324472826 4.8119104704654632 0 4.8119104704654632 -0.29365315612076159 0 0 0 0 52.008057458683652 -70.202436888172087 0 -70.202436888172087 255.36020939996797 0 0 0 0 347.27324264323488 -160.1442603767955 0 -160.1442603767955 -296.15198860771488 0 0 0 0 -62.262075957395155 55.561006959969745 0 55.561006959969745 183.67937839315891 0 0 0 0 270.7353394844838 -119.85899399424716 0 -119.85899399424716 243.42146261690868 0 0 0 0 -1.8408052191324336 2.1270480146705495 0 2.1270480146705495 -0.75225011911107753 0 0 0 0 -13.972178524255014 15.328929883169621 0 15.328929883169621 56.350273536309032 0 0 0 0 -3.4498818098636548 -20.470258058074251 0 -20.470258058074251 10.300714729371975 0 0 0 0 5.0437091208291349 29.980168145886637 0 29.980168145886637 14.864005876295778 0 0 0 0 25.462570523459362 -72.309961209525682 0 -72.309961209525682 81.419264430776821 0 0 0 0 -9.0477620156117631 6.6301376340258003 0 6.6301376340258003 3.9476866668946009 0 0 0 0 -6.5623648833921422 5.8272179253855469 0 5.8272179253855469 7.1274152515582898 0 0 0 0 14.833624529481199 27.220520635920366 0 27.220520635920366 -24.331105154062243 0 0 0 0 -5.8762895642962576 9.4073882834218239 0 9.4073882834218239 4.7259995913118473 0 0 0 0 -11.599676917558099 6.6041631231673819 0 6.6041631231673819 5.33033918273577 0 0 0 0 -10.113645817220686 4.2932467022051242 0 4.2932467022051242 17.808997147096306 0 0 0 0 -7.4472823496168594 5.577171973543841 0 5.577171973543841 -1.8173214158662283 0 0 0 0 -7.8078267639289152 7.6653452194582314 0 7.6653452194582314 21.237673197541881 0 0 0 0 -5.5203882428213547 5.117047444166019 0 5.117047444166019 5.4957478954293038 0 0 0 0 -8.7310110324834298 7.8540173903437278 0 7.8540173903437278 3.6899266831548569 0 0 0 0 -9.4700363833600107 4.3772193295559632 0 4.3772193295559632 2.4422855920234205 0 0 0 0 -12.67300988251236 7.4715572325767425 0 7.4715572325767425 8.0108656831807821 0 0 0 0 -15.453917920667152 7.6632320790554331 0 7.6632320790554331 16.783451965126005 0 0 0 0 -9.7592749350871841 5.7799282812380923 0 5.7799282812380923 6.2642505513949409 0 0 0 0 -8.7553025755523777 4.4424991403193417 0 4.4424991403193417 9.159672571475312 0 0 0 0 -10.043135042524682 9.5879275612824131 0 9.5879275612824131 5.7555286435381277 0 0 0 0 -6.225216172682849 6.3295646134502022 0 6.3295646134502022 11.877772579611701 0 0 0 0 -10.250236243971358 4.9110658861791308 0 4.9110658861791308 11.760485241195056 0 0 0 0 -8.231725157551864 3.5358887922629947 0 3.5358887922629947 9.5328751557353826 0 0 0 0 -11.494312401775623 7.5681728558137138 0 7.5681728558137138 7.4328617512801429 0 0 0 0 -4.828322787509042 -1.1500542921623165 0 -1.1500542921623165 9.2780554695005222 0 0 0 0 -9.4413143447327457 3.7101259380906413 0 3.7101259380906413 8.3788708118227078 0 0 0 0 -11.517195060026097 6.570233765816738 0 6.570233765816738 9.5880838436669364 0 0 0 0 -9.2051136290862132 4.8080076185688085 0 4.8080076185688085 4.8645283195000957 0 0 0 0 25.794590695306397 76.127808601177094 0 76.127808601177094 168.69104500902358 0 0 0 0 51.55919893504597 40.353625726562314 0 40.353625726562314 188.82308614364956 0 0 0 0 -3.7981400341686822 66.540216805928139 0 66.540216805928139 353.529235796188 0 0 0 0 17.730299991809261 -62.664811195914808 0 -62.664811195914808 300.77592594158341 0 0 0 0 0.17827058566673948 0.15683719150904452 0 0.15683719150904452 0.93740507708537102 0 0 0 0 -1.4043032382892147 0.083908304052105365 0 0.083908304052105365 0.78022568832612649 0 0 0 0 11.714028680244155 -96.620046556201487 0 -96.620046556201487 430.69807441224839 0 0 0 0 -20.44079163810602 -63.919756907187548 0 -63.919756907187548 205.98167162274331 0 0 0 0 72.084035056109315 -13.281180318192128 0 -13.281180318192128 201.64134456677857 0 0 0 0 -6.4754701207864542 5.0763310926808849 0 5.0763310926808849 -0.17795961302985752 0 0 0 0 -9.6129501342393269 1.7426940796376584 0 1.7426940796376584 171.4107177496553 0 0 0 0 -27.438693096450152 0.1220599062708061 0 0.1220599062708061 243.62158573780653 0 0 0 0 8.1666660672646074 0.62110196739284973 0 0.62110196739284973 -0.26794693513891321 0 0 0 0 9.980517080068239 -12.95834279828523 0 -12.95834279828523 130.25785731758515 0 0 0 0 11.189280817377039 -71.966644481763979 0 -71.966644481763979 93.873689991934953 0 0 0 0 220.37408256814615 56.971133474178714 0 56.971133474178714 -211.27878952151877 0 0 0 0 -43.753784893779084 -17.711919996359939 0 -17.711919996359939 167.40298391332908 0 0 0 0 -86.24907531613826 -65.842268619529932 0 -65.842268619529932 190.77240816411904 0 0 0 0 -69.991845734230083 213.97927182932835 0 213.97927182932835 198.98482410697261 0 0 0 0 -20.444273182867249 -319.28009546563601 0 -319.28009546563601 446.32479914484429 0 0 0 0 -27.765403067573516 91.950789979392084 0 91.950789979392084 175.31460535588485 0 0 0 0 13.339748492318904 39.933652907066971 0 39.933652907066971 115.95405508796102 0 0 0 0 -17.855196088054072 -4.430031702902852 0 -4.430031702902852 197.96101733825344 0 0 0 0 -5.804480190879076 8.8715817297834292 0 8.8715817297834292 138.39939390867767 0 0 0 0 21.337016379622582 106.43730600251183 0 106.43730600251183 84.921636783545182 0 0 0 0 5.4125653704806602 1.6805046864385034 0 1.6805046864385034 -0.1826243482659855 0 0 0 0 -28.511606598797698 137.41036174846704 0 137.41036174846704 166.0780733244419 0 0 0 0 8.9050258284987649 83.887296786208935 0 83.887296786208935 156.29431990633566 0 0 0 0 -54.08228300133851 88.052713176256475 0 88.052713176256475 261.84429998823907 0 0 0 0 1.9045788957230698 2.0345717101362091 0 2.0345717101362091 -0.10523081106062016 0 0 0 0 -9.1127735602440225 -12.059318382775018 0 -12.059318382775018 229.77936424015206 0 0 0 0 -96.822435616310486 22.900696517760935 0 22.900696517760935 325.31843228867365 0 0 0 0 30.963696070630249 93.142972478242882 0 93.142972478242882 236.02423009202903 0 0 0 0 -49.608331750139769 -4.5684769013205369 0 -4.5684769013205369 150.32127690868583 0 0 0 0 -36.932491199248034 41.012542822289106 0 41.012542822289106 263.01350983977181 0 0 0 0 -3.6611308794576871 -25.224303281707307 0 -25.224303281707307 154.35106957914832 0 0 0 0 19.972209607023615 -11.474963633963853 0 -11.474963633963853 56.916484167315502 0 0 0 0 -10.101978466735577 5.0363729323078772 0 5.0363729323078772 4.9629375297501319 0 0 0 0 -14.369026646207203 4.5472785190650029 0 4.5472785190650029 8.5586717662881711 0 0 0 0 -6.0125080171561649 -4.9666477220641205 0 -4.9666477220641205 17.108813909676407 0 0 0 0 -53.848345864596922 11.917960890063114 0 11.917960890063114 150.13192033258406 0 0 0 0 16.785144212852174 34.046777204541286 0 34.046777204541286 31.083610949724971 0 0 0 0 -16.236202512627209 10.952241676071914 0 10.952241676071914 0.88012915838184114 0 0 0 0 -15.751489207286244 5.6789562184172304 0 5.6789562184172304 6.3561221229275393 0 0 0 0 -2.0887343759497945 -0.39141619310522202 0 -0.39141619310522202 3.6150747363071147 0 0 0 0 -8.9779806017613737 -3.4608504620118765 0 -3.4608504620118765 32.952904167235829 0 0 0 0 1.3915209049828263 -20.282592888563158 0 -20.282592888563158 -6.2428293657139875 0 0 0 0 20.578750576681614 -14.981867742979375 0 -14.981867742979375 1.29714946508102 0 0 0 0 15.870958340949983 -74.328601586046716 0 -74.328601586046716 91.488882668672886 0 0 0 0 -7.9989821024237244 -18.179540670909773 0 -18.179540670909773 169.38086151145581 0 0 0 0 -40.571341653982927 -6.4883438370998192 0 -6.4883438370998192 76.299596609496803 0 0 0 0 26.850630366340738 -13.414299442958509 0 -13.414299442958509 -9.2144886408714228 0 0 0 0 5.5429473489248267 38.906189064367936 0 38.906189064367936 -18.495592913597648 0 0 0 0 -35.632272898877545 -97.014678708167594 0 -97.014678708167594 338.95068173382606 0 0 0 0 41.4858399717682 -66.575789985899974 0 -66.575789985899974 159.70857960588546 0 0 0 0 10.008400356266748 -70.218588208674191 0 -70.218588208674191 145.50770991940954 0 0 0 0 -47.301478055052939 47.949883906170726 0 47.949883906170726 111.72498875230212 0 0 0 0 -130.97372184238338 -102.30482666748867 0 -102.30482666748867 153.36990623125166 0 0 0 0 -65.019373680496756 -56.762845219675 0 -56.762845219675 46.592905383338802 0 0 0 0 -32.037080531007007 6.1056885373941441 0 6.1056885373941441 11.441166053081396 0 0 0 0 -84.341877762744843 20.606711011718289 0 20.606711011718289 61.296560283381041 0 0 0 0 -25.072617844900378 14.821204843896339 0 14.821204843896339 72.000615075441601 0 0 0 0 18.755604897051853 -8.8021982798836689 0 -8.8021982798836689 -12.731242465029936 0 0 0 0 19.693627178252278 -75.696002666082819 0 -75.696002666082819 124.72743107945644 0 0 0 0 -39.57541155463224 2.2207001675017537 0 2.2207001675017537 10.161853597296936 0 0 0 0 -91.040987429670167 -103.11553055973968 0 -103.11553055973968 333.40542267684214 0 0 0 0 -15.439300556150556 15.604921348207426 0 15.604921348207426 44.931041644784273 0 0 0 0 -40.512405162848154 -15.662208003652268 0 -15.662208003652268 247.5749982524103 0 0 0 0 -35.182530989081897 26.28982612746313 0 26.28982612746313 178.92483079992962 0 0 0 0 -148.44186768990949 -39.442270089133217 0 -39.442270089133217 271.16721632595727 0 0 0 0 -105.0774187704169 -25.844984390962054 0 -25.844984390962054 266.45738515660923 0 0 0 0 8.4050926210693433 -40.963585933934155 0 -40.963585933934155 248.9965502111063 0 0 0 0 -49.96235194049541 -220.86322222669151 0 -220.86322222669151 345.20848610036228 0 0 0 0 -47.581042696787534 -2.790106843121464 0 -2.790106843121464 7.5708227199167979 0 0 0 0 4.726436709551308 -76.453267335375131 0 -76.453267335375131 92.673511297123696 0 0 0 0 18.118240183088346 -27.061998610844967 0 -27.061998610844967 36.305948163466383 0 0 0 0 -24.398177732481599 -97.680224934230864 0 -97.680224934230864 110.39301346837601 0 0 0 0 -55.276517243658624 -6.2238067670489485 0 -6.2238067670489485 5.1035902481531643 0 0 0 0 -33.654315367628442 -134.18708880661688 0 -134.18708880661688 170.59718288782096 0 0 0 0 -38.110371747068712 -166.95038807017954 0 -166.95038807017954 113.08822769507242 0 0 0 0 1.9545720554260697 -150.14065576182293 0 -150.14065576182293 115.58050809815904 0 0 0 0 19.748194802662965 -151.28721851593582 0 -151.28721851593582 96.933225444267009 0 0 0 0 50.208401212775243 -94.893976268995175 0 -94.893976268995175 103.02586241185782 0 0 0 0 1.4519495953023238 -101.57724214202119 0 -101.57724214202119 107.96471649096929 0 0 0 0 -1.8282785633264211 -118.71313287819248 0 -118.71313287819248 151.27700487302718 0 0 0 0 -48.053895030558124 -70.030668074296045 0 -70.030668074296045 319.20046175349853 0 0 0 0 48.020223595142852 -110.65666017496733 0 -110.65666017496733 148.87606513509672 0 0 0 0 39.163899026149011 -98.639704412777064 0 -98.639704412777064 330.43017420613614 0 0 0 0 56.299996533056401 -52.479157517109343 0 -52.479157517109343 316.16503353451844 0 0 0 0 109.95326853892857 -107.72047996377114 0 -107.72047996377114 160.98336731092058 0 0 0 0 60.75564463138744 -43.306112487698556 0 -43.306112487698556 149.90166952310392 0 0 0 0 56.95725829490766 -116.66400464554135 0 -116.66400464554135 188.86393528649387 0 0 0 0 68.246341010298465 -40.911818133630277 0 -40.911818133630277 112.21792804726283 0 0 0 0 41.343577140915841 -123.95929736256039 0 -123.95929736256039 157.14051852413832 0 0 0 0 -31.55695501768605 50.559801507537486 0 50.559801507537486 102.15396282670736 0 0 0 0 2.7799496091583933 -32.258485407632179 0 -32.258485407632179 89.994255562996841 0 0 0 0 -197.41805812083658 151.18522192222372 0 151.18522192222372 152.06913888927375 0 0 0 0 -311.8747559862918 99.037287952800398 0 99.037287952800398 414.66349568901205 0 0 0 0 1.4845493365657558 15.397332384955099 0 15.397332384955099 127.48567460113631 0 0 0 0 17.769625305185969 113.34542660012357 0 113.34542660012357 219.05584417100181 0 0 0 0 19.736925639974288 132.2823970447389 0 132.2823970447389 -16.255798296966532 0 0 0 0 -130.96398441939436 110.04907790791731 0 110.04907790791731 -21.494556078429014 0 0 0 0 181.34172162340747 125.70407850458651 0 125.70407850458651 15.897601166980166 0 0 0 0 -2.0635599925478063 -3.9480574954407821 0 -3.9480574954407821 41.057274972660281 0 0 0 0 179.45520049801235 197.07594751047145 0 197.07594751047145 -90.023347385063971 0 0 0 0 -3.7908095930044201 2.3535575930161503 0 2.3535575930161503 11.856672995427957 0 0 0 0 -662.27546307460852 -196.9756573661889 0 -196.9756573661889 4.1878656977642095 0 0 0 0 -418.93953090976538 -106.88109479872583 0 -106.88109479872583 -85.034499630810387 0 0 0 0 -428.7076145601759 -107.9924739121434 0 -107.9924739121434 59.614829796730191 0 0 0 0 -130.27257738779872 -152.01918312758426 0 -152.01918312758426 -0.11132200925567304 0 0 0 0 -243.72050399249383 -147.6955072149467 0 -147.6955072149467 -21.00600528713494 0 0 0 0 -293.4813350125678 -14.394463278118565 0 -14.394463278118565 -51.321911873223144 0 0 0 0 -11.421202054267724 -663.39440660704167 0 -663.39440660704167 415.13064650486922 0 0 0 0 -548.64116087585944 151.34958154657761 0 151.34958154657761 -147.29943033884047 0 0 0 0 -1079.5046585693235 -1041.2355630336097 0 -1041.2355630336097 302.09622518988908 0 0 0 0 120.42181318760413 -418.89154661701468 0 -418.89154661701468 -1103.9393437962208 0 0 0 0 -188.77388175685883 -153.99464653070754 0 -153.99464653070754 991.28774711009828 0 0 0 0 -76.525231470307517 -73.868076244310942 0 -73.868076244310942 -102.16912512317504 0 0 0 0 -8.1859596583292387 -288.09807194400128 0 -288.09807194400128 85.946536666651809 0 0 0 0 -40.383855078864144 -156.23481872008051 0 -156.23481872008051 259.92922268045731 0 0 0 0 -182.60812436975306 -244.36960910707796 0 -244.36960910707796 445.54795101594937 0 0 0 0 -73.329385740144062 26.053129323438043 0 26.053129323438043 597.17445252295875 0 0 0 0 -41.010170832133554 -52.633826956316625 0 -52.633826956316625 285.42964396642492 0 0 0 0 -59.072119076679883 -188.1549747324043 0 -188.1549747324043 245.33387814212529 0 0 0 0 -15.072604954997132 -186.77973235251375 0 -186.77973235251375 45.494446108779812 0 0 0 0 -89.950054134082166 -109.74531505753839 0 -109.74531505753839 33.688740298232005 0 0 0 0 -102.85295343972939 -137.86253319693606 0 -137.86253319693606 95.609923437958059 0 0 0 0 -3.8236639806684707 -103.67776021810187 0 -103.67776021810187 50.663711020129995 0 0 0 0 -51.192670468578399 -108.49010073580939 0 -108.49010073580939 244.1739404539876 0 0 0 0 -116.90516705770551 -14.495749464917026 0 -14.495749464917026 116.75362862240809 0 0 0 0 -160.17973004384703 -102.39612128960107 0 -102.39612128960107 91.576729739910661 0 0 0 0 -241.37187542275751 -32.486675952446603 0 -32.486675952446603 33.001843829169957 0 0 0 0 -338.40850334468723 -130.88509368343512 0 -130.88509368343512 45.372888606805645 0 0 0 0 -186.1858524663794 -109.14902043405073 0 -109.14902043405073 6.6907013188319979 0 0 0 0 -230.15536866725233 -68.667167602739937 0 -68.667167602739937 41.427329551546791 0 0 0 0 -152.28367357962543 -55.886129795355373 0 -55.886129795355373 0.23976454186777119 0 0 0 0 -311.75677632321094 -134.28852245904272 0 -134.28852245904272 27.538586222814047 0 0 0 0 -326.03121752502011 -101.50109582810364 0 -101.50109582810364 -19.212411712098401 0 0 0 0 -2.4645050712897261 -7.3669205775792195 0 -7.3669205775792195 14.309649977904158 0 0 0 0 11.96529605299969 -93.470101445876708 0 -93.470101445876708 -14.190579075810092 0 0 0 0 -432.6278319443519 -198.40362343218681 0 -198.40362343218681 -0.43926753338018898 0 0 0 0 -552.95449590031603 -123.20595482188128 0 -123.20595482188128 71.638977231235913 0 0 0 0 -409.01266210131598 -66.997695555161044 0 -66.997695555161044 57.252139419979358 0 0 0 0 -327.15215072758292 47.962884806480361 0 47.962884806480361 37.226604661947022 0 0 0 0 -335.67485425725999 -140.30984487734895 0 -140.30984487734895 -64.326987014643237 0 0 0 0 2.2022116178090512 -47.269455520818113 0 -47.269455520818113 145.27082646910901 0 0 0 0 -74.035917174164751 46.715392293190234 0 46.715392293190234 120.3213504454452 0 0 0 0 -278.79523397736921 -236.39172123160097 0 -236.39172123160097 29.282442654541228 0 0 0 0 -68.373995872437717 -428.01252639560335 0 -428.01252639560335 137.87348366600054 0 0 0 0 -222.91543867409206 -786.64108849493914 0 -786.64108849493914 132.54465288812935 0 0 0 0 -6.8961450473968959 0.57911624269723916 0 0.57911624269723916 65.727587109008851 0 0 0 0 -255.97022428086802 302.74111813340642 0 302.74111813340642 -116.81695388161461 0 0 0 0 -207.27038546213134 -246.85992274277669 0 -246.85992274277669 -310.0838423887617 0 0 0 0 -714.65754759956326 391.48732977073814 0 391.48732977073814 405.57835366140353 0 0 0 0 -0.3264692180834563 -3.8343624294459673 0 -3.8343624294459673 115.10049311242966 0 0 0 0 -113.10917439909099 -212.00001331762178 0 -212.00001331762178 -112.30090568243759 0 0 0 0 -3.1746880848317542 -23.864654231525737 0 -23.864654231525737 4.5504552491283761 0 0 0 0 4.7598894524285242 75.420577968268844 0 75.420577968268844 213.17879533787345 0 0 0 0 -182.70717918493574 65.26619118481176 0 65.26619118481176 242.2724400223542 0 0 0 0 -151.94992005654558 150.16684073758279 0 150.16684073758279 465.9191371978377 0 0 0 0 480.12273016710105 -242.9829380865649 0 -242.9829380865649 -9.4002296545550053 0 0 0 0 -108.42453101025103 -9.2187736192190641 0 -9.2187736192190641 -20.616012373095145 0 0 0 0 10.234967587229448 -320.99692684089587 0 -320.99692684089587 717.0111901368582 0 0 0 0 -599.94158754086493 15.755494622794799 0 15.755494622794799 446.29015711950342 0 0 0 0 0.28624171065978976 -1.0433891821819303 0 -1.0433891821819303 5.3479520190992531 0 0 0 0 -302.08771039032945 -159.74567277420465 0 -159.74567277420465 519.30401317631549 0 0 0 0 -69.368289593009195 -147.46412900965697 0 -147.46412900965697 344.98987382452469 0 0 0 0 -279.03625858632404 -11.69833582493186 0 -11.69833582493186 514.35245855357425 0 0 0 0 -326.58716574652317 32.375183797027205 0 32.375183797027205 309.78143121510584 0 0 0 0 -181.05896559213215 -100.56960653966053 0 -100.56960653966053 413.53862490702159 0 0 0 0 -93.79540173665373 15.740394746301718 0 15.740394746301718 307.29654878572182 0 0 0 0 -74.172855712254204 -217.57501226457862 0 -217.57501226457862 699.73917516956681 0 0 0 0 -57.287917724529734 5.0606765573828625 0 5.0606765573828625 484.08534995540685 0 0 0 0 -13.559897487623505 0.27092277320546287 0 0.27092277320546287 -0.073064831845213063 0 0 0 0 -53.64072360139744 4.9712755785876652 0 4.9712755785876652 106.66182959961225 0 0 0 0 -46.133797114200206 44.781095914505386 0 44.781095914505386 39.84744502662943 0 0 0 0 -363.10724228061963 -150.84681832486785 0 -150.84681832486785 53.314049066604639 0 0 0 0 -5.4981637424690426 0.30527180809659171 0 0.30527180809659171 -0.030050535567291314 0 0 0 0 -13.168557149912886 -15.817846176282274 0 -15.817846176282274 -9.7379231727245497 0 0 0 0 -321.6581285544728 66.535727472172766 0 66.535727472172766 225.59478062071867 0 0 0 0 -323.91974839266186 91.169383274673237 0 91.169383274673237 -42.60682243775409 0 0 0 0 -0.025064576848176756 0.21933682555076217 0 0.21933682555076217 0.62708636444652299 0 0 0 0 -303.30883757816218 18.730117090091881 0 18.730117090091881 305.25825286155305 0 0 0 0 -182.74379518803596 130.11306578596896 0 130.11306578596896 72.104168376230518 0 0 0 0 -182.20298065461884 -11.997538569736207 0 -11.997538569736207 176.05299850341908 0 0 0 0 -230.26314460499543 67.196199216356035 0 67.196199216356035 89.700441015229444 0 0 0 0 -148.72659639372841 -1.4080871598871454 0 -1.4080871598871454 -23.908596319701246 0 0 0 0 -307.77544219157062 80.359762417247111 0 80.359762417247111 97.10218573720158 0 0 0 0 -711.02153603820079 236.2517483149004 0 236.2517483149004 46.915470207852195 0 0 0 0 -330.00291540088631 250.84330111216968 0 250.84330111216968 -25.298292039646185 0 0 0 0 -98.130372323430493 172.9080992704603 0 172.9080992704603 -125.03821252250054 0 0 0 0 -100.55752824237788 156.87574038359526 0 156.87574038359526 -97.793480642765644 0 0 0 0 -9.2330040899839823 4.2621119939602217 0 4.2621119939602217 30.32045552291973 0 0 0 0 49.525296009401018 -22.917693116154624 0 -22.917693116154624 20.357874062981864 0 0 0 0 -124.95720054750245 232.02739617621955 0 232.02739617621955 -253.53343541341019 0 0 0 0 4.090127122461527 6.1901276349934022 0 6.1901276349934022 27.306257879614634 0 0 0 0 -150.03885312685679 145.281975155689 0 145.281975155689 51.812041974386375 0 0 0 0 -144.13685743896713 117.38499012175453 0 117.38499012175453 -126.53953863325296 0 0 0 0 -171.17527261091345 202.30318101545708 0 202.30318101545708 -75.775267857952713 0 0 0 0 -208.38040489158266 131.43367449151629 0 131.43367449151629 79.060211587446247 0 0 0 0 -142.76279623511527 89.914677750235569 0 89.914677750235569 20.985853297359427 0 0 0 0 -174.01590291587218 42.244683776443708 0 42.244683776443708 211.34979634118281 0 0 0 0 -245.28620851035157 42.665688667282666 0 42.665688667282666 32.199200958959409 0 0 0 0 -211.64925645746371 121.78294061019915 0 121.78294061019915 213.15106199069669 0 0 0 0 3.3230551069591456 19.063067866853089 0 19.063067866853089 724.67554592774786 0 0 0 0 -92.770358337481412 -82.58166247220106 0 -82.58166247220106 739.00598837924895 0 0 0 0 -44.306821623304131 -86.010448862221892 0 -86.010448862221892 555.79583491006997 0 0 0 0 -43.553359689344688 -108.55150395998862 0 -108.55150395998862 527.23882833233438 0 0 0 0 120.50610968089677 -71.730382455445579 0 -71.730382455445579 317.34580896665648 0 0 0 0 167.65906058450037 32.984461735313744 0 32.984461735313744 497.44228626917175 0 0 0 0 26.76679577557934 -168.32946496016848 0 -168.32946496016848 548.97045977258313 0 0 0 0 188.99651135446578 -117.89479248294526 0 -117.89479248294526 329.76210630359856 0 0 0 0 -85.992655833541903 -50.874594056056594 0 -50.874594056056594 473.91340157116429 0 0 0 0 -20.965233127680222 -61.935318055160678 0 -61.935318055160678 316.28175898630343 0 0 0 0 -72.116961888235892 -8.8837377737800125 0 -8.8837377737800125 471.017838076609 0 0 0 0 -73.087005515966666 -10.403841797504356 0 -10.403841797504356 484.62544110882664 0 0 0 0 -103.42062303457351 33.245758803277567 0 33.245758803277567 712.79987656320191 0 0 0 0 121.69788264295221 113.9176400405031 0 113.9176400405031 57.716886810432698 0 0 0 0 116.86980621050407 201.16664485893125 0 201.16664485893125 364.9644333468259 0 0 0 0 -99.609394347889975 -33.210869203892798 0 -33.210869203892798 473.13743072213947 0 0 0 0 -6.6012152229177445 55.528549352591654 0 55.528549352591654 -59.312735596471612 0 0 0 0 0.24012922285036709 1.6106043706395212 0 1.6106043706395212 1.3510215844100557 0 0 0 0 -85.018002672405601 -9.257400531838357 0 -9.257400531838357 506.50780037862933 0 0 0 0 -0.79903933804325789 -3.356929960558773 0 -3.356929960558773 5.9436919020554342 0 0 0 0 -18.082669071397959 33.118068712105014 0 33.118068712105014 29.621327325992752 0 0 0 0 -26.261993036993772 18.050541832795716 0 18.050541832795716 51.942026952314336 0 0 0 0 -6.7259117080284341 30.09601540490803 0 30.09601540490803 -0.292031207922264 0 0 0 0 -18.055847021372028 0.65608294021865277 0 0.65608294021865277 4.0091782971873062 0 0 0 0 0.12852229703823781 2.5867889171510967 0 2.5867889171510967 4.323795112343177 0 0 0 0 -9.5499692996345402 -1.6273217818597914 0 -1.6273217818597914 17.770234815390722 0 0 0 0 -9.8884720284830543 2.3448155192914717 0 2.3448155192914717 12.858082122911668 0 0 0 0 -6.8406676224144114 0.74182003058863444 0 0.74182003058863444 5.9142462595111169 0 0 0 0 75.442577155194158 30.849344413723884 0 30.849344413723884 -21.994364761429097 0 0 0 0 -8.5506704989330977 -1.6274007562386288 0 -1.6274007562386288 4.8163545942001198 0 0 0 0 -8.9315335170135768 -1.4970517574911355 0 -1.4970517574911355 19.368977956513845 0 0 0 0 -0.97978505870151755 0.14269319540076708 0 0.14269319540076708 5.2212055077495023 0 0 0 0 129.09907877136516 -195.73880307453601 0 -195.73880307453601 214.66637184651336 0 0 0 0 -54.524971461901259 0.0033778455217543524 0 0.0033778455217543524 266.12176354693656 0 0 0 0 -6.1261127893631055 -1.4101338032196509 0 -1.4101338032196509 18.843548270655447 0 0 0 0 -45.415704185280447 -102.6518386306052 0 -102.6518386306052 215.58562592187354 0 0 0 0 -33.812248135502159 -27.474095024088456 0 -27.474095024088456 9.096544059641019 0 0 0 0 0.66385305201550437 -5.3923924973169779 0 -5.3923924973169779 7.4217340987340776 0 0 0 0 -3.9271607177361147 -2.6981799878121819 0 -2.6981799878121819 16.16414162782894 0 0 0 0 -7.7496614604222032 -2.5438918928833445 0 -2.5438918928833445 7.540315596988405 0 0 0 0 -8.8664465078543149 1.059404775573789 0 1.059404775573789 6.9149527757712619 0 0 0 0 -14.571623299978498 -5.7070107253543689 0 -5.7070107253543689 12.934788438564595 0 0 0 0 -49.799165982432669 398.82558261441272 0 398.82558261441272 185.89446624758421 0 0 0 0 72.81292283483026 40.402695561682776 0 40.402695561682776 406.55859916793634 0 0 0 0 -4.1686849837917439 0.30968848823608397 0 0.30968848823608397 4.0192717596193646 0 0 0 0 164.79583858708975 -6.8472739714052295 0 -6.8472739714052295 36.548330624120297 0 0 0 0 -395.82007381347012 379.20731356611941 0 379.20731356611941 339.03454224987945 0 0 0 0 58.859410161499682 428.22961872149608 0 428.22961872149608 -145.86615503349458 0 0 0 0 -1.2219119618890595 0.92269768324019452 0 0.92269768324019452 1.500535379727296 0 0 0 0 328.76128732469328 72.037293880024663 0 72.037293880024663 241.64472421156961 0 0 0 0 396.21882962101438 366.1802961541307 0 366.1802961541307 157.77398710770649 0 0 0 0 -26.050274042450212 -12.780759119475078 0 -12.780759119475078 16.741086622918374 0 0 0 0 -13.426551644601659 -4.5954149917542964 0 -4.5954149917542964 6.7392641015366053 0 0 0 0 7.7744261897694287 -15.024131123318512 0 -15.024131123318512 20.623115326307015 0 0 0 0 -1.8202466393456689 -32.251031029576552 0 -32.251031029576552 55.37027980217006 0 0 0 0 -3.3568880143480087 -1.2949488998970837 0 -1.2949488998970837 13.052880448596383 0 0 0 0 11.398820089256105 -23.634431296457478 0 -23.634431296457478 38.69039167810115 0 0 0 0 12.964890151511327 -29.125937437409448 0 -29.125937437409448 -3.1160887863807147 0 0 0 0 3.6768658406344912 -42.249185092823609 0 -42.249185092823609 32.457854259606393 0 0 0 0 7.6309411525038513 -24.725687719065945 0 -24.725687719065945 12.714640441670781 0 0 0 0 -86.073671490808806 -9.0814472382735403 0 -9.0814472382735403 18.453357644928474 0 0 0 0 -7.0637968532025752 -59.460367149752528 0 -59.460367149752528 -0.57980105069145793 0 0 0 0 35.665378300726616 -20.012631348694413 0 -20.012631348694413 -2.8884175155831144 0 0 0 0 71.901883851164712 -58.831599298911897 0 -58.831599298911897 -5.5294495552534499 0 0 0 0 231.56035197007486 -19.79850704241835 0 -19.79850704241835 -47.026676557605242 0 0 0 0 22.634707906654796 -7.7486996044208354 0 -7.7486996044208354 1.5664620501120226 0 0 0 0 52.552842197727614 4.0773198569768283 0 4.0773198569768283 2.3515511672035245 0 0 0 0 160.07704493245149 -50.587702625074598 0 -50.587702625074598 20.402542966290639 0 0 0 0 0.65373024252908041 0.13096106770547777 0 0.13096106770547777 4.5995616873743472 0 0 0 0 288.05346587713956 361.07283655312631 0 361.07283655312631 175.21467340915115 0 0 0 0 293.07878934897394 299.70058657672871 0 299.70058657672871 504.71141649538185 0 0 0 0 37.60341835829081 -114.22718104145497 0 -114.22718104145497 250.44455334909435 0 0 0 0 -40.680559182733305 18.520054167518538 0 18.520054167518538 45.097788255763589 0 0 0 0 -109.36728773060196 -30.189259157642482 0 -30.189259157642482 72.129727962827019 0 0 0 0 -47.347535643817608 -46.336313338441641 0 -46.336313338441641 -4.6064449423283804 0 0 0 0 26.734957134965327 393.58235385654007 0 393.58235385654007 471.04179365390883 0 0 0 0 -169.62394706583234 110.3186495571772 0 110.3186495571772 299.06302525747014 0 0 0 0 188.7623008634655 104.37404312420222 0 104.37404312420222 663.59827805129862 0 0 0 0 289.38668791539703 370.87357938342393 0 370.87357938342393 392.60330716722092 0 0 0 0 346.1269421905024 205.62057586892479 0 205.62057586892479 665.00590642108727 0 0 0 0 50.165068314765335 142.96889784413906 0 142.96889784413906 790.79500092203307 0 0 0 0 191.47487279139659 123.49498679288627 0 123.49498679288627 469.54230972362529 0 0 0 0 39.007628304445007 90.062539362814277 0 90.062539362814277 573.06227327535089 0 0 0 0 -81.294548048753768 -1.0740719272725983 0 -1.0740719272725983 521.49290087319787 0 0 0 0 188.87866284415145 131.49448638255126 0 131.49448638255126 182.91940410511233 0 0 0 0 -51.660966894475223 40.555599850788894 0 40.555599850788894 162.09378704001938 0 0 0 0 192.75119328599575 167.31276004198457 0 167.31276004198457 498.49479619412887 0 0 0 0 274.93655325055352 203.18896825073898 0 203.18896825073898 215.79877504819797 0 0 0 0 -40.337628833261164 27.407943637679637 0 27.407943637679637 54.338550051101265 0 0 0 0 -4.0894558121944975 8.8502223696562439 0 8.8502223696562439 47.338527547770113 0 0 0 0 40.649967160372398 -32.166064897846809 0 -32.166064897846809 32.801005759756663 0 0 0 0 -0.66393948571124728 -5.7107645600724055 0 -5.7107645600724055 11.134929140148358 0 0 0 0 -131.07452470341423 3.9064608044263878 0 3.9064608044263878 -618.19146040716805 0 0 0 0 -52.142086888186441 0.85874241834608256 0 0.85874241834608256 121.94379947484413 0 0 0 0 -695.39688786757051 367.96688431100119 0 367.96688431100119 39.641799530290882 0 0 0 0 -1.6144053205839102 -0.35179440866695444 0 -0.35179440866695444 -0.08456570532643326 0 0 0 0 -292.39211706728474 38.832105831901572 0 38.832105831901572 124.8444866247919 0 0 0 0 47.441272678894848 -175.02076904368505 0 -175.02076904368505 76.847795693473017 0 0 0 0 -4.2425405718546489 7.8478666135344994 0 7.8478666135344994 47.49409616072893 0 0 0 0 -386.01467890359345 181.43050715505524 0 181.43050715505524 2.882973249389579 0 0 0 0 -293.02452777602957 101.80529024702992 0 101.80529024702992 -2.1682678452052642 0 0 0 0 -671.47118339451208 357.9184978758276 0 357.9184978758276 41.509141563637968 0 0 0 0 -444.79286212883835 398.48232082560207 0 398.48232082560207 -198.88744617422532 0 0 0 0 -109.74905575729053 224.22735975071555 0 224.22735975071555 -120.57430988063061 0 0 0 0 -666.60416244234864 254.91861148767089 0 254.91861148767089 16.75228875906032 0 0 0 0 12.148011651210311 -41.696652335877843 0 -41.696652335877843 -41.835176894303004 0 0 0 0 -82.397620675233384 -40.159685233651544 0 -40.159685233651544 159.45267786113638 0 0 0 0 -263.69177705790071 125.1409411834029 0 125.1409411834029 -46.893066094286041 0 0 0 0 -73.997675280533599 5.4059115608588399 0 5.4059115608588399 -17.758573829079978 0 0 0 0 -320.84067842088302 48.932035354326217 0 48.932035354326217 63.702344255932985 0 0 0 0 -640.21621553503894 23.165034647316133 0 23.165034647316133 146.89560778465057 0 0 0 0 -285.04866150317969 22.933061762518264 0 22.933061762518264 79.293482558598043 0 0 0 0 -375.15100381376993 -142.88954770240889 0 -142.88954770240889 50.048531038108194 0 0 0 0 -140.91895002420364 -95.837673199659548 0 -95.837673199659548 27.026815933451871 0 0 0 0 -280.27794924308904 382.22892337037774 0 382.22892337037774 -286.5483996756102 0 0 0 0 -1117.2019013509189 -185.99204637500588 0 -185.99204637500588 120.60114488998079 0 0 0 0 42.963175774117246 -17.170841915512028 0 -17.170841915512028 39.729979249445023 0 0 0 0 -101.52665163507709 168.96201812472464 0 168.96201812472464 -191.03610228292564 0 0 0 0 -4.8961232571400899 7.007134820476189 0 7.007134820476189 48.032376111484695 0 0 0 0 -5.716365131501834 7.0942423227541447 0 7.0942423227541447 5.5264102502671619 0 0 0 0 -384.66823433305387 214.0409187688947 0 214.0409187688947 77.16495409271738 0 0 0 0 -589.58078228955253 274.38653295790596 0 274.38653295790596 63.735334883935138 0 0 0 0 36.568588977117258 -17.946196254937604 0 -17.946196254937604 39.767836445520516 0 0 0 0 10.372601225388948 25.922883844386888 0 25.922883844386888 34.660885245328245 0 0 0 0 -190.34378114047328 298.93976953625861 0 298.93976953625861 95.763536954422307 0 0 0 0 -49.596751181491129 22.434072410665976 0 22.434072410665976 58.228750851634686 0 0 0 0 -0.91120622013841124 6.8358844236527716 0 6.8358844236527716 45.468037973799341 0 0 0 0 -434.48386627686534 130.39730678157321 0 130.39730678157321 265.00978912720893 0 0 0 0 -2.5553208022381466 3.041311975182257 0 3.041311975182257 46.963212200780077 0 0 0 0 13.25531275425908 9.0894371413378394 0 9.0894371413378394 25.233051224277006 0 0 0 0 -25.294813907569278 24.895998163228796 0 24.895998163228796 51.143153485583753 0 0 0 0 -5.9594312578781334 4.427194844951245 0 4.427194844951245 30.983635497949933 0 0 0 0 898.76903172721086 935.00964038630082 0 935.00964038630082 627.24461688695555 0 0 0 0 13.905028726726151 -82.171606547131887 0 -82.171606547131887 183.35184520341863 0 0 0 0 16.37607261220063 19.850457992315569 0 19.850457992315569 62.307285364360723 0 0 0 0 -3.9726260592032583 -6.4949387591286296 0 -6.4949387591286296 37.508498076417865 0 0 0 0 9.1600018002463912 415.50160615201457 0 415.50160615201457 64.883598404689565 0 0 0 0 0.24941328630298376 -1.897380081095374 0 -1.897380081095374 2.0245256206293476 0 0 0 0 -97.138247336397626 915.53364943138604 0 915.53364943138604 583.04631908029842 0 0 0 0 -16.788030864856921 1276.7676945421626 0 1276.7676945421626 2031.9325676203298 0 0 0 0 -207.144441157611 1306.2370356423949 0 1306.2370356423949 2029.1520686200238 0 0 0 0 429.59223541533851 2287.8974247256428 0 2287.8974247256428 3493.1410158144427 0 0 0 0 242.97795325374136 85.907821001220327 0 85.907821001220327 201.99838841289602 0 0 0 0 9.9666186212589984 12.264999580135736 0 12.264999580135736 3477.5509378894531 0 0 0 0 5.2016243665709947 6.7931956004583292 0 6.7931956004583292 17.675520392259045 0 0 0 0 2629.8474861335121 1654.5860526111683 0 1654.5860526111683 975.56523929546711 0 0 0 0 4.1011445270242319 -2.6287444651535665 0 -2.6287444651535665 14.77624264287482 0 0 0 0 760.49388661323587 -1120.5737194811227 0 -1120.5737194811227 757.26880891771361 0 0 0 0 323.55996115206233 174.35264374702319 0 174.35264374702319 89.802595864799514 0 0 0 0 -345.94867556460883 -58.844953544558848 0 -58.844953544558848 1833.0551089123692 0 0 0 0 -241.09512095862237 11.105536111357651 0 11.105536111357651 1209.3035263674756 0 0 0 0 -68.900033868870196 -67.43709105205744 0 -67.43709105205744 711.23187260980558 0 0 0 0 -60.413929251915761 242.50909024425346 0 242.50909024425346 1119.9522504255274 0 0 0 0 -57.353343523681019 -12.622487623551933 0 -12.622487623551933 902.34592383203562 0 0 0 0 134.35347548786876 436.06238118670444 0 436.06238118670444 707.43206589336614 0 0 0 0 -53.649584974995463 272.81498761621378 0 272.81498761621378 1201.7129739367992 0 0 0 0 145.34899550874411 420.58033958839223 0 420.58033958839223 84.889312037843411 0 0 0 0 58.796359902524955 491.19968410022557 0 491.19968410022557 604.00739829054874 0 0 0 0 137.49402085166503 502.22164922328375 0 502.22164922328375 587.53948673555533 0 0 0 0 -186.73966751043929 730.23315183032719 0 730.23315183032719 1180.3488564296349 0 0 0 0 -136.11636083488986 643.22260214751623 0 643.22260214751623 1221.6413322515391 0 0 0 0 -177.8928177705576 750.52707182724225 0 750.52707182724225 1619.4557285845076 0 0 0 0 -492.75427312281329 374.02236615639595 0 374.02236615639595 2131.7418491693243 0 0 0 0 98.504997608150745 1387.6707891857995 0 1387.6707891857995 1836.0746668696374 0 0 0 0 -381.76366312850877 1556.3568855805811 0 1556.3568855805811 3500.4775746580126 0 0 0 0 -666.64872659610967 781.05566745661054 0 781.05566745661054 2413.4942639158362 0 0 0 0 -670.13047243159667 778.27115325666227 0 778.27115325666227 2474.7799312718016 0 0 0 0 -890.52323869338215 453.986035275625 0 453.986035275625 3499.4055585649221 0 0 0 0 -492.2918212719552 381.00574509246439 0 381.00574509246439 2210.8985678903882 0 0 0 0 -912.48566864253496 95.956730841579883 0 95.956730841579883 2441.8011246289043 0 0 0 0 -417.87970488690485 -784.29615407420897 0 -784.29615407420897 2296.9588531213076 0 0 0 0 -863.85214445934093 -345.5485595915352 0 -345.5485595915352 2519.1454974463359 0 0 0 0 -931.54515429355388 -174.0929939349262 0 -174.0929939349262 3499.1749172594032 0 0 0 0 -736.93280927424917 -862.14860250541733 0 -862.14860250541733 3499.0047594802504 0 0 0 0 161.69004235661691 -1594.4505300145274 0 -1594.4505300145274 3501.4818551355256 0 0 0 0 -409.62599233253161 -796.02886798322561 0 -796.02886798322561 2420.4929009022562 0 0 0 0 102.44860118098164 -1209.154391478467 0 -1209.154391478467 2303.4227589269449 0 0 0 0 576.58349209908386 -320.70349616654153 0 -320.70349616654153 -4.5230465099630237 0 0 0 0 -147.63738226488056 -575.44247180515231 0 -575.44247180515231 1058.8728212140595 0 0 0 0 -232.71161466349997 -223.92714304057245 0 -223.92714304057245 962.09108504703727 0 0 0 0 14.124391551622693 159.10113944703471 0 159.10113944703471 7.2427679814718431 0 0 0 0 186.62056027866623 -222.46505297718068 0 -222.46505297718068 229.56958209197182 0 0 0 0 -362.78052354154238 -92.223560848295165 0 -92.223560848295165 1491.3490097844606 0 0 0 0 -293.04658572813287 -147.17621716742451 0 -147.17621716742451 1204.004062563894 0 0 0 0 -222.94777179435255 -316.08139090982877 0 -316.08139090982877 1152.6480998329753 0 0 0 0 -106.32124250600179 -90.528869836344711 0 -90.528869836344711 355.52602584812121 0 0 0 0 -129.5981934882858 -128.97219637974285 0 -128.97219637974285 507.43541528043352 0 0 0 0 -368.64838351547417 78.083784170537911 0 78.083784170537911 566.54246652940492 0 0 0 0 -178.00671765304753 296.29933191632108 0 296.29933191632108 92.712912460065127 0 0 0 0 -33.89816474523036 2.055182089245136 0 2.055182089245136 122.11257365595884 0 0 0 0 -142.60167342387433 50.242011129275852 0 50.242011129275852 -156.67674744975011 0 0 0 0 -530.77883505464206 569.15623226857679 0 569.15623226857679 -270.89999585553687 0 0 0 0 -330.54677269630247 15.504792669889866 0 15.504792669889866 452.01691743025822 0 0 0 0 -205.28538153452939 303.01803909908267 0 303.01803909908267 -293.70555424446138 0 0 0 0 -240.81015774297035 367.88217988017544 0 367.88217988017544 41.927217663571355 0 0 0 0 -268.68627395206994 6.8810940513540118 0 6.8810940513540118 275.8486509939371 0 0 0 0 18.485051818774537 14.220087831420642 0 14.220087831420642 181.8544924494654 0 0 0 0 18.911113646306895 -4.8193192519326402 0 -4.8193192519326402 24.766798219465272 0 0 0 0 -9.1100129964344028 5.2487816235846729 0 5.2487816235846729 11.590209471010937 0 0 0 0 -85.094513358745502 -154.90777970636833 0 -154.90777970636833 895.09309531291365 0 0 0 0 -94.984097132033185 40.040441090909553 0 40.040441090909553 197.20141432433593 0 0 0 0 43.734946606377434 336.76382383947112 0 336.76382383947112 449.48027932606783 0 0 0 0 -130.95210452466858 87.925988637741057 0 87.925988637741057 589.472179736611 0 0 0 0 -54.984083620324327 202.93561829343253 0 202.93561829343253 391.52767873689663 0 0 0 0 -414.51492568995673 163.53013762713272 0 163.53013762713272 485.43870164064356 0 0 0 0 -476.00072220620677 449.93593423960374 0 449.93593423960374 83.749865377516016 0 0 0 0 -434.52951999960533 339.7954890193032 0 339.7954890193032 -254.3744730925464 0 0 0 0 -13.100030106004851 -458.23793594207382 0 -458.23793594207382 1034.3243536830551 0 0 0 0 -2.1974004504706492 0.72706416481413783 0 0.72706416481413783 1.4056763034824726 0 0 0 0 341.76914043921261 -548.73852094965332 0 -548.73852094965332 972.81682971108512 0 0 0 0 72.226158024159304 -399.22622967176358 0 -399.22622967176358 1047.3025315672203 0 0 0 0 -0.81045100547064131 2.5771071615384855 0 2.5771071615384855 4.832078827181661 0 0 0 0 -109.97203575060121 -394.29545181250069 0 -394.29545181250069 1714.552713935595 0 0 0 0 0.4668751594817877 -5.0330650264149881 0 -5.0330650264149881 18.955788812935921 0 0 0 0 169.01241188970835 -738.25554163231936 0 -738.25554163231936 1431.4055082421783 0 0 0 0 134.68102521483524 -64.287111771038326 0 -64.287111771038326 1046.7382710821039 0 0 0 0 245.27376911563624 -531.77110369275033 0 -531.77110369275033 1101.1009210029638 0 0 0 0 -6.6092480748472635 2.6386313470066796 0 2.6386313470066796 3.3024361734915573 0 0 0 0 -240.43154215447612 110.91578866960481 0 110.91578866960481 1717.0728785293031 0 0 0 0 -343.36834015408112 859.23724479890336 0 859.23724479890336 -637.29454819042076 0 0 0 0 -241.99194738424467 92.914544106757603 0 92.914544106757603 -276.00269795480199 0 0 0 0 79.801977707518745 -89.350883809825064 0 -89.350883809825064 403.91990019478544 0 0 0 0 -4.7467396952829448 5.9389619123598401 0 5.9389619123598401 12.0197380125677 0 0 0 0 1068.3420575190232 -339.27363571863316 0 -339.27363571863316 256.29985896050721 0 0 0 0 471.67185932948314 214.2262005939333 0 214.2262005939333 120.65643025104259 0 0 0 0 -254.95178019653252 181.33848113480735 0 181.33848113480735 749.44861555925991 0 0 0 0 149.59683316299908 -782.22522136521616 0 -782.22522136521616 2119.5271196812573 0 0 0 0 -93.443939526120516 382.11563077654841 0 382.11563077654841 2367.1590403914106 0 0 0 0 7.2783536080205504 -7.6057348866119767 0 -7.6057348866119767 8.9429230515383011 0 0 0 0 359.10312405922224 -1146.2861427762919 0 -1146.2861427762919 967.22892355558361 0 0 0 0 154.88554417296677 -0.83528837054609539 0 -0.83528837054609539 1962.8490417257563 0 0 0 0 -61.874858065661101 -979.46412991170246 0 -979.46412991170246 1272.5125632563913 0 0 0 0 201.45385473842168 -216.36446740107954 0 -216.36446740107954 -349.9060478493102 0 0 0 0 224.5533239078452 89.638846985011696 0 89.638846985011696 -17.279032085021754 0 0 0 0 426.48100697701375 531.99287402215396 0 531.99287402215396 569.88345046326867 0 0 0 0 0.12556669382795754 -1.380515806141756 0 -1.380515806141756 17.295969374369847 0 0 0 0 -97.167612606080183 -1.4546335188024386 0 -1.4546335188024386 123.15840044720517 0 0 0 0 -0.40340632336816851 0.36550480726638401 0 0.36550480726638401 40.912580681320101 0 0 0 0 -855.84187069565587 140.91456636466205 0 140.91456636466205 546.96530566993306 0 0 0 0 175.97844378838477 248.80762420244378 0 248.80762420244378 -122.28402289135329 0 0 0 0 -3.7223476815195151 2.8222774620847173 0 2.8222774620847173 49.97581162664595 0 0 0 0 -58.971892701160414 -35.636994116985989 0 -35.636994116985989 81.636844072651002 0 0 0 0 -16.679854543917862 -3.4095310788968405 0 -3.4095310788968405 22.553318475083408 0 0 0 0 -274.10797480418523 161.38634203970105 0 161.38634203970105 -23.440702127651093 0 0 0 0 138.73016307404259 29.748002242064103 0 29.748002242064103 -133.68541616475432 0 0 0 0 26.335377378991211 38.099708452806681 0 38.099708452806681 -126.23635040715794 0 0 0 0 169.31119082738857 -24.874221415730517 0 -24.874221415730517 -67.985612036035491 0 0 0 0 -107.14403355862086 -393.17577333233407 0 -393.17577333233407 -63.624196286291408 0 0 0 0 370.21571830782671 -394.48026845330412 0 -394.48026845330412 -97.748070996253773 0 0 0 0 1.7852050598713469 -8.0993444837301354 0 -8.0993444837301354 20.720604858550299 0 0 0 0 -618.90156469190106 -624.67729038986977 0 -624.67729038986977 259.27242005853805 0 0 0 0 -724.83001565251948 -309.40346948896348 0 -309.40346948896348 458.26551149255374 0 0 0 0 -21.963923079255778 -24.69486148294834 0 -24.69486148294834 -81.992235226098273 0 0 0 0 177.50588475719516 -7.6920888126883256 0 -7.6920888126883256 -119.06940969961079 0 0 0 0 12.841133740271516 -183.0031435395631 0 -183.0031435395631 91.386898766262675 0 0 0 0 -72.471682145722014 44.997003735954991 0 44.997003735954991 -155.60073912725966 0 0 0 0 300.88697027471818 902.25573986353288 0 902.25573986353288 885.25777462469205 0 0 0 0 -602.38010277404339 222.75481806546895 0 222.75481806546895 745.87475426385117 0 0 0 0 -0.93661109804356557 -1.6029457454531375 0 -1.6029457454531375 -2.5041176804983154 0 0 0 0 -360.44481950882528 446.40097722820201 0 446.40097722820201 -63.382817329388672 0 0 0 0 -350.75547537710486 490.74138557504068 0 490.74138557504068 1305.4868193369273 0 0 0 0 -110.64642184320132 537.4326888116459 0 537.4326888116459 1094.1499250659708 0 0 0 0 37.389766230793839 25.688073044310386 0 25.688073044310386 -377.54628361887853 0 0 0 0 -110.40419223754952 101.23760044078881 0 101.23760044078881 -9.2696822901239102 0 0 0 0 -9.3418852186463379 -9.7701703546654919 0 -9.7701703546654919 13.203368978846795 0 0 0 0 -114.27718727536956 -72.08840291831325 0 -72.08840291831325 80.597445269116179 0 0 0 0 57.008180869585203 5.0683296782331126 0 5.0683296782331126 -25.080320629175731 0 0 0 0 42.365929589519524 -160.86963828418789 0 -160.86963828418789 90.758570299069106 0 0 0 0 -4.7081242864057753 -4.3254325917268996 0 -4.3254325917268996 63.932292600525948 0 0 0 0 -239.88608879354729 -189.75335334284955 0 -189.75335334284955 476.36998614316599 0 0 0 0 1690.4862225317033 -1990.6539598626764 0 -1990.6539598626764 2091.2311187609948 0 0 0 0 2.2753155814019719 -2.4616900690558712 0 -2.4616900690558712 26.886078243622975 0 0 0 0 245.05842887165056 -91.128496942375477 0 -91.128496942375477 9.9029273694052335 0 0 0 0 667.87034366691137 1682.5467437604925 0 1682.5467437604925 2745.5979918946259 0 0 0 0 173.14170973626395 -232.16814957407496 0 -232.16814957407496 102.28996252013394 0 0 0 0 -63.715258318937785 851.2150503160799 0 851.2150503160799 4075.2937720132677 0 0 0 0 2703.6584437371143 -432.16814720434729 0 -432.16814720434729 3500.7273981067051 0 0 0 0 1880.9253823560427 264.87821148043986 0 264.87821148043986 5467.5427236356081 0 0 0 0 -269.46833342159425 733.07740903409012 0 733.07740903409012 2547.8231471082427 0 0 0 0 -430.0870706942012 828.65759164097722 0 828.65759164097722 2587.8948906830983 0 0 0 0 -27.256039917324358 250.45243776483949 0 250.45243776483949 -272.0543723357041 0 0 0 0 -272.489912716954 745.95134699624373 0 745.95134699624373 3184.2950424040382 0 0 0 0 429.01155511233196 1392.1972634757633 0 1392.1972634757633 2401.6157259560914 0 0 0 0 -0.84938270862930043 -0.60690031179996762 0 -0.60690031179996762 10.878109562810542 0 0 0 0 -80.858194634816755 631.63322374260179 0 631.63322374260179 3121.822721791224 0 0 0 0 -771.68770821442672 502.76787653978329 0 502.76787653978329 3249.2019089464416 0 0 0 0 -545.03884536577391 756.45958245688621 0 756.45958245688621 3499.7269720920176 0 0 0 0 -834.33081997411489 194.84252674190952 0 194.84252674190952 3499.4824443667526 0 0 0 0 -754.48376103158466 470.91215732630116 0 470.91215732630116 2710.1620392096379 0 0 0 0 -540.54979728885269 139.99342254425983 0 139.99342254425983 2462.6688191760113 0 0 0 0 -542.60108222187989 329.99920114569477 0 329.99920114569477 2372.5438509208943 0 0 0 0 -519.6641768138403 1.9919992235804784 0 1.9919992235804784 2706.1769990236567 0 0 0 0 -506.4281474322047 -66.77016857244962 0 -66.77016857244962 2687.8541769694084 0 0 0 0 -281.13750082671618 -618.68038103694744 0 -618.68038103694744 3499.5951249516274 0 0 0 0 -278.50865493896305 -873.18040684025686 0 -873.18040684025686 2408.1744260484516 0 0 0 0 295.11564801461475 -748.57266410770421 0 -748.57266410770421 2284.6610608525025 0 0 0 0 260.8993582408014 -403.70455698300339 0 -403.70455698300339 2269.5173969474022 0 0 0 0 -119.11907207163267 -61.89273520036204 0 -61.89273520036204 1977.4289792141963 0 0 0 0 7.0727532756667122 -4.7776693025256787 0 -4.7776693025256787 3.3682333760518652 0 0 0 0 755.92677135434019 -219.16475885359671 0 -219.16475885359671 -266.421695537402 0 0 0 0 689.49897857759117 -828.6821347644003 0 -828.6821347644003 1122.3276242303052 0 0 0 0 436.23031563355795 -193.11548850707487 0 -193.11548850707487 111.61081534644563 0 0 0 0 336.39538774655898 -446.42794232243477 0 -446.42794232243477 653.5068596745831 0 0 0 0 -465.56838267294421 254.25014283052144 0 254.25014283052144 538.55506762501136 0 0 0 0 -415.95983689503475 632.66134781464245 0 632.66134781464245 1867.7840759496482 0 0 0 0 -253.92180738301408 -123.46582183825763 0 -123.46582183825763 1037.7105287254474 0 0 0 0 -195.92385812488379 193.73656459489283 0 193.73656459489283 1217.6920646362651 0 0 0 0 -127.95255907973467 -185.30421610500184 0 -185.30421610500184 1790.7853122215374 0 0 0 0 -653.62173140239315 383.60784643962234 0 383.60784643962234 1429.3989813427106 0 0 0 0 575.88894761173344 -137.85795629316817 0 -137.85795629316817 -675.40687355675618 0 0 0 0 1662.8968217276831 -1050.9640296936172 0 -1050.9640296936172 3494.6055015559905 0 0 0 0 2.8400993349511077 -8.1780225546624212 0 -8.1780225546624212 17.580516422576196 0 0 0 0 1663.9714392965323 -1047.3273873406106 0 -1047.3273873406106 3502.4563490543696 0 0 0 0 600.03106026049568 -1915.6825542457218 0 -1915.6825542457218 3669.1699908477312 0 0 0 0 2937.8136368137793 -1967.4796860312968 0 -1967.4796860312968 1457.0048826234051 0 0 0 0 830.24100266613686 -256.12771561747195 0 -256.12771561747195 138.42254502680225 0 0 0 0 1244.5488090854865 -1523.9046552713808 0 -1523.9046552713808 1704.9758902634176 0 0 0 0 26.877488071001011 -1035.656692172613 0 -1035.656692172613 2332.94539875585 0 0 0 0 -273.95050129521201 -1281.8715143022341 0 -1281.8715143022341 3498.2718031729673 0 0 0 0 -270.58749819425441 -932.37130301890738 0 -932.37130301890738 2233.3267262428139 0 0 0 0 -30.411764496784144 -733.16288979704814 0 -733.16288979704814 -28.175372047755559 0 0 0 0 13.360173097595709 -9.2647995014368316 0 -9.2647995014368316 5.257877848518195 0 0 0 0 162.52758505732481 -450.06276120233542 0 -450.06276120233542 1127.58421787007 0 0 0 0 190.21646399657965 -97.227874101521707 0 -97.227874101521707 129.22959260567404 0 0 0 0 784.50017667521547 87.337032260620845 0 87.337032260620845 -121.15092121736325 0 0 0 0 462.79902245920766 -92.289162532012142 0 -92.289162532012142 -51.58810299534457 0 0 0 0 268.63269992721155 184.36036365014979 0 184.36036365014979 -421.61895698170065 0 0 0 0 2.894694643264903 -15.221778257639931 0 -15.221778257639931 38.753526830328141 0 0 0 0 581.3092288061307 -1.7697956319420882 0 -1.7697956319420882 363.3467874496298 0 0 0 0 -330.17831892235671 -397.09471733121472 0 -397.09471733121472 -209.37819816079718 0 0 0 0 1502.931779471568 108.32935455912866 0 108.32935455912866 740.98503750644159 0 0 0 0 2.3718847222485806 -3.5725505829236148 0 -3.5725505829236148 6.6835496834810506 0 0 0 0 -35.452732032386848 -22.400035258903412 0 -22.400035258903412 133.55437145945015 0 0 0 0 71.609560207760296 47.955211751417323 0 47.955211751417323 36.73105601731703 0 0 0 0 6.2363866178284386 -6.0767396280927954 0 -6.0767396280927954 -0.8420697764567846 0 0 0 0 190.22160529003031 -401.78128686232299 0 -401.78128686232299 -245.13078427666733 0 0 0 0 5.3171587541879877 -21.095578855107572 0 -21.095578855107572 44.49271222273525 0 0 0 0 1114.8908118616046 -1018.8605923433265 0 -1018.8605923433265 -121.38773259944674 0 0 0 0 7.8414614456862832 -3.6739919694977927 0 -3.6739919694977927 1.1627159232485793 0 0 0 0 933.42633059987611 -68.49070797905847 0 -68.49070797905847 -431.26766272679197 0 0 0 0 -38.474613673666227 -332.44128684858089 0 -332.44128684858089 793.61669760795598 0 0 0 0 -141.56894371532962 -99.473779607036704 0 -99.473779607036704 339.83750747941963 0 0 0 0 24.93383594609486 -59.561690568931112 0 -59.561690568931112 34.243859740157404 0 0 0 0 -66.947044591146991 -14.099074748101849 0 -14.099074748101849 148.69283687528196 0 0 0 0 -68.337880208599472 -287.70378637775832 0 -287.70378637775832 -54.611432161987977 0 0 0 0 62.833005350952362 -101.0786798585095 0 -101.0786798585095 287.37721702682711 0 0 0 0 2.2756125651903858 -85.318736974292889 0 -85.318736974292889 286.39341131373538 0 0 0 0 5.8638081892681839 -103.50920846395007 0 -103.50920846395007 428.80676149466444 0 0 0 0 79.059213892752723 32.224924261777005 0 32.224924261777005 436.40700772273476 0 0 0 0 5.1600330748917713 -46.158854044579584 0 -46.158854044579584 381.75386287041852 0 0 0 0 110.48926766027125 44.562976925041312 0 44.562976925041312 250.43298376688244 0 0 0 0 88.74424341494705 -213.97394367878724 0 -213.97394367878724 355.36907987918403 0 0 0 0 206.89682685868229 -11.854471029087307 0 -11.854471029087307 60.448591104934167 0 0 0 0 274.87232091090391 -134.36721457999028 0 -134.36721457999028 227.8593744450759 0 0 0 0 194.89446796012453 -14.721503893203135 0 -14.721503893203135 246.47105376502026 0 0 0 0 171.27915294424338 -54.281621948886709 0 -54.281621948886709 195.27693064188543 0 0 0 0 114.27318905001175 -101.08212394405052 0 -101.08212394405052 205.34564945667466 0 0 0 0 144.6226270117545 -41.696111786697308 0 -41.696111786697308 218.36423157775636 0 0 0 0 100.26880123713454 -98.286756547944393 0 -98.286756547944393 175.94660992819831 0 0 0 0 -261.04663297567197 -82.181913253611611 0 -82.181913253611611 -74.263004739014292 0 0 0 0 -574.52584461303763 -696.09348863595983 0 -696.09348863595983 -44.091498699382555 0 0 0 0 -84.695821903703518 -349.33022360689256 0 -349.33022360689256 -327.28696850962024 0 0 0 0 5.0714018340882507 -11.989958284373815 0 -11.989958284373815 21.035799549780847 0 0 0 0 -39.599649341936249 16.907664424244373 0 16.907664424244373 156.88423981071901 0 0 0 0 434.89291782529961 -305.00345591056953 0 -305.00345591056953 -135.06322399092699 0 0 0 0 407.03091675108163 -266.10075870134278 0 -266.10075870134278 103.33163335788855 0 0 0 0 260.76740228539347 16.621431072638217 0 16.621431072638217 82.011907559184365 0 0 0 0 439.96417725360232 -226.69929281999976 0 -226.69929281999976 149.08500546061265 0 0 0 0 212.80545486217247 -611.76883920591843 0 -611.76883920591843 962.18340230315539 0 0 0 0 132.47700816181941 -278.02146820807184 0 -278.02146820807184 160.36880758662596 0 0 0 0 128.234893131322 -216.60564196846235 0 -216.60564196846235 480.31125424216179 0 0 0 0 -7.0785108016610252 -35.794122112067669 0 -35.794122112067669 629.04326684237139 0 0 0 0 -42.858632991868944 55.558515974933812 0 55.558515974933812 515.51088470068316 0 0 0 0 -54.026135176938624 66.097505507932738 0 66.097505507932738 540.64972158008231 0 0 0 0 -73.075788984030055 140.05848033971142 0 140.05848033971142 1063.7129229452078 0 0 0 0 326.56430413419184 279.08703305241471 0 279.08703305241471 482.65220502303237 0 0 0 0 438.54787979032716 -614.9929727880525 0 -614.9929727880525 -175.20977964559265 0 0 0 0 3.134161097413231 -5.7764749335191583 0 -5.7764749335191583 9.5217364482013753 0 0 0 0 -382.99612367780298 -8.3569335792076345 0 -8.3569335792076345 1580.6677417295869 0 0 0 0 -27.192999872348366 94.947127456734165 0 94.947127456734165 576.97571032210726 0 0 0 0 344.53927381282182 -614.29901208922183 0 -614.29901208922183 1556.2915738866238 0 0 0 0 -164.28048080213938 -157.80008254263748 0 -157.80008254263748 577.49006814508266 0 0 0 0 17.247985048591847 -20.085358492263012 0 -20.085358492263012 22.719340799432743 0 0 0 0 394.9409070349127 -19.634070986518964 0 -19.634070986518964 -81.649262400171665 0 0 0 0 24.281665610670188 -52.029133383118051 0 -52.029133383118051 -81.345561981504488 0 0 0 0 20.893763026290411 -28.430845301364464 0 -28.430845301364464 31.323987490067985 0 0 0 0 3.9756496728196202 -8.3264072185086206 0 -8.3264072185086206 6.5075419415027014 0 0 0 0 -124.82117769860815 -20.323578964773333 0 -20.323578964773333 55.01178445554433 0 0 0 0 -129.69295908327331 -57.597147863183295 0 -57.597147863183295 49.799664380312606 0 0 0 0 -61.556421321949529 49.481044137854042 0 49.481044137854042 108.81274971554558 0 0 0 0 -54.0507883701639 -32.558527459164907 0 -32.558527459164907 51.992728770224744 0 0 0 0 -13.33409410170216 -7.8618913372813966 0 -7.8618913372813966 32.378732736928583 0 0 0 0 -4.7705207863102714 -9.8305093142826081 0 -9.8305093142826081 23.959913748378312 0 0 0 0 -0.81044372584169522 -8.4546477639376079 0 -8.4546477639376079 19.773786718891277 0 0 0 0 -8.9957251002827405 0.45458146182157222 0 0.45458146182157222 15.654796655979496 0 0 0 0 -2.5297261039959267 -4.3636498756659421 0 -4.3636498756659421 26.901993354664683 0 0 0 0 -3.055646992424272 -7.7737273385519075 0 -7.7737273385519075 21.186942676962644 0 0 0 0 -3.3922496520543133 1.3982851340754081 0 1.3982851340754081 7.0234787624310933 0 0 0 0 5.8328572584774747 -22.134958162533621 0 -22.134958162533621 38.256039965744208 0 0 0 0 3.4897980319749138 -7.1048607357740856 0 -7.1048607357740856 7.7000318619922306 0 0 0 0 -2.5682312116640764 -11.208711228375819 0 -11.208711228375819 32.026174939994263 0 0 0 0 -4.2414956340153775 -1.1430730193336913 0 -1.1430730193336913 9.0773309797186315 0 0 0 0 -5.6527000807709555 -4.1559766183636384 0 -4.1559766183636384 12.915361414743529 0 0 0 0 -17.508435722141119 9.2578561346309662 0 9.2578561346309662 7.916891003799158 0 0 0 0 -25.808657750401835 43.315013785853807 0 43.315013785853807 23.191992205305723 0 0 0 0 -11.724659787177188 5.8528512849006802 0 5.8528512849006802 17.535662936439621 0 0 0 0 2.4028679130497039 -5.7474123809661251 0 -5.7474123809661251 19.804383828362916 0 0 0 0 -83.0886798436768 20.251311071279815 0 20.251311071279815 87.849199462179968 0 0 0 0 -12.008052821667661 6.1304635189953842 0 6.1304635189953842 17.372959692198492 0 0 0 0 -19.416638162245015 12.085907354969372 0 12.085907354969372 5.9361536694285526 0 0 0 0 117.82822764941591 -96.738548756273303 0 -96.738548756273303 -19.467515274585821 0 0 0 0 -156.7474217054372 -115.50835135583554 0 -115.50835135583554 73.40338539120421 0 0 0 0 -27.741858974226943 -77.719658291694941 0 -77.719658291694941 54.36506652155731 0 0 0 0 -146.42523110864488 0.80875299401898815 0 0.80875299401898815 9.2019009439245565 0 0 0 0 0.33361054195711404 -16.428902423947875 0 -16.428902423947875 -49.001610442494894 0 0 0 0 2.8271443775089677 -1.1487972779481872 0 -1.1487972779481872 1.25337848478806 0 0 0 0 -0.61695009260914802 0.43583706927953791 0 0.43583706927953791 3.1495671854649014 0 0 0 0 7.3874002749531655 -19.767114398567173 0 -19.767114398567173 17.558460114696118 0 0 0 0 -17.315206624945176 -13.0832225991835 0 -13.0832225991835 6.720733956539334 0 0 0 0 -50.576821501043128 79.022691189549732 0 79.022691189549732 47.952355140519558 0 0 0 0 0.12666238676922387 -0.34696727992760401 0 -0.34696727992760401 0.91324963178958285 0 0 0 0 -69.981667078801365 15.50468316228671 0 15.50468316228671 4.3650708429286169 0 0 0 0 0.066737264877019697 -17.394140018262988 0 -17.394140018262988 31.470516884422977 0 0 0 0 -4.5784827471657881 -2.2661874105556468 0 -2.2661874105556468 3.4213116135340798 0 0 0 0 -0.19905438615796811 -20.703952580823511 0 -20.703952580823511 7.6254776151090482 0 0 0 0 -98.324512232715847 -40.660075812741979 0 -40.660075812741979 42.413334960689099 0 0 0 0 -115.48992737487788 -25.493936506868977 0 -25.493936506868977 47.305269867130846 0 0 0 0 13.187139492610868 49.826077861925057 0 49.826077861925057 271.49224697372756 0 0 0 0 -2.3189679852911063 0.068602901616788614 0 0.068602901616788614 1.2187427284018924 0 0 0 0 -106.41235657069683 207.77885426119383 0 207.77885426119383 -22.918088238776363 0 0 0 0 -30.411103525995827 -21.291669709498365 0 -21.291669709498365 31.449138017009773 0 0 0 0 51.524229549812844 -35.200604994000969 0 -35.200604994000969 8.5325621155107001 0 0 0 0 -3.3956709830795262 -60.069459758494759 0 -60.069459758494759 46.355092051771862 0 0 0 0 -147.47230562435868 96.36975043927896 0 96.36975043927896 486.10636157901081 0 0 0 0 0.35350758647051839 0.26081080688683755 0 0.26081080688683755 0.11028968009816431 0 0 0 0 145.73834968284882 165.5148348344328 0 165.5148348344328 107.34943860880639 0 0 0 0 13.158545103723554 101.72519005597292 0 101.72519005597292 256.54466433891912 0 0 0 0 7.0899637907625674 195.63192363253143 0 195.63192363253143 497.8353492340766 0 0 0 0 26.185758973997508 82.483168032661297 0 82.483168032661297 396.1048639127539 0 0 0 0 -79.074662726316546 146.71736562828937 0 146.71736562828937 383.78677481323177 0 0 0 0 281.72047553609264 94.562151335851013 0 94.562151335851013 264.97335964651552 0 0 0 0 125.77017765364099 132.03289532970211 0 132.03289532970211 309.68282754092343 0 0 0 0 123.25674188014 153.47799761245983 0 153.47799761245983 167.628646616075 0 0 0 0 -117.94001403431389 164.01235755797944 0 164.01235755797944 302.54202263493335 0 0 0 0 177.48684175351582 -118.50881013024969 0 -118.50881013024969 238.0079797917565 0 0 0 0 228.65707463636181 9.6083714586649194 0 9.6083714586649194 226.7209623681747 0 0 0 0 260.49648594616428 -11.596049748123733 0 -11.596049748123733 207.64149809848311 0 0 0 0 590.71279937822783 -9.8465185639397532 0 -9.8465185639397532 227.10395766313979 0 0 0 0 237.25264281574096 -35.699076842044008 0 -35.699076842044008 254.11392106100357 0 0 0 0 84.636547402017641 -44.421094353597482 0 -44.421094353597482 428.10294264165236 0 0 0 0 115.32385508587322 -3.7260572777609013 0 -3.7260572777609013 682.03860816010501 0 0 0 0 30.841958388213243 166.34795019397507 0 166.34795019397507 349.69240956794238 0 0 0 0 320.62676056683222 -221.20576300618291 0 -221.20576300618291 522.26422811861539 0 0 0 0 231.06904483840572 207.98113121039796 0 207.98113121039796 117.8446788767742 0 0 0 0 0.53852227113604956 -1.6673149567447449 0 -1.6673149567447449 8.0420541435788664 0 0 0 0 77.06983913250042 232.12646172509312 0 232.12646172509312 487.0497186260709 0 0 0 0 88.054703226122001 152.08117822228701 0 152.08117822228701 162.95741416822693 0 0 0 0 108.395025872931 25.448575586005063 0 25.448575586005063 198.68080670571999 0 0 0 0 -102.56655726649842 17.348506524412187 0 17.348506524412187 163.64385697621674 0 0 0 0 -0.06881077300886318 -57.849666087849073 0 -57.849666087849073 199.87485186019148 0 0 0 0 434.97649066678878 252.04227693214909 0 252.04227693214909 298.06761402177563 0 0 0 0 97.615655129984589 -34.892287773741373 0 -34.892287773741373 755.97728856090271 0 0 0 0 311.50846537962502 -244.48430876441421 0 -244.48430876441421 170.04374365878721 0 0 0 0 537.76613581542097 -444.98516197672097 0 -444.98516197672097 286.11940190235964 0 0 0 0 247.29979745497258 -459.36429802832299 0 -459.36429802832299 90.955824035952446 0 0 0 0 172.0106747791724 -191.83244167218709 0 -191.83244167218709 -352.28213183841126 0 0 0 0 1.6585424088305327 0.49404664611426696 0 0.49404664611426696 -0.0031592952966263965 0 0 0 0 -34.356264105474111 -48.245214757236681 0 -48.245214757236681 309.45910002885012 0 0 0 0 -42.794242886273423 -108.94317346098705 0 -108.94317346098705 87.253460072605776 0 0 0 0 -22.956908640760048 -161.64346533742537 0 -161.64346533742537 733.92560419125766 0 0 0 0 141.83433348054632 -168.82565201394755 0 -168.82565201394755 251.86567871378793 0 0 0 0 175.92757615617029 -366.87731403727503 0 -366.87731403727503 502.47984493913282 0 0 0 0 189.70171983176169 -8.1574683520952931 0 -8.1574683520952931 36.447031259091091 0 0 0 0 334.40444351397991 -223.94967011676545 0 -223.94967011676545 177.21596634741218 0 0 0 0 106.97850907541306 -76.922383008404722 0 -76.922383008404722 11.925701461172139 0 0 0 0 19.07899072143482 -46.533943005282708 0 -46.533943005282708 156.95106025716268 0 0 0 0 102.27503107220855 -34.418487449767781 0 -34.418487449767781 121.60178064076308 0 0 0 0 -0.10262552417135851 1.4925047836259857 0 1.4925047836259857 5.2284825417126051 0 0 0 0 77.465879319093801 -73.029825867337422 0 -73.029825867337422 58.037133403003736 0 0 0 0 87.34432665336044 -198.75695963347334 0 -198.75695963347334 241.35272523344247 0 0 0 0 160.13838169929704 -194.89543188318248 0 -194.89543188318248 84.866826111690898 0 0 0 0 2.6351784124508413 49.273639792944778 0 49.273639792944778 186.24737339224328 0 0 0 0 89.185859482663091 47.662717676275065 0 47.662717676275065 60.794327480210995 0 0 0 0 43.177064882007471 -63.333151931423345 0 -63.333151931423345 36.505892613292644 0 0 0 0 19.617359408326593 -1.7939617577731042 0 -1.7939617577731042 -0.78525715938667418 0 0 0 0 -1.2560488184353202 -2.4798541601674167 0 -2.4798541601674167 21.030161217245059 0 0 0 0 -60.274562196343254 -21.22633432675849 0 -21.22633432675849 57.462753066471123 0 0 0 0 21.952014700762447 -26.419153698011542 0 -26.419153698011542 -18.000821232050839 0 0 0 0 0.93357221351288899 -14.069895593941055 0 -14.069895593941055 65.799406403885769 0 0 0 0 -25.6936708909343 -19.275336037349916 0 -19.275336037349916 26.898751129808716 0 0 0 0 -4.0846923132621669 38.834034276336524 0 38.834034276336524 6.2008745111543249 0 0 0 0 29.491693937685341 -26.898584695158206 0 -26.898584695158206 27.948781527815527 0 0 0 0 -5.6448804985629977 -2.8795443713934219 0 -2.8795443713934219 30.676155147910322 0 0 0 0 3.2245807994986535 -3.1095516116456565 0 -3.1095516116456565 -20.520805239494621 0 0 0 0 -9.4646052645737804 2.422776132279612 0 2.422776132279612 15.919497801558245 0 0 0 0 -1.9498801023851229 8.2352686316980908 0 8.2352686316980908 39.627026508806011 0 0 0 0 -10.854105814875766 -18.99210308210877 0 -18.99210308210877 -32.575648633777746 0 0 0 0 -0.25923193491325947 4.7256158212012451 0 4.7256158212012451 14.145933185271133 0 0 0 0 4.704052717190482 7.8323226794649727 0 7.8323226794649727 10.726451978939654 0 0 0 0 -0.30515181689226978 1.6423523051216229 0 1.6423523051216229 17.764794390447953 0 0 0 0 0.6305383321080491 1.2332959327983986 0 1.2332959327983986 0.5373318813261605 0 0 0 0 -8.5562390159966526 -0.81660106116760289 0 -0.81660106116760289 37.693769101239468 0 0 0 0 -1.9279085462185321 -4.3274048437015153 0 -4.3274048437015153 26.150950602281227 0 0 0 0 -1.5156418334357795 -2.3651803760282526 0 -2.3651803760282526 8.4210581314819013 0 0 0 0 -5.6141952809048234 -1.3362412124297407 0 -1.3362412124297407 31.470723471424208 0 0 0 0 -5.2411495014602529 0.8609325437992581 0 0.8609325437992581 4.9932256567718518 0 0 0 0 -4.3140781525533356 -2.4434509517468861 0 -2.4434509517468861 4.8850731233877847 0 0 0 0 -17.400205938920408 -15.887812423543437 0 -15.887812423543437 41.843764597452719 0 0 0 0 -2.8775802803439672 -4.8533636010440322 0 -4.8533636010440322 17.079085880944554 0 0 0 0 -14.836422457010155 -0.038456832204431635 0 -0.038456832204431635 13.915804126379712 0 0 0 0 -2.6047469460743184 0.33633000889527231 0 0.33633000889527231 0.60015316581227296 0 0 0 0 34.540873563299215 -57.548053409644183 0 -57.548053409644183 69.298553379898294 0 0 0 0 -110.90743794035734 -28.395803616856938 0 -28.395803616856938 136.3242127701451 0 0 0 0 -11.730624037938469 5.8726088781622821 0 5.8726088781622821 56.173617096539601 0 0 0 0 -31.000062902070113 15.538456617643533 0 15.538456617643533 51.509323712611149 0 0 0 0 -3.8298729854741396 -16.114769679063102 0 -16.114769679063102 60.778367849021379 0 0 0 0 48.236303260396653 -48.512684008826909 0 -48.512684008826909 77.559486842252227 0 0 0 0 76.411273425714171 -74.625580971897762 0 -74.625580971897762 55.754260560865077 0 0 0 0 -2.0450778931908644 -78.112624072331528 0 -78.112624072331528 132.77843468524952 0 0 0 0 82.426999871164824 -144.11975368433991 0 -144.11975368433991 133.24083471526319 0 0 0 0 -1.6825357978703082 -0.34633700145814572 0 -0.34633700145814572 5.7211573696488482 0 0 0 0 21.254282169340513 -16.488552262548183 0 -16.488552262548183 2.9003629040707892 0 0 0 0 19.211447918887643 -10.404850148046535 0 -10.404850148046535 25.351357112573169 0 0 0 0 3.2115927088176477 -8.9440988598985314 0 -8.9440988598985314 68.225401983181655 0 0 0 0 -19.587131018127877 -2.7504964175327586 0 -2.7504964175327586 31.623928543533111 0 0 0 0 -19.673323989305572 27.227775041263158 0 27.227775041263158 76.269072481617513 0 0 0 0 -12.59636493479843 23.104162452918899 0 23.104162452918899 69.708179542187281 0 0 0 0 -11.186281749535766 6.4757083224032321 0 6.4757083224032321 6.6382306419096295 0 0 0 0 -18.72643630703169 -21.14995513193935 0 -21.14995513193935 67.948974882467496 0 0 0 0 10.512638225137337 32.807276394320411 0 32.807276394320411 68.703295369476109 0 0 0 0 -7.3646901021199938 -30.112250461042095 0 -30.112250461042095 56.007712009859461 0 0 0 0 -1.0468579484445204 1.623271008583135 0 1.623271008583135 0.73740636540938809 0 0 0 0 -42.151481685107683 14.763862469915694 0 14.763862469915694 75.332065727596273 0 0 0 0 82.540197729661486 7.9010684000750189 0 7.9010684000750189 50.821475456534245 0 0 0 0 31.943440231502564 -84.642584089465345 0 -84.642584089465345 125.2868097643277 0 0 0 0 -9.7636781800614187 7.7877823517195175 0 7.7877823517195175 5.016844079037913 0 0 0 0 -39.797329886243233 -75.733725777907239 0 -75.733725777907239 165.80520056080059 0 0 0 0 15.429341732284911 -91.557863478050422 0 -91.557863478050422 167.15788701756173 0 0 0 0 -21.113919910785853 1.3814908015920082 0 1.3814908015920082 97.887954260646438 0 0 0 0 58.075764555479509 -125.1464209956448 0 -125.1464209956448 129.39147811410476 0 0 0 0 10.985340994031731 -104.26423430091472 0 -104.26423430091472 153.91160790975118 0 0 0 0 36.825263230657697 -150.25928919849002 0 -150.25928919849002 197.14124850527878 0 0 0 0 65.418756182820289 -171.07343257835237 0 -171.07343257835237 165.09595484058809 0 0 0 0 35.279246764261188 -98.739449051610791 0 -98.739449051610791 110.05455987049208 0 0 0 0 86.008257112065621 -170.39411717130861 0 -170.39411717130861 155.30227675352216 0 0 0 0 64.845541348580127 -169.81173774831223 0 -169.81173774831223 178.38765438665905 0 0 0 0 86.066712613131415 -183.79887213825168 0 -183.79887213825168 186.74440342100752 0 0 0 0 21.222345597347363 -123.2274738441979 0 -123.2274738441979 314.30781612229111 0 0 0 0 52.946386878344811 -65.001145014758549 0 -65.001145014758549 230.11760951017823 0 0 0 0 -50.423952001363659 -9.5848316943975078 0 -9.5848316943975078 703.91951475751739 0 0 0 0 265.46721999091142 -323.58271654333475 0 -323.58271654333475 308.3180687417298 0 0 0 0 385.55480415369743 -206.76675683015401 0 -206.76675683015401 167.02770817099008 0 0 0 0 4.5661484751082426 0.5993200990216323 0 0.5993200990216323 0.038646182934955142 0 0 0 0 176.44998350505921 50.448629743728816 0 50.448629743728816 14.940533945519292 0 0 0 0 195.51110288449217 -427.07463275103873 0 -427.07463275103873 476.07211584279321 0 0 0 0 277.20481898524577 -40.778709329451885 0 -40.778709329451885 96.645674292172771 0 0 0 0 109.30017854797916 13.753301844146335 0 13.753301844146335 136.88744558344661 0 0 0 0 75.503028840264051 10.314907540214335 0 10.314907540214335 226.41049241933433 0 0 0 0 154.73225434807819 -21.835038604773217 0 -21.835038604773217 140.2854388648193 0 0 0 0 128.5408818624428 -37.157185628691877 0 -37.157185628691877 137.87665466607359 0 0 0 0 61.739359979927031 -74.815875060467079 0 -74.815875060467079 199.14458057930642 0 0 0 0 37.49832830496598 -76.109419208354666 0 -76.109419208354666 127.54403168696808 0 0 0 0 90.885500182058422 -52.403472532332671 0 -52.403472532332671 -33.706675070111487 0 0 0 0 93.661028244961642 -169.24568369214967 0 -169.24568369214967 175.57816441228715 0 0 0 0 141.54795432271203 -237.49816573822864 0 -237.49816573822864 270.13297859629347 0 0 0 0 232.26564999352081 -103.10117368429383 0 -103.10117368429383 110.99477330438094 0 0 0 0 139.56752951432716 -115.99330795213541 0 -115.99330795213541 124.15920270175047 0 0 0 0 110.3702808799062 -92.760209748885245 0 -92.760209748885245 108.49320907312904 0 0 0 0 86.310910339184034 -174.62109216577301 0 -174.62109216577301 173.94243863921838 0 0 0 0 138.4554916064651 -151.36690528384315 0 -151.36690528384315 113.09386512113269 0 0 0 0 62.021486824379963 -112.73246729311177 0 -112.73246729311177 115.34609556761734 0 0 0 0 88.422377853137505 -79.598864553248404 0 -79.598864553248404 45.581587515371211 0 0 0 0 78.416535940346819 -129.46756185916911 0 -129.46756185916911 122.96258324965675 0 0 0 0 -6.5233289995894665 -0.35725095387351757 0 -0.35725095387351757 50.284662085576201 0 0 0 0 79.413643618835522 -106.77185690155784 0 -106.77185690155784 104.46118345520335 0 0 0 0 80.976065361308429 -45.923983509454047 0 -45.923983509454047 65.837250869997661 0 0 0 0 29.763013087396757 -73.758391254594244 0 -73.758391254594244 58.506179693187732 0 0 0 0 0.086531300751630624 14.087576475475544 0 14.087576475475544 11.55354303003287 0 0 0 0 -5.9046251471470681 0.69826010949876149 0 0.69826010949876149 10.456165879751794 0 0 0 0 -13.347986672777552 -1.8200933353900837 0 -1.8200933353900837 17.095871704659658 0 0 0 0 -7.4425428243093847 4.2847674894110241 0 4.2847674894110241 6.2598136901797261 0 0 0 0 -11.081959833166271 6.7083570161739825 0 6.7083570161739825 3.8226247997667073 0 0 0 0 -8.6782197885617229 4.5017699721203073 0 4.5017699721203073 9.9475229634798836 0 0 0 0 -4.9201689622486811 3.302099195367191 0 3.302099195367191 1.6686465759994462 0 0 0 0 -4.0198987022695913 -1.187812339151062 0 -1.187812339151062 12.24351859176137 0 0 0 0 -2.5310293078745403 1.2208646693690035 0 1.2208646693690035 1.1664906815574341 0 0 0 0 12.965061281882811 7.9503363893072674 0 7.9503363893072674 26.351733323046574 0 0 0 0 44.193154281056422 -62.115945835545972 0 -62.115945835545972 67.036868746710752 0 0 0 0 13.654343479402996 -48.440990602982311 0 -48.440990602982311 76.862908239101671 0 0 0 0 7.0267689346010798 -68.515617493872014 0 -68.515617493872014 112.70617230558491 0 0 0 0 31.722604455979535 -63.092989234024571 0 -63.092989234024571 155.60065229527504 0 0 0 0 -0.57178352009358946 -44.993662203673011 0 -44.993662203673011 154.21372726023401 0 0 0 0 41.001767458141103 -111.37714857588981 0 -111.37714857588981 155.15252232424302 0 0 0 0 26.64770406113638 -115.63310594767245 0 -115.63310594767245 173.05075553441566 0 0 0 0 20.900372417403105 -30.680148674853626 0 -30.680148674853626 207.55673708888207 0 0 0 0 18.278293287994984 -25.438948878731026 0 -25.438948878731026 431.18281827953069 0 0 0 0 61.868297632930989 -213.65954182181304 0 -213.65954182181304 354.26792564570133 0 0 0 0 39.097669233508896 -145.99950230426657 0 -145.99950230426657 244.32152597345294 0 0 0 0 96.91796866480081 -146.97938832126056 0 -146.97938832126056 123.3888072957543 0 0 0 0 68.025917568035766 -186.3861688960942 0 -186.3861688960942 202.95614658385603 0 0 0 0 47.118619912620943 -150.84098437387365 0 -150.84098437387365 212.44574029295109 0 0 0 0 62.918259331075205 -171.92202334369267 0 -171.92202334369267 165.87793037044321 0 0 0 0 45.81461167234022 -144.13939649936583 0 -144.13939649936583 150.27741745662661 0 0 0 0 60.678096817487301 -167.35473762436595 0 -167.35473762436595 181.24475428127334 0 0 0 0 -5.2141051809809769 16.924286170502185 0 16.924286170502185 81.719201212595877 0 0 0 0 -11.517815062696172 26.058223081537108 0 26.058223081537108 104.80442905516247 0 0 0 0 -13.340818771200247 49.568558918683379 0 49.568558918683379 103.10393574767477 0 0 0 0 -12.535977163868665 26.767449526130804 0 26.767449526130804 108.98940410333307 0 0 0 0 -14.328820671475114 29.305848938694908 0 29.305848938694908 105.47333167547185 0 0 0 0 -14.355897028483014 29.948739365452639 0 29.948739365452639 110.72010901023168 0 0 0 0 -16.201122072867292 27.606080836743786 0 27.606080836743786 111.75951651832293 0 0 0 0 -17.87605065819298 29.83662720684697 0 29.83662720684697 111.0000559551554 0 0 0 0 -16.531243029428879 19.421914858532546 0 19.421914858532546 107.01209430667222 0 0 0 0 -14.149316787397765 21.388807509320031 0 21.388807509320031 108.6046233913512 0 0 0 0 -17.605641779831785 24.279187825406552 0 24.279187825406552 115.22708190193953 0 0 0 0 -23.415266970190714 19.415717297724768 0 19.415717297724768 111.19803678862809 0 0 0 0 159.3999549401633 255.01572534942238 0 255.01572534942238 136.0282117749166 0 0 0 0 -39.727356720379248 64.807329054058073 0 64.807329054058073 116.23223927568824 0 0 0 0 -4.4963001477016142 5.9023585870978508 0 5.9023585870978508 13.780439976252179 0 0 0 0 279.47787906404301 -47.775980274658195 0 -47.775980274658195 218.10992979333014 0 0 0 0 550.76750113573144 -408.95845564525689 0 -408.95845564525689 633.88465482207084 0 0 0 0 -93.534785958376233 70.44083387532919 0 70.44083387532919 118.20187052120446 0 0 0 0 -45.545306310586056 29.098972455053854 0 29.098972455053854 102.7919815432906 0 0 0 0 -64.835503725162198 53.164120441057548 0 53.164120441057548 128.59966330100724 0 0 0 0 -74.286192402487359 18.32910285376056 0 18.32910285376056 125.61940008951206 0 0 0 0 -74.139512547804202 19.347206524730439 0 19.347206524730439 105.6342551537 0 0 0 0 -117.18215343199336 15.6604675290464 0 15.6604675290464 154.98711921007543 0 0 0 0 -136.10174342301616 82.360208647213767 0 82.360208647213767 157.94520179904521 0 0 0 0 -112.41784275286409 32.706166702751034 0 32.706166702751034 122.70587603811236 0 0 0 0 -114.72123481373819 34.390883725768276 0 34.390883725768276 179.46972627233299 0 0 0 0 -125.73145176221806 3.2058067768241472 0 3.2058067768241472 162.26488817625977 0 0 0 0 -102.50341461551034 -4.6676658142805536 0 -4.6676658142805536 92.893263316273078 0 0 0 0 -102.85561668226001 -12.170959040856815 0 -12.170959040856815 97.926732845764491 0 0 0 0 -84.724785728825736 -15.145021492269279 0 -15.145021492269279 76.429550524174829 0 0 0 0 -43.305125092436356 8.114050231332385 0 8.114050231332385 87.927966813847888 0 0 0 0 -11.936196680082503 28.699838678008746 0 28.699838678008746 100.23143182313652 0 0 0 0 -36.183572161811753 -6.7168350479882974 0 -6.7168350479882974 66.834261279149018 0 0 0 0 2.6143754099675789 25.582513093899536 0 25.582513093899536 81.500985125699344 0 0 0 0 -11.492509381871059 28.160663334434503 0 28.160663334434503 93.595846981988871 0 0 0 0 -12.025279260902607 32.413003078763722 0 32.413003078763722 98.738381470262539 0 0 0 0 -12.315586882930802 31.253253016548115 0 31.253253016548115 104.94670798246807 0 0 0 0 -11.080356191203464 29.698148521696567 0 29.698148521696567 99.328960223792819 0 0 0 0 -10.859391002508346 28.869066347884655 0 28.869066347884655 97.322186949269962 0 0 0 0 -0.86886923899976409 3.7935328485656221 0 3.7935328485656221 22.392607885238675 0 0 0 0 21.815229584484769 36.47852012326257 0 36.47852012326257 114.46627027558134 0 0 0 0 -8.3931478901340597 27.38952418030749 0 27.38952418030749 88.500423221448727 0 0 0 0 -17.333630867329703 39.975707405327739 0 39.975707405327739 139.97828412176932 0 0 0 0 -4.7865799154078559 44.352809867419637 0 44.352809867419637 112.35169764042075 0 0 0 0 41.39602259320236 26.811326056742473 0 26.811326056742473 105.41521609733354 0 0 0 0 -8.516968166026345 35.239355260418961 0 35.239355260418961 95.879370119640953 0 0 0 0 -6.8260316133673768 30.524957257111964 0 30.524957257111964 89.030594719875808 0 0 0 0 -12.060137184202176 33.804020169081923 0 33.804020169081923 107.45729286599817 0 0 0 0 25.705173823570021 62.533400004436999 0 62.533400004436999 102.54587281811473 0 0 0 0 6.5513783272645014 -102.96001604638877 0 -102.96001604638877 -54.977330323874412 0 0 0 0 3.2014093593127058 -5.6209167786502228 0 -5.6209167786502228 2.3707522439064554 0 0 0 0 23.196875778388858 74.024776888900305 0 74.024776888900305 110.23944419832151 0 0 0 0 4.3241498775348646 58.458986228255071 0 58.458986228255071 132.52340365859709 0 0 0 0 -16.262821412252379 37.803177329082246 0 37.803177329082246 112.20750212406108 0 0 0 0 7.3595819371639664 54.956782587938505 0 54.956782587938505 120.39553624905602 0 0 0 0 -26.59861357043701 27.353852870270202 0 27.353852870270202 124.57892138171155 0 0 0 0 -14.665061258183414 34.683022341772812 0 34.683022341772812 118.24398857161577 0 0 0 0 -40.256109516893048 16.088027587788019 0 16.088027587788019 117.29263700316369 0 0 0 0 -41.688258799501796 41.551262703732903 0 41.551262703732903 138.00778725669807 0 0 0 0 89.22618647903073 82.231162205082001 0 82.231162205082001 139.10517512352089 0 0 0 0 -74.60973944527359 -103.26483950017791 0 -103.26483950017791 109.62057036866281 0 0 0 0 -31.626354529509626 22.537631170245731 0 22.537631170245731 101.69496361046185 0 0 0 0 -41.892585491830459 89.009389575904834 0 89.009389575904834 263.11299676611088 0 0 0 0 -133.51229179586608 -62.997505350169376 0 -62.997505350169376 288.07481838549575 0 0 0 0 -37.1954483057362 -26.579528307067985 0 -26.579528307067985 44.544691363918417 0 0 0 0 14.025632962698182 49.917109219607028 0 49.917109219607028 180.45514173546508 0 0 0 0 31.379786333944139 51.358390716951362 0 51.358390716951362 127.34170931979679 0 0 0 0 27.151020855758816 93.401892217537352 0 93.401892217537352 200.47328586021104 0 0 0 0 45.772279925264797 64.740898031060851 0 64.740898031060851 163.12054550136054 0 0 0 0 -5.6133442621573977 42.084783956971933 0 42.084783956971933 211.30375849735356 0 0 0 0 16.903543324980888 72.11604586607973 0 72.11604586607973 165.06626582796594 0 0 0 0 8.7397237248754891 73.689924992303531 0 73.689924992303531 173.1309949438139 0 0 0 0 -5.0395897856014926 78.71756267186629 0 78.71756267186629 174.60224984722754 0 0 0 0 2.7641189380528886 92.466652508467178 0 92.466652508467178 173.86509191228288 0 0 0 0 -2.7433858198824055 110.65425127651997 0 110.65425127651997 116.62346912969588 0 0 0 0 -7.3806501732344714 84.287479621862531 0 84.287479621862531 169.46221911993644 0 0 0 0 -34.167556926568935 -23.227837470742308 0 -23.227837470742308 51.851517048821279 0 0 0 0 -27.098540073297045 10.908039120244212 0 10.908039120244212 104.96387302212679 0 0 0 0 -71.91829178518401 87.460102214175265 0 87.460102214175265 216.00171209654138 0 0 0 0 -47.349464871969758 130.30928049785598 0 130.30928049785598 201.86467942395029 0 0 0 0 66.025838179933999 211.65883732274051 0 211.65883732274051 122.49712693113497 0 0 0 0 -35.822372238564412 177.65955520310325 0 177.65955520310325 115.16231996700481 0 0 0 0 -70.142802408463467 285.8035025880983 0 285.8035025880983 155.67197760907857 0 0 0 0 -25.396153028908884 282.03752160934755 0 282.03752160934755 129.6940950141111 0 0 0 0 -36.004972299961992 230.92633430390265 0 230.92633430390265 121.5244336139267 0 0 0 0 -25.396153028901608 282.03752160935028 0 282.03752160935028 129.69409501410883 0 0 0 0 -25.396153028894332 282.03752160935528 0 282.03752160935528 129.69409501411337 0 0 0 0 -154.86108566781422 159.00452341764276 0 159.00452341764276 197.3072871156138 0 0 0 0 279.91923583999574 124.45536800979875 0 124.45536800979875 16.452203855792959 0 0 0 0 249.28338958141103 239.87252503771992 0 239.87252503771992 81.65001517262408 0 0 0 0 158.83534973461951 75.066245200099047 0 75.066245200099047 -0.8800163838491244 0 0 0 0 150.85764314361222 190.24634525401689 0 190.24634525401689 56.724708275704415 0 0 0 0 93.975964995563118 228.69368913470998 0 228.69368913470998 125.46033379803157 0 0 0 0 102.26108430843669 240.81125678102899 0 240.81125678102899 112.55293392866952 0 0 0 0 178.66236415175445 183.61395007748297 0 183.61395007748297 58.285581205583185 0 0 0 0 84.737905372509431 150.77069801704135 0 150.77069801704135 59.414681514012045 0 0 0 0 44.405374834273971 139.84593168807623 0 139.84593168807623 130.75170594860901 0 0 0 0 34.630352782987757 114.23860768754093 0 114.23860768754093 65.417613558718926 0 0 0 0 97.632701744958467 79.842299183711475 0 79.842299183711475 46.3816521326371 0 0 0 0 11.574803640221944 12.310172391854394 0 12.310172391854394 19.676313027453944 0 0 0 0 49.354355681110064 50.62072863517767 0 50.62072863517767 44.374848770138669 0 0 0 0 -2.9632143820785508 0.71913865223491058 0 0.71913865223491058 5.3574065514734421 0 0 0 0 22.702105793383453 74.193517930003509 0 74.193517930003509 143.0374828488566 0 0 0 0 -10.64302464694776 7.9100834060077672 0 7.9100834060077672 22.910393359606964 0 0 0 0 -14.208554607998622 39.723851853868368 0 39.723851853868368 57.797925227242445 0 0 0 0 -17.016611862146192 29.685533004198078 0 29.685533004198078 45.524712537829146 0 0 0 0 -52.331071288830572 11.835148992491327 0 11.835148992491327 150.09545632761092 0 0 0 0 -57.718588256855583 218.53685757511903 0 218.53685757511903 5.6580802768767171 0 0 0 0 -74.114006888789845 13.91014703036376 0 13.91014703036376 233.59757421761242 0 0 0 0 -27.796762919413595 -43.620724082071433 0 -43.620724082071433 13.439483343881136 0 0 0 0 -101.81481632429859 -1.6250036578721847 0 -1.6250036578721847 77.786643532645598 0 0 0 0 -41.955512379347056 47.266043278965952 0 47.266043278965952 67.215489919026027 0 0 0 0 -6.8335080881270187 -8.9971483040544911 0 -8.9971483040544911 68.555990811021957 0 0 0 0 5.5987460110336542 30.15004812838913 0 30.15004812838913 59.772631035596532 0 0 0 0 -9.0618094478428155 8.6457405826438407 0 8.6457405826438407 7.5353983030661125 0 0 0 0 -2.8809193518526612 3.6114428666382095 0 3.6114428666382095 5.9361803261987625 0 0 0 0 -23.504161211189057 8.4305767038158592 0 8.4305767038158592 44.007403006742834 0 0 0 0 0.57419334074256767 22.392162755950494 0 22.392162755950494 17.270642083587063 0 0 0 0 -79.418903071600653 95.176449793955612 0 95.176449793955612 39.835031615523349 0 0 0 0 58.388469843430357 58.672350419321674 0 58.672350419321674 35.071639946231244 0 0 0 0 -10.615114142833724 8.0486267514197358 0 8.0486267514197358 15.722183831577338 0 0 0 0 109.78565730074479 12.336990481514022 0 12.336990481514022 -6.0535547965939713 0 0 0 0 -34.470377282947993 -20.936245651523791 0 -20.936245651523791 42.758966489665454 0 0 0 0 -5.4253622912528954 4.9951728692328743 0 4.9951728692328743 59.011371529829603 0 0 0 0 -6.6270602756240695 2.3980446255289003 0 2.3980446255289003 42.973850742018492 0 0 0 0 34.904165804415243 38.558933608548159 0 38.558933608548159 47.145619083368388 0 0 0 0 0.38891005145615054 23.316880834026733 0 23.316880834026733 100.20291533067348 0 0 0 0 31.734508376359372 28.78637933360119 0 28.78637933360119 53.211911714805183 0 0 0 0 50.405159680607539 -13.729533102613914 0 -13.729533102613914 95.385027386894194 0 0 0 0 4.7960024044198235 21.25857265340823 0 21.25857265340823 62.134139641715137 0 0 0 0 -18.869620229459542 30.690992526165132 0 30.690992526165132 77.986283289872745 0 0 0 0 267.42690069731179 23.580171698849881 0 23.580171698849881 -98.065210960612603 0 0 0 0 161.52061058691652 13.767206748556646 0 13.767206748556646 -31.05363441773045 0 0 0 0 24.409986995111467 10.415072713763948 0 10.415072713763948 28.270352015925255 0 0 0 0 0.35430744783386814 -0.58558533529322165 0 -0.58558533529322165 5.4911023640275296 0 0 0 0 -80.287671340038287 12.938107479816608 0 12.938107479816608 82.157910078257373 0 0 0 0 -2.2619990279778577 -1.0636142801262256 0 -1.0636142801262256 1.1976117992173172 0 0 0 0 2.7653399468395676 9.4641582117785319 0 9.4641582117785319 3.0617545447263677 0 0 0 0 -2.7870856793524581 19.069707065114471 0 19.069707065114471 38.879530292183517 0 0 0 0 -236.12722016583029 -76.524197505301117 0 -76.524197505301117 70.453555895977388 0 0 0 0 25.457898258440764 29.010391841791716 0 29.010391841791716 -32.762714172059532 0 0 0 0 5.7581488012910995 -18.525318843947389 0 -18.525318843947389 -45.260491534263565 0 0 0 0 7.4212953660784109 10.438899325031249 0 10.438899325031249 14.576267934139121 0 0 0 0 39.562434014133032 1.2849507434893894 0 1.2849507434893894 -15.067464728554114 0 0 0 0 0.21089761524126516 40.006659058694368 0 40.006659058694368 84.97422782346257 0 0 0 0 45.591944611181134 26.943496808564305 0 26.943496808564305 8.5897039010651497 0 0 0 0 23.667088502425031 -18.156087947588276 0 -18.156087947588276 117.26611027840863 0 0 0 0 0.37018260736658704 -2.6228588808726272 0 -2.6228588808726272 52.907224312690232 0 0 0 0 -3.2364503989285254 61.081772959553803 0 61.081772959553803 51.868121638624871 0 0 0 0 34.566883265901197 34.219160550194829 0 34.219160550194829 82.701634540459963 0 0 0 0 -18.357755882898346 -129.74450782352187 0 -129.74450782352187 42.714150335299564 0 0 0 0 -79.848771296974519 156.86175930172203 0 156.86175930172203 662.11641470076347 0 0 0 0 -34.04611027179817 -95.559926930541906 0 -95.559926930541906 377.03321897434762 0 0 0 0 -70.384358412207803 107.56351265554849 0 107.56351265554849 264.37531654832014 0 0 0 0 14.938070675093968 100.26912670340965 0 100.26912670340965 261.93761481923411 0 0 0 0 5.7247395722822674 0.28140255848609241 0 0.28140255848609241 3.1112535324898749 0 0 0 0 -535.02503247122149 343.77695341102412 0 343.77695341102412 888.63396157809723 0 0 0 0 63.479359304543323 68.249305359198843 0 68.249305359198843 254.70889868937775 0 0 0 0 -48.00591398616416 19.45734058277003 0 19.45734058277003 27.734015828580823 0 0 0 0 295.10758303073635 308.71245854765721 0 308.71245854765721 337.45101101363707 0 0 0 0 -0.15332789943378877 -2.8232074508168594 0 -2.8232074508168594 16.787933409172616 0 0 0 0 -62.800194850411572 99.830550974306561 0 99.830550974306561 289.47180614610716 0 0 0 0 441.82718798958103 548.8784549272101 0 548.8784549272101 628.80221931516644 0 0 0 0 1.0386662000071922 -1.6191357658669716 0 -1.6191357658669716 4.7590843715447004 0 0 0 0 -14.410860451563167 23.224073037587118 0 23.224073037587118 174.8044332465297 0 0 0 0 -118.40883429930909 -2.6378682819704409 0 -2.6378682819704409 248.80905242056588 0 0 0 0 -136.03047099304604 77.988724835726316 0 77.988724835726316 283.65599716773704 0 0 0 0 -105.5653145725646 -58.717611090803075 0 -58.717611090803075 83.945670304748091 0 0 0 0 -142.22499278263422 12.046258332860816 0 12.046258332860816 218.17777804354773 0 0 0 0 -64.76355972564852 167.1796121442344 0 167.1796121442344 391.01697027942942 0 0 0 0 -11.103568571679933 0.87017081344968084 0 0.87017081344968084 0.065062617815604185 0 0 0 0 -47.579110639568171 -201.25146733002975 0 -201.25146733002975 -167.42232803703246 0 0 0 0 -177.91316224705588 -236.69056771342184 0 -236.69056771342184 98.66158153231595 0 0 0 0 -177.63139415067496 76.826475954321012 0 76.826475954321012 75.14676734605564 0 0 0 0 -20.731738718748602 -429.34495479769839 0 -429.34495479769839 21.589066037180601 0 0 0 0 -300.54723624078179 -218.0418196135015 0 -218.0418196135015 552.91486613261418 0 0 0 0 78.474265945045772 -350.02969448800968 0 -350.02969448800968 -515.04402458656614 0 0 0 0 -94.290075207496557 237.11455771819146 0 237.11455771819146 395.4803339964626 0 0 0 0 -3.3545563300527697 0.32850935128128533 0 0.32850935128128533 0.26981949142554296 0 0 0 0 24.757500199833885 -53.357343712532384 0 -53.357343712532384 -100.24540686684122 0 0 0 0 -1.461282177916992 1.2958420756338001 0 1.2958420756338001 -1.2654345203641095 0 0 0 0 -80.392610658795093 -125.60448015186012 0 -125.60448015186012 258.154958912908 0 0 0 0 14.175913534768824 211.12990265626263 0 211.12990265626263 381.24983782291383 0 0 0 0 56.99266210739188 197.35603685864317 0 197.35603685864317 385.40337637596213 0 0 0 0 121.34633732711882 407.5222930694456 0 407.5222930694456 371.79559558956475 0 0 0 0 87.678976233522917 235.87212919854392 0 235.87212919854392 94.532884152648876 0 0 0 0 23.415603646433738 -79.590749468766717 0 -79.590749468766717 99.111591384627431 0 0 0 0 84.978290487886397 -28.676212761052433 0 -28.676212761052433 139.43478119155134 0 0 0 0 -14.608605549163258 -23.135868680554722 0 -23.135868680554722 234.97420964476783 0 0 0 0 -90.44228810843606 -82.703809119292714 0 -82.703809119292714 188.84011265015761 0 0 0 0 -59.673557782519765 -35.677418717376554 0 -35.677418717376554 228.15898957992249 0 0 0 0 -27.046041153722399 -106.15822842310331 0 -106.15822842310331 250.7012768423163 0 0 0 0 84.695134645484359 -51.062804598274738 0 -51.062804598274738 228.28566331189677 0 0 0 0 76.059146457493625 -84.816117514289544 0 -84.816117514289544 209.49193058236392 0 0 0 0 -149.51434717971188 -7.2992222313931734 0 -7.2992222313931734 238.2764826337559 0 0 0 0 -69.015674084998864 38.875479531573205 0 38.875479531573205 173.800798011805 0 0 0 0 -103.67167763936777 -72.959013107381907 0 -72.959013107381907 196.61591193638662 0 0 0 0 -111.47504909256918 6.7225080332614198 0 6.7225080332614198 125.43987006401358 0 0 0 0 -47.897688262932206 -60.931122393804912 0 -60.931122393804912 242.44687411208497 0 0 0 0 -67.156114591460209 -13.669141886350701 0 -13.669141886350701 239.3754738522376 0 0 0 0 -84.597528295718803 -27.542806856082507 0 -27.542806856082507 233.87291988063225 0 0 0 0 -93.245799662706759 8.8766431907562833 0 8.8766431907562833 213.74262510143171 0 0 0 0 -73.998831207554758 -19.398706854656666 0 -19.398706854656666 238.99115300830931 0 0 0 0 -32.006240548205824 -94.778277349985956 0 -94.778277349985956 172.20624042539862 0 0 0 0 -74.269538762993761 -33.473336397358935 0 -33.473336397358935 363.39486090524042 0 0 0 0 424.44445167044614 -537.53933991093243 0 -537.53933991093243 486.86874888992355 0 0 0 0 1.081620196370086 2.4012899932154994 0 2.4012899932154994 15.669629982347743 0 0 0 0 786.48075352164233 328.06298335328262 0 328.06298335328262 -218.06528134241688 0 0 0 0 -2.8686959099973559 4.3442512338376638 0 4.3442512338376638 47.019827021481817 0 0 0 0 34.982399757629651 99.574743329859359 0 99.574743329859359 182.91358798076544 0 0 0 0 -1.6078342075270484 -12.568505644447669 0 -12.568505644447669 108.01967017071183 0 0 0 0 -12.070714750227125 -3.9324586457296391 0 -3.9324586457296391 188.83545857184822 0 0 0 0 -12.066744064026352 -3.8384687236753052 0 -3.8384687236753052 129.8005616346569 0 0 0 0 -60.594892580740634 -21.405816140660136 0 -21.405816140660136 102.05522246537384 0 0 0 0 -6.2812604020259357 3.3371644535179694 0 3.3371644535179694 15.741059574547336 0 0 0 0 -62.50448142732057 -30.67940269905489 0 -30.67940269905489 214.47805978711403 0 0 0 0 -15.576031374508602 -15.358503966958779 0 -15.358503966958779 44.069511961810804 0 0 0 0 -3.0296891931402334 2.2757881294258233 0 2.2757881294258233 70.335896258451228 0 0 0 0 -31.793172671177672 24.018485955517463 0 24.018485955517463 141.74479975631766 0 0 0 0 -11.468834136728219 6.8817824209753553 0 6.8817824209753553 82.228766672826168 0 0 0 0 -3.9167083371830813 13.975913868180214 0 13.975913868180214 98.147504407897941 0 0 0 0 -2.0851427926527037 3.2253253342567341 0 3.2253253342567341 23.132090069777149 0 0 0 0 28.812046242259044 31.83118351702457 0 31.83118351702457 124.7666482382192 0 0 0 0 -2.1604555035439321 6.2864122217635483 0 6.2864122217635483 72.841486661520122 0 0 0 0 -59.931354106802246 -18.941964907570764 0 -18.941964907570764 64.455031930286623 0 0 0 0 -16.369396288664227 8.6710911357830138 0 8.6710911357830138 20.746284038826232 0 0 0 0 -137.82796411944582 6.591724387611066 0 6.591724387611066 287.60947305146965 0 0 0 0 -90.826659431329972 16.141810199917927 0 16.141810199917927 -3.6218460769196099 0 0 0 0 206.71901640961732 66.576159647984696 0 66.576159647984696 26.474457476164389 0 0 0 0 -46.489381838954841 41.244046977396465 0 41.244046977396465 230.73499055536195 0 0 0 0 -5.5216851382284027 -2.9004369316232967 0 -2.9004369316232967 1.1302096236549115 0 0 0 0 -15.606780858970524 -56.694421676773345 0 -56.694421676773345 138.41725849139038 0 0 0 0 -1.9362335979476484 31.738184032757999 0 31.738184032757999 30.576315208669257 0 0 0 0 4.8135311849484168 -3.1379119069076324 0 -3.1379119069076324 20.006371363054658 0 0 0 0 -58.189587726974423 -17.827183342208627 0 -17.827183342208627 102.93679676328975 0 0 0 0 -5.8660509751898644 -40.111081178420136 0 -40.111081178420136 54.935168702852025 0 0 0 0 20.649759838801401 8.1283331561371597 0 8.1283331561371597 95.845838266602186 0 0 0 0 -12.208983555917236 -0.52572839517273806 0 -0.52572839517273806 18.258482739814951 0 0 0 0 -21.813138268731564 -8.1843936736013347 0 -8.1843936736013347 130.06488331293076 0 0 0 0 -109.24202170373974 -30.216043334406095 0 -30.216043334406095 75.998769941383216 0 0 0 0 -219.03004789795705 191.40009026390453 0 191.40009026390453 548.35701202217388 0 0 0 0 210.79497827582713 266.72885424857384 0 266.72885424857384 194.92112626070957 0 0 0 0 592.2801435214692 35.104634908054322 0 35.104634908054322 -138.38316515743099 0 0 0 0 175.90931585338956 85.8322256218039 0 85.8322256218039 71.885593553048238 0 0 0 0 71.801824800848067 30.898393616567319 0 30.898393616567319 100.62220428697037 0 0 0 0 73.697442809382665 37.759181146912397 0 37.759181146912397 77.599380585123072 0 0 0 0 -13.045415730113746 167.19735193036649 0 167.19735193036649 175.77391392187633 0 0 0 0 -82.779461374249877 41.946069805620027 0 41.946069805620027 106.83926298778852 0 0 0 0 111.05097690920275 121.47117624600082 0 121.47117624600082 136.31787355357483 0 0 0 0 2.2224754528124322 128.79893856120543 0 128.79893856120543 158.40624105945608 0 0 0 0 -9.8369711278774048 169.29333784832625 0 169.29333784832625 175.50616070730575 0 0 0 0 -64.15291194335623 160.52830593081171 0 160.52830593081171 217.21286107564265 0 0 0 0 328.68047592042058 104.24734908896971 0 104.24734908896971 122.03622621820796 0 0 0 0 -345.91445641680548 53.8924597165975 0 53.8924597165975 176.86838633378539 0 0 0 0 -282.01365074263958 430.87382027483045 0 430.87382027483045 159.59073538552377 0 0 0 0 355.85884548034846 621.74942134412674 0 621.74942134412674 -111.17074076295305 0 0 0 0 -11.178173308991973 -1.7321766084787669 0 -1.7321766084787669 58.145340180781204 0 0 0 0 -140.09398591278477 -56.901915246583599 0 -56.901915246583599 37.479077943224496 0 0 0 0 -5.7776978277631201 -13.709987963871271 0 -13.709987963871271 24.852414201812088 0 0 0 0 40.454227785318835 -10.418164237428527 0 -10.418164237428527 22.213504872746853 0 0 0 0 -6.2445777973706873 -18.858392935334333 0 -18.858392935334333 27.393247119491178 0 0 0 0 -27.286415129783563 -35.310420753754443 0 -35.310420753754443 2.9138010814713198 0 0 0 0 49.45155673195859 12.470522041134473 0 12.470522041134473 62.458031039242542 0 0 0 0 -8.301243956180862 -15.551550627975798 0 -15.551550627975798 33.846073489316495 0 0 0 0 -2.3503085930822172 -23.716189338692317 0 -23.716189338692317 24.194438263821738 0 0 0 0 -13.719446153099852 -31.014783224596613 0 -31.014783224596613 19.116152393602533 0 0 0 0 -17.934711346502809 -26.104167492705528 0 -26.104167492705528 58.004686818625487 0 0 0 0 -13.140027503947536 -7.0971108639841169 0 -7.0971108639841169 57.769309763710751 0 0 0 0 1.7291140877991011 -26.935015733742869 0 -26.935015733742869 24.870160456913737 0 0 0 0 -9.231268829123934 -18.040845832171804 0 -18.040845832171804 43.449800704063193 0 0 0 0 -23.602107243423234 -28.99771461561977 0 -28.99771461561977 28.432912121636491 0 0 0 0 -4.9699475205923749 -19.98622467090857 0 -19.98622467090857 54.739504778486264 0 0 0 0 -18.323795463080046 -31.188081372581337 0 -31.188081372581337 55.122922498569096 0 0 0 0 -24.67865652593764 -28.720638703975055 0 -28.720638703975055 14.692510172899347 0 0 0 0 -22.501125673773778 -19.197219903444953 0 -19.197219903444953 92.402490275743176 0 0 0 0 -13.376813880028951 -9.8076305713364036 0 -9.8076305713364036 57.988236068843612 0 0 0 0 2.6305714605968511 -20.364677936887809 0 -20.364677936887809 43.323871373181035 0 0 0 0 -25.534231801164424 -44.964895770313888 0 -44.964895770313888 71.753410850898717 0 0 0 0 -5.0668842142804351 -20.606880524064763 0 -20.606880524064763 49.987668337129435 0 0 0 0 -24.973100040940608 -34.746365600505669 0 -34.746365600505669 42.723705031865393 0 0 0 0 20.058971470294637 0.13106572278411477 0 0.13106572278411477 38.866352079388889 0 0 0 0 10.600202699663782 -30.549126063152077 0 -30.549126063152077 63.275591691269945 0 0 0 0 -40.979194703213579 -88.087497168460686 0 -88.087497168460686 67.647620931438269 0 0 0 0 12.606156529277873 -27.890129413709129 0 -27.890129413709129 44.887650625642237 0 0 0 0 8.4756739168842614 9.0504785649995938 0 9.0504785649995938 63.582807276945459 0 0 0 0 -76.584904911833291 -43.18890455308712 0 -43.18890455308712 181.3272570201581 0 0 0 0 -12.532906383368591 7.1084888973872848 0 7.1084888973872848 16.960874727184517 0 0 0 0 8.1687315365105135 -32.52941362482678 0 -32.52941362482678 62.19700965375096 0 0 0 0 -8.1799282539386695 8.0956648472929373 0 8.0956648472929373 53.562910946446209 0 0 0 0 -9.6600164030242013 7.0383214310404583 0 7.0383214310404583 73.193300203127365 0 0 0 0 -6.3259046881670145 -12.614387225399255 0 -12.614387225399255 12.295794642696729 0 0 0 0 1601.1772004117374 -1374.7500848974166 0 -1374.7500848974166 538.92701429047827 0 0 0 0 5.0576019588481387 10.367923779523094 0 10.367923779523094 0.12333427170694715 0 0 0 0 -1736.7576314068574 130.12300083268872 0 130.12300083268872 1802.111219003207 0 0 0 0 32.152133568044519 -21.210670497319171 0 -21.210670497319171 244.09700407776313 0 0 0 0 9.0511036671232432 27.2713912552247 0 27.2713912552247 195.37237320384941 0 0 0 0 14.203316237922991 23.728343328023612 0 23.728343328023612 188.01931865030161 0 0 0 0 -286.41322003526511 558.85895335650093 0 558.85895335650093 -495.51543252488932 0 0 0 0 -34.629950395603373 96.796846885773618 0 96.796846885773618 328.84337363380644 0 0 0 0 1.3587351414619064 1.4676534060292177 0 1.4676534060292177 4.7723120557117875 0 0 0 0 -39.022906241603778 -37.493217611000745 0 -37.493217611000745 399.25124545355499 0 0 0 0 125.3239229117662 -70.594815457738491 0 -70.594815457738491 198.39367613006112 0 0 0 0 5.1820110063617904 -37.835559428757051 0 -37.835559428757051 94.374780107842184 0 0 0 0 -6.7103727948779124 28.433647717095369 0 28.433647717095369 140.82893397612196 0 0 0 0 -123.03984587675768 -1.0477376899416413 0 -1.0477376899416413 134.43947823916415 0 0 0 0 2.5395618924620327 -11.920501396374402 0 -11.920501396374402 1.6999102299827136 0 0 0 0 87.152758202852056 -142.66564605368126 0 -142.66564605368126 14.527608622869479 0 0 0 0 32.715326610265038 -117.92158158985706 0 -117.92158158985706 217.35174875359164 0 0 0 0 5.7004928742927845 -25.120652950472618 0 -25.120652950472618 28.058468822333793 0 0 0 0 6.5618725867803462 -19.438715007442536 0 -19.438715007442536 40.900735471638811 0 0 0 0 -33.220134441295158 -85.370930582412484 0 -85.370930582412484 34.101712337643221 0 0 0 0 25.390046642083689 -21.342162212225617 0 -21.342162212225617 14.14574479800126 0 0 0 0 -3.7050490490755692 -17.963247866296172 0 -17.963247866296172 23.122510940111624 0 0 0 0 -12.348221600255783 -41.777759172958213 0 -41.777759172958213 38.213084716084268 0 0 0 0 0.8154334609862417 -29.242494644322505 0 -29.242494644322505 35.504686634987593 0 0 0 0 5.1953963305350044 -13.996682776494708 0 -13.996682776494708 72.575163125457095 0 0 0 0 4.9027762088726377 -17.235458550603653 0 -17.235458550603653 70.750686715955453 0 0 0 0 9.6215701414897978 -20.402151107069926 0 -20.402151107069926 49.12852418023472 0 0 0 0 -95.507928090549484 -200.38014093856418 0 -200.38014093856418 -147.74667004669027 0 0 0 0 8.7276353596701988 -8.8829258455658042 0 -8.8829258455658042 -1.653439683840503 0 0 0 0 -160.95469594770574 -58.330001581490251 0 -58.330001581490251 35.316122862277552 0 0 0 0 10.143911269131422 -15.324388194967469 0 -15.324388194967469 69.011728691581084 0 0 0 0 8.1388970561611131 -13.780757446205826 0 -13.780757446205826 74.951805471642729 0 0 0 0 1.5576163451179177 -4.6896243430528415 0 -4.6896243430528415 26.779261264535222 0 0 0 0 -0.48930812514504396 -26.198178883151741 0 -26.198178883151741 54.500612907460891 0 0 0 0 -13.048374582094084 -9.9472639107980285 0 -9.9472639107980285 47.645866279839538 0 0 0 0 2.6611035338754254 -11.420474643624644 0 -11.420474643624644 49.258615364443159 0 0 0 0 14.279279564954777 -11.446181452469318 0 -11.446181452469318 72.07234684334253 0 0 0 0 -7.15162880220646 3.3715183481081112 0 3.3715183481081112 39.622440754988929 0 0 0 0 3.0045508793647242 -4.5838714310765107 0 -4.5838714310765107 49.559508772145563 0 0 0 0 18.593927632708876 6.6166303182974033 0 6.6166303182974033 29.197969213091625 0 0 0 0 -8.8138937914926352 -12.831805121133456 0 -12.831805121133456 79.260473685775537 0 0 0 0 7.580761875106873 -14.695019188167862 0 -14.695019188167862 73.519873930126778 0 0 0 0 -10.963586911871062 -65.070744612768181 0 -65.070744612768181 49.332961620533752 0 0 0 0 4.4374272690250347 -20.169957365295645 0 -20.169957365295645 57.810580281585572 0 0 0 0 8.0255848351143868 -12.74938033077342 0 -12.74938033077342 72.596577775630465 0 0 0 0 44.389005097356858 -97.583210128825954 0 -97.583210128825954 200.42510031695667 0 0 0 0 78.807841515623295 -58.564527001481338 0 -58.564527001481338 172.34119094209836 0 0 0 0 3.3486225483029557 -85.938851852683371 0 -85.938851852683371 231.97226376730404 0 0 0 0 -4.9468844192147117 -60.501385796755784 0 -60.501385796755784 201.18188509446668 0 0 0 0 -25.181697623836953 -44.74584316075925 0 -44.74584316075925 189.08762561841888 0 0 0 0 37.540137962444987 -65.12821185051817 0 -65.12821185051817 105.78157024660027 0 0 0 0 22.491934136067357 -82.10298799565976 0 -82.10298799565976 166.85455482739673 0 0 0 0 -16.664728419174935 -17.588951925304173 0 -17.588951925304173 168.60309727569563 0 0 0 0 -23.771397952374627 -38.787839135585656 0 -38.787839135585656 212.81507963978822 0 0 0 0 -73.19927805122461 -25.688641697302188 0 -25.688641697302188 215.7796112786109 0 0 0 0 -47.132103311960236 42.399376230879881 0 42.399376230879881 199.08849280592784 0 0 0 0 7.0458210773585961 33.138734668897456 0 33.138734668897456 199.51499730418004 0 0 0 0 -73.171914326458136 12.833271029710886 0 12.833271029710886 268.50906476981066 0 0 0 0 -17.669030905477484 -5.3423116612295871 0 -5.3423116612295871 151.78646015301501 0 0 0 0 21.05465406606254 10.299306541631722 0 10.299306541631722 93.346199672713738 0 0 0 0 16.72161748394501 -47.716861455918888 0 -47.716861455918888 64.466725082256858 0 0 0 0 43.921442983128145 -59.854334787407197 0 -59.854334787407197 33.659909926503587 0 0 0 0 18.509291976847749 -32.310340162411791 0 -32.310340162411791 68.66195905945051 0 0 0 0 14.338723722295072 -53.15268908496401 0 -53.15268908496401 123.93815525105242 0 0 0 0 14.044567008074409 -50.182018946569201 0 -50.182018946569201 103.47370504557693 0 0 0 0 35.52121809023447 -74.457190750347365 0 -74.457190750347365 109.12853965378304 0 0 0 0 41.809465244096828 -72.81894165184417 0 -72.81894165184417 54.457603275858901 0 0 0 0 20.38179593571013 -16.765415762205883 0 -16.765415762205883 -25.738458805812353 0 0 0 0 43.345541988835976 -53.017815294445882 0 -53.017815294445882 33.742972154171639 0 0 0 0 23.11754525119413 -17.820056275251957 0 -17.820056275251957 -18.287155758649348 0 0 0 0 -9.1089204253768514 -77.212930927719526 0 -77.212930927719526 42.745915622483153 0 0 0 0 139.40400513665941 -104.6173521092596 0 -104.6173521092596 70.516062959946794 0 0 0 0 79.499302522077414 -26.351079516104051 0 -26.351079516104051 -12.056965705732296 0 0 0 0 -38.517597165058532 -61.615702312268695 0 -61.615702312268695 -30.020687735595857 0 0 0 0 24.993152817506711 -121.28283958073735 0 -121.28283958073735 -128.40668039541197 0 0 0 0 108.15415744980464 -47.09373050935028 0 -47.09373050935028 -68.101212050765753 0 0 0 0 29.481904329819372 -40.357199409738314 0 -40.357199409738314 -25.238457000023118 0 0 0 0 55.416403921548408 -76.617034952441827 0 -76.617034952441827 -46.000077349686762 0 0 0 0 58.116934106590179 -64.591361588883956 0 -64.591361588883956 2.8910379383305553 0 0 0 0 47.431521473186422 -30.497015442821066 0 -30.497015442821066 -31.794642548966294 0 0 0 0 89.158831000632745 -21.212308230146846 0 -21.212308230146846 -40.42627906764028 0 0 0 0 69.216650950235362 23.644535627694495 0 23.644535627694495 -74.428549348496745 0 0 0 0 37.520028554613418 -3.020549668926833 0 -3.020549668926833 -10.629002670279988 0 0 0 0 57.924536654465555 24.202462125720558 0 24.202462125720558 25.493239022413036 0 0 0 0 18.746711039373171 -21.719289806575581 0 -21.719289806575581 -14.55432932842518 0 0 0 0 19.73080918978485 -56.361888265990729 0 -56.361888265990729 41.177671121081858 0 0 0 0 37.580385256482487 -9.1089158218635475 0 -9.1089158218635475 -8.1075269560424204 0 0 0 0 16.4858669543828 -75.710147816510471 0 -75.710147816510471 16.17391950814519 0 0 0 0 -0.65256308849177813 -4.5010876321955919 0 -4.5010876321955919 14.643654893089376 0 0 0 0 13.148244563088497 -198.17222919212054 0 -198.17222919212054 -43.993560761788103 0 0 0 0 9.7238943807730873 -11.231929046493441 0 -11.231929046493441 9.303255571315745 0 0 0 0 -27.135389902777661 -53.171644492202176 0 -53.171644492202176 -16.061934702258441 0 0 0 0 36.90654774045106 -11.523504278371547 0 -11.523504278371547 -258.70200137020583 0 0 0 0 200.2550896264047 104.53938920248675 0 104.53938920248675 68.187299625576998 0 0 0 0 279.03538151019438 -96.524494205219526 0 -96.524494205219526 -53.406511916418822 0 0 0 0 3.8709954433319886 -3.3539344210507949 0 -3.3539344210507949 2.3394788225830325 0 0 0 0 143.60968886164483 -290.88961587549784 0 -290.88961587549784 265.98386459210451 0 0 0 0 -278.47618676018328 172.63436752913549 0 172.63436752913549 547.79869475591113 0 0 0 0 -347.04606764740987 -397.78297371758345 0 -397.78297371758345 3496.7479856101345 0 0 0 0 477.23411126878227 -182.8981520972302 0 -182.8981520972302 -280.92922527189876 0 0 0 0 19.05043423828295 -2.3240257999963205 0 -2.3240257999963205 4.9066671710123764 0 0 0 0 -165.70370348483323 13.163483639298647 0 13.163483639298647 2108.1747868128441 0 0 0 0 8.5153915757711349 0.82216829989182827 0 0.82216829989182827 8.1426307269327651 0 0 0 0 -130.60848209698986 162.5311028330616 0 162.5311028330616 -77.400545303979015 0 0 0 0 -148.41062811699209 -58.444545296729302 0 -58.444545296729302 95.114571234495088 0 0 0 0 20.163423825221344 12.463764498033925 0 12.463764498033925 31.385674682590434 0 0 0 0 7.7329208417719872 -11.823173519546437 0 -11.823173519546437 19.156236315402751 0 0 0 0 -74.818004150558409 -13.512968228309546 0 -13.512968228309546 -63.07098853669595 0 0 0 0 24.803253905500696 46.535587416423368 0 46.535587416423368 225.65468282160509 0 0 0 0 70.183518574589513 835.70671454513649 0 835.70671454513649 3496.1937296640572 0 0 0 0 3.8807027768489561 -3.1057474001832333 0 -3.1057474001832333 8.8089114869879239 0 0 0 0 939.49976225366004 -814.83342765662746 0 -814.83342765662746 723.20789701025751 0 0 0 0 -577.62104016578985 -448.4714104368677 0 -448.4714104368677 3617.9581743658709 0 0 0 0 1.8945620548061575 -0.48817812719245524 0 -0.48817812719245524 6.4430318259791655 0 0 0 0 135.00927649935966 173.09391743473498 0 173.09391743473498 127.98314287867106 0 0 0 0 413.64439825957351 216.24118237656376 0 216.24118237656376 -262.20400873339531 0 0 0 0 -241.11963113848788 -364.79697454957795 0 -364.79697454957795 96.061353186843917 0 0 0 0 109.73490847680205 -120.68608044336725 0 -120.68608044336725 -94.664387805751176 0 0 0 0 2.6003116001859503 -13.47830060406217 0 -13.47830060406217 46.633138356987786 0 0 0 0 422.76001662434965 41.15728197194403 0 41.15728197194403 139.08618920820663 0 0 0 0 -60.323088979577278 -102.17313815921807 0 -102.17313815921807 262.03751390485559 0 0 0 0 -163.27928758176267 61.49574908550494 0 61.49574908550494 3.724885384333902 0 0 0 0 193.39858615708636 -44.508307074782351 0 -44.508307074782351 -96.684891575976508 0 0 0 0 -36.51732759592403 -114.27852123206321 0 -114.27852123206321 32.065519040974323 0 0 0 0 41.631475099113686 -211.51687832588323 0 -211.51687832588323 -199.22131132302457 0 0 0 0 0.2499139394822123 -15.545651435182663 0 -15.545651435182663 45.033266015264417 0 0 0 0 20.607732021489937 -20.351072473004024 0 -20.351072473004024 46.017939625191502 0 0 0 0 3.9551740793474219 -8.026555391169957 0 -8.026555391169957 44.381447708673235 0 0 0 0 8.5422782769528567 1.6454385615725187 0 1.6454385615725187 36.662843130150577 0 0 0 0 9.56222312607267 -13.407725348130496 0 -13.407725348130496 27.490526156486858 0 0 0 0 26.250442558446593 -4.9477432243038493 0 -4.9477432243038493 35.295531409728483 0 0 0 0 -2.5618861923339864 -43.002406096948107 0 -43.002406096948107 41.957001198128637 0 0 0 0 -2.2016042051845943 -32.346527186618914 0 -32.346527186618914 36.501466653855459 0 0 0 0 16.595988878165208 -31.62739779653554 0 -31.62739779653554 44.66734685063269 0 0 0 0 37.949440316438086 47.103383763671445 0 47.103383763671445 73.928485280739551 0 0 0 0 100.73254345244641 21.534753883905069 0 21.534753883905069 -145.33204689936247 0 0 0 0 9.3038170184470097 -10.347189961362968 0 -10.347189961362968 9.9641286138718357 0 0 0 0 -13.302349370113006 27.405109316008748 0 27.405109316008748 90.688424995165406 0 0 0 0 -77.634262185245461 -122.34750567602168 0 -122.34750567602168 128.30938382459863 0 0 0 0 2.0480833844740984 -8.1406582836372845 0 -8.1406582836372845 41.222924585048986 0 0 0 0 -16.210627726309212 2.2311246397912328 0 2.2311246397912328 73.117007612490852 0 0 0 0 -3.2928877744870988 -0.87014824399011559 0 -0.87014824399011559 66.393453757238603 0 0 0 0 1.0214013790044945 -3.2285235548703746 0 -3.2285235548703746 42.22253083297332 0 0 0 0 -0.25712522594585607 -0.43416138747124933 0 -0.43416138747124933 35.028638487114222 0 0 0 0 3.4375962161969866 -9.0031194878793173 0 -9.0031194878793173 37.8519219572417 0 0 0 0 -92.823025888541451 -27.225443331572023 0 -27.225443331572023 83.848194417490959 0 0 0 0 117.62946409301185 162.75410638418907 0 162.75410638418907 130.39829406113131 0 0 0 0 -68.99910558123338 22.207900567689649 0 22.207900567689649 215.69802347425684 0 0 0 0 50.63853438186743 19.311716440730379 0 19.311716440730379 67.886367547009286 0 0 0 0 -29.012396922879816 48.954994383573649 0 48.954994383573649 88.655377581875655 0 0 0 0 -119.50046384491816 -123.14722482302386 0 -123.14722482302386 34.29843611146498 0 0 0 0 -69.069961480643343 464.8110139135988 0 464.8110139135988 3495.9722888373544 0 0 0 0 752.14239694768844 -1243.8852989449006 0 -1243.8852989449006 2127.3672534250836 0 0 0 0 10.903944871945352 -11.414236360871872 0 -11.414236360871872 23.890410977603096 0 0 0 0 11.181809433492027 2.0711328495129848 0 2.0711328495129848 2.3610333635780023 0 0 0 0 118.59057367896648 -535.27449668705231 0 -535.27449668705231 2704.0463402691385 0 0 0 0 16.988825337865311 1.5999816605098403 0 1.5999816605098403 11.076275122965104 0 0 0 0 14.798611460610573 0.20833997528643522 0 0.20833997528643522 31.61731615629833 0 0 0 0 8.5606724586286873 -3.8385641388595104 0 -3.8385641388595104 33.629683275674324 0 0 0 0 5.1820076752639519 6.9119931424468781 0 6.9119931424468781 29.93222961594293 0 0 0 0 174.70935249360309 -1196.4607100923895 0 -1196.4607100923895 4118.4199523511343 0 0 0 0 11.262998726893642 2.477593134022797 0 2.477593134022797 6.2127521680146316 0 0 0 0 -448.90296917712146 312.31898142100522 0 312.31898142100522 335.14198120086803 0 0 0 0 1044.9692622404134 137.59216765842211 0 137.59216765842211 -380.2211390534867 0 0 0 0 194.419798208727 -432.40600678618648 0 -432.40600678618648 3501.035687055919 0 0 0 0 30.436325847484202 -220.12323919624851 0 -220.12323919624851 3528.5653505815644 0 0 0 0 2.3547506752774305 1.874098666838945 0 1.874098666838945 0.17938001978254192 0 0 0 0 130.91732994204904 -228.69216518980102 0 -228.69216518980102 121.39157523032191 0 0 0 0 -679.32380767838572 -22.609417713205858 0 -22.609417713205858 255.35204418752983 0 0 0 0 16.307606183226653 -47.468355288374369 0 -47.468355288374369 348.8400843959098 0 0 0 0 649.97060254661164 448.60779008445752 0 448.60779008445752 292.03305718559568 0 0 0 0 438.21848985331002 428.22859786987465 0 428.22859786987465 603.93776166399766 0 0 0 0 1917.1489620086254 1878.6394383268707 0 1878.6394383268707 1025.6310374905261 0 0 0 0 172.35180524890296 1921.0541668740334 0 1921.0541668740334 3493.4107862576057 0 0 0 0 -256.79526045721155 912.89714664035273 0 912.89714664035273 2101.1831239863241 0 0 0 0 -646.70936529067319 526.56565248257175 0 526.56565248257175 3500.6602030424328 0 0 0 0 -255.71071322722017 936.15867063261976 0 936.15867063261976 2506.5814368474385 0 0 0 0 -138.08647045410606 338.93122162255531 0 338.93122162255531 1732.0227520183835 0 0 0 0 148.3216784203741 297.44406222576072 0 297.44406222576072 898.92152582628478 0 0 0 0 839.19411409637837 1187.4072795932007 0 1187.4072795932007 1316.6156764686384 0 0 0 0 247.2976200387107 417.13526316247771 0 417.13526316247771 739.98133265861543 0 0 0 0 267.90674095453699 348.45129912346601 0 348.45129912346601 715.39349735682481 0 0 0 0 201.75042687792154 126.01764441511114 0 126.01764441511114 255.7315146412875 0 0 0 0 137.38116933563123 255.38339305095724 0 255.38339305095724 824.38758676572616 0 0 0 0 139.08452000148219 108.83369167285127 0 108.83369167285127 486.0341475836467 0 0 0 0 157.37729506957987 575.44871178908943 0 575.44871178908943 1237.0600105669582 0 0 0 0 50.808799436559923 129.64297292318224 0 129.64297292318224 930.43199250678299 0 0 0 0 210.77981471507093 82.180759046423191 0 82.180759046423191 290.0564904576604 0 0 0 0 4.9616157835950503 109.02815248330808 0 109.02815248330808 486.53420922486112 0 0 0 0 168.81422955624021 -25.283328409308524 0 -25.283328409308524 -9.5697779100300977 0 0 0 0 197.4166164745526 -53.758961249390268 0 -53.758961249390268 -19.883429551162408 0 0 0 0 115.26352396316418 -57.83688741462538 0 -57.83688741462538 -206.41098541457905 0 0 0 0 68.212770425013559 -26.495834496250609 0 -26.495834496250609 -23.0105501773578 0 0 0 0 102.57973766915055 92.483631620156302 0 92.483631620156302 305.52857539555407 0 0 0 0 90.530678051138295 69.178158230472036 0 69.178158230472036 298.27956105218618 0 0 0 0 416.72892318071854 397.80096918838535 0 397.80096918838535 36.243555373937852 0 0 0 0 -170.42287282773873 155.14696430743061 0 155.14696430743061 517.56312621488405 0 0 0 0 -61.504672674715039 -194.85225892070957 0 -194.85225892070957 19.080985549699108 0 0 0 0 -23.432137735011565 253.86607512619048 0 253.86607512619048 1069.4788297905907 0 0 0 0 176.16150605911844 39.420611001631187 0 39.420611001631187 1115.97386913829 0 0 0 0 227.01455177306565 117.76135271168459 0 117.76135271168459 511.39499048286507 0 0 0 0 212.24306184123458 193.78814899706276 0 193.78814899706276 1128.0479502973903 0 0 0 0 114.94671355920539 -104.55242455666121 0 -104.55242455666121 1104.6520097937755 0 0 0 0 36.894102073160894 -139.51206948469553 0 -139.51206948469553 1886.6031474764022 0 0 0 0 -141.36664557265897 415.41281218568326 0 415.41281218568326 1843.1984720077453 0 0 0 0 -305.6885808116175 156.68400743974416 0 156.68400743974416 2538.5751219791564 0 0 0 0 -577.34790226979283 141.61811987831243 0 141.61811987831243 2542.3990737438071 0 0 0 0 -498.71590257672551 -371.50524639071591 0 -371.50524639071591 3498.3098642689365 0 0 0 0 129.2611630916148 -927.7872860137104 0 -927.7872860137104 3340.4065031749342 0 0 0 0 -34.628182271693618 -522.33234631109735 0 -522.33234631109735 2361.5434884371207 0 0 0 0 1793.0308030079375 -1588.7186759160541 0 -1588.7186759160541 3499.9343135777453 0 0 0 0 401.87320903686123 152.98233848177915 0 152.98233848177915 1239.1053935711607 0 0 0 0 1749.7452625151432 -236.04887478766796 0 -236.04887478766796 653.99493571097264 0 0 0 0 1299.5412700914494 -1360.5422846438596 0 -1360.5422846438596 2256.5574102275277 0 0 0 0 746.33602355476216 -253.21027817942559 0 -253.21027817942559 1306.8927482994477 0 0 0 0 475.12259697072386 336.23070491776161 0 336.23070491776161 1062.9955635003498 0 0 0 0 449.0858702378091 290.64855474534852 0 290.64855474534852 983.20504125906155 0 0 0 0 165.59288009711236 324.51259221538203 0 324.51259221538203 1022.821089300407 0 0 0 0 142.77320953980143 144.5004752210516 0 144.5004752210516 1103.894943247702 0 0 0 0 282.77474417639269 -711.93020791617164 0 -711.93020791617164 2260.1661563663511 0 0 0 0 49.923827990632354 -136.15119516795676 0 -136.15119516795676 1741.2180373273259 0 0 0 0 290.21781004002821 -296.19064544825233 0 -296.19064544825233 1474.156276449401 0 0 0 0 59.134078629787837 213.05938080361739 0 213.05938080361739 330.44400246645091 0 0 0 0 134.57096084946807 27.014742137427675 0 27.014742137427675 -125.34430296646315 0 0 0 0 21.93925950048612 -5.9882854408502197 0 -5.9882854408502197 3.2396552942703369 0 0 0 0 10.988862341224376 283.68360490280611 0 283.68360490280611 567.72213535966148 0 0 0 0 8.4489604086001542 -1.2258729368237766 0 -1.2258729368237766 2.6342259027204875 0 0 0 0 -204.11216031873607 49.091248035721947 0 49.091248035721947 3498.9831713931671 0 0 0 0 659.50513917596982 403.88145093435014 0 403.88145093435014 425.32205403751595 0 0 0 0 1067.3269926771902 -1108.4375449948129 0 -1108.4375449948129 3876.3114918624779 0 0 0 0 -168.46013186921118 -142.2077507782742 0 -142.2077507782742 477.70469275222422 0 0 0 0 194.07095337115243 474.73195521083835 0 474.73195521083835 853.23985096819251 0 0 0 0 -196.99065193753029 139.25296896753662 0 139.25296896753662 832.58098885144864 0 0 0 0 205.40509611811467 455.09499106723524 0 455.09499106723524 971.83409495880551 0 0 0 0 513.09470339796871 225.04329311392939 0 225.04329311392939 924.58329343327205 0 0 0 0 162.67775343687754 455.23118067042378 0 455.23118067042378 998.71783542639241 0 0 0 0 126.08010270217437 404.59870105125447 0 404.59870105125447 1018.736576178504 0 0 0 0 -60.883760001642258 217.59410325848148 0 217.59410325848148 809.83306514188007 0 0 0 0 61.939274716543878 514.27249912503976 0 514.27249912503976 833.25191657181131 0 0 0 0 55.98512298584501 517.99126573715694 0 517.99126573715694 519.88670657058537 0 0 0 0 -48.527357641170511 139.2015685475908 0 139.2015685475908 558.78452982530871 0 0 0 0 -39.89065991949883 519.79403126699981 0 519.79403126699981 1065.302055102482 0 0 0 0 74.470541467097974 724.82051369183318 0 724.82051369183318 1293.8459707013826 0 0 0 0 -81.892466408615292 339.69734319386043 0 339.69734319386043 1407.0636154976419 0 0 0 0 -147.053760903691 259.28462640164798 0 259.28462640164798 1485.09807215607 0 0 0 0 -95.795732853710433 370.1280155041095 0 370.1280155041095 1431.0472838633432 0 0 0 0 -103.80847882380658 359.23818593014585 0 359.23818593014585 1468.5245597198955 0 0 0 0 -76.110750364601927 406.14877452390374 0 406.14877452390374 1115.2935990354599 0 0 0 0 -39.796760798841206 179.38246691042878 0 179.38246691042878 1326.7599546865167 0 0 0 0 -21.237401687976444 380.43666996857519 0 380.43666996857519 980.71473340822558 0 0 0 0 -17.40526741067697 430.54359459285479 0 430.54359459285479 1124.6686845418371 0 0 0 0 164.85380358383281 388.28608232989791 0 388.28608232989791 914.58010489697335 0 0 0 0 -47.381521417868015 70.195657843525851 0 70.195657843525851 780.65048047625169 0 0 0 0 81.41954265231675 98.303506732965616 0 98.303506732965616 -138.22715852646797 0 0 0 0 -4.5462366071639657 3.2392417276045933 0 3.2392417276045933 6.5784251602564741 0 0 0 0 -28.813455660258569 114.35189915880255 0 114.35189915880255 141.66916481497901 0 0 0 0 -66.451999014716421 531.14310143684997 0 531.14310143684997 -599.79357374592655 0 0 0 0 36.000604922116381 26.199601278844384 0 26.199601278844384 16.249262161283355 0 0 0 0 -66.87615518867824 207.17308521110681 0 207.17308521110681 -526.64329241327869 0 0 0 0 378.13172218286616 -112.22570069433277 0 -112.22570069433277 229.4823200375904 0 0 0 0 -123.52677165336058 -180.61471857590368 0 -180.61471857590368 898.19925366480084 0 0 0 0 444.44704729269017 -162.72160215850818 0 -162.72160215850818 898.75818573783909 0 0 0 0 253.23883738923087 248.74614510073661 0 248.74614510073661 410.75266447386821 0 0 0 0 341.4930513668146 101.08919448974484 0 101.08919448974484 857.10715992613405 0 0 0 0 145.9586815417515 392.54409834328544 0 392.54409834328544 960.76595495919901 0 0 0 0 -62.991576173168596 347.74766205630294 0 347.74766205630294 724.29953245767683 0 0 0 0 0.26716447383535069 49.91372645280444 0 49.91372645280444 -85.972025299168308 0 0 0 0 0.35223722295333637 2.2051730192914505 0 2.2051730192914505 0.30841014378703591 0 0 0 0 -155.13292150564484 84.623383678204846 0 84.623383678204846 266.41430098023352 0 0 0 0 183.15225814158862 86.717531756534299 0 86.717531756534299 554.72183321333432 0 0 0 0 -14.178658266550201 66.841550962853944 0 66.841550962853944 604.27058172204124 0 0 0 0 1.4660347592057765 1.6119994075038448 0 1.6119994075038448 0.7455261870172265 0 0 0 0 113.88298715546216 439.71300440455889 0 439.71300440455889 4.5856846766473609 0 0 0 0 178.62551018608247 445.14518472881173 0 445.14518472881173 -264.73604265246104 0 0 0 0 70.742519155915275 45.518889421497832 0 45.518889421497832 27.980161968745549 0 0 0 0 -19.446920950584968 94.96404352907291 0 94.96404352907291 -92.686240110109793 0 0 0 0 30.143844789810828 58.955718347147922 0 58.955718347147922 -0.024185764181311242 0 0 0 0 -22.461001398665047 239.18213801014008 0 239.18213801014008 -143.45819984927948 0 0 0 0 -70.14184076611491 73.253018840463483 0 73.253018840463483 212.28608597451239 0 0 0 0 -121.15936715614953 317.96414547940003 0 317.96414547940003 -339.06565040329588 0 0 0 0 -197.90366877507768 157.53718337414466 0 157.53718337414466 -247.69353289656283 0 0 0 0 -234.33394717213559 283.68375036146608 0 283.68375036146608 -23.180515891683172 0 0 0 0 54.482338257184026 37.742449449661422 0 37.742449449661422 23.270482911799789 0 0 0 0 -13.787324285745854 147.3400072351069 0 147.3400072351069 -238.02309340478678 0 0 0 0 -108.3814674217283 332.73235001791181 0 332.73235001791181 -327.28247795780044 0 0 0 0 -145.4336822322548 142.39277851457155 0 142.39277851457155 133.08313756126154 0 0 0 0 -155.55363502170803 223.59707821348275 0 223.59707821348275 -36.843578471700312 0 0 0 0 -49.270684596973297 123.63390196563705 0 123.63390196563705 134.69141455698809 0 0 0 0 -161.77849568139163 104.30141599241688 0 104.30141599241688 179.996748969279 0 0 0 0 -139.81132853188319 207.68797676733811 0 207.68797676733811 -25.292879738272404 0 0 0 0 -144.87804344248798 81.82836592743115 0 81.82836592743115 171.52698323125514 0 0 0 0 -152.35123707339244 111.53205325112094 0 111.53205325112094 143.44334968179464 0 0 0 0 -210.87726389153977 -39.251308992723352 0 -39.251308992723352 338.17706856169389 0 0 0 0 -218.43742814912912 -1.8967035315581597 0 -1.8967035315581597 317.47275252550025 0 0 0 0 -192.54545028631583 47.480721282641753 0 47.480721282641753 358.56405605984037 0 0 0 0 -96.988717916126916 -43.683484185934503 0 -43.683484185934503 204.68556968554913 0 0 0 0 -100.05541495226134 149.83696181722189 0 149.83696181722189 397.1362126909662 0 0 0 0 4.8617546089044481 102.02768472240132 0 102.02768472240132 272.45969600008357 0 0 0 0 -136.10347548489153 31.868439227182535 0 31.868439227182535 274.14285908277088 0 0 0 0 505.45852938071766 -220.64323278082884 0 -220.64323278082884 1007.436002469778 0 0 0 0 -20.773561045383758 -1.3615838168783228 0 -1.3615838168783228 5.2949851465685924 0 0 0 0 0.66717556662948141 -5.7001162424903953 0 -5.7001162424903953 -2.3081227071631645 0 0 0 0 160.81895809805246 -198.31533903074524 0 -198.31533903074524 129.78467376616027 0 0 0 0 -45.027098074588139 861.41656020088703 0 861.41656020088703 838.83895627281709 0 0 0 0 -11.498143409934933 -4.5492025046655584 0 -4.5492025046655584 6.0889625456696592 0 0 0 0 63.907315352575097 219.38478467444656 0 219.38478467444656 738.41993877501227 0 0 0 0 -170.80672694409259 -162.97438367517316 0 -162.97438367517316 145.8033328014717 0 0 0 0 289.38084942294154 32.254335350851761 0 32.254335350851761 1103.5472416313714 0 0 0 0 323.47093864049384 133.20345887180883 0 133.20345887180883 708.62164789083181 0 0 0 0 -43.565196941286558 229.47510063034133 0 229.47510063034133 292.58785213927331 0 0 0 0 -44.659908172397991 142.7837467392892 0 142.7837467392892 187.2764343830604 0 0 0 0 -33.706200512498185 3.4710754677423523 0 3.4710754677423523 3.5884046560417318 0 0 0 0 7.8894198479283659 74.018885698758822 0 74.018885698758822 273.11470058373015 0 0 0 0 -12.04355789940746 19.276390694540169 0 19.276390694540169 303.06315679369436 0 0 0 0 71.426021563438553 223.85747773724142 0 223.85747773724142 98.696256758805248 0 0 0 0 -259.75284971248266 320.75394287108975 0 320.75394287108975 398.53199836684507 0 0 0 0 -305.79633038451357 237.21764824690763 0 237.21764824690763 865.74894512859464 0 0 0 0 -206.93187024775398 -91.656749184563523 0 -91.656749184563523 816.37870519385797 0 0 0 0 -207.77790431933317 27.051191954131355 0 27.051191954131355 495.63865272255134 0 0 0 0 -19.58045116873619 -27.540838127749282 0 -27.540838127749282 0.7560932812122374 0 0 0 0 -132.65261590880436 41.056178277707659 0 41.056178277707659 395.70762987876515 0 0 0 0 16.318920205514132 30.796749788769375 0 30.796749788769375 233.18335670298256 0 0 0 0 10.006368572267093 18.143758990045171 0 18.143758990045171 296.5022149541328 0 0 0 0 34.961388997209724 94.587006646375812 0 94.587006646375812 215.33808174174192 0 0 0 0 16.646688441335755 84.116795202304274 0 84.116795202304274 209.35298639410757 0 0 0 0 -36.365844981963662 19.590144331717767 0 19.590144331717767 12.17409310895772 0 0 0 0 36.306927042923235 96.543083155775093 0 96.543083155775093 196.10344694423839 0 0 0 0 56.046452732645776 77.970891231794667 0 77.970891231794667 149.36412949298392 0 0 0 0 -19.71144012893712 -23.953884949133936 0 -23.953884949133936 20.408833381217399 0 0 0 0 6.8380891522265301 31.072975323673745 0 31.072975323673745 192.99292263503594 0 0 0 0 20.099552142525681 40.247965667131211 0 40.247965667131211 198.78795838788938 0 0 0 0 -13.565361198695935 -23.750918763145101 0 -23.750918763145101 64.199786914051202 0 0 0 0 -49.533007787630595 -8.9625302471613395 0 -8.9625302471613395 59.708336079977016 0 0 0 0 -2.8224218233552278 -17.178443516679636 0 -17.178443516679636 51.806102344628016 0 0 0 0 -13.086617382929019 -16.768077950055499 0 -16.768077950055499 28.691595340401165 0 0 0 0 -11.078199700594269 -17.712879424329003 0 -17.712879424329003 82.078557878797255 0 0 0 0 -5.0209005995928351 -24.425698025911061 0 -24.425698025911061 60.016061930618889 0 0 0 0 -14.077829703938733 -11.674455396725534 0 -11.674455396725534 59.987513398307463 0 0 0 0 -0.76466734649875434 -8.4080732601614727 0 -8.4080732601614727 117.60443183156895 0 0 0 0 46.600311101352418 60.508565153635573 0 60.508565153635573 127.38421647417454 0 0 0 0 37.512357836112642 60.542955708035151 0 60.542955708035151 148.64008456606825 0 0 0 0 41.276426768276266 30.812737161713443 0 30.812737161713443 -15.590866600339652 0 0 0 0 34.180251862671867 75.332503596742754 0 75.332503596742754 153.3072068021429 0 0 0 0 44.373420725183678 -37.265196547752566 0 -37.265196547752566 -49.91855076039792 0 0 0 0 31.072800683850801 48.877463832825015 0 48.877463832825015 128.14690039137349 0 0 0 0 76.333165307118179 66.308609998792235 0 66.308609998792235 112.91210261592641 0 0 0 0 -10.633435830952116 -8.0440893359552135 0 -8.0440893359552135 70.432856729244008 0 0 0 0 44.068623340007115 37.076119890271912 0 37.076119890271912 24.558114729429974 0 0 0 0 70.735912601109931 64.885525715028052 0 64.885525715028052 25.457098123515607 0 0 0 0 58.280249010459784 -90.729052318769391 0 -90.729052318769391 -16.018325285956962 0 0 0 0 14.906890331764998 -137.91583474077197 0 -137.91583474077197 -194.92648676095996 0 0 0 0 -90.457838778186371 3.7611517324548913 0 3.7611517324548913 -147.95576081347826 0 0 0 0 4.5038927519284497 6.0387474141719224 0 6.0387474141719224 6.1578219332811699 0 0 0 0 55.093580122169783 -126.14621979451476 0 -126.14621979451476 -126.19850056158612 0 0 0 0 156.98396323033052 13.493598726894561 0 13.493598726894561 -153.21055715966213 0 0 0 0 57.430021303388003 -150.57751387786993 0 -150.57751387786993 -190.00050618701789 0 0 0 0 84.549910150745063 -99.077389111873345 0 -99.077389111873345 -173.26863265046268 0 0 0 0 9.1062060365852826 -0.91556931548134912 0 -0.91556931548134912 -6.4225373746709238 0 0 0 0 132.85410848852445 126.02874822648664 0 126.02874822648664 -347.52619772635808 0 0 0 0 216.76410686678514 -22.954804652792518 0 -22.954804652792518 -329.04657723442506 0 0 0 0 55.912233701988441 -7.7714192578278016 0 -7.7714192578278016 -8.5990734580486787 0 0 0 0 32.531096312808586 23.516125825874042 0 23.516125825874042 -29.223508267154102 0 0 0 0 130.59308226717667 -199.27392133331159 0 -199.27392133331159 164.08261557167134 0 0 0 0 2.6688422485416994 1.4708160177663956 0 1.4708160177663956 1.3182995379083025 0 0 0 0 375.8838758540856 -114.08399128086512 0 -114.08399128086512 -204.78169972971955 0 0 0 0 185.16042554938804 144.98217039148949 0 144.98217039148949 -345.23451058569844 0 0 0 0 79.842015974054192 54.383932612467277 0 54.383932612467277 24.580266640937737 0 0 0 0 54.186737998110402 189.73179046841324 0 189.73179046841324 -7.3251356789842248 0 0 0 0 47.584098854094236 -8.6169662677566521 0 -8.6169662677566521 -85.116025653405814 0 0 0 0 47.406183968751563 34.376661741565869 0 34.376661741565869 -17.713814469944325 0 0 0 0 56.308312887944339 -19.135099599341629 0 -19.135099599341629 -155.29055188270286 0 0 0 0 49.220602921732223 20.964380381230967 0 20.964380381230967 -81.813885477517033 0 0 0 0 -0.40230135013245655 204.77278869925067 0 204.77278869925067 2250.7374353594241 0 0 0 0 256.43471496772554 475.27873590952186 0 475.27873590952186 1203.2647521874096 0 0 0 0 -372.6180965130032 567.21488870420944 0 567.21488870420944 3496.0301501947506 0 0 0 0 -133.63343877076395 785.67609704097049 0 785.67609704097049 2308.4514417061 0 0 0 0 -10.692549327353902 579.28362458174524 0 579.28362458174524 2247.7591891153843 0 0 0 0 483.55381250314321 711.83764098556276 0 711.83764098556276 991.90684377316938 0 0 0 0 412.97359958251025 710.5357778646794 0 710.5357778646794 1397.7241903985687 0 0 0 0 9.3163132791676855 -30.68483250301496 0 -30.68483250301496 64.762124968949252 0 0 0 0 469.76124551420389 811.24941512939586 0 811.24941512939586 574.23653958381328 0 0 0 0 212.11075838594536 906.51482567091534 0 906.51482567091534 539.29630886778614 0 0 0 0 857.97587801265013 1206.6362351650314 0 1206.6362351650314 1602.3303594639292 0 0 0 0 -96.7581272430279 924.57056649104743 0 924.57056649104743 2810.9949691187721 0 0 0 0 270.23706258125492 1564.6389049260833 0 1564.6389049260833 3500.8387068643278 0 0 0 0 614.5453690656434 1305.2760547672042 0 1305.2760547672042 2268.5578570869475 0 0 0 0 923.70387284289143 1443.9740407113313 0 1443.9740407113313 2282.9783068642355 0 0 0 0 1609.7909728402542 2423.5415175747657 0 2423.5415175747657 3500.1222164396049 0 0 0 0 72.142981962754561 -76.22002778566673 0 -76.22002778566673 83.496933987655211 0 0 0 0 1586.6121989349908 2432.9119816510574 0 2432.9119816510574 3762.9138726174888 0 0 0 0 19.178175731090654 -23.495975829605058 0 -23.495975829605058 37.644546752010001 0 0 0 0 518.38380541587139 750.09344287264685 0 750.09344287264685 -205.33091120550671 0 0 0 0 294.85720498526734 1301.2907609358554 0 1301.2907609358554 1731.6836234642833 0 0 0 0 1844.8760740701146 1178.4454497252555 0 1178.4454497252555 748.9060318137781 0 0 0 0 -91.011935636239286 335.06431865382183 0 335.06431865382183 1435.4022073048691 0 0 0 0 7.831179875054822 5.9252848758884227 0 5.9252848758884227 5.4791364952921242 0 0 0 0 -132.00485264778035 -44.532788635297038 0 -44.532788635297038 3683.6427171383984 0 0 0 0 16.322545991465283 -32.420114878088683 0 -32.420114878088683 61.082392686123939 0 0 0 0 900.42941683104982 -822.75400855413318 0 -822.75400855413318 1196.9860995515046 0 0 0 0 993.50247402232344 1821.1722694214404 0 1821.1722694214404 971.61853953854552 0 0 0 0 1079.8585351637084 1375.4362399525853 0 1375.4362399525853 192.07003232676652 0 0 0 0 323.09716440560942 1344.0850518537591 0 1344.0850518537591 673.53675338305766 0 0 0 0 517.87109799761311 882.23081930301123 0 882.23081930301123 -12.609446552040026 0 0 0 0 370.88128472218159 236.59030136749789 0 236.59030136749789 -487.61889391343271 0 0 0 0 1124.5068411460848 872.20863974836084 0 872.20863974836084 -485.95038806936645 0 0 0 0 1.7487060482049586 2.9834083495289718 0 2.9834083495289718 7.2683343212582381 0 0 0 0 489.1173019037924 135.07164712109807 0 135.07164712109807 -1325.1639117934537 0 0 0 0 36.081179097993299 309.7778149060905 0 309.7778149060905 -341.30953833957392 0 0 0 0 -316.43961074918116 393.48189960775198 0 393.48189960775198 -297.69332621635476 0 0 0 0 32.499905734940057 205.19383980286148 0 205.19383980286148 -61.531949182477547 0 0 0 0 241.23173013797168 421.18454315920098 0 421.18454315920098 161.40025123234955 0 0 0 0 -28.835502893944067 350.86557661331608 0 350.86557661331608 -1.2353924129420193 0 0 0 0 -148.11731004924877 256.31123910743372 0 256.31123910743372 -75.792072819138411 0 0 0 0 5.5455370986364869 394.21204014356044 0 394.21204014356044 -40.663471055522677 0 0 0 0 770.60456778202206 722.58293532912649 0 722.58293532912649 45.486669189413078 0 0 0 0 473.9353341676142 583.03420580286183 0 583.03420580286183 351.95534895204764 0 0 0 0 298.95451839320958 344.35238050773478 0 344.35238050773478 26.441496210000878 0 0 0 0 303.82550558005505 274.19205539523682 0 274.19205539523682 333.45198194718978 0 0 0 0 216.30380367433372 382.52423405495574 0 382.52423405495574 406.45523261326889 0 0 0 0 -48.110730733493256 169.44787353920401 0 169.44787353920401 237.30237503734679 0 0 0 0 -82.312714185631194 228.15511502898153 0 228.15511502898153 293.24994878780853 0 0 0 0 -170.40823246357468 55.073280705793877 0 55.073280705793877 313.83504151967281 0 0 0 0 -213.04335733050175 49.387638792642974 0 49.387638792642974 471.86086108785821 0 0 0 0 -114.31056074590015 115.43145265033672 0 115.43145265033672 378.3751900823554 0 0 0 0 -282.84493305973956 -61.355408349510981 0 -61.355408349510981 391.29996109729836 0 0 0 0 -229.88170979268398 132.3195844195543 0 132.3195844195543 565.78362290913356 0 0 0 0 -208.23601358821543 -41.154420040278637 0 -41.154420040278637 310.98398513122811 0 0 0 0 -285.03388135030764 -146.8132989215519 0 -146.8132989215519 310.97937844164375 0 0 0 0 -232.17450874350334 61.307020692986953 0 61.307020692986953 -136.40093980406527 0 0 0 0 -230.06628233309834 -96.318065285311604 0 -96.318065285311604 1086.7298332443024 0 0 0 0 -182.8852946309853 -312.50506026022776 0 -312.50506026022776 371.32716993514623 0 0 0 0 92.777072917251871 487.69222823795462 0 487.69222823795462 1048.2436441171885 0 0 0 0 -146.30917797468646 183.39458184679097 0 183.39458184679097 593.84091212151543 0 0 0 0 -42.477566300982289 102.02054967080767 0 102.02054967080767 486.49073529335874 0 0 0 0 883.28367140681257 392.15127809795013 0 392.15127809795013 542.12404085948947 0 0 0 0 565.28168150876354 489.08003203669068 0 489.08003203669068 460.81835707627761 0 0 0 0 -99.852274344506441 -685.94165981487458 0 -685.94165981487458 353.26424781127571 0 0 0 0 -1.7448211989347189 3.7099718518196507 0 3.7099718518196507 13.887435312271123 0 0 0 0 272.48419457773252 516.92521457470139 0 516.92521457470139 744.1067102024972 0 0 0 0 105.92200622524342 579.20215755776371 0 579.20215755776371 1149.3360887661693 0 0 0 0 627.43804141393798 207.40666557198711 0 207.40666557198711 1221.6297964583791 0 0 0 0 488.18214250334358 485.65465379278976 0 485.65465379278976 697.80338553700858 0 0 0 0 819.7536409406548 484.0602157841322 0 484.0602157841322 667.10621531268407 0 0 0 0 502.07155236116705 503.18072875789221 0 503.18072875789221 569.11354197853871 0 0 0 0 820.28567355288351 480.04204238422244 0 480.04204238422244 361.15062616758951 0 0 0 0 574.5657924717118 445.74509359310287 0 445.74509359310287 497.2380593225098 0 0 0 0 4.1748310686162098 -24.483067939540689 0 -24.483067939540689 55.560736798246467 0 0 0 0 0.58036779908866876 52.507434850942019 0 52.507434850942019 218.98308244343207 0 0 0 0 162.78760214416204 237.24682672515337 0 237.24682672515337 809.26574686518688 0 0 0 0 393.37548959667214 506.16277895240637 0 506.16277895240637 536.6809663616441 0 0 0 0 25.127246557961712 -31.389338165081426 0 -31.389338165081426 420.22615682062315 0 0 0 0 596.21632203703314 748.24494310315913 0 748.24494310315913 995.03711300894793 0 0 0 0 297.5829171567957 797.64152436132281 0 797.64152436132281 797.2557742515346 0 0 0 0 467.71026447642953 634.61696023389231 0 634.61696023389231 951.62040482795419 0 0 0 0 962.89638059910362 1243.2295560162311 0 1243.2295560162311 1200.8878531177179 0 0 0 0 -0.19319685811176224 -16.614700431487378 0 -16.614700431487378 42.697640997313414 0 0 0 0 106.46943949018511 25.818704411449289 0 25.818704411449289 57.770676787185948 0 0 0 0 -2.9203031150462726 -7.1979453945651528 0 -7.1979453945651528 26.164503226117745 0 0 0 0 -12.515004103014888 571.42318481833354 0 571.42318481833354 1177.2273166918258 0 0 0 0 17.683546245915785 153.7126019175339 0 153.7126019175339 703.73428189774131 0 0 0 0 -41.781372976544084 -30.643734692639555 0 -30.643734692639555 118.99438620060391 0 0 0 0 168.00476645283663 -69.868247159778548 0 -69.868247159778548 -176.53154616127722 0 0 0 0 218.18926771111222 52.68497580930125 0 52.68497580930125 16.829679202259285 0 0 0 0 140.284062440919 255.19995525243576 0 255.19995525243576 377.83425458429701 0 0 0 0 118.58963230437809 28.198164995017578 0 28.198164995017578 40.34428435722657 0 0 0 0 208.75340216144656 -81.853032871429605 0 -81.853032871429605 -86.06984676522552 0 0 0 0 332.16271303733726 390.42307907211944 0 390.42307907211944 570.37065122553031 0 0 0 0 390.14461198145386 35.160776789482952 0 35.160776789482952 -105.49622317661124 0 0 0 0 -78.136546392144737 170.53303088065877 0 170.53303088065877 1199.0712206231983 0 0 0 0 4.8088759858219072 42.736371723440243 0 42.736371723440243 717.58113359828712 0 0 0 0 1107.630627383842 1693.514306560046 0 1693.514306560046 1972.1795714212058 0 0 0 0 -1.1575511182629463 -0.3749387956759449 0 -0.3749387956759449 9.9694247688139512 0 0 0 0 598.92900768222182 428.33373314444179 0 428.33373314444179 736.18312135904853 0 0 0 0 270.21065801549003 500.48650095376797 0 500.48650095376797 762.4878448025629 0 0 0 0 311.22050727443298 589.08386576682096 0 589.08386576682096 1191.2670221405278 0 0 0 0 163.12434529327857 415.46030734088708 0 415.46030734088708 805.82133514934344 0 0 0 0 471.69178368083658 398.93476404677131 0 398.93476404677131 420.74055475018395 0 0 0 0 -73.004158789580288 -40.509391572049935 0 -40.509391572049935 326.60067895929387 0 0 0 0 53.106591947364791 -3.1474947561100635 0 -3.1474947561100635 148.97570492437808 0 0 0 0 32.079801423635217 235.19084592118452 0 235.19084592118452 583.77130230276089 0 0 0 0 21.86425868321021 -101.14170141502473 0 -101.14170141502473 -16.519748198013986 0 0 0 0 -76.355991584866388 -63.02440363245114 0 -63.02440363245114 -30.899979928406538 0 0 0 0 -18.305513501290534 -55.660812066817016 0 -55.660812066817016 329.89793422460207 0 0 0 0 -281.06720159248471 11.239849201607285 0 11.239849201607285 614.15633304818039 0 0 0 0 63.258265948956478 -199.15402107717091 0 -199.15402107717091 -115.62811699826852 0 0 0 0 -61.007970636688242 -204.40261624823324 0 -204.40261624823324 10.11898992895658 0 0 0 0 -227.68142546467527 -46.67867009308975 0 -46.67867009308975 -1.6163530682533747 0 0 0 0 -4.5568812494185771 -3.6276995940954464 0 -3.6276995940954464 0.29719394457424642 0 0 0 0 25.221142967309333 -63.373186134922435 0 -63.373186134922435 -111.9535375284031 0 0 0 0 -6.534015151679796 22.917499545445025 0 22.917499545445025 -221.08052292284992 0 0 0 0 -47.137128724703643 8.9278695399880235 0 8.9278695399880235 33.689927428597002 0 0 0 0 -24.490597557472505 -5.6968962394739151 0 -5.6968962394739151 23.146818076219745 0 0 0 0 -15.054285116004394 -42.313640703796409 0 -42.313640703796409 23.73174909993395 0 0 0 0 -28.002187919005827 -2.1330656407570814 0 -2.1330656407570814 22.581323619938786 0 0 0 0 -47.603557442883357 13.47490663316421 0 13.47490663316421 90.281305859120039 0 0 0 0 -7.2928439731731842 -3.3839668835948746 0 -3.3839668835948746 0.42040648481810194 0 0 0 0 -8.0895190482799535 23.102330896101194 0 23.102330896101194 32.977154292791965 0 0 0 0 8.8655659322434985 47.317266143494635 0 47.317266143494635 65.98599422422194 0 0 0 0 -26.347534915919596 17.051509816614271 0 17.051509816614271 31.897959072390222 0 0 0 0 -21.667588891679078 4.0741042244995356 0 4.0741042244995356 10.745526799692868 0 0 0 0 -146.67491115133635 -5.8046578654539189 0 -5.8046578654539189 7.9970264163530373 0 0 0 0 -73.601249909080252 -124.56396926329762 0 -124.56396926329762 -60.529987484376761 0 0 0 0 -123.5162560437002 -79.497616245083918 0 -79.497616245083918 242.43729052632989 0 0 0 0 -208.38433288471242 -15.486290095916047 0 -15.486290095916047 166.32178362851846 0 0 0 0 -218.65296274101274 142.90632546798406 0 142.90632546798406 -113.82320427827653 0 0 0 0 -178.75139394200414 -9.1139373413388967 0 -9.1139373413388967 290.53295404781238 0 0 0 0 280.14772216083065 352.16784354557967 0 352.16784354557967 -83.119155038759345 0 0 0 0 -1.8177714978368584 -1.9623294287237627 0 -1.9623294287237627 3.4870349119925663 0 0 0 0 35.954651980171093 -115.86626925444034 0 -115.86626925444034 -123.35091731170542 0 0 0 0 110.84609265212748 778.22357152482437 0 778.22357152482437 598.7342557508382 0 0 0 0 108.78558601292025 -301.01273596168903 0 -301.01273596168903 208.71069888649799 0 0 0 0 346.73533728942141 -175.08916247210618 0 -175.08916247210618 11.080272977793356 0 0 0 0 -23.403488635501901 2.3804109574439281 0 2.3804109574439281 21.062062570519629 0 0 0 0 -9.3328360825196111 7.4678203981998958 0 7.4678203981998958 20.009866791201773 0 0 0 0 -18.876503491921113 0.92078079335317398 0 0.92078079335317398 11.353342656514712 0 0 0 0 98.925522944286058 116.98432181138196 0 116.98432181138196 246.38366743584629 0 0 0 0 -22.849856947591036 -4.2156743251396733 0 -4.2156743251396733 37.611082240186619 0 0 0 0 -142.47588228780478 -215.35769274847917 0 -215.35769274847917 69.057573348341975 0 0 0 0 34.648941517640196 314.45625754049979 0 314.45625754049979 1168.2947155984875 0 0 0 0 213.04259796646693 -576.83011357204668 0 -576.83011357204668 -509.52055404208295 0 0 0 0 -233.57786638726247 138.91209369487478 0 138.91209369487478 1224.6214300443535 0 0 0 0 -4.2498953448178938 -2.9229185206966974 0 -2.9229185206966974 3.2791111464897256 0 0 0 0 -3.9837844301260414 -10.021407215390141 0 -10.021407215390141 10.985342125132547 0 0 0 0 -10.301369314534895 355.2873731522559 0 355.2873731522559 462.04792126872053 0 0 0 0 62.878913110012945 104.80273852896062 0 104.80273852896062 659.655060104531 0 0 0 0 38.576116390649986 352.50710182539478 0 352.50710182539478 1107.5192278790346 0 0 0 0 87.396681613481633 -276.33336473772943 0 -276.33336473772943 334.85256573203742 0 0 0 0 -40.111529282592528 -140.41595306528325 0 -140.41595306528325 650.77120045601623 0 0 0 0 -5.0693704498101937 -30.529289778062136 0 -30.529289778062136 51.265052998200133 0 0 0 0 -51.264450086222496 332.86871470515325 0 332.86871470515325 351.29428468240076 0 0 0 0 17.307930397721066 -5.3915678847333766 0 -5.3915678847333766 101.82769072808151 0 0 0 0 7.7069588162084983 -12.096574836068612 0 -12.096574836068612 99.125212342634768 0 0 0 0 -21.333735609882751 -5.4933268504173611 0 -5.4933268504173611 41.439516584519879 0 0 0 0 -19.572414057172068 4.2685545239400682 0 4.2685545239400682 57.948229627135618 0 0 0 0 -22.747054786353036 2.2113538549599809 0 2.2113538549599809 34.54903537013135 0 0 0 0 13.243827482870074 -19.578815007680532 0 -19.578815007680532 91.002234600469819 0 0 0 0 -56.365832448690071 33.351374183766893 0 33.351374183766893 47.948163550157915 0 0 0 0 -8.5695974346355968 9.5125489204360747 0 9.5125489204360747 44.081381247741092 0 0 0 0 -36.825845178947702 25.049310071393847 0 25.049310071393847 41.00659669743618 0 0 0 0 -33.546266922035102 29.278504781759693 0 29.278504781759693 40.04099673620658 0 0 0 0 -36.850141436572471 21.495878738052852 0 21.495878738052852 63.177096350187639 0 0 0 0 -34.31534937300421 25.661831294186413 0 25.661831294186413 41.003385600681213 0 0 0 0 -24.1569306892859 37.301770242069324 0 37.301770242069324 54.232484589650994 0 0 0 0 -43.155589327462394 37.256186362841618 0 37.256186362841618 45.263177298249502 0 0 0 0 -34.443075882067475 24.09419250031533 0 24.09419250031533 39.292741929661133 0 0 0 0 -58.082263417920103 16.398197875354526 0 16.398197875354526 54.235184112287243 0 0 0 0 -36.173378325378096 31.226569193064279 0 31.226569193064279 63.730620199174155 0 0 0 0 -19.58632808414086 16.875716829541489 0 16.875716829541489 49.154452807357302 0 0 0 0 -19.369797073937207 17.87685351856635 0 17.87685351856635 48.958296769065782 0 0 0 0 0.78065495708824528 18.357577392685926 0 18.357577392685926 38.359187151065271 0 0 0 0 -36.904672718824372 27.098229175244342 0 27.098229175244342 51.121636464697076 0 0 0 0 -11.30365613497861 36.294761358185497 0 36.294761358185497 54.422952144552255 0 0 0 0 -12.604142224920793 30.075200014418442 0 30.075200014418442 31.013933655340225 0 0 0 0 18.994957449414869 45.407663154954207 0 45.407663154954207 38.441209673619596 0 0 0 0 -12.441611531717513 57.78408073251012 0 57.78408073251012 36.569357624044642 0 0 0 0 -12.457833950161785 60.190059711356298 0 60.190059711356298 66.200946270742861 0 0 0 0 -35.345019718471121 44.069238636875525 0 44.069238636875525 57.708374186375295 0 0 0 0 -45.302034183652438 34.912558435320534 0 34.912558435320534 63.240690418606391 0 0 0 0 -64.564775857031862 42.037908559868811 0 42.037908559868811 84.671697050187504 0 0 0 0 -72.237176007753902 39.54265167786798 0 39.54265167786798 83.884332812129287 0 0 0 0 -88.715983206554824 31.224098969076294 0 31.224098969076294 111.34676243310969 0 0 0 0 -58.512025847269911 64.878238858716941 0 64.878238858716941 98.960981623968109 0 0 0 0 -90.168829338345404 51.992514824909449 0 51.992514824909449 95.645127492185566 0 0 0 0 -106.48717990944704 51.578499964736693 0 51.578499964736693 159.86112502263859 0 0 0 0 -125.70912075946082 6.1281694880599389 0 6.1281694880599389 96.545867754204664 0 0 0 0 -123.55730452173975 39.738223391206702 0 39.738223391206702 151.6511313632509 0 0 0 0 -202.93582991723974 -28.302983614979894 0 -28.302983614979894 185.65409894672484 0 0 0 0 -137.45460129173489 90.098372870575986 0 90.098372870575986 232.11546387004637 0 0 0 0 -88.604179277827825 140.96606067620451 0 140.96606067620451 256.86861233097443 0 0 0 0 -147.53855377641003 59.894477370427921 0 59.894477370427921 160.49970882060006 0 0 0 0 -28.153861536877457 90.259313651229604 0 90.259313651229604 72.745505599479657 0 0 0 0 59.442332473351371 166.17897644094228 0 166.17897644094228 133.19547514358419 0 0 0 0 -39.549359193969622 113.33105496161443 0 113.33105496161443 167.36776638155061 0 0 0 0 38.166533453116699 94.389236266928492 0 94.389236266928492 58.400203330122167 0 0 0 0 73.885897497071255 48.411775757536816 0 48.411775757536816 -9.8295339546457399 0 0 0 0 31.80402379739462 67.266803917722427 0 67.266803917722427 9.2402203016681597 0 0 0 0 -28.756050833901099 -3.9186592223704793 0 -3.9186592223704793 -5.602585234635626 0 0 0 0 22.958155358260228 14.989067533781053 0 14.989067533781053 -19.349203895719256 0 0 0 0 27.140696441656019 8.6321960732748266 0 8.6321960732748266 -22.924834612640552 0 0 0 0 54.619890410953303 -14.113570418034215 0 -14.113570418034215 -48.816750059748301 0 0 0 0 144.14240525654077 52.08503766033391 0 52.08503766033391 -40.30742526135873 0 0 0 0 49.87830083551512 129.49910546255887 0 129.49910546255887 63.347275901091052 0 0 0 0 108.38837241989313 127.09276762086665 0 127.09276762086665 45.33905541151762 0 0 0 0 210.14209788395146 96.666825988824712 0 96.666825988824712 13.725808533141389 0 0 0 0 227.83812582036444 290.78876825250336 0 290.78876825250336 195.07710930701433 0 0 0 0 1.4717613125614402 3.3897546761080832 0 3.3897546761080832 6.0274516624918419 0 0 0 0 -75.956413642905318 262.5990903425336 0 262.5990903425336 579.78141737007536 0 0 0 0 198.86334154337814 -282.68991767854868 0 -282.68991767854868 278.29965438056388 0 0 0 0 19.358564103785454 -144.7001271888912 0 -144.7001271888912 190.29562006396009 0 0 0 0 -38.855073524836598 -57.735304465561057 0 -57.735304465561057 319.64412435411941 0 0 0 0 57.258307244780326 -226.30519465671932 0 -226.30519465671932 492.89208690877422 0 0 0 0 20.485363969193941 -128.42707841162701 0 -128.42707841162701 282.35243152044131 0 0 0 0 143.40558456371127 -225.98335952041089 0 -225.98335952041089 158.73012370074866 0 0 0 0 -46.561619513863775 -133.30588634299056 0 -133.30588634299056 223.6525780937518 0 0 0 0 5.0539684385380736 6.0464990111298533 0 6.0464990111298533 6.1253860797578454 0 0 0 0 52.967930172982051 -156.9672332687478 0 -156.9672332687478 141.57448010082589 0 0 0 0 135.46501602808439 -84.043981035851175 0 -84.043981035851175 -32.40284495974629 0 0 0 0 31.112800276105375 81.411030740680872 0 81.411030740680872 76.800113579243771 0 0 0 0 51.564215882522149 -142.65965740627871 0 -142.65965740627871 83.883852403785568 0 0 0 0 142.36868492093708 -145.54097388827358 0 -145.54097388827358 60.29379107162822 0 0 0 0 70.255882936145099 -72.70569088391494 0 -72.70569088391494 1.4436898121493869 0 0 0 0 6.333382312718868 -88.130670570841176 0 -88.130670570841176 143.34392418613425 0 0 0 0 14.317284428781022 -91.46630108874524 0 -91.46630108874524 89.630222675245022 0 0 0 0 211.10254032073453 -177.26226388839132 0 -177.26226388839132 41.581615110102575 0 0 0 0 164.73183620372947 -121.1418016141979 0 -121.1418016141979 -26.084944563452154 0 0 0 0 164.73183620379496 -121.14180161408149 0 -121.14180161408149 -26.084944563510362 0 0 0 0 164.73183620368218 -121.14180161425611 0 -121.14180161425611 -26.084944563452154 0 0 0 0 -116.30659512858892 -1.9084208009808208 0 -1.9084208009808208 19.855022786126938 0 0 0 0 -47.153698684489427 -45.622850231797202 0 -45.622850231797202 -22.387155969525338 0 0 0 0 -37.655541214628101 24.800883443953353 0 24.800883443953353 -0.55495658220024779 0 0 0 0 -51.445246615101269 58.936070470084815 0 58.936070470084815 -20.390266540809534 0 0 0 0 -105.34447826376856 58.370749884281395 0 58.370749884281395 12.053620606660843 0 0 0 0 -18.858747943955223 25.14557645432069 0 25.14557645432069 -18.876677245774772 0 0 0 0 -35.777848167978163 12.217944080886809 0 12.217944080886809 4.0642268846277148 0 0 0 0 19.07252957149467 16.476108201473835 0 16.476108201473835 -10.969786584348185 0 0 0 0 -22.651300589754101 23.15867525064823 0 23.15867525064823 4.6384724368108436 0 0 0 0 20.617746639214602 24.788313736913551 0 24.788313736913551 1.4684983118640957 0 0 0 0 16.185000582855878 23.408098921432611 0 23.408098921432611 1.9789001478056889 0 0 0 0 4.7433450210787669 10.31921191092988 0 10.31921191092988 24.899005305647734 0 0 0 0 6.1808679996393039 14.627576100669103 0 14.627576100669103 -2.4176313305215444 0 0 0 0 0.86854396945409462 10.979987637969316 0 10.979987637969316 26.616800118121319 0 0 0 0 -20.766843964726831 5.2247397685714532 0 5.2247397685714532 87.497603631803941 0 0 0 0 12.291633638357212 -12.127628301401273 0 -12.127628301401273 47.511013405281119 0 0 0 0 26.888513333004539 12.839497563782061 0 12.839497563782061 22.735452385357348 0 0 0 0 -48.445790883579775 15.133646319867694 0 15.133646319867694 30.051150955201592 0 0 0 0 -14.122705955923266 45.786540920380503 0 45.786540920380503 57.408992035532719 0 0 0 0 -24.390501868707361 13.251520778852864 0 13.251520778852864 24.518700310189161 0 0 0 0 -52.600987079077186 30.765884938657109 0 30.765884938657109 42.914298633553699 0 0 0 0 1.3225393648365027 8.6760385036646568 0 8.6760385036646568 18.086547250879505 0 0 0 0 -4.4225716882993993 6.6153556322733493 0 6.6153556322733493 12.435078727605287 0 0 0 0 -4.9166119896028704 4.4381168112886371 0 4.4381168112886371 12.882176918676123 0 0 0 0 -3.8460079231666668 3.0858912456169492 0 3.0858912456169492 13.466650749949622 0 0 0 0 -53.684327053049287 -68.172287608133047 0 -68.172287608133047 -9.2180412655525288 0 0 0 0 -3.8679520037313431 -1.7023788449743336 0 -1.7023788449743336 7.4970952658065357 0 0 0 0 59.746794492966131 -17.625234200371779 0 -17.625234200371779 -55.715526951411448 0 0 0 0 0.7984247749245954 4.4540137186726838 0 4.4540137186726838 5.9945324283554555 0 0 0 0 -17.713398624763002 -4.5846379865761264 0 -4.5846379865761264 130.745199929683 0 0 0 0 -2.3543312540614352 2.1154127074478311 0 2.1154127074478311 13.601610738027375 0 0 0 0 1.3436285880679861 9.879376371325634 0 9.879376371325634 5.3336038891284261 0 0 0 0 -0.57168238409235528 3.4705417126970133 0 3.4705417126970133 12.378069872618653 0 0 0 0 -0.87432698582213675 6.1425750453909131 0 6.1425750453909131 11.20097440094105 0 0 0 0 -6.2151378945914075 200.98858417087467 0 200.98858417087467 264.50475067511434 0 0 0 0 1.4512898525742219 5.6400935986974332 0 5.6400935986974332 6.9010762209663881 0 0 0 0 -74.593537122181715 44.502037663361989 0 44.502037663361989 158.95633319218177 0 0 0 0 -9.2469789505475433 188.94335299408704 0 188.94335299408704 441.19516122335335 0 0 0 0 40.458154096542223 283.0208697229973 0 283.0208697229973 397.60692554089474 0 0 0 0 12.404256374390053 -332.5974046868364 0 -332.5974046868364 176.80452627246268 0 0 0 0 -111.01970414982884 -36.335942823570804 0 -36.335942823570804 360.01262859724375 0 0 0 0 -78.25714753039972 -90.873781743823201 0 -90.873781743823201 181.75458113642526 0 0 0 0 -30.057928773591811 -67.460638034186559 0 -67.460638034186559 132.49907699152391 0 0 0 0 -51.659753878134097 -108.41356267129595 0 -108.41356267129595 190.93540587459574 0 0 0 0 -56.47335814889766 -110.94827317680756 0 -110.94827317680756 191.81075742439498 0 0 0 0 -110.90680550280389 -179.99846198790328 0 -179.99846198790328 136.77130159227818 0 0 0 0 -195.89314461195414 -153.5433104737167 0 -153.5433104737167 226.7937596613483 0 0 0 0 0.4424669191641819 -1.4366128030640652 0 -1.4366128030640652 4.356441699320726 0 0 0 0 64.449891305855033 137.85433683535666 0 137.85433683535666 238.67719379361733 0 0 0 0 29.888417447904452 63.504305802183808 0 63.504305802183808 94.85458895071497 0 0 0 0 -82.279617279927294 -39.453927851893241 0 -39.453927851893241 396.95198497035017 0 0 0 0 -31.710940112329041 -11.244781756322482 0 -11.244781756322482 130.79287415565341 0 0 0 0 -36.442842295264995 -13.900444205934036 0 -13.900444205934036 170.48606196549372 0 0 0 0 -34.462642180804245 18.276012813992565 0 18.276012813992565 196.5627434961134 0 0 0 0 -16.082082632822022 32.129945871245582 0 32.129945871245582 122.89567329040437 0 0 0 0 0.04574655312068783 -6.0705970410999726 0 -6.0705970410999726 127.28581381665572 0 0 0 0 14.432154343901487 39.389346282237966 0 39.389346282237966 77.266963099740678 0 0 0 0 -9.8444898027015526 60.732126440940192 0 60.732126440940192 200.41305625112545 0 0 0 0 -34.356259209094027 17.560955849943639 0 17.560955849943639 195.28737626085058 0 0 0 0 0.10554810660062654 -0.13001999128181296 0 -0.13001999128181296 0.38910032085800594 0 0 0 0 5.1558371500417577 5.8933013969362946 0 5.8933013969362946 1.3254989214692614 0 0 0 0 0.46593212201851725 6.6357943806433468 0 6.6357943806433468 8.2751529977613245 0 0 0 0 -23.090122754646828 -23.46099203540507 0 -23.46099203540507 82.468688609915262 0 0 0 0 -0.044964984979958544 -0.38332606654566348 0 -0.38332606654566348 1.4803137318284598 0 0 0 0 -55.8003329671144 -54.494907845626585 0 -54.494907845626585 -88.238708328100984 0 0 0 0 110.84870982193463 61.562067703398498 0 61.562067703398498 -216.71026274842734 0 0 0 0 -0.95997796490095133 -1.2221434583024404 0 -1.2221434583024404 0.42504277005036784 0 0 0 0 -1.2301128788335374 61.885895473438723 0 61.885895473438723 -168.59691127890255 0 0 0 0 30.518350195812012 -14.309922484884737 0 -14.309922484884737 -6.798510818167415 0 0 0 0 -79.248229620201073 -78.212536094733878 0 -78.212536094733878 1.0836605587855956 0 0 0 0 165.90575003368758 -163.5730510616595 0 -163.5730510616595 30.13907517993357 0 0 0 0 89.102541580435968 7.0510135170979993 0 7.0510135170979993 -36.340425032147323 0 0 0 0 -9.3682834484184383 -14.98722418893707 0 -14.98722418893707 56.512067758307694 0 0 0 0 -17.620608187240723 -25.76023084255867 0 -25.76023084255867 57.20689233066976 0 0 0 0 -107.4098002901128 -202.66176429094048 0 -202.66176429094048 42.435894634478245 0 0 0 0 -26.095008466181753 -70.325000310011092 0 -70.325000310011092 0.34920739558583591 0 0 0 0 -57.239408193414874 -70.430869601612358 0 -70.430869601612358 -1.6500053880326959 0 0 0 0 29.41312754235787 360.319110274575 0 360.319110274575 619.34732532654834 0 0 0 0 -61.041999354160453 -99.390639856391317 0 -99.390639856391317 217.06785963893344 0 0 0 0 116.28824862236843 -344.91719393399035 0 -344.91719393399035 458.24984922829026 0 0 0 0 -0.83298089190762958 -1.2731422265973791 0 -1.2731422265973791 6.217578903363993 0 0 0 0 210.56068853153408 -106.75627878810519 0 -106.75627878810519 25.235514727057307 0 0 0 0 286.04726773463608 412.57823705237388 0 412.57823705237388 791.70023091214534 0 0 0 0 29.603916091738938 -137.38967160975517 0 -137.38967160975517 917.52826828131765 0 0 0 0 107.98758830612041 -176.8182474052519 0 -176.8182474052519 225.11420492344041 0 0 0 0 15.937404107889279 -72.991158463966713 0 -72.991158463966713 544.41268565020437 0 0 0 0 11.503735235375871 -25.51923238404288 0 -25.51923238404288 176.25942434590979 0 0 0 0 -24.172096734604793 141.68929533984829 0 141.68929533984829 482.14461811681394 0 0 0 0 234.14490615512659 449.27710135815141 0 449.27710135815141 771.27301293697474 0 0 0 0 230.44285420314873 147.19820741660806 0 147.19820741660806 414.50530666005216 0 0 0 0 17.293754671429269 266.52519806255441 0 266.52519806255441 433.29350260382671 0 0 0 0 -2.2874648797002957 -2.5074501666022186 0 -2.5074501666022186 1.7723699908014137 0 0 0 0 64.051160726390663 42.93480326507779 0 42.93480326507779 218.97829758494572 0 0 0 0 -65.998259004534248 40.462592032374232 0 40.462592032374232 332.01336511297268 0 0 0 0 55.263104676705552 44.603667945506459 0 44.603667945506459 115.80395574632485 0 0 0 0 -168.86432231637173 89.051485416636751 0 89.051485416636751 563.91369760024008 0 0 0 0 144.1616783252266 20.826266288659099 0 20.826266288659099 -2.6641960120341537 0 0 0 0 7.3382673827488407 -2.4273444817950782 0 -2.4273444817950782 3.7960154282319962 0 0 0 0 125.97836677303803 137.39823428774616 0 137.39823428774616 280.78095165118339 0 0 0 0 -52.91178500332876 -35.249197605719019 0 -35.249197605719019 -10.291840296731607 0 0 0 0 166.65456910815709 38.452411758120888 0 38.452411758120888 -191.1178893858978 0 0 0 0 104.9002240671266 230.58131846004653 0 230.58131846004653 357.63320887951249 0 0 0 0 1.2872053394739851 158.11558576843163 0 158.11558576843163 421.08796915210587 0 0 0 0 -0.16506520361618637 -0.47352988248804806 0 -0.47352988248804806 1.3137557998552296 0 0 0 0 6.0350869751000573 -9.0105730523500824 0 -9.0105730523500824 32.659880494931713 0 0 0 0 -1.9331503758665427 -16.300579318402157 0 -16.300579318402157 33.956892822349225 0 0 0 0 1.3420547543309305 -10.245008426261553 0 -10.245008426261553 7.047829268594846 0 0 0 0 -34.225438702727843 -18.616983577956489 0 -18.616983577956489 123.04715663136449 0 0 0 0 -8.1802426862416269 46.1374994774269 0 46.1374994774269 276.1422482344351 0 0 0 0 -0.35255897789255808 -4.5228134152571799 0 -4.5228134152571799 -0.1488657705056653 0 0 0 0 -25.228905715738392 -30.596504568568889 0 -30.596504568568889 13.28675577116519 0 0 0 0 -20.444121714614084 -39.398898391660623 0 -39.398898391660623 27.711165622633416 0 0 0 0 -5.2808908689292089 -11.632139112784968 0 -11.632139112784968 35.098446591066946 0 0 0 0 -6.7128334946451709 -23.075068855073354 0 -23.075068855073354 42.931557143742637 0 0 0 0 -8.2098240353802794 -89.347185226625697 0 -89.347185226625697 29.545556967134985 0 0 0 0 -2.9408517860348908 -36.673247978875906 0 -36.673247978875906 12.515516149311395 0 0 0 0 -31.470100023761262 -24.861695717029988 0 -24.861695717029988 32.828050937969238 0 0 0 0 -10.968373080060283 -4.9622673683196439 0 -4.9622673683196439 62.441862751450692 0 0 0 0 -0.12991689573264065 -14.095332113363185 0 -14.095332113363185 35.182855134671058 0 0 0 0 -23.415404012933664 -26.834442438903352 0 -26.834442438903352 25.111844978615409 0 0 0 0 -20.617147550553454 -19.034466721455829 0 -19.034466721455829 55.077977702261705 0 0 0 0 1.3828167572828214 2.2649965001718684 0 2.2649965001718684 12.600932818524001 0 0 0 0 -47.51085978993342 -69.439019569072116 0 -69.439019569072116 -12.551402446879365 0 0 0 0 -20.660740550894843 28.787483188978513 0 28.787483188978513 95.122430307488685 0 0 0 0 -103.52279125046789 -83.005377932367992 0 -83.005377932367992 138.93775795466354 0 0 0 0 62.331960755574073 -81.851634313086834 0 -81.851634313086834 -200.08709303896467 0 0 0 0 -9.4703025495745763 -26.333876299433026 0 -26.333876299433026 57.025162140757416 0 0 0 0 21.980926001902844 -49.204535942695657 0 -49.204535942695657 157.82147143696784 0 0 0 0 -15.131293583331171 -25.062835798576998 0 -25.062835798576998 72.308136963532888 0 0 0 0 0.20668964197818696 3.3945379270663381 0 3.3945379270663381 9.0628926515618105 0 0 0 0 48.119394797006862 -67.892257086630707 0 -67.892257086630707 -135.17332359270949 0 0 0 0 1.5600263539402413 0.77536357187842242 0 0.77536357187842242 -1.117342846435136 0 0 0 0 -26.289105781827956 -36.33650842842777 0 -36.33650842842777 13.082369689605169 0 0 0 0 56.725817492231727 -62.207398796919733 0 -62.207398796919733 205.37189012605813 0 0 0 0 3.884184945677589 -41.429364618734326 0 -41.429364618734326 -14.484721884417013 0 0 0 0 54.729397275357769 -132.82550749090296 0 -132.82550749090296 -206.51681548822398 0 0 0 0 -13.868052890116815 -174.06155622978986 0 -174.06155622978986 -48.981570832518628 0 0 0 0 -258.66142902124921 -128.31079790111107 0 -128.31079790111107 201.92029759619618 0 0 0 0 -19.030811410391834 -37.745093402845669 0 -37.745093402845669 107.37220203215838 0 0 0 0 -5.9867580167349743 -0.71285142259129941 0 -0.71285142259129941 26.736691646926424 0 0 0 0 -7.8193185147229087 -54.183390617756231 0 -54.183390617756231 62.425664398462686 0 0 0 0 -9.90907478269121 -30.451816809088839 0 -30.451816809088839 58.36233220171853 0 0 0 0 -20.275215441124601 -23.864927290127525 0 -23.864927290127525 101.02435101446463 0 0 0 0 8.0386720671049261 -34.566596555385331 0 -34.566596555385331 101.8810136682514 0 0 0 0 -14.84337813956563 -37.308932459786774 0 -37.308932459786774 105.49766498875397 0 0 0 0 -1.3379290032032394 -0.33638386212743399 0 -0.33638386212743399 -3.3928516538608733 0 0 0 0 17.479970135294025 -33.457731505450283 0 -33.457731505450283 75.879981150792446 0 0 0 0 -40.646408565960883 28.013864372565877 0 28.013864372565877 74.053226528809319 0 0 0 0 -72.32591206035795 37.939830330265977 0 37.939830330265977 71.407257786271657 0 0 0 0 -15.577193911545692 11.112936630688637 0 11.112936630688637 85.221653887907451 0 0 0 0 -6.7427141046719044 5.4352390462845506 0 5.4352390462845506 131.74787247080531 0 0 0 0 49.024704871431823 30.060341006879753 0 30.060341006879753 93.945839259729837 0 0 0 0 255.59357636423374 204.55768285917293 0 204.55768285917293 247.44900344847701 0 0 0 0 -56.505588172445641 191.44512924247852 0 191.44512924247852 703.93312736006919 0 0 0 0 -10.371596166221789 -29.583962696725877 0 -29.583962696725877 35.567870278925056 0 0 0 0 0.22757066723950459 0.63392766482681395 0 0.63392766482681395 9.369372021569955 0 0 0 0 -19.028447513334328 -26.413252715737002 0 -26.413252715737002 11.762319878444908 0 0 0 0 -143.39476172960894 -17.568441831608652 0 -17.568441831608652 159.7754144648934 0 0 0 0 56.755870147885389 -20.608428568468298 0 -20.608428568468298 19.126544359285617 0 0 0 0 -138.31031634486681 -34.85043252961259 0 -34.85043252961259 96.1927067036886 0 0 0 0 -86.604749411524608 -11.938548522120982 0 -11.938548522120982 111.00319774710806 0 0 0 0 -30.037323941051 -27.088428903749445 0 -27.088428903749445 96.69011088462139 0 0 0 0 -34.066894351917654 -28.724210666958243 0 -28.724210666958243 98.987663298888947 0 0 0 0 -20.316100638767239 -75.053609085662174 0 -75.053609085662174 31.442549466561104 0 0 0 0 8.7599138696532464 -30.729208515054779 0 -30.729208515054779 108.76956899504876 0 0 0 0 32.707814844236054 -26.160999654264742 0 -26.160999654264742 65.314732546001323 0 0 0 0 -0.69902752478628827 -50.34241322066373 0 -50.34241322066373 76.37384768044285 0 0 0 0 22.404443331300172 -13.162475676881513 0 -13.162475676881513 93.277520811490831 0 0 0 0 23.486465826321364 -18.035242345402366 0 -18.035242345402366 69.61014666126357 0 0 0 0 -24.945170993903048 8.8798822135067894 0 8.8798822135067894 49.802378640684765 0 0 0 0 0.27638895038398914 -47.222265617558151 0 -47.222265617558151 114.04216551725767 0 0 0 0 -16.701117824210087 -7.974378127604723 0 -7.974378127604723 140.23770302865887 0 0 0 0 -17.184120914865986 9.6124690261132457 0 9.6124690261132457 33.002303591963809 0 0 0 0 -4.036170964201883 8.6407060725969274 0 8.6407060725969274 0.77956521344393082 0 0 0 0 22.935641987045074 -93.15820253149036 0 -93.15820253149036 119.68956743594026 0 0 0 0 -37.294490670170489 -9.8950559367367532 0 -9.8950559367367532 144.62295464814815 0 0 0 0 -29.712135251553264 -36.027796511931228 0 -36.027796511931228 101.75276847505302 0 0 0 0 22.776191034494332 -15.638521759014111 0 -15.638521759014111 109.66436087741749 0 0 0 0 -29.535019677648506 -1.8730068191472924 0 -1.8730068191472924 112.36408590376959 0 0 0 0 -38.841657600560211 -19.095505807341397 0 -19.095505807341397 122.98152321086673 0 0 0 0 -41.49044603099901 -23.631014739985403 0 -23.631014739985403 36.74747864584424 0 0 0 0 -19.654702582154769 -6.306061583227347 0 -6.306061583227347 12.442413128124741 0 0 0 0 -22.881879747078528 -22.909039442525682 0 -22.909039442525682 90.059014456670411 0 0 0 0 -22.25314601129412 12.744060939709016 0 12.744060939709016 37.90622127543611 0 0 0 0 -7.0529509700114739 4.0485028180056757 0 4.0485028180056757 48.637030007526647 0 0 0 0 -6.2630220961132181 -2.8967263133163215 0 -2.8967263133163215 79.135037045460194 0 0 0 0 -50.261745278225135 -1.6435024535494449 0 -1.6435024535494449 98.667983160368749 0 0 0 0 -22.318135048428303 -18.749828900094144 0 -18.749828900094144 99.697712621671371 0 0 0 0 -20.773817594924839 -2.2751815952688617 0 -2.2751815952688617 65.327875653358007 0 0 0 0 -16.712707533163726 -12.16310164414444 0 -12.16310164414444 76.388043830115436 0 0 0 0 -23.478259678704489 -12.897038244085707 0 -12.897038244085707 79.570874859863807 0 0 0 0 -14.750275988595536 -14.048024799538595 0 -14.048024799538595 45.236838384501709 0 0 0 0 -188.6898268404716 -39.000145314069414 0 -39.000145314069414 212.29103477126228 0 0 0 0 -30.481505717327309 -16.88989751912959 0 -16.88989751912959 69.177518075543048 0 0 0 0 -44.710954993222458 -0.49892576500315045 0 -0.49892576500315045 74.706598211858363 0 0 0 0 -19.328465187698839 -0.21299164094489242 0 -0.21299164094489242 78.863646836325643 0 0 0 0 -6.0259479874116124 22.260970247401566 0 22.260970247401566 38.344270692273497 0 0 0 0 -22.093652511830783 5.1889326488158076 0 5.1889326488158076 78.640812127487152 0 0 0 0 -20.514589262113077 9.9321844619626063 0 9.9321844619626063 70.220532148834337 0 0 0 0 -14.617426666942265 3.2949399861954589 0 3.2949399861954589 70.168886129838938 0 0 0 0 -8.9223578339089631 14.31049052693507 0 14.31049052693507 49.023194189151724 0 0 0 0 -15.799215730524594 5.7196700044320341 0 5.7196700044320341 56.608696256203302 0 0 0 0 -18.132441114969424 81.494568137717579 0 81.494568137717579 177.39229965406412 0 0 0 0 24.185324599394335 56.951665788223181 0 56.951665788223181 52.956692609004676 0 0 0 0 -41.935529626573611 8.8684466480408446 0 8.8684466480408446 62.739503608823725 0 0 0 0 -1.5548002800602134 2.4519178676983131 0 2.4519178676983131 10.721919223705271 0 0 0 0 -3.7941132104724624 1.8087930074771608 0 1.8087930074771608 48.385906960858222 0 0 0 0 -40.68975701211366 9.2930686727959255 0 9.2930686727959255 52.176336255310162 0 0 0 0 -15.35128224446173 8.8425702282537202 0 8.8425702282537202 44.778240780519241 0 0 0 0 -44.663350749497113 -39.489374837685318 0 -39.489374837685318 156.3381859102592 0 0 0 0 -34.150871470057609 3.3835577153422491 0 3.3835577153422491 68.553454020115169 0 0 0 0 -10.231729888335849 -3.2371329826019064 0 -3.2371329826019064 40.17812009451518 0 0 0 0 -2.7208111211459807 11.943531543545612 0 11.943531543545612 49.014691572446623 0 0 0 0 -5.3784455715004214 -0.29521831155085465 0 -0.29521831155085465 55.39278862694789 0 0 0 0 -54.412477922209291 16.188534982073179 0 16.188534982073179 50.373776001339138 0 0 0 0 -65.49333395326471 24.987069635053558 0 24.987069635053558 75.352308137269574 0 0 0 0 -158.35479046719092 -26.167813978419872 0 -26.167813978419872 243.28124938056862 0 0 0 0 -18.90985307941628 9.7039095174695831 0 9.7039095174695831 21.53418010733003 0 0 0 0 -42.303244660116889 -34.843004805617966 0 -34.843004805617966 10.566382627790517 0 0 0 0 -60.682598641599725 55.102706265875895 0 55.102706265875895 8.0054802025442768 0 0 0 0 -12.278171435578029 -7.6004131658683889 0 -7.6004131658683889 51.396181040488102 0 0 0 0 18.082291087134763 -73.518776434924803 0 -73.518776434924803 174.05185770659523 0 0 0 0 -55.654008210638153 35.0508701355011 0 35.0508701355011 34.729245218375581 0 0 0 0 48.457987721485324 57.703022812459494 0 57.703022812459494 1.4168337346491171 0 0 0 0 -73.829991380459091 27.756797952722991 0 27.756797952722991 77.251606215155334 0 0 0 0 -81.87740148059379 25.680779908259865 0 25.680779908259865 85.064030080335215 0 0 0 0 -5.6421518621047717 11.648497256668801 0 11.648497256668801 60.544165254082259 0 0 0 0 -7.7459396783015499 -7.3445607793199734 0 -7.3445607793199734 64.413666900552585 0 0 0 0 -104.1733115193781 -8.5717184966051718 0 -8.5717184966051718 87.741277499182615 0 0 0 0 -94.858433244484502 7.855085495433741 0 7.855085495433741 68.195255911996355 0 0 0 0 -63.34539397304264 -13.705827418300487 0 -13.705827418300487 56.080811301915674 0 0 0 0 -69.200805257390073 13.849696588978986 0 13.849696588978986 75.553275762515113 0 0 0 0 -14.926045427649569 13.98622517660624 0 13.98622517660624 73.009455827632337 0 0 0 0 -19.763300652981876 2.1009873734631199 0 2.1009873734631199 44.71045099236693 0 0 0 0 -17.556160268566146 -8.9043965470718831 0 -8.9043965470718831 64.576568330870941 0 0 0 0 -12.46889022535847 0.42774087581701892 0 0.42774087581701892 48.191008184142134 0 0 0 0 -49.646465970685313 -1.3018039172384306 0 -1.3018039172384306 69.170299186973352 0 0 0 0 -51.681654587489447 -14.751905273238663 0 -14.751905273238663 66.837196819251403 0 0 0 0 -17.052692151489545 11.961107583003944 0 11.961107583003944 55.819508061444992 0 0 0 0 -143.47626135980835 -51.811214344692416 0 -51.811214344692416 93.91486669729511 0 0 0 0 -109.41550653828244 -7.3879616411941242 0 -7.3879616411941242 98.601286356511991 0 0 0 0 -7.0927721378951034 0.50082372399627673 0 0.50082372399627673 52.603179910872768 0 0 0 0 -5.5778388854265319 0.32584523041183733 0 0.32584523041183733 46.281059097004686 0 0 0 0 -15.94613157832211 -1.6359258385621374 0 -1.6359258385621374 28.739189516543419 0 0 0 0 -31.022079877992951 0.58439060458158565 0 0.58439060458158565 42.785950768866314 0 0 0 0 -36.199741422342413 -2.5442830558095011 0 -2.5442830558095011 67.599984030690393 0 0 0 0 -18.513445224079987 1.7290374959920882 0 1.7290374959920882 38.011466865049442 0 0 0 0 -27.677199633744749 12.1363267161978 0 12.1363267161978 60.091824336892955 0 0 0 0 -25.534382711763101 -1.6038831572168419 0 -1.6038831572168419 60.56551912563009 0 0 0 0 67.387735044852889 110.50471817022481 0 110.50471817022481 95.247950369974319 0 0 0 0 -62.7235320046384 -23.962982547673164 0 -23.962982547673164 98.343828324087667 0 0 0 0 109.08080317013037 204.31683311379311 0 204.31683311379311 216.005552874567 0 0 0 0 -4.6865771345562734 -40.16069105259885 0 -40.16069105259885 376.44408301713702 0 0 0 0 28.640172693768363 37.266455088442854 0 37.266455088442854 61.370731529194018 0 0 0 0 -29.469967719755914 -128.27351394732977 0 -128.27351394732977 63.18143415356684 0 0 0 0 0.33401585037927362 -5.6715925032349332 0 -5.6715925032349332 68.402491667013237 0 0 0 0 -7.5897218982789472 -13.73816174140741 0 -13.73816174140741 36.424744168858112 0 0 0 0 0.086639462570019532 9.5629178091385256 0 9.5629178091385256 55.53157716790156 0 0 0 0 -30.538999990414595 -79.638850560982974 0 -79.638850560982974 20.334704754752238 0 0 0 0 42.523282551376724 -92.74114327364623 0 -92.74114327364623 -62.348872305745317 0 0 0 0 -16.558313255310338 -1.2521990363284203 0 -1.2521990363284203 -148.14911816574022 0 0 0 0 -312.8321066859653 113.58888527735326 0 113.58888527735326 1.6793508332411875 0 0 0 0 -1.318081290690154 -3.0921192919420371 0 -3.0921192919420371 9.5070292921308521 0 0 0 0 -368.18374442757158 121.27133118770143 0 121.27133118770143 0.62239957478595898 0 0 0 0 -7.2235848523774004 4.8177865100539456 0 4.8177865100539456 12.855780924652677 0 0 0 0 72.313840761718382 264.95410969750037 0 264.95410969750037 -108.90011641186356 0 0 0 0 14.069446718611744 -7.6444685911774286 0 -7.6444685911774286 -512.49001930091254 0 0 0 0 -115.0634731794762 158.32451094046701 0 158.32451094046701 -456.88000771014777 0 0 0 0 487.37939808375245 -63.883962953465016 0 -63.883962953465016 96.007958923837577 0 0 0 0 -226.59039202611143 137.46240814631528 0 137.46240814631528 47.056012461558566 0 0 0 0 -3.7350686819051457 21.188612651793022 0 21.188612651793022 26.145437773498614 0 0 0 0 -79.770057402681232 69.809465783067935 0 69.809465783067935 19.355315956079721 0 0 0 0 -117.03859831726822 104.17184313433427 0 104.17184313433427 102.41801295503865 0 0 0 0 35.957666447838108 25.840120204003142 0 25.840120204003142 -73.429915942062507 0 0 0 0 -110.46912536735454 -38.185809908380179 0 -38.185809908380179 123.94472747433952 0 0 0 0 71.88197423194697 -130.7804853154812 0 -130.7804853154812 164.93614160645939 0 0 0 0 186.58038464083376 -85.813705480972203 0 -85.813705480972203 -138.55509959096253 0 0 0 0 89.7065359413632 -92.857836853603658 0 -92.857836853603658 147.08482756099693 0 0 0 0 130.44068994012628 -278.90524602496043 0 -278.90524602496043 -360.96529752773495 0 0 0 0 208.11555457560135 -94.551244557351311 0 -94.551244557351311 -244.68736970173632 0 0 0 0 94.685135470930391 -263.64255619723917 0 -263.64255619723917 12.537096419044246 0 0 0 0 138.59610469555957 -153.53629895474478 0 -153.53629895474478 -90.916533414732839 0 0 0 0 -320.25729953246628 44.908736855442839 0 44.908736855442839 89.904272241634317 0 0 0 0 -149.51543219856603 181.16532200219808 0 181.16532200219808 30.647355983292073 0 0 0 0 259.88994392930346 97.183789040827378 0 97.183789040827378 -226.2897448958247 0 0 0 0 135.98192410414731 83.339642918199388 0 83.339642918199388 -41.991239054226753 0 0 0 0 225.92060795036451 -36.716230300889947 0 -36.716230300889947 40.93945135238755 0 0 0 0 102.4264220900568 -20.702640375220653 0 -20.702640375220653 88.900319130356365 0 0 0 0 132.07377761817952 64.711292763633537 0 64.711292763633537 116.11272482374989 0 0 0 0 30.724720960716695 16.645237432663635 0 16.645237432663635 96.403755435174389 0 0 0 0 0.19183658332443532 -3.4795707730773202 0 -3.4795707730773202 2.7228606608850718 0 0 0 0 65.661111784225795 43.190773244989032 0 43.190773244989032 196.67841516723274 0 0 0 0 60.141741057218724 60.720972060793429 0 60.720972060793429 145.06946454483113 0 0 0 0 21.092811797343074 92.27269737401366 0 92.27269737401366 242.95834727088368 0 0 0 0 15.747554011097236 109.06527987330628 0 109.06527987330628 196.81434717923185 0 0 0 0 240.81227171059709 146.90967599274882 0 146.90967599274882 89.964479866428746 0 0 0 0 45.927241169277295 63.378733591060154 0 63.378733591060154 97.976129991533526 0 0 0 0 36.329467730768101 166.35545131623621 0 166.35545131623621 346.12816117781767 0 0 0 0 190.83116831394636 79.235358960509984 0 79.235358960509984 43.815644790396618 0 0 0 0 -5.7945008721330851 -3.9656586962537403 0 -3.9656586962537403 330.39907891700523 0 0 0 0 2.3331605711451497 0.010467252186849407 0 0.010467252186849407 3.2805473605090043 0 0 0 0 32.692085318070895 -62.268576284045594 0 -62.268576284045594 -65.005201110539929 0 0 0 0 8.2464096421122122 36.427235941217077 0 36.427235941217077 294.55878030019085 0 0 0 0 9.076224269510476 -1.2108289129246259 0 -1.2108289129246259 -39.576774859044235 0 0 0 0 21.836003223654188 59.046045149567362 0 59.046045149567362 145.03185241076972 0 0 0 0 -5.9495211554787026 -5.1705438788446862 0 -5.1705438788446862 -1.5643205935159301 0 0 0 0 -34.71967399649202 -19.957890894103134 0 -19.957890894103134 52.722482405074068 0 0 0 0 13.918821608948832 36.247088473238762 0 36.247088473238762 96.56847292686507 0 0 0 0 32.203480056554326 44.902109771419418 0 44.902109771419418 98.084163543161594 0 0 0 0 10.77820354252799 37.22813985330049 0 37.22813985330049 140.72356858503008 0 0 0 0 14.706511450237485 48.602872530320383 0 48.602872530320383 94.00777861690392 0 0 0 0 -17.48326966464947 -6.349755654206092 0 -6.349755654206092 14.857472082039749 0 0 0 0 10.265191444048469 19.712669655648824 0 19.712669655648824 90.84763047040542 0 0 0 0 -23.238677706714753 -5.4977533860615821 0 -5.4977533860615821 50.839295684072439 0 0 0 0 -7.4857037837979101 -0.74754114653634929 0 -0.74754114653634929 26.642625474625937 0 0 0 0 60.349351877190657 15.386433351737651 0 15.386433351737651 38.213038211553794 0 0 0 0 -18.268188751454773 3.1543809817012516 0 3.1543809817012516 37.014841113632428 0 0 0 0 -13.009927573802056 2.1876257788877922 0 2.1876257788877922 42.847460374903861 0 0 0 0 8.6139950527553424 22.934448390605894 0 22.934448390605894 52.122549129016988 0 0 0 0 -10.320507763409751 -1.3774112209339364 0 -1.3774112209339364 71.265561136722681 0 0 0 0 -7.0750718905755221 8.6132833030433211 0 8.6132833030433211 35.88864591587398 0 0 0 0 23.217565152070165 31.062633694044052 0 31.062633694044052 38.469716273415543 0 0 0 0 6.8284526788243767 35.806055913203636 0 35.806055913203636 62.173367381721619 0 0 0 0 12.433542376267249 28.08688159435518 0 28.08688159435518 50.441182031484331 0 0 0 0 5.5804610657478406 30.63436761901994 0 30.63436761901994 42.017900094928336 0 0 0 0 0.65956463842791146 -1.3473116135157071 0 -1.3473116135157071 -0.83325866351922429 0 0 0 0 -2.8487512396971013 14.404530278715846 0 14.404530278715846 37.747193662138187 0 0 0 0 15.944603876867404 20.603251904329227 0 20.603251904329227 -17.151566089080006 0 0 0 0 16.471997034413576 16.286743404179475 0 16.286743404179475 -0.52795556829067891 0 0 0 0 25.423565180414393 31.778348388196285 0 31.778348388196285 -4.7801629834966803 0 0 0 0 44.766324419186276 6.7469236802717205 0 6.7469236802717205 -64.109888878816491 0 0 0 0 18.951801579803259 -23.360533941136964 0 -23.360533941136964 17.751806068554288 0 0 0 0 2.6038159138298624 -3.1416169236108544 0 -3.1416169236108544 42.403644490808801 0 0 0 0 11.498935579960222 13.193251111468868 0 13.193251111468868 7.3902309001143323 0 0 0 0 19.493936573734572 -15.722375977769843 0 -15.722375977769843 -10.267444314555178 0 0 0 0 2.1172894121243644 6.7905584614891268 0 6.7905584614891268 8.9396795923603349 0 0 0 0 125.70745737084098 58.428335567477916 0 58.428335567477916 -28.772394952406103 0 0 0 0 -12.923247932434251 -69.671304386939937 0 -69.671304386939937 -37.772807728659245 0 0 0 0 -27.717166535950128 47.780018773473785 0 47.780018773473785 89.358845774419024 0 0 0 0 50.442609734243206 3.1090793858311372 0 3.1090793858311372 141.00070067013439 0 0 0 0 60.60247272098286 46.76636263167893 0 46.76636263167893 -56.743137313800617 0 0 0 0 -0.45667838090837254 -1.8053340781227121 0 -1.8053340781227121 0.82790622058386276 0 0 0 0 10.0383918991879 22.976281250779721 0 22.976281250779721 80.13324144580838 0 0 0 0 24.519211913227991 31.065731991635403 0 31.065731991635403 62.014170461123285 0 0 0 0 -4.5981370643746313 -17.007623480502943 0 -17.007623480502943 12.399194398364251 0 0 0 0 10.716795763415575 19.086000235281972 0 19.086000235281972 92.348127053162898 0 0 0 0 -0.29403419311529433 -32.854964244150324 0 -32.854964244150324 -183.99346702773801 0 0 0 0 88.119344364429708 -122.26758134156989 0 -122.26758134156989 -173.66286338473583 0 0 0 0 -0.7754412926735017 -2.1700502550352354 0 -2.1700502550352354 5.8720970429121451 0 0 0 0 98.064894345344328 -42.104760207639629 0 -42.104760207639629 -200.31936970877723 0 0 0 0 1.8254866968543331 -2.302664151808969 0 -2.302664151808969 -3.5039731119507564 0 0 0 0 75.638117289232923 106.39837391567562 0 106.39837391567562 -113.17920155667161 0 0 0 0 -106.04752989669214 -123.53602654307906 0 -123.53602654307906 -216.46556529307418 0 0 0 0 15.358524213475448 20.218249778943573 0 20.218249778943573 58.402494696558279 0 0 0 0 35.7588147722754 -10.205851112463279 0 -10.205851112463279 3.691071302680939 0 0 0 0 -4.2911298947199441 -0.26101478172716952 0 -0.26101478172716952 24.866299362320518 0 0 0 0 8.8049197727404049 5.1878792414606636 0 5.1878792414606636 2.3596846583851985 0 0 0 0 -6.5384126769545219 0.36592956147615041 0 0.36592956147615041 20.959437788580544 0 0 0 0 19.266044088995841 33.602849415492528 0 33.602849415492528 19.670707824210695 0 0 0 0 9.4967912914504176 4.6725747622109139 0 4.6725747622109139 3.0558739928748651 0 0 0 0 20.375250378321653 30.79427964232309 0 30.79427964232309 17.259377984850289 0 0 0 0 53.40920386020025 -27.830681897907198 0 -27.830681897907198 72.006608016490645 0 0 0 0 5.8314752804817545 61.818784590632276 0 61.818784590632276 160.87681096861343 0 0 0 0 13.276688254065903 47.408539240612299 0 47.408539240612299 60.00690381737877 0 0 0 0 4.8470750341994062 37.125535923594725 0 37.125535923594725 84.506816257933679 0 0 0 0 8.5685018786431044 107.95313885094225 0 107.95313885094225 123.66912245954882 0 0 0 0 53.517038455835518 93.703999694313097 0 93.703999694313097 119.8864635098671 0 0 0 0 13.955153560269537 76.59467896262322 0 76.59467896262322 134.13413262357426 0 0 0 0 8.3708258918773879 101.66173051319407 0 101.66173051319407 165.10920347674255 0 0 0 0 15.596002420628565 95.571795313015173 0 95.571795313015173 338.59189504148526 0 0 0 0 73.725906134433899 143.65386400257921 0 143.65386400257921 147.33815482308273 0 0 0 0 -5.7560259647255396 -0.62070616003502188 0 -0.62070616003502188 5.1458862029092955 0 0 0 0 21.241116091679032 -98.026659213193852 0 -98.026659213193852 46.934890236250794 0 0 0 0 -22.193164667407927 3.005321487917918 0 3.005321487917918 56.758667145679084 0 0 0 0 -6.9355489767451051 2.9394534725661856 0 2.9394534725661856 47.880772821155347 0 0 0 0 7.9113148903081072 31.381814158266756 0 31.381814158266756 86.087454594830007 0 0 0 0 -270.83593513367396 120.25963830916226 0 120.25963830916226 406.69905213519087 0 0 0 0 7.2968782853313314 78.205735285653645 0 78.205735285653645 114.74018976950902 0 0 0 0 4.9775922516455466 1.2353640970250126 0 1.2353640970250126 78.064819737988728 0 0 0 0 299.09041676999186 64.453713328191952 0 64.453713328191952 -106.51281630578114 0 0 0 0 146.23970931780423 -125.68276567917201 0 -125.68276567917201 194.68252452019806 0 0 0 0 35.651165174461312 22.543711604922464 0 22.543711604922464 50.11954393312044 0 0 0 0 -109.46395173174642 -25.822936323529575 0 -25.822936323529575 91.189100159310328 0 0 0 0 -22.77313920465258 1.7735504379306803 0 1.7735504379306803 61.451491672443808 0 0 0 0 -4.7314260466191618 2.0212368410721986 0 2.0212368410721986 59.243461524592561 0 0 0 0 -54.007318788087105 -53.460936722432962 0 -53.460936722432962 62.307085679683951 0 0 0 0 27.249123551993762 -48.51979138902243 0 -48.51979138902243 50.224409825998009 0 0 0 0 0.021503746839474758 5.7120839188946348 0 5.7120839188946348 15.046109172587535 0 0 0 0 2.6532995593502164 82.919627544872128 0 82.919627544872128 166.47328448371263 0 0 0 0 -15.705721348042061 84.432214412059693 0 84.432214412059693 -40.316415200024494 0 0 0 0 2.1536492619270575 5.2169170425841003 0 5.2169170425841003 181.33150073406068 0 0 0 0 0.24868240529758623 2.3108662646845914 0 2.3108662646845914 44.294017821317539 0 0 0 0 -110.1306021138098 9.6029588560195407 0 9.6029588560195407 382.01778615126386 0 0 0 0 -21.68283665079025 4.481452647883998 0 4.481452647883998 68.346439675122383 0 0 0 0 -0.47412474738956806 8.3804267868459235 0 8.3804267868459235 57.77767616392569 0 0 0 0 -5.3983886983050979 13.905157589735609 0 13.905157589735609 48.459271787796752 0 0 0 0 13.5445326521276 56.376097945787478 0 56.376097945787478 -14.231858998419739 0 0 0 0 9.583161108701006 -91.170238951859574 0 -91.170238951859574 1.1021778359427117 0 0 0 0 1.8203485659031386 12.401616637588404 0 12.401616637588404 8.6658949142384785 0 0 0 0 18.893449292306855 61.824370541418716 0 61.824370541418716 143.73246278560691 0 0 0 0 29.527070521151245 24.045834827423278 0 24.045834827423278 42.417622272056178 0 0 0 0 -28.31440312376435 50.932905455207219 0 50.932905455207219 99.603467076034576 0 0 0 0 -0.18482752692847237 13.067525414586445 0 13.067525414586445 53.755528233376765 0 0 0 0 -166.30873402082261 87.467446235736134 0 87.467446235736134 91.127314616256626 0 0 0 0 -19.845657430666051 9.5846967905963538 0 9.5846967905963538 28.381119841102191 0 0 0 0 -33.07009058337735 67.128313361623441 0 67.128313361623441 63.742812423442956 0 0 0 0 -0.53844681354911561 10.207226606367755 0 10.207226606367755 48.271383104721167 0 0 0 0 -22.921166558566995 12.160340097807421 0 12.160340097807421 51.436733561567962 0 0 0 0 -242.90656454211876 44.649712113096029 0 44.649712113096029 68.40636547509348 0 0 0 0 15.688267257830908 33.396710382712591 0 33.396710382712591 70.158916434302768 0 0 0 0 -67.434328287810786 168.73288039910767 0 168.73288039910767 -14.128183310080203 0 0 0 0 45.99477973968169 68.003738745581359 0 68.003738745581359 -53.33848961548938 0 0 0 0 1.4875124303127141 10.732203045922496 0 10.732203045922496 9.9514133051133911 0 0 0 0 -2.3691129711096437 20.876277892641156 0 20.876277892641156 36.326990909496089 0 0 0 0 135.3952195715101 25.054982081666822 0 25.054982081666822 -39.207084022142226 0 0 0 0 85.853124643112096 181.61104842357599 0 181.61104842357599 -99.946069366652409 0 0 0 0 -0.84628743287339603 14.223537364356162 0 14.223537364356162 62.541750895023142 0 0 0 0 22.579227074575101 50.862416776719328 0 50.862416776719328 141.26176246619798 0 0 0 0 30.970423680217664 31.486142410214597 0 31.486142410214597 71.65835092265479 0 0 0 0 8.6648652391637349 11.09413170555851 0 11.09413170555851 10.324290145428236 0 0 0 0 18.491076999855068 53.049478269182146 0 53.049478269182146 142.30732805731532 0 0 0 0 -0.07492982159843109 -10.093714097874852 0 -10.093714097874852 43.293769441873692 0 0 0 0 24.804299860288666 28.535922583214415 0 28.535922583214415 89.999499151221244 0 0 0 0 37.932122296246234 22.480307187361177 0 22.480307187361177 151.17722721720929 0 0 0 0 2.9588486663490734 12.050535067516101 0 12.050535067516101 79.347103211111431 0 0 0 0 -37.783554229761648 -9.8236247004097095 0 -9.8236247004097095 209.16567354404833 0 0 0 0 12.225132622690857 21.482609748331132 0 21.482609748331132 49.394820236789286 0 0 0 0 12.643858231696186 23.705935557312259 0 23.705935557312259 33.977792884759268 0 0 0 0 2.2934742478838412 13.39255796279879 0 13.39255796279879 34.882514115610491 0 0 0 0 -2.2030498967196763 12.884406892790139 0 12.884406892790139 30.438564398762537 0 0 0 0 3.1722128845249244 20.661125445447396 0 20.661125445447396 92.352882378298091 0 0 0 0 3.1318246614737291 60.176095894974424 0 60.176095894974424 142.67687933625712 0 0 0 0 72.858667141466867 74.561025253744447 0 74.561025253744447 67.142671252135187 0 0 0 0 -8.0252542087997387 -10.388806438685652 0 -10.388806438685652 10.311350747778903 0 0 0 0 -72.449978195334097 -25.929397716598032 0 -25.929397716598032 231.47361167224153 0 0 0 0 -38.934820971766385 -100.19281378119194 0 -100.19281378119194 65.596601515358998 0 0 0 0 9.3279446062989475 33.788233323500833 0 33.788233323500833 16.845331770777833 0 0 0 0 -15.797237782519341 -12.931528184695928 0 -12.931528184695928 155.98453129217927 0 0 0 0 -97.945864940727915 -29.38114230154315 0 -29.38114230154315 534.13623140053824 0 0 0 0 -16.854046791342284 3.0793256777178613 0 3.0793256777178613 272.57962416039663 0 0 0 0 -8.1190189368152712 -8.7233049656188939 0 -8.7233049656188939 21.45651106808026 0 0 0 0 -329.9663923245098 -224.63994682145858 0 -224.63994682145858 -3.6994783222198748 0 0 0 0 -195.26398269253696 462.47414351120824 0 462.47414351120824 185.98993509754655 0 0 0 0 -134.58088899489485 122.71942593499807 0 122.71942593499807 266.13064451524406 0 0 0 0 -89.569978838861971 -11.057714606289665 0 -11.057714606289665 220.1934228448772 0 0 0 0 -116.28072366400374 -6.1679291230393574 0 -6.1679291230393574 62.280304135580081 0 0 0 0 -164.25319893860342 23.681084250725689 0 23.681084250725689 132.66789402981522 0 0 0 0 -97.3546666552744 -6.582764231479814 0 -6.582764231479814 45.733440610347316 0 0 0 0 -107.31376735160666 43.070594442004221 0 43.070594442004221 -59.007595043512993 0 0 0 0 -124.66866423721331 83.447432342625689 0 83.447432342625689 44.2576294074006 0 0 0 0 -123.78674500157771 128.96214780612809 0 128.96214780612809 -113.44702920160489 0 0 0 0 -268.9805483488185 150.34054836939322 0 150.34054836939322 16.04187090380583 0 0 0 0 0.4137292556101233 4.5426810593625362 0 4.5426810593625362 18.67357109641452 0 0 0 0 -72.989918458779357 151.24745797965443 0 151.24745797965443 -94.538752727385145 0 0 0 0 13.356180904271241 49.486098401888739 0 49.486098401888739 -2.0643369930330664 0 0 0 0 -73.397032156235582 180.41165006288793 0 180.41165006288793 -79.428850345080718 0 0 0 0 -0.71733976250713527 36.523618863929329 0 36.523618863929329 75.102207126306496 0 0 0 0 2.6897751729730945 20.080641995171916 0 20.080641995171916 35.743004213661834 0 0 0 0 -12.8526275825825 19.42999493420939 0 19.42999493420939 11.145522563252598 0 0 0 0 3.5731311861002633 28.410899361286596 0 28.410899361286596 35.928866505908672 0 0 0 0 -6.0122247526977439 32.099343824937762 0 32.099343824937762 102.08996844729222 0 0 0 0 22.475691918742086 71.09119912359165 0 71.09119912359165 138.3117602743805 0 0 0 0 13.658128317751107 51.757552765164291 0 51.757552765164291 142.22977803715912 0 0 0 0 127.73677810389927 127.33940508973319 0 127.33940508973319 75.538814917497803 0 0 0 0 14.146936363183736 28.255808497712906 0 28.255808497712906 -4.4080117415483357 0 0 0 0 122.90234823482388 31.596166445669951 0 31.596166445669951 80.334055545841693 0 0 0 0 -220.08767337490281 300.28098148031131 0 300.28098148031131 175.90990261072875 0 0 0 0 -317.05943518214849 -47.915702847618377 0 -47.915702847618377 682.2726996546553 0 0 0 0 413.08756109991964 130.22601152666903 0 130.22601152666903 -14.980781999052851 0 0 0 0 218.99001470105623 431.2699588674659 0 431.2699588674659 85.862183017161442 0 0 0 0 32.047373446768233 54.99261280294013 0 54.99261280294013 512.42633830982959 0 0 0 0 -116.6666964038788 -44.735472685060813 0 -44.735472685060813 260.47866933397017 0 0 0 0 74.225744607137131 254.34860425291845 0 254.34860425291845 529.70910832291793 0 0 0 0 6.4939575714396032 5.8392999516679964 0 5.8392999516679964 -1.0789507050416205 0 0 0 0 5.6383984887521263 7.3667398337786842 0 7.3667398337786842 1.4983705200062332 0 0 0 0 -57.220772044945534 231.45218356842088 0 231.45218356842088 531.53665748005733 0 0 0 0 -188.79352300158052 -33.898484642457333 0 -33.898484642457333 542.86206232878612 0 0 0 0 -141.47562762337293 28.372365241011721 0 28.372365241011721 345.517844801725 0 0 0 0 -117.42467553197065 -92.732504729169136 0 -92.732504729169136 244.20056143542752 0 0 0 0 68.769213781325334 195.67172410258718 0 195.67172410258718 199.81126125698211 0 0 0 0 -17.502704859294681 -28.290279055603605 0 -28.290279055603605 46.213456784003938 0 0 0 0 177.48971546706662 135.85541242982799 0 135.85541242982799 -27.760875930456677 0 0 0 0 -163.84569215309284 -318.78278875588876 0 -318.78278875588876 -146.29648697156335 0 0 0 0 0.47856385010347413 -2.3851841368088031 0 -2.3851841368088031 0.22746989153603181 0 0 0 0 123.33713097184034 248.36149347783976 0 248.36149347783976 493.16598826693371 0 0 0 0 -6.3897107344548658 21.520438197048861 0 21.520438197048861 253.90870055556297 0 0 0 0 -67.856021006364699 -42.609982768139162 0 -42.609982768139162 251.42556954997417 0 0 0 0 14.429821580506545 54.319650481790504 0 54.319650481790504 121.21365798590418 0 0 0 0 0.76163238050044946 12.456103601379553 0 12.456103601379553 16.379552857100407 0 0 0 0 29.238619694676913 135.87137715853714 0 135.87137715853714 119.32757712854072 0 0 0 0 88.156292847397481 97.775206348138454 0 97.775206348138454 147.24553601362277 0 0 0 0 -4.2419158915352 40.190227207036514 0 40.190227207036514 129.29460963177098 0 0 0 0 -27.059282053283596 70.921921580171329 0 70.921921580171329 127.20332828310347 0 0 0 0 12.526963973417654 49.171710080582891 0 49.171710080582891 99.920165324821085 0 0 0 0 3.2495387309941179 201.84599305582742 0 201.84599305582742 19.380583736376138 0 0 0 0 -14.575412406892383 100.19096857421573 0 100.19096857421573 -34.891202402766794 0 0 0 0 212.36395021071166 223.82255419157445 0 223.82255419157445 28.653117055684561 0 0 0 0 28.463571508301357 173.86518898070426 0 173.86518898070426 279.53747731706972 0 0 0 0 7.616413104545245 101.43091580797409 0 101.43091580797409 29.497569144759382 0 0 0 0 315.33289819338211 -266.43231875471611 0 -266.43231875471611 -336.09518804552499 0 0 0 0 3.3278094475444719 5.1438327998947457 0 5.1438327998947457 4.520407252020135 0 0 0 0 72.021483433521382 -177.25460119072159 0 -177.25460119072159 506.26154572375526 0 0 0 0 479.21786220561046 304.79753659879862 0 304.79753659879862 56.4963628314581 0 0 0 0 244.99086356092471 32.856032680990211 0 32.856032680990211 -145.98066732176812 0 0 0 0 -168.03705844542151 36.07764251737899 0 36.07764251737899 338.21763274076511 0 0 0 0 -181.42651723730398 111.11564429200735 0 111.11564429200735 493.32121417589951 0 0 0 0 -154.12067451707253 160.53611510642804 0 160.53611510642804 530.70423386828043 0 0 0 0 1.6906866425576936 229.19591140758712 0 229.19591140758712 435.54166672867723 0 0 0 0 -25.222661581564353 114.22479085305531 0 114.22479085305531 254.00410361209651 0 0 0 0 77.592159222312148 66.150529429403832 0 66.150529429403832 86.145207546680467 0 0 0 0 -94.573912148277486 -11.887445579195628 0 -11.887445579195628 149.54388008231763 0 0 0 0 42.327541316596665 2.2155356415478309 0 2.2155356415478309 -71.442622356698848 0 0 0 0 144.77863578991264 155.67443900329818 0 155.67443900329818 192.21562975741108 0 0 0 0 -3.7978881684866153 17.096874933570319 0 17.096874933570319 17.182819358328061 0 0 0 0 -21.343833040314962 116.28191893549229 0 116.28191893549229 255.04914239981736 0 0 0 0 -26.181893877844914 45.62817754305388 0 45.62817754305388 129.76285434371675 0 0 0 0 -14.425202035108668 52.222858974448172 0 52.222858974448172 130.15658273222834 0 0 0 0 30.768024361618586 50.983805435440445 0 50.983805435440445 72.285886149853468 0 0 0 0 31.919589809556726 44.229223630691195 0 44.229223630691195 77.28911661557504 0 0 0 0 -35.787305493639906 18.265302095227526 0 18.265302095227526 83.36601408442948 0 0 0 0 -22.754326259468144 6.081149264879059 0 6.081149264879059 40.400255693995859 0 0 0 0 -4.398400182104524 22.323564257763792 0 22.323564257763792 17.980618343193782 0 0 0 0 6.2251669042052526 33.469878036776208 0 33.469878036776208 44.281241866323398 0 0 0 0 5.0076547347166525 39.647753535522497 0 39.647753535522497 48.880440358072519 0 0 0 0 -4.4653568202793394 22.373273899225751 0 22.373273899225751 18.096631098131184 0 0 0 0 64.410980815025141 54.5764377018495 0 54.5764377018495 58.472323985741241 0 0 0 0 28.803617714467009 37.852198291395325 0 37.852198291395325 51.254504986674874 0 0 0 0 6.8630730112408855 39.902870002988493 0 39.902870002988493 67.167514883520198 0 0 0 0 29.90339313270988 38.430976250834647 0 38.430976250834647 39.369588953035418 0 0 0 0 14.587905329289697 39.156952111428836 0 39.156952111428836 41.904864041789551 0 0 0 0 14.82558706908867 36.461071366349643 0 36.461071366349643 22.559433417423861 0 0 0 0 67.811053855079081 35.997176952805603 0 35.997176952805603 31.90147563451319 0 0 0 0 15.805103398819938 19.923669394556782 0 19.923669394556782 27.076511111299624 0 0 0 0 0.95057568611633769 -3.3306269787344718 0 -3.3306269787344718 34.009204197129293 0 0 0 0 98.519491187289532 11.599901543697342 0 11.599901543697342 19.961560061638011 0 0 0 0 60.012116107282509 -4.8650180155009366 0 -4.8650180155009366 13.749806076026289 0 0 0 0 129.23411513981682 49.278587806649739 0 49.278587806649739 64.353928455675486 0 0 0 0 6.4038656348535801 9.1525235045857158 0 9.1525235045857158 19.765054265728025 0 0 0 0 -25.492912158209805 86.512017650726193 0 86.512017650726193 -13.295275299737114 0 0 0 0 -17.019469027891319 -15.619281032501021 0 -15.619281032501021 60.067169360587286 0 0 0 0 2.9469323835844277 -2.7203833743572972 0 -2.7203833743572972 12.928740552515478 0 0 0 0 83.730132203416815 -69.49338267758867 0 -69.49338267758867 78.084299624999403 0 0 0 0 41.488653666077425 98.018589719333249 0 98.018589719333249 87.341437483200025 0 0 0 0 56.518258050204395 61.639077751537116 0 61.639077751537116 -92.564153600455029 0 0 0 0 94.831609674187121 -55.407442198251374 0 -55.407442198251374 -71.175693013856289 0 0 0 0 20.763402313563006 0.78700747860239062 0 0.78700747860239062 37.196051381062716 0 0 0 0 -18.033033871761745 -41.180800094727601 0 -41.180800094727601 214.13716946989734 0 0 0 0 68.18755838589027 -122.33506189339096 0 -122.33506189339096 107.9744825025482 0 0 0 0 72.863094105219005 -140.01741107169801 0 -140.01741107169801 127.08673779862875 0 0 0 0 -43.532031532394228 54.451924413966481 0 54.451924413966481 524.67711478118872 0 0 0 0 -32.934334131108017 -116.94234967125522 0 -116.94234967125522 589.86032690425054 0 0 0 0 -62.624276488242231 36.235282657382413 0 36.235282657382413 517.9261212151614 0 0 0 0 -56.049857607102808 90.237069972209611 0 90.237069972209611 925.03238444504677 0 0 0 0 -15.030428188226779 -3.6183312435841799 0 -3.6183312435841799 434.9511673262532 0 0 0 0 -70.919976339343975 69.43622557343042 0 69.43622557343042 418.36041061664309 0 0 0 0 -37.550271523681204 107.10769241513844 0 107.10769241513844 444.85934112969699 0 0 0 0 -57.102527180112702 -13.159097159630619 0 -13.159097159630619 412.57639843885772 0 0 0 0 5.7179042019217832 99.756980074273088 0 99.756980074273088 194.6676052574112 0 0 0 0 30.259156346321696 99.964271879536241 0 99.964271879536241 374.20208442887815 0 0 0 0 30.402046228617507 205.38473010927555 0 205.38473010927555 409.11066560457039 0 0 0 0 -1.9734257084567233 67.700288631997864 0 67.700288631997864 261.46049783465423 0 0 0 0 54.179037883777312 162.51167008182529 0 162.51167008182529 128.83154018846108 0 0 0 0 22.372248772192506 31.33186390402625 0 31.33186390402625 112.02705332028563 0 0 0 0 293.73426231901931 146.21633993435535 0 146.21633993435535 138.62100926825951 0 0 0 0 46.46670212075469 -74.778543275346237 0 -74.778543275346237 315.70774944758159 0 0 0 0 115.80650674244953 -34.385163452017878 0 -34.385163452017878 101.29046527653645 0 0 0 0 -64.878715843402688 -131.77283128466115 0 -131.77283128466115 89.270055223212694 0 0 0 0 -65.851047179091438 -68.115159284785477 0 -68.115159284785477 134.66053656002623 0 0 0 0 19.964310762387868 -224.07257472047786 0 -224.07257472047786 277.39747903719399 0 0 0 0 -81.583421222893776 28.84762317377681 0 28.84762317377681 416.14742395751455 0 0 0 0 141.77256128267095 415.72228470947084 0 415.72228470947084 534.80277733730327 0 0 0 0 -27.698015450243929 -144.41366322735848 0 -144.41366322735848 790.9642863865156 0 0 0 0 359.23985782309705 355.35981471255946 0 355.35981471255946 554.02804177397047 0 0 0 0 546.52567249199114 -90.534871255382313 0 -90.534871255382313 315.83749143668228 0 0 0 0 -10.264434649058344 2.9645718388528621 0 2.9645718388528621 58.361631625288283 0 0 0 0 9.0535132989366645 20.885880777277634 0 20.885880777277634 -104.68114104550477 0 0 0 0 -79.147200624075808 28.893000411710091 0 28.893000411710091 140.90708066492516 0 0 0 0 -63.615196513721493 88.664520000649645 0 88.664520000649645 -59.006221789793926 0 0 0 0 -110.16062754984948 52.774069476312434 0 52.774069476312434 -17.253578120842576 0 0 0 0 -19.321809898373431 69.190576237757341 0 69.190576237757341 -50.821527005042299 0 0 0 0 -0.55463854408030433 2.0844950153707629 0 2.0844950153707629 0.30270964038402326 0 0 0 0 -59.83956854437568 30.368059981086844 0 30.368059981086844 -7.6457463816041127 0 0 0 0 0.010618349779958798 55.22888552974473 0 55.22888552974473 -70.310509554343298 0 0 0 0 -2.0234569948991918 51.201144281549205 0 51.201144281549205 -76.808134636870818 0 0 0 0 -32.494149864969046 68.113064531004056 0 68.113064531004056 -81.062229143368313 0 0 0 0 -0.042493012515443032 22.26689368589723 0 22.26689368589723 -31.902710266236681 0 0 0 0 -0.14743617577313237 -0.088975392341666293 0 -0.088975392341666293 -0.017488401578347634 0 0 0 0 5.7086204204286695 8.437991732484079 0 8.437991732484079 12.358602700580377 0 0 0 0 -14.46356264679517 -7.2617334820151882 0 -7.2617334820151882 37.841448466060683 0 0 0 0 -11.788667480072878 6.8413498369554873 0 6.8413498369554873 63.878438782383455 0 0 0 0 -2.9083701210810489 -9.1048973538345308 0 -9.1048973538345308 36.545283287850907 0 0 0 0 13.175761200689262 0.28639165337199302 0 0.28639165337199302 33.660182590931072 0 0 0 0 14.278580443958965 3.6757047038627206 0 3.6757047038627206 22.139260741678299 0 0 0 0 -5.1623523413211458 -1.3319521335943136 0 -1.3319521335943136 21.324281311772211 0 0 0 0 4.4564582983902739 0.28834320236637723 0 0.28834320236637723 -2.5931485748151317 0 0 0 0 -0.87268641649857681 -0.25634435242477593 0 -0.25634435242477593 2.7110806968682795 0 0 0 0 -0.27003108636991818 -2.1247219872211076 0 -2.1247219872211076 12.044166605703992 0 0 0 0 -136.64892845122773 33.075729639898782 0 33.075729639898782 23.476993596821558 0 0 0 0 -3.9670339332714946 -1.1588597700756509 0 -1.1588597700756509 24.394572893288569 0 0 0 0 -63.932160741541338 103.72561235592002 0 103.72561235592002 21.97335503478098 0 0 0 0 -35.808938737646713 -46.512399795370584 0 -46.512399795370584 -47.142915404881933 0 0 0 0 -19.332180821846009 49.393332282190386 0 49.393332282190386 14.847953175834846 0 0 0 0 -25.604457243778583 38.425962808636541 0 38.425962808636541 -9.5856401867931709 0 0 0 0 -20.849064040576309 43.905171126243658 0 43.905171126243658 -50.422205836410285 0 0 0 0 8.4809366237135748 8.0039036219404807 0 8.0039036219404807 -79.100646548584336 0 0 0 0 14.294715769657273 28.342170727293706 0 28.342170727293706 -28.145620434414013 0 0 0 0 -2.7675528775648712 7.7535428950208996 0 7.7535428950208996 7.1695478963676322 0 0 0 0 5.6976517991824949 71.146235087799141 0 71.146235087799141 -36.795295730378712 0 0 0 0 -11.083427934884526 34.488876838586293 0 34.488876838586293 4.6611563237238443 0 0 0 0 -44.027155645534549 32.675935072620632 0 32.675935072620632 4.562450742531837 0 0 0 0 -53.096480406119554 13.823498731777363 0 13.823498731777363 12.411851914454019 0 0 0 0 -0.018453654807774278 -1.1764008073707544 0 -1.1764008073707544 6.9400928992401987 0 0 0 0 -35.104434499527997 11.946302659122011 0 11.946302659122011 11.236202154774219 0 0 0 0 55.934606953366824 65.222922664866928 0 65.222922664866928 117.87737065799593 0 0 0 0 126.60597985958748 -20.425121094755013 0 -20.425121094755013 -1.1964684119593585 0 0 0 0 67.735842576088771 54.643162709253374 0 54.643162709253374 106.19430865449249 0 0 0 0 74.362292406007782 31.163822557740787 0 31.163822557740787 95.838905194541439 0 0 0 0 0.059119068013932186 0.45665985058596448 0 0.45665985058596448 0.71998694040502187 0 0 0 0 60.324093751596365 80.279721682025411 0 80.279721682025411 65.178041886043502 0 0 0 0 -17.470314322706599 -32.088986274295166 0 -32.088986274295166 -100.16750205657445 0 0 0 0 0.020968779567813733 3.2260230374527339 0 3.2260230374527339 -4.7236861898785492 0 0 0 0 112.0677492280372 12.599228443013999 0 12.599228443013999 -20.096418221437489 0 0 0 0 35.768319269664744 33.602267644258973 0 33.602267644258973 -56.307188737126125 0 0 0 0 -1.747496904611376 8.363560685961545 0 8.363560685961545 5.8571720667166574 0 0 0 0 48.653740396020339 82.852807826522621 0 82.852807826522621 -28.809400871352409 0 0 0 0 39.446072439771569 75.813033159884071 0 75.813033159884071 12.097044110865681 0 0 0 0 103.4244825569109 60.722141579557501 0 60.722141579557501 13.41590823639126 0 0 0 0 52.674196355004597 124.26340049778082 0 124.26340049778082 89.074603020097129 0 0 0 0 168.53166434277273 275.68263359695266 0 275.68263359695266 547.22872452683805 0 0 0 0 460.18434002812705 -36.205009779154352 0 -36.205009779154352 -199.29620015391265 0 0 0 0 133.8746644808723 33.787559790209343 0 33.787559790209343 -106.6654451897075 0 0 0 0 0.049331199831896821 0.42461883641981046 0 0.42461883641981046 -2.4403373928546443 0 0 0 0 -118.64676962434964 -250.86246914901858 0 -250.86246914901858 -147.07211988905328 0 0 0 0 -202.79838445342352 -90.448713847676117 0 -90.448713847676117 -107.06657353600895 0 0 0 0 -219.12422385718082 116.5501141899731 0 116.5501141899731 -16.99422826783848 0 0 0 0 159.09452536189292 124.49594101691764 0 124.49594101691764 -112.72613560330501 0 0 0 0 -142.53384520533996 -90.281355520237412 0 -90.281355520237412 -108.0668643026147 0 0 0 0 -227.08201518278975 14.605660985354916 0 14.605660985354916 379.94498501651105 0 0 0 0 -193.65928539985134 -196.27710059241508 0 -196.27710059241508 117.04232217579556 0 0 0 0 -205.68110455191459 -122.97432192016277 0 -122.97432192016277 543.1673921685433 0 0 0 0 -144.01754359913093 -54.858383366226917 0 -54.858383366226917 79.932243971910793 0 0 0 0 -197.73282694398102 -53.558776712558029 0 -53.558776712558029 111.42055488043115 0 0 0 0 -237.04604557907214 -79.817279995200806 0 -79.817279995200806 134.69869011850824 0 0 0 0 -79.649858112818492 -112.89750033836754 0 -112.89750033836754 -86.389506938721752 0 0 0 0 -212.49677578345791 -149.09515491768252 0 -149.09515491768252 17.09731527009717 0 0 0 0 -6.6402059556422426 -7.5530246208887775 0 -7.5530246208887775 44.538927893273069 0 0 0 0 -0.75060904383144589 0.36030663874407765 0 0.36030663874407765 58.151800755673321 0 0 0 0 2.2191081306809792 18.316234742218512 0 18.316234742218512 67.845421494697803 0 0 0 0 -366.6823111291551 -83.018603385338793 0 -83.018603385338793 9.1979761637921911 0 0 0 0 -5.6411165564889707 -8.5650131132661897 0 -8.5650131132661897 7.5120915357910576 0 0 0 0 -363.64445210220265 -114.70318400354881 0 -114.70318400354881 12.705416003153005 0 0 0 0 -2.5277394720609689 6.5745364811068896 0 6.5745364811068896 8.4533887155409388 0 0 0 0 1.6887461509336301 13.237088628275572 0 13.237088628275572 48.815756064850632 0 0 0 0 -208.10457967666869 94.188011938787895 0 94.188011938787895 100.49018410651479 0 0 0 0 -57.555839393611677 97.944611772880307 0 97.944611772880307 -45.530019432742847 0 0 0 0 -169.07450462089128 109.13722230354324 0 109.13722230354324 10.40394670778187 0 0 0 0 -186.26877807049345 -35.102123754062632 0 -35.102123754062632 62.112934585224139 0 0 0 0 27.262604272519184 -58.315861779876286 0 -58.315861779876286 -58.674524416022905 0 0 0 0 -22.247917400806728 42.612596042454243 0 42.612596042454243 76.965431747987168 0 0 0 0 -23.467637419749281 41.210771713493159 0 41.210771713493159 113.56135491427267 0 0 0 0 -25.224628590407065 3.0618136287812376 0 3.0618136287812376 120.36263245803275 0 0 0 0 -24.023595779098741 4.5478333696519258 0 4.5478333696519258 84.212151223036926 0 0 0 0 -102.67001598007846 45.5756861569389 0 45.5756861569389 121.5233608034614 0 0 0 0 -100.35929081051719 71.684359299671996 0 71.684359299671996 90.254757042304846 0 0 0 0 -106.96947929327007 60.254674037088989 0 60.254674037088989 71.567163761443226 0 0 0 0 -157.1365358453445 76.800777011114405 0 76.800777011114405 103.94334386615083 0 0 0 0 -148.44826768161965 104.38801182007592 0 104.38801182007592 45.26284783781739 0 0 0 0 -79.444136621251801 -1.1013737509783823 0 -1.1013737509783823 129.63890314244054 0 0 0 0 -127.26555872260883 14.77886814098747 0 14.77886814098747 249.6797489276214 0 0 0 0 -120.13996153155767 -52.527968473819783 0 -52.527968473819783 91.137429575968781 0 0 0 0 -131.58987735535629 54.071114482416306 0 54.071114482416306 102.0424688244384 0 0 0 0 -98.235601446081091 26.249993519631971 0 26.249993519631971 37.196237534750253 0 0 0 0 -171.09961294687287 -22.337602874194999 0 -22.337602874194999 -35.382057210692437 0 0 0 0 -65.482417497506958 30.010917560124653 0 30.010917560124653 84.387520630376457 0 0 0 0 -106.77448280697581 32.008674128126586 0 32.008674128126586 148.2395083749725 0 0 0 0 -71.220310505555517 3.2374182598723564 0 3.2374182598723564 126.12366935680257 0 0 0 0 -19.056607463262026 28.668371956388 0 28.668371956388 126.36371602585132 0 0 0 0 -19.008361925615787 30.494234316237453 0 30.494234316237453 168.72798121353844 0 0 0 0 -30.574117509336816 29.357559816457069 0 29.357559816457069 168.78327653971792 0 0 0 0 -85.64825924782599 3.8112562087408151 0 3.8112562087408151 202.40619425704062 0 0 0 0 -43.159122186854745 60.774166384968339 0 60.774166384968339 253.84971805340319 0 0 0 0 -123.68603097689538 19.791613620167482 0 19.791613620167482 298.9555250607882 0 0 0 0 -145.22778731706057 -38.793712539831176 0 -38.793712539831176 276.60827626351238 0 0 0 0 -108.16119842391254 67.031329859659309 0 67.031329859659309 380.50718878452608 0 0 0 0 -64.561497503512726 28.2944414193189 0 28.2944414193189 313.70470140599355 0 0 0 0 -56.393435204328398 55.926753115425527 0 55.926753115425527 246.86347553467203 0 0 0 0 -102.91255865966025 116.2685614035945 0 116.2685614035945 298.49344122110051 0 0 0 0 -41.246439382091467 -0.76594167274379288 0 -0.76594167274379288 249.48579592421447 0 0 0 0 -48.36505910110327 -17.935097261739429 0 -17.935097261739429 229.36246905042935 0 0 0 0 -40.105593697685435 -10.869017734097724 0 -10.869017734097724 267.37464701813587 0 0 0 0 -39.774373789464789 -22.342055310240539 0 -22.342055310240539 334.00968743670819 0 0 0 0 -65.617558847139208 36.896083808547701 0 36.896083808547701 301.77265251261997 0 0 0 0 -72.899896109520228 22.229722521278745 0 22.229722521278745 343.04500864027068 0 0 0 0 -21.456935322873733 -19.260356897520978 0 -19.260356897520978 337.29959565056197 0 0 0 0 -30.773146615009864 0.61088734771328745 0 0.61088734771328745 307.93064468532975 0 0 0 0 5.1482135599613912 -75.456760438341007 0 -75.456760438341007 351.62690874399959 0 0 0 0 6.9300551620969486 -44.835376779359649 0 -44.835376779359649 506.088842054829 0 0 0 0 0.26926456742421578 5.7532796545492602 0 5.7532796545492602 340.7868733092173 0 0 0 0 151.50650037249812 259.23333872789226 0 259.23333872789226 466.95348937172093 0 0 0 0 60.437438463589956 86.568677578914503 0 86.568677578914503 139.62283962508081 0 0 0 0 -56.940179263203731 2.5023005900111457 0 2.5023005900111457 365.63614774492453 0 0 0 0 10.405470094410703 106.29672066659259 0 106.29672066659259 302.41328230745785 0 0 0 0 50.219435049705339 53.060243637115491 0 53.060243637115491 138.59607186900394 0 0 0 0 -17.789210851074301 84.818082135694567 0 84.818082135694567 74.973539099191839 0 0 0 0 -87.612751342306325 1.4042219368275255 0 1.4042219368275255 477.15699602469977 0 0 0 0 0.45498819308136618 -0.81173373678034011 0 -0.81173373678034011 2.244661964680688 0 0 0 0 -58.006110547470257 -109.82105752069765 0 -109.82105752069765 80.011683575200891 0 0 0 0 99.726497366488275 6.8486802935549349 0 6.8486802935549349 417.38934595952742 0 0 0 0 9.171424658936985 -74.813764357641048 0 -74.813764357641048 398.6122866204405 0 0 0 0 41.315019015684356 -37.870516038423375 0 -37.870516038423375 420.82866392580036 0 0 0 0 37.251983160995678 -99.877096585674735 0 -99.877096585674735 524.09025846650911 0 0 0 0 12.780654338283242 49.784561730659334 0 49.784561730659334 485.33346253078344 0 0 0 0 -62.837968608858944 36.419276690212428 0 36.419276690212428 555.86965148441595 0 0 0 0 -21.234261561372591 -69.176750262849964 0 -69.176750262849964 591.61291843694198 0 0 0 0 0.55617417217564769 1.0833555252397105 0 1.0833555252397105 1.4772583124614158 0 0 0 0 -45.791043926655355 -139.85494482058857 0 -139.85494482058857 814.52615730582329 0 0 0 0 0.1174494580165787 -0.39361100387674597 0 -0.39361100387674597 1.0910361349567665 0 0 0 0 49.149115115008627 -112.25791901056073 0 -112.25791901056073 107.27392158652219 0 0 0 0 158.91543721463381 -130.90338460239536 0 -130.90338460239536 140.05600614266586 0 0 0 0 24.021231969268371 -94.554805746345664 0 -94.554805746345664 803.50357496585639 0 0 0 0 129.94507428034302 -106.86163668838708 0 -106.86163668838708 754.42139535398746 0 0 0 0 -10.946340399862081 52.290397823511739 0 52.290397823511739 700.81091629093862 0 0 0 0 0.29210759840748163 45.599022768750729 0 45.599022768750729 587.04342701414134 0 0 0 0 66.066874087522606 51.902434611725766 0 51.902434611725766 397.97118762448372 0 0 0 0 -50.686340008326937 -30.696572900131287 0 -30.696572900131287 361.4395552154383 0 0 0 0 22.255203636347545 29.979880676892208 0 29.979880676892208 134.0188758547738 0 0 0 0 -0.00039081240935064955 63.611368158822827 0 63.611368158822827 117.48529592595878 0 0 0 0 -0.12643877075387 -5.1081597826851066 0 -5.1081597826851066 -82.041182252403814 0 0 0 0 -104.63302985584203 -58.500709204687155 0 -58.500709204687155 21.888625496940222 0 0 0 0 -4.9161192031444045 -15.823860145683284 0 -15.823860145683284 -5.2559275745297782 0 0 0 0 33.451740195503511 66.390989538384019 0 66.390989538384019 -40.992782551993514 0 0 0 0 -58.539569170091951 -56.81291219839477 0 -56.81291219839477 -18.858740551630035 0 0 0 0 -10.876111434685228 16.329301307123387 0 16.329301307123387 85.091610435119946 0 0 0 0 0.62970279287431197 63.24131950607989 0 63.24131950607989 40.856915885982744 0 0 0 0 -15.889881296789845 49.776748274307465 0 49.776748274307465 198.80784243534436 0 0 0 0 -20.494392127049366 5.0150726104184287 0 5.0150726104184287 85.019265878923761 0 0 0 0 3.7910690356812751 -20.484175660014444 0 -20.484175660014444 13.419676474630251 0 0 0 0 3.0848710921133549 -21.536031611560247 0 -21.536031611560247 124.86208102840465 0 0 0 0 -20.862197280649994 -22.025796011192142 0 -22.025796011192142 37.164369797508698 0 0 0 0 0.57588912284674443 1.5878270661924034 0 1.5878270661924034 -20.805839501786977 0 0 0 0 -147.31655261578243 -2.5392913320829393 0 -2.5392913320829393 36.098220204701647 0 0 0 0 -53.466348817167059 -9.6832645977992797 0 -9.6832645977992797 3.459558081232899 0 0 0 0 -0.12062131332502642 0.062223939673190287 0 0.062223939673190287 2.7071927971304603 0 0 0 0 -22.000463176943857 -28.695051314414741 0 -28.695051314414741 -1.1696273880952504 0 0 0 0 -90.507237427316269 -8.5542143931961618 0 -8.5542143931961618 36.67590380544425 0 0 0 0 -53.64689409295449 11.145304690134708 0 11.145304690134708 -38.296307580079883 0 0 0 0 -31.050291917421816 -32.222717675525928 0 -32.222717675525928 -18.998290241630457 0 0 0 0 -73.314305347197205 -4.1151860376558034 0 -4.1151860376558034 5.9383593065140303 0 0 0 0 0.14801353984146196 -0.80385789421416121 0 -0.80385789421416121 4.1651851462665945 0 0 0 0 -0.075912395576349198 -0.29144955819513285 0 -0.29144955819513285 2.4601411826574804 0 0 0 0 0.034675514337927732 -1.1294798264571 0 -1.1294798264571 16.666680257476401 0 0 0 0 -29.790301796041234 -50.434173454908887 0 -50.434173454908887 1.9581601550794403 0 0 0 0 -4.6050445530131228 -31.534997442868189 0 -31.534997442868189 -8.0488295463728718 0 0 0 0 5.763694780325026 -50.713173572762116 0 -50.713173572762116 -4.083289764879737 0 0 0 0 -0.71944169547219872 35.202935865469044 0 35.202935865469044 -34.776389144419227 0 0 0 0 -0.011114683839437116 -0.0096199881756496696 0 -0.0096199881756496696 0.2147174933925271 0 0 0 0 74.466182287000066 6.4369411953957751 0 6.4369411953957751 -70.308877127725282 0 0 0 0 60.409814492450813 -49.205239383976732 0 -49.205239383976732 -18.37466118116572 0 0 0 0 37.215305125529937 -60.677521215813613 0 -60.677521215813613 11.986836781841703 0 0 0 0 108.67938028418297 -102.4920426451863 0 -102.4920426451863 1.849131297403801 0 0 0 0 117.29089454327213 -37.987807602548855 0 -37.987807602548855 -45.700901841977611 0 0 0 0 40.561518537728439 -63.303705566429926 0 -63.303705566429926 9.3962257437233347 0 0 0 0 31.821440903380513 -91.805562260997249 0 -91.805562260997249 102.39718591500423 0 0 0 0 31.444702025341137 -56.811572384940519 0 -56.811572384940519 48.358318172176951 0 0 0 0 29.339877131466054 -62.458802320456016 0 -62.458802320456016 -2.0533619599445956 0 0 0 0 30.51768428527437 -58.062613972106192 0 -58.062613972106192 14.3314461853588 0 0 0 0 53.988019991426626 -54.157148576527106 0 -54.157148576527106 -38.016668700875016 0 0 0 0 2.2118288727401301 3.1240429569875232 0 3.1240429569875232 2.3993454980752915 0 0 0 0 22.784394544603654 -51.140772806666064 0 -51.140772806666064 22.432525154523319 0 0 0 0 99.799071958706904 -41.450967868549924 0 -41.450967868549924 19.322380789730232 0 0 0 0 40.173389153820196 -75.998278236171245 0 -75.998278236171245 119.47234259451216 0 0 0 0 40.500966729686155 -65.89301473236992 0 -65.89301473236992 20.337993749446468 0 0 0 0 -10.470092577568124 -7.0557350248054718 0 -7.0557350248054718 258.68838106963085 0 0 0 0 2.7955676625567634 -31.755134784551046 0 -31.755134784551046 127.86219496089325 0 0 0 0 25.597350689969012 -109.21977546477137 0 -109.21977546477137 387.51482972317899 0 0 0 0 152.83621937765537 -139.64805450284621 0 -139.64805450284621 142.00850597110548 0 0 0 0 163.73403445728178 46.767330706068606 0 46.767330706068606 189.30365678352246 0 0 0 0 69.585661736047086 -62.965311148152978 0 -62.965311148152978 169.41691230289871 0 0 0 0 10.896150070368606 28.827402800881828 0 28.827402800881828 231.48419584809744 0 0 0 0 120.21095036769947 -51.334450233858661 0 -51.334450233858661 16.510151387672522 0 0 0 0 -13.979286809880875 10.206958382950688 0 10.206958382950688 26.153501423280431 0 0 0 0 78.749020467281809 1.5365077437054424 0 1.5365077437054424 -140.80887397583865 0 0 0 0 3.4942065784265144 4.7316351638258141 0 4.7316351638258141 3.0080128267133261 0 0 0 0 44.916881690675837 -53.850877608583687 0 -53.850877608583687 269.48330114198325 0 0 0 0 -1.9819227382729991 -47.802673719008453 0 -47.802673719008453 245.21093628740346 0 0 0 0 2.9958317791156159 5.8294290044796639 0 5.8294290044796639 3.6483885779254024 0 0 0 0 64.660785097176415 100.64600906640044 0 100.64600906640044 -172.05197321527521 0 0 0 0 -6.5496622048037807 -33.434280386914907 0 -33.434280386914907 230.61405723023563 0 0 0 0 -7.1909623706305013 -36.801525583966395 0 -36.801525583966395 220.43404520275362 0 0 0 0 0.74454993076670384 6.1365853942027684 0 6.1365853942027684 4.2251969388233164 0 0 0 0 6.3347149047895073 13.496393017452647 0 13.496393017452647 138.76470384337881 0 0 0 0 16.291750806850587 80.367408581903874 0 80.367408581903874 -93.726644949667389 0 0 0 0 -62.788355745769422 24.402196437997191 0 24.402196437997191 33.399661197428941 0 0 0 0 -8.3589685538509002 -13.54888491769816 0 -13.54888491769816 147.42796116418322 0 0 0 0 70.089556200154448 47.19293071204811 0 47.19293071204811 34.023093386145774 0 0 0 0 -8.1214171200560639 76.401318451789805 0 76.401318451789805 90.390948281667079 0 0 0 0 6.501600773963105 -27.737459263356868 0 -27.737459263356868 71.699534940387821 0 0 0 0 1.4425317449463364 -34.536223830342351 0 -34.536223830342351 317.64556849798828 0 0 0 0 157.71409437859552 5.7840596247406211 0 5.7840596247406211 127.54018666277989 0 0 0 0 74.624311679655278 -99.12020341682728 0 -99.12020341682728 235.87837608183327 0 0 0 0 45.992575920314238 -52.00890057469951 0 -52.00890057469951 563.97425648084027 0 0 0 0 26.866047950249822 -165.83149573905393 0 -165.83149573905393 212.04504976491444 0 0 0 0 25.463610604877431 -133.89616064279107 0 -133.89616064279107 179.34496762069466 0 0 0 0 17.239998082317925 -144.09782792342594 0 -144.09782792342594 167.49116492230678 0 0 0 0 73.727778043388298 -391.70653394435067 0 -391.70653394435067 239.22435400952236 0 0 0 0 -1.9354802022560307 -382.85875679596938 0 -382.85875679596938 363.89082827270613 0 0 0 0 2.605742413442214 5.07702026975997 0 5.07702026975997 8.4190638404846823 0 0 0 0 -135.9144399132785 367.90329403290525 0 367.90329403290525 328.32978559454205 0 0 0 0 7.9810848838442183 89.075297738658264 0 89.075297738658264 -23.530893930954335 0 0 0 0 85.987912675489852 49.164351950326818 0 49.164351950326818 -53.667221475137922 0 0 0 0 8.2166199101946287 37.239788254405909 0 37.239788254405909 -46.677069320474402 0 0 0 0 164.98819966064741 1.1102226745788357 0 1.1102226745788357 -38.605932623100671 0 0 0 0 0.68828507302326991 1.6447775463691841 0 1.6447775463691841 4.2845736278714526 0 0 0 0 -38.513958480342311 -347.66539790412389 0 -347.66539790412389 439.16874301535427 0 0 0 0 65.592638720525173 198.58618554186614 0 198.58618554186614 156.17734344268683 0 0 0 0 44.496922062889873 94.665707667840252 0 94.665707667840252 7.1110286723123863 0 0 0 0 -0.27747854304043823 0.41023001418901139 0 0.41023001418901139 8.3684372952558306 0 0 0 0 -162.30413393813109 13.651431912214321 0 13.651431912214321 23.263037983891081 0 0 0 0 363.15171670857012 -49.636572518320463 0 -49.636572518320463 233.18288463392673 0 0 0 0 122.81236465460921 -305.60922489159566 0 -305.60922489159566 188.01008716576871 0 0 0 0 -0.076405851231319863 -0.036053424229637088 0 -0.036053424229637088 4.0698980108880392 0 0 0 0 38.969105856530781 -86.082562312085429 0 -86.082562312085429 471.2519585765549 0 0 0 0 -93.031007898186076 -276.51943626518187 0 -276.51943626518187 350.52169075459824 0 0 0 0 -53.398820643471808 102.03530033997959 0 102.03530033997959 442.04368524959318 0 0 0 0 -43.267045354634917 113.77588328047568 0 113.77588328047568 211.50311476900242 0 0 0 0 -40.768867320775342 103.77439542290813 0 103.77439542290813 232.40474677991369 0 0 0 0 -2.624172263920137 69.541176583705237 0 69.541176583705237 165.58160299832525 0 0 0 0 -33.374598487924118 71.165705206199277 0 71.165705206199277 179.76678494083171 0 0 0 0 35.028803396920104 193.27280580160385 0 193.27280580160385 171.64516982546775 0 0 0 0 5.5090919382647456 1.8036501500100712 0 1.8036501500100712 -10.112742074161361 0 0 0 0 -151.08732031062476 10.0175850681876 0 10.0175850681876 64.714247529729619 0 0 0 0 1.3186299553572383 -12.385214661378996 0 -12.385214661378996 -23.128916917805327 0 0 0 0 3.2177244495519375 -44.306107474323653 0 -44.306107474323653 -14.269035895951674 0 0 0 0 -2.4313320691676861 -21.373477482367889 0 -21.373477482367889 15.544395270306268 0 0 0 0 19.95764054401187 -63.649925113921199 0 -63.649925113921199 89.59945349789632 0 0 0 0 2.5806330727531614 -56.155011149608754 0 -56.155011149608754 30.506702310362016 0 0 0 0 13.121842694959806 16.866638599291036 0 16.866638599291036 68.883911449054722 0 0 0 0 1.953304604483634 -28.016740833285439 0 -28.016740833285439 213.89582399185747 0 0 0 0 0.49631963575696147 -18.096596685092663 0 -18.096596685092663 278.05097431654576 0 0 0 0 52.28495790569756 -71.424447071731265 0 -71.424447071731265 24.353571872910834 0 0 0 0 44.249226094278583 -89.664648027857766 0 -89.664648027857766 137.60984071189887 0 0 0 0 50.112119179506436 -72.501030829444062 0 -72.501030829444062 93.684146188694285 0 0 0 0 87.740910510060118 -88.28973314751056 0 -88.28973314751056 -1.9972475278773345 0 0 0 0 37.479760529198671 -58.981549695556168 0 -58.981549695556168 -5.2237030912365299 0 0 0 0 51.775163422570188 -86.346318346637418 0 -86.346318346637418 25.208301992053748 0 0 0 0 0.071166739101044402 -0.33584533883331247 0 -0.33584533883331247 1.1382676318916083 0 0 0 0 150.55261673936246 -121.18557353808501 0 -121.18557353808501 102.74747871518775 0 0 0 0 0.023209286298568998 -2.2294769681175239 0 -2.2294769681175239 6.9248336924356408 0 0 0 0 110.8999975846193 -52.60272147966316 0 -52.60272147966316 -14.314366066842922 0 0 0 0 89.007579065551937 -109.6035562295001 0 -109.6035562295001 72.57924027327681 0 0 0 0 61.167418846108689 -120.1565300795985 0 -120.1565300795985 296.52175014046952 0 0 0 0 61.99905775389621 -104.14596916061419 0 -104.14596916061419 144.46467889710766 0 0 0 0 0.30187696175155287 89.967908260423428 0 89.967908260423428 433.20318950945511 0 0 0 0 -27.111216671279529 22.623954071677872 0 22.623954071677872 381.30591144677601 0 0 0 0 31.419196096545239 -32.990840610436862 0 -32.990840610436862 280.23402511401218 0 0 0 0 42.133648690060525 -1.4574453312889091 0 -1.4574453312889091 369.04878924855439 0 0 0 0 -33.475832658166532 73.992085581967785 0 73.992085581967785 236.77779742126586 0 0 0 0 -36.669096780195986 67.497713776370801 0 67.497713776370801 226.62612311043995 0 0 0 0 -18.86410931415471 100.30430021646043 0 100.30430021646043 181.00529137405101 0 0 0 0 -38.149835747201358 110.35691662112004 0 110.35691662112004 230.24109037636663 0 0 0 0 -18.080006026415177 116.82425317516027 0 116.82425317516027 188.59567005294957 0 0 0 0 -32.496513393189879 158.50575151290104 0 158.50575151290104 321.18743651103432 0 0 0 0 -20.625420789282892 14.884993233925343 0 14.884993233925343 182.474621407222 0 0 0 0 41.187977478122676 151.64544257669013 0 151.64544257669013 151.50039907667087 0 0 0 0 -0.051202769257656655 107.48933396273787 0 107.48933396273787 172.02346376460628 0 0 0 0 0.0039088577427691638 0.28650782954885035 0 0.28650782954885035 1.3132493346206502 0 0 0 0 0.11566131956709569 -7.0158647745120106 0 -7.0158647745120106 57.063401875697309 0 0 0 0 -10.619242865309161 -9.3517184443480801 0 -9.3517184443480801 79.445808076015965 0 0 0 0 1.814351693873391 -13.922079266056244 0 -13.922079266056244 81.061160445031419 0 0 0 0 2.7568407967999065 17.924550145326975 0 17.924550145326975 81.419971709052334 0 0 0 0 0.51170227515876832 8.5973195064725587 0 8.5973195064725587 74.03231487654557 0 0 0 0 -3.2050198140145767 9.70789936102301 0 9.70789936102301 72.69213644413685 0 0 0 0 -16.799133746692178 7.5067656812461792 0 7.5067656812461792 79.132466682509403 0 0 0 0 -2.8602930640622617 4.5428828283402254 0 4.5428828283402254 90.698101128626149 0 0 0 0 5.5841964211567756 8.7906759607431013 0 8.7906759607431013 59.245248069506488 0 0 0 0 1.0443553259437977 -1.4447734338027658 0 -1.4447734338027658 73.642551140923388 0 0 0 0 -6.6441711074071463 11.061763138506649 0 11.061763138506649 57.710825365895289 0 0 0 0 -10.902718971291392 1.4807406457839534 0 1.4807406457839534 60.3909354487987 0 0 0 0 -14.305924837710847 0.95291515534518112 0 0.95291515534518112 92.762965100540896 0 0 0 0 -23.207148550694683 22.001217840748723 0 22.001217840748723 78.915193039320002 0 0 0 0 -20.226395696535064 -44.674608575507591 0 -44.674608575507591 176.1592526944296 0 0 0 0 -41.863308339655077 6.2883501307151164 0 6.2883501307151164 115.30017377031618 0 0 0 0 -21.092581343694519 24.577510012757557 0 24.577510012757557 54.920915433031041 0 0 0 0 -2.3608368921941363 -26.035695814939288 0 -26.035695814939288 42.536351552047279 0 0 0 0 633.33710668069352 -56.222073673878185 0 -56.222073673878185 -379.69009640082731 0 0 0 0 1545.3598967360826 -1164.0193289019371 0 -1164.0193289019371 1457.755697138462 0 0 0 0 -2744.221863169173 219.06628312798784 0 219.06628312798784 3480.876041604497 0 0 0 0 -22.367854625586915 102.89222813831657 0 102.89222813831657 214.51566352497321 0 0 0 0 1.9458294448948141 -10.395925293690752 0 -10.395925293690752 2.7144928789118694 0 0 0 0 3.8883268920066669 -4.6600199114803331 0 -4.6600199114803331 23.094853513996782 0 0 0 0 -107.81480137602375 47.068533230230969 0 47.068533230230969 -14.411577449049219 0 0 0 0 0.65726870705352614 3.3533408070458108 0 3.3533408070458108 33.128946850506452 0 0 0 0 5.41494528016392 -2.1501228372253536 0 -2.1501228372253536 17.004266102449037 0 0 0 0 3.7145497232862539 4.2196306636543426 0 4.2196306636543426 17.741731714568857 0 0 0 0 108.82824631237236 498.8704652712986 0 498.8704652712986 230.86356278378662 0 0 0 0 4.1278776315083334 2.2170178006892058 0 2.2170178006892058 -0.18268044218703494 0 0 0 0 12.845140136654891 -10.820062245387817 0 -10.820062245387817 52.528234544384759 0 0 0 0 10.142372297576003 -51.530942020872317 0 -51.530942020872317 135.15012782908161 0 0 0 0 -16.055406780464637 -22.939434056490427 0 -22.939434056490427 108.70549125681282 0 0 0 0 67.109173510573783 -61.61776949634077 0 -61.61776949634077 85.039969295248738 0 0 0 0 54.922923166862802 -108.03002836097585 0 -108.03002836097585 130.81032873544609 0 0 0 0 41.607033944781506 -34.735005240087048 0 -34.735005240087048 61.04707683021843 0 0 0 0 -12.785049665970746 13.405924344286177 0 13.405924344286177 -13.884129502170254 0 0 0 0 6.9737443007580939 6.9154755498908145 0 6.9154755498908145 3.2125662090663809 0 0 0 0 -8.8802598350750941 21.930571552697074 0 21.930571552697074 0.18592140811961144 0 0 0 0 1.7746228070692487 14.479070886131005 0 14.479070886131005 7.7945966416332055 0 0 0 0 1.1920883431357652 13.442715562276135 0 13.442715562276135 12.820899388099861 0 0 0 0 -3.8910151007836804 4.8809019594690994 0 4.8809019594690994 37.378146305083959 0 0 0 0 0.4220349037664608 -1.6236626465679791 0 -1.6236626465679791 5.0954452907326129 0 0 0 0 3.5055062219173028 8.2327280127978923 0 8.2327280127978923 16.710516257412962 0 0 0 0 -3.723491145033079 2.2600462077515999 0 2.2600462077515999 27.07796623683047 0 0 0 0 -1.9030622369245975 9.9561193562694825 0 9.9561193562694825 38.06241829051578 0 0 0 0 3.8293401511346019 8.227205981285806 0 8.227205981285806 24.144306530353788 0 0 0 0 1.1833382597687887 8.3070716476795496 0 8.3070716476795496 81.147184609460965 0 0 0 0 7.8583159989570959 14.402317538222633 0 14.402317538222633 18.459618442037026 0 0 0 0 4.3896258301581881 8.8655449919478144 0 8.8655449919478144 5.6266957078957276 0 0 0 0 0.096954645705102038 8.0290429502724834 0 8.0290429502724834 11.559335471620205 0 0 0 0 1.1098632492011689 -0.79125986436307016 0 -0.79125986436307016 11.101832838175952 0 0 0 0 -48.481980827767984 41.099364722827886 0 41.099364722827886 57.608525239258597 0 0 0 0 -58.171073436866664 -16.967845763816513 0 -16.967845763816513 43.819334681618784 0 0 0 0 -106.75090840565645 54.610106071188056 0 54.610106071188056 103.3432120335201 0 0 0 0 21.81639505151179 11.942776612078887 0 11.942776612078887 46.691214326827321 0 0 0 0 21.816395051491781 11.942776612042508 0 11.942776612042508 46.691214326870977 0 0 0 0 -69.887690031163402 -29.10977660251956 0 -29.10977660251956 144.29587297425314 0 0 0 0 5.7563494721189272 27.877582502456789 0 27.877582502456789 41.567950295953779 0 0 0 0 -5.2900502441905148 5.6081766273383664 0 5.6081766273383664 35.805673903623045 0 0 0 0 0.99367744592609597 15.502841144305421 0 15.502841144305421 45.256941468891455 0 0 0 0 -2.7122169458812095 5.7459832716995152 0 5.7459832716995152 50.419109492679127 0 0 0 0 -3.4316282836924512 12.965751562253018 0 12.965751562253018 23.59432846537419 0 0 0 0 -3.9932602285939538 5.9268476038669178 0 5.9268476038669178 50.813423208543099 0 0 0 0 -1.6208697896837752 13.398874950961499 0 13.398874950961499 36.302577947101412 0 0 0 0 -4.5328541469880292 9.2174256442085607 0 9.2174256442085607 43.976849181090074 0 0 0 0 21.816395051500422 11.942776612053422 0 11.942776612053422 46.691214326943737 0 0 0 0 4.9299259888430971 6.8844360765386838 0 6.8844360765386838 31.008331161209412 0 0 0 0 -6.2924462331758679 6.116186774156894 0 6.116186774156894 30.180835161850837 0 0 0 0 5.4385612831956109 -4.9753706018091179 0 -4.9753706018091179 17.266221173638769 0 0 0 0 44.486051600869814 -7.9840898596885381 0 -7.9840898596885381 13.421917337158447 0 0 0 0 0.334288934155893 13.806386673588349 0 13.806386673588349 46.475855667202268 0 0 0 0 -0.45196063568829459 37.962550692245713 0 37.962550692245713 28.252014405035879 0 0 0 0 -6.6080992567198678 23.661915934280842 0 23.661915934280842 23.705530404993624 0 0 0 0 2.1038062947407639 36.628288736923423 0 36.628288736923423 15.311493236575188 0 0 0 0 8.6511644980451248 12.387321286029348 0 12.387321286029348 33.614649928448415 0 0 0 0 9.7561926093758302 -4.450214983211481 0 -4.450214983211481 32.650565933610778 0 0 0 0 24.69727775983938 32.556542065984104 0 32.556542065984104 25.492550973489415 0 0 0 0 8.4204296114214099 20.505486274250217 0 20.505486274250217 41.083910824137092 0 0 0 0 4.1560825301107798 42.256846734468127 0 42.256846734468127 26.340705337879626 0 0 0 0 -54.099803765792558 35.21183152582671 0 35.21183152582671 72.362375189914019 0 0 0 0 50.765431855458928 75.496942457837577 0 75.496942457837577 82.937631594919367 0 0 0 0 -2.9603904584992051 14.601430408743909 0 14.601430408743909 48.44837268878473 0 0 0 0 -1.9793654472791717 7.6257535699956094 0 7.6257535699956094 50.424876360194048 0 0 0 0 -1.3129362583895272 1.2712526631512446 0 1.2712526631512446 39.467344937977032 0 0 0 0 5.2401596976110199 20.100376271726319 0 20.100376271726319 45.574949204782058 0 0 0 0 8.0346188951408521 13.398018981640575 0 13.398018981640575 21.060744224767831 0 0 0 0 -2.8987711640012321 -8.3314487977695535 0 -8.3314487977695535 58.361591938679339 0 0 0 0 12.75318708789132 -0.20324146104394458 0 -0.20324146104394458 16.506025402388332 0 0 0 0 18.266293055699975 -13.821547135245055 0 -13.821547135245055 48.971015271148644 0 0 0 0 0.86547407695661605 -0.75224553067528177 0 -0.75224553067528177 35.525631480792072 0 0 0 0 0.14129078705153586 0.81341981120039009 0 0.81341981120039009 3.7923415788647148 0 0 0 0 -10.519222824844576 1.5069999271509005 0 1.5069999271509005 26.341121189994738 0 0 0 0 -2.8265328929191043 1.8810641312236243 0 1.8810641312236243 22.508079512666768 0 0 0 0 24.813194084167662 38.755044313234976 0 38.755044313234976 39.817362345391302 0 0 0 0 3.7998589888697438 -22.34385089148418 0 -22.34385089148418 11.351846068515442 0 0 0 0 12.225901574716431 -0.52518973351106979 0 -0.52518973351106979 23.887358863816189 0 0 0 0 -10.00216859542522 -0.88707790418709465 0 -0.88707790418709465 59.951745246704434 0 0 0 0 -75.80607412973734 -32.316259711898965 0 -32.316259711898965 228.06879459079937 0 0 0 0 -52.149246207093256 -82.052465732864221 0 -82.052465732864221 115.48869771452155 0 0 0 0 -6.6558506165230202 -11.443170026569774 0 -11.443170026569774 40.686036775659289 0 0 0 0 24.813194084181305 38.755044313264079 0 38.755044313264079 39.817362345405854 0 0 0 0 24.813194084173574 38.755044313293183 0 38.755044313293183 39.81736234544951 0 0 0 0 -29.855047847516744 74.26032332388786 0 74.26032332388786 245.01497877255315 0 0 0 0 58.793801370548067 145.38668891983934 0 145.38668891983934 142.83014794898918 0 0 0 0 3.1193093645948027 3.2355445356347161 0 3.2355445356347161 29.917717064907578 0 0 0 0 -28.99169737039756 13.10070748427097 0 13.10070748427097 53.687089569488307 0 0 0 0 -76.060933224578093 -7.8383385349006858 0 -7.8383385349006858 140.0265534181035 0 0 0 0 -28.728670456818236 -53.719523874191509 0 -53.719523874191509 311.48036106996005 0 0 0 0 6.5236484407796809 -82.943229014371354 0 -82.943229014371354 102.11354377835232 0 0 0 0 17.647094824350859 -140.75639726122154 0 -140.75639726122154 26.749805491286679 0 0 0 0 307.81871350793585 100.52218666732369 0 100.52218666732369 -88.69021210858773 0 0 0 0 46.088978709779667 77.694721093481348 0 77.694721093481348 216.30826694124335 0 0 0 0 -68.198306588690912 -12.894012868575373 0 -12.894012868575373 295.58629508546437 0 0 0 0 13.706862300652119 -93.107125001188251 0 -93.107125001188251 216.04881301757268 0 0 0 0 39.701962789248228 -60.420388555405225 0 -60.420388555405225 86.557717848219909 0 0 0 0 -13.102363781416898 -25.286360440273711 0 -25.286360440273711 107.74838983880181 0 0 0 0 -39.515717488999599 48.956338266354578 0 48.956338266354578 27.343239814828848 0 0 0 0 -46.710552644583458 45.103035167456255 0 45.103035167456255 54.870924254777492 0 0 0 0 -16.565544013561521 58.435778579019825 0 58.435778579019825 32.070275606391078 0 0 0 0 -235.30670061142564 -132.21138677962153 0 -132.21138677962153 97.847365769201133 0 0 0 0 -2.4004173996562201 5.4039582375580721 0 5.4039582375580721 2.8301822141402653 0 0 0 0 -14.355944550603454 -14.810551513171959 0 -14.810551513171959 53.976406831585336 0 0 0 0 -42.769226460986602 27.5686708573121 0 27.5686708573121 44.858413401554571 0 0 0 0 -42.361981632864627 -3.3892965585109778 0 -3.3892965585109778 49.900814598171564 0 0 0 0 -45.686595382463565 39.623490503370704 0 39.623490503370704 54.385350161595852 0 0 0 0 -50.326529455196123 42.940342910849722 0 42.940342910849722 74.694826050752454 0 0 0 0 1.4451909686915347 -3.5059099616470633 0 -3.5059099616470633 2.761475207678302 0 0 0 0 174.59757613574993 509.02305572485784 0 509.02305572485784 248.80312888885965 0 0 0 0 21.657007223317123 6.3450186050904449 0 6.3450186050904449 70.766265817801468 0 0 0 0 130.94168363724657 -131.94927617485519 0 -131.94927617485519 -7.2232347279932583 0 0 0 0 -481.90084546867593 238.73122665692063 0 238.73122665692063 649.74447086421424 0 0 0 0 -8.3235984846663023 -13.201358892020721 0 -13.201358892020721 40.597076083426657 0 0 0 0 -301.53496263851639 -232.90365461203328 0 -232.90365461203328 94.833519768006227 0 0 0 0 -7.6084716290029162 1.5649759378432009 0 1.5649759378432009 11.642146617510988 0 0 0 0 658.89081447508943 192.8906074372353 0 192.8906074372353 90.768220408754132 0 0 0 0 29.403622840917706 -231.97048759663448 0 -231.97048759663448 -3.5631741606921423 0 0 0 0 -22.798256399494676 -12.405838292092085 0 -12.405838292092085 56.656231569271768 0 0 0 0 -26.16521287672731 -22.97952049214291 0 -22.97952049214291 63.672132849285845 0 0 0 0 -1.8884955805374428 -16.880141786501412 0 -16.880141786501412 35.885048082750245 0 0 0 0 15.872150044336081 6.7091311375406804 0 6.7091311375406804 56.42328683641972 0 0 0 0 16.507047105502352 11.638851192241418 0 11.638851192241418 90.560840500882477 0 0 0 0 -2.560101358038418 1.5725462641835861 0 1.5725462641835861 13.078171081392142 0 0 0 0 23.689857516466873 -8.1217993825703161 0 -8.1217993825703161 73.444272471941076 0 0 0 0 10.669236871951568 -2.1334131236581015 0 -2.1334131236581015 54.21612208391889 0 0 0 0 13.304744787622894 11.604527649193642 0 11.604527649193642 52.475904776874813 0 0 0 0 -22.781635970042316 -9.7755130541227118 0 -9.7755130541227118 23.064326980151236 0 0 0 0 30.385898645304223 62.317128815309843 0 62.317128815309843 40.883594400620495 0 0 0 0 14.783359315470342 9.586492763685726 0 9.586492763685726 7.3848374588238812 0 0 0 0 136.90643846716807 32.172146709999652 0 32.172146709999652 -24.562312052861671 0 0 0 0 0.66083751211563424 -0.10877405144117347 0 -0.10877405144117347 -0.24993722380894212 0 0 0 0 -42.672393350734978 -7.6622361284025828 0 -7.6622361284025828 248.33971819552244 0 0 0 0 -42.179489444828391 81.814803949848283 0 81.814803949848283 192.74130730843171 0 0 0 0 0.80383913467669732 0.69674394622626323 0 0.69674394622626323 3.7752048596185546 0 0 0 0 -3.3792298600463369 1.6089626062166644 0 1.6089626062166644 105.59728486508538 0 0 0 0 25.678709249441681 -22.337795068946434 0 -22.337795068946434 95.38259222949273 0 0 0 0 -68.901188280145107 3.7325460928914254 0 3.7325460928914254 158.0735488125647 0 0 0 0 -68.831442288701055 9.7484030780688045 0 9.7484030780688045 57.587916211923584 0 0 0 0 -113.01468749955984 15.655198843989638 0 15.655198843989638 90.214880280229409 0 0 0 0 -158.6660035648747 -91.141397897190473 0 -91.141397897190473 21.991046576742519 0 0 0 0 -49.225043778045801 -26.671637279505376 0 -26.671637279505376 11.82063288083009 0 0 0 0 -72.537185558686815 -30.99781651806552 0 -30.99781651806552 29.043713753926568 0 0 0 0 -26.349041280089295 -14.108125249418663 0 -14.108125249418663 18.720160850061802 0 0 0 0 -66.586627676827447 -22.867323637750815 0 -22.867323637750815 34.272756540798582 0 0 0 0 8.0724382374497878 -6.1876932538224025 0 -6.1876932538224025 15.570512514870416 0 0 0 0 126.35661607915426 -61.955583720497089 0 -61.955583720497089 108.10623592732009 0 0 0 0 70.392853544672619 95.515280200170309 0 95.515280200170309 234.63193125190446 0 0 0 0 77.849754517260408 66.837198258945136 0 66.837198258945136 0.41852479772933293 0 0 0 0 -14.949212790491401 -22.75756170652312 0 -22.75756170652312 -96.132851229252992 0 0 0 0 -179.20644610544196 8.2997043295617914 0 8.2997043295617914 80.961188659348409 0 0 0 0 -20.818402135910674 98.661236323401681 0 98.661236323401681 681.7807476327871 0 0 0 0 63.681646660829301 231.31090961849259 0 231.31090961849259 568.7131604628521 0 0 0 0 63.841817364367671 -307.30224116938916 0 -307.30224116938916 -23.121653329319088 0 0 0 0 2.4876013115651157 -3.8026714597877884 0 -3.8026714597877884 4.1190032956448022 0 0 0 0 -35.847520444841848 25.044987624278292 0 25.044987624278292 476.38582887285156 0 0 0 0 65.788849971883451 225.55837730089388 0 225.55837730089388 321.06768041706528 0 0 0 0 -32.586469824962592 27.450051783584058 0 27.450051783584058 430.26616423809901 0 0 0 0 68.520879542194336 -78.877646788561833 0 -78.877646788561833 217.37103881720395 0 0 0 0 55.868587361959044 72.903921694327437 0 72.903921694327437 401.39759180154215 0 0 0 0 235.62165005126803 -265.6410363896357 0 -265.6410363896357 13.652441900585472 0 0 0 0 35.62244172491296 -157.50252808304504 0 -157.50252808304504 604.06291036265611 0 0 0 0 0.096760655834259524 8.0657583026841166 0 8.0657583026841166 19.0025077995233 0 0 0 0 -5.6476442681577375 280.11997130375676 0 280.11997130375676 874.08244703375749 0 0 0 0 13.811999052339488 97.155515476852997 0 97.155515476852997 691.05910518960445 0 0 0 0 0.37510320450978485 -1.4951435392207202 0 -1.4951435392207202 1.7733154750495714 0 0 0 0 -49.047338512588738 -23.220467721454042 0 -23.220467721454042 16.592782865889603 0 0 0 0 15.329528303986763 -127.00646147086809 0 -127.00646147086809 157.67273755793576 0 0 0 0 16.934963184289472 14.890373032321804 0 14.890373032321804 272.3637809820757 0 0 0 0 -11.39800896450231 21.067519078926125 0 21.067519078926125 560.70166233522468 0 0 0 0 105.44227646406966 150.27204560311657 0 150.27204560311657 427.82022047699866 0 0 0 0 178.06882363245245 97.210373342328239 0 97.210373342328239 239.8358950571419 0 0 0 0 -283.9389122835214 308.33462308960588 0 308.33462308960588 425.6217938985792 0 0 0 0 68.916183851708411 128.3136212953832 0 128.3136212953832 508.71615464557544 0 0 0 0 8.2471751721386681 490.33280689721141 0 490.33280689721141 463.98693823305075 0 0 0 0 108.83787969732907 -111.00992152993422 0 -111.00992152993422 -472.29136065586863 0 0 0 0 -184.32574267973973 31.53436759430042 0 31.53436759430042 1079.3485099883401 0 0 0 0 162.84070819857243 -38.215244581580919 0 -38.215244581580919 554.53630477786646 0 0 0 0 -62.082066810986419 72.29217472410528 0 72.29217472410528 55.152194620379305 0 0 0 0 17.565643580187306 4.9055158950135365 0 4.9055158950135365 6.2166695803181256 0 0 0 0 -6.572971020179466 249.52871947479434 0 249.52871947479434 691.87048862894881 0 0 0 0 3.7427309196891518 -1.753499923318742 0 -1.753499923318742 5.6945002940074403 0 0 0 0 -46.772688652273018 244.07288922560838 0 244.07288922560838 892.64532195687934 0 0 0 0 22.308530744538984 -6.7298627649433911 0 -6.7298627649433911 120.31365195775288 0 0 0 0 -15.863281527493598 8.2188081739732297 0 8.2188081739732297 132.12420782803383 0 0 0 0 -5.9795568887457193 17.516216370859183 0 17.516216370859183 96.04128126159776 0 0 0 0 35.062253493187995 32.897847736530821 0 32.897847736530821 115.25321964609611 0 0 0 0 -29.868862962564151 -4.1938576732281945 0 -4.1938576732281945 99.612324472196633 0 0 0 0 -177.58043331326007 67.512266724821529 0 67.512266724821529 89.784041663566313 0 0 0 0 -1.5949065577276258 -14.957968988695939 0 -14.957968988695939 108.27770637560752 0 0 0 0 -36.133138500482687 -4.1237080291684833 0 -4.1237080291684833 107.20996153049055 0 0 0 0 64.071947544164232 4.8774964073090814 0 4.8774964073090814 39.059598531064694 0 0 0 0 16.274337332044546 17.548866988841866 0 17.548866988841866 9.6730698547835701 0 0 0 0 -7.9496257040321794 -9.8080925816734634 0 -9.8080925816734634 11.577344590049563 0 0 0 0 53.057169056606654 -33.309640192557708 0 -33.309640192557708 25.162321700016037 0 0 0 0 -39.016586111693982 -49.73880709902096 0 -49.73880709902096 89.384954263747204 0 0 0 0 61.177430471739399 -25.612038764782483 0 -25.612038764782483 62.00520625396166 0 0 0 0 31.714025294177191 40.853445844782982 0 40.853445844782982 195.64822508499492 0 0 0 0 -0.29197351211463018 2.1712125512443379 0 2.1712125512443379 6.3086269325451951 0 0 0 0 -20.803805259819455 -7.3453660824227143 0 -7.3453660824227143 33.638905327098854 0 0 0 0 -8.9360467676110602 14.311381771316519 0 14.311381771316519 35.608687691274099 0 0 0 0 -13.529311641647656 -7.0863113932887813 0 -7.0863113932887813 37.487082604246098 0 0 0 0 -205.16942677316729 142.87461202518898 0 142.87461202518898 56.307574184524128 0 0 0 0 4.3699691186387781 11.10737076994684 0 11.10737076994684 9.0605254116269407 0 0 0 0 6.3852919206956358 7.8825310524916858 0 7.8825310524916858 36.204027211337234 0 0 0 0 -13.275116937642601 2.9039669834552342 0 2.9039669834552342 54.25730050317361 0 0 0 0 808.3881988441899 -1162.0029494789633 0 -1162.0029494789633 274.9152223955025 0 0 0 0 8.5957911022786906 10.96245367560914 0 10.96245367560914 14.933001557804744 0 0 0 0 277.86548679745283 195.04575432341517 0 195.04575432341517 -698.57716699237062 0 0 0 0 408.84963026463174 415.61489136905584 0 415.61489136905584 -541.43262048676843 0 0 0 0 659.09572750017105 409.5725699471077 0 409.5725699471077 -656.1538297641091 0 0 0 0 -202.23482744096327 -1572.6501910612715 0 -1572.6501910612715 497.30414080686751 0 0 0 0 369.88759280048299 659.67048639509903 0 659.67048639509903 -343.24074615779682 0 0 0 0 -131.50714192098258 496.86509955962538 0 496.86509955962538 -392.44718917936552 0 0 0 0 -47.313869990292915 58.502150152540707 0 58.502150152540707 13.009155318562989 0 0 0 0 -290.4180109459769 262.29069121391512 0 262.29069121391512 -90.667513586464338 0 0 0 0 62.270113785623835 303.74774244911532 0 303.74774244911532 -258.79389442650427 0 0 0 0 7.3018836082946379 -17.821811939951544 0 -17.821811939951544 17.258808765224657 0 0 0 0 203.4684996380056 21.100905988758313 0 21.100905988758313 108.07672344884486 0 0 0 0 -5.4051923376209743 116.24761206615221 0 116.24761206615221 327.09532564369147 0 0 0 0 220.67465082233684 484.31721382512478 0 484.31721382512478 907.24594024273028 0 0 0 0 264.3371215027546 630.36940925248564 0 630.36940925248564 616.6593934520497 0 0 0 0 -3.2478774571295617 -5.5211066620304337 0 -5.5211066620304337 10.815761076168457 0 0 0 0 332.16713763016014 86.098243141168496 0 86.098243141168496 60.380907790837227 0 0 0 0 7.3263848664822042 -6.9513738676081118 0 -6.9513738676081118 3.6414445176691714 0 0 0 0 -93.765568217409964 736.25076650625851 0 736.25076650625851 975.44981739032664 0 0 0 0 -1179.2601561693118 -624.01428136299364 0 -624.01428136299364 -356.12725222588415 0 0 0 0 325.16830243895492 414.41869529773248 0 414.41869529773248 302.62939207721502 0 0 0 0 -336.25710729177808 3.5737577468826203 0 3.5737577468826203 813.86315869069949 0 0 0 0 86.577683095743851 68.274980633781524 0 68.274980633781524 201.28382799470637 0 0 0 0 158.88841518386471 537.80859875513852 0 537.80859875513852 1002.3244935143157 0 0 0 0 53.657666942497599 294.59640034499171 0 294.59640034499171 510.56696198266218 0 0 0 0 -205.53726673007623 152.68491392103169 0 152.68491392103169 342.73126580668031 0 0 0 0 7.0706262444629058 -1.2241903990824312 0 -1.2241903990824312 0.22841866182915282 0 0 0 0 289.17724525145786 143.75630594124959 0 143.75630594124959 -143.76415552178514 0 0 0 0 600.17752291407123 585.70689307010616 0 585.70689307010616 392.75635310191501 0 0 0 0 200.59969115893364 -376.2857853697642 0 -376.2857853697642 652.61506238278525 0 0 0 0 711.05775612571506 363.80361967907811 0 363.80361967907811 570.47287364838121 0 0 0 0 -84.076842769758514 132.45144595151942 0 132.45144595151942 2026.2832515183145 0 0 0 0 -281.82067999656692 -290.08954478081614 0 -290.08954478081614 346.97931334507302 0 0 0 0 349.32984148794731 -402.32427637306682 0 -402.32427637306682 -584.83442195731914 0 0 0 0 -22.90700446966456 -1.7686488110837502 0 -1.7686488110837502 -2.3646699027623441 0 0 0 0 -8.3085356519950437 22.446750912735297 0 22.446750912735297 87.873409552950761 0 0 0 0 -183.01079363112603 -230.58157922578175 0 -230.58157922578175 145.38517123137717 0 0 0 0 -326.68249998738611 -86.049318119818054 0 -86.049318119818054 44.547711614213767 0 0 0 0 113.92605452779003 -26.291711054866028 0 -26.291711054866028 -442.65447307299473 0 0 0 0 -241.11135459888465 -114.21253280781093 0 -114.21253280781093 36.015668498061132 0 0 0 0 -50.003154440670187 4.6407627051506779 0 4.6407627051506779 20.510783696285699 0 0 0 0 -429.4571526935506 -61.209043324750382 0 -61.209043324750382 86.929526802166947 0 0 0 0 196.02726685713435 -119.39012400703268 0 -119.39012400703268 51.065682176675182 0 0 0 0 10.05896105278608 41.763259377740837 0 41.763259377740837 76.434017349273802 0 0 0 0 -25.921079049233413 123.42378373318206 0 123.42378373318206 359.42856842913898 0 0 0 0 -0.21511601059192742 -0.97699742874931417 0 -0.97699742874931417 15.316647943988631 0 0 0 0 278.24527493097412 -178.59846162001486 0 -178.59846162001486 710.12800217240874 0 0 0 0 324.37569676584826 -8.8912180255865678 0 -8.8912180255865678 233.18639881134732 0 0 0 0 -0.460450274096047 166.41849251563599 0 166.41849251563599 262.05988997186068 0 0 0 0 175.13994167980854 16.214466417775839 0 16.214466417775839 386.23127680036123 0 0 0 0 303.26277878823021 101.41180442438053 0 101.41180442438053 162.31549073106726 0 0 0 0 17.706957598358713 -20.998054793119081 0 -20.998054793119081 110.5122169926326 0 0 0 0 -2.926740582600921 -5.6834417495390994 0 -5.6834417495390994 13.884261981022362 0 0 0 0 27.661267822879381 -89.853817100847664 0 -89.853817100847664 220.05069637452107 0 0 0 0 101.4740110322283 -181.76912541261959 0 -181.76912541261959 33.560293879010715 0 0 0 0 -26.349238521012467 180.77279792910122 0 180.77279792910122 -175.163287708594 0 0 0 0 77.643848613144655 74.495688557086396 0 74.495688557086396 -11.70653074819711 0 0 0 0 54.060951021177971 -5.2172573403804563 0 -5.2172573403804563 -169.77073478783132 0 0 0 0 -262.54143814345389 -63.306331785024668 0 -63.306331785024668 176.64458196923079 0 0 0 0 -241.96013264103749 -7.0348571619106224 0 -7.0348571619106224 -276.98840670378559 0 0 0 0 -503.43955224785441 669.74620694990699 0 669.74620694990699 38.035715468853596 0 0 0 0 -407.22958804799782 -156.9222846800858 0 -156.9222846800858 117.05565362621564 0 0 0 0 -14.19076297326319 -34.980195761891082 0 -34.980195761891082 36.750215795989789 0 0 0 0 -2.8325420951025175 48.050379531813448 0 48.050379531813448 72.988424597141986 0 0 0 0 -20.327385129522327 -4.734564774462342 0 -4.734564774462342 145.71789654126769 0 0 0 0 13.483200799041583 3.8840232497304896 0 3.8840232497304896 146.98967923104647 0 0 0 0 -5.7726223220711645 6.3406980698044606 0 6.3406980698044606 12.407630113108297 0 0 0 0 -7.2592065466630569 7.3756212865082844 0 7.3756212865082844 76.925045231506317 0 0 0 0 -34.046034367644552 44.719804105133335 0 44.719804105133335 163.05130808748072 0 0 0 0 -252.3313230177464 134.08652699735103 0 134.08652699735103 218.27377628617978 0 0 0 0 -17.081796044859402 1.103321354410582 0 1.103321354410582 47.314737211279862 0 0 0 0 -115.95714266053074 162.71771355207602 0 162.71771355207602 101.8538467869439 0 0 0 0 -126.4386428680391 21.427788996516028 0 21.427788996516028 262.53771694109309 0 0 0 0 -202.54180551977333 -26.835543684224831 0 -26.835543684224831 78.868134252668824 0 0 0 0 -61.287517763181313 -76.67840418101332 0 -76.67840418101332 126.84601730424038 0 0 0 0 24.515744721606097 -108.37440083567344 0 -108.37440083567344 113.0983484860626 0 0 0 0 -16.292749116498257 -41.997955678378709 0 -41.997955678378709 11.727188473719451 0 0 0 0 -128.57922864960074 -103.19939664693175 0 -103.19939664693175 246.35178353293486 0 0 0 0 -15.692343673788747 -48.025157727666439 0 -48.025157727666439 141.56289887981475 0 0 0 0 -66.70795573553869 -200.71160489905378 0 -200.71160489905378 -73.762623085916857 0 0 0 0 90.815365413638574 108.9112352964803 0 108.9112352964803 -235.38553404620325 0 0 0 0 -66.979277730519243 469.38387704882916 0 469.38387704882916 219.6426461149531 0 0 0 0 -198.48550203875266 142.99076953455733 0 142.99076953455733 803.0330155595002 0 0 0 0 -161.39406603169118 151.63319987054274 0 151.63319987054274 322.28366449417808 0 0 0 0 -38.028919436970682 49.752239685181848 0 49.752239685181848 242.28026410099119 0 0 0 0 -41.062776944835605 30.754127997144678 0 30.754127997144678 176.70095768899773 0 0 0 0 -24.607463624745833 -40.895763001983141 0 -40.895763001983141 361.2151682136755 0 0 0 0 -57.038748826274059 26.437403320298472 0 26.437403320298472 347.7732003172423 0 0 0 0 -90.764706162348375 -6.9960162057795969 0 -6.9960162057795969 329.81464611718548 0 0 0 0 -94.12867328273569 -22.102940458196827 0 -22.102940458196827 475.52584092468896 0 0 0 0 -114.99020596125592 -103.19415997633041 0 -103.19415997633041 311.88676401707926 0 0 0 0 -90.585902026410622 -203.8590340264418 0 -203.8590340264418 677.36689051240683 0 0 0 0 13.335655836934862 25.540263544739474 0 25.540263544739474 49.855854815257089 0 0 0 0 62.676058121465758 -100.62600283141364 0 -100.62600283141364 498.9171129023598 0 0 0 0 -0.84351478925543688 0.18145943143875343 0 0.18145943143875343 0.18235908087444841 0 0 0 0 328.80725652283854 102.31597163424158 0 102.31597163424158 -194.0309283468232 0 0 0 0 17.040511560422601 -96.587204965588171 0 -96.587204965588171 302.40436821011826 0 0 0 0 -985.93756518519672 763.11012930109973 0 763.11012930109973 752.73056239474681 0 0 0 0 165.63965323742377 -48.273249005287653 0 -48.273249005287653 468.10700028973952 0 0 0 0 70.637332477499513 33.873420238000108 0 33.873420238000108 551.27629608626012 0 0 0 0 28.447211348466226 -75.088344445073744 0 -75.088344445073744 212.46103025905541 0 0 0 0 45.92413762261549 -140.06989241239353 0 -140.06989241239353 406.12186591350473 0 0 0 0 41.873293306507549 9.757722476235358 0 9.757722476235358 394.29071933512114 0 0 0 0 40.71015906381399 82.688701992759889 0 82.688701992759889 303.60823568249907 0 0 0 0 -37.26194553413643 -15.756889945447256 0 -15.756889945447256 424.16057065430505 0 0 0 0 46.025099947804847 35.030054717302846 0 35.030054717302846 444.57125676202122 0 0 0 0 54.731133654040605 -34.05820040882827 0 -34.05820040882827 532.64559063232446 0 0 0 0 218.3514555431193 40.975296888755111 0 40.975296888755111 420.12778613244882 0 0 0 0 187.43339590929463 -78.629417341056978 0 -78.629417341056978 519.45905221522844 0 0 0 0 742.73079179562751 147.41921793651363 0 147.41921793651363 489.43159240105888 0 0 0 0 484.19899373339922 -39.867193394537026 0 -39.867193394537026 458.3143729242438 0 0 0 0 71.015617025781467 47.61216892212542 0 47.61216892212542 -6.7685601324383242 0 0 0 0 52.897522821909661 -66.329347385340952 0 -66.329347385340952 525.35682747225655 0 0 0 0 141.03839331544532 96.518824625296475 0 96.518824625296475 241.53425786345906 0 0 0 0 32.817258365994348 51.369785611523184 0 51.369785611523184 243.22465026947611 0 0 0 0 1.404392037593567 -1.4575236939012939 0 -1.4575236939012939 2.2607156501823624 0 0 0 0 18.928485827022087 -91.255568884371314 0 -91.255568884371314 -12.677185158929205 0 0 0 0 0.25046822300330973 3.8759785130103381 0 3.8759785130103381 5.0983348267443773 0 0 0 0 -8.2281997153750126 11.28846674232409 0 11.28846674232409 67.942558218504928 0 0 0 0 29.742459435263299 -22.905931156325096 0 -22.905931156325096 2.9651678228383389 0 0 0 0 -7.1015803066154604 36.716721747193787 0 36.716721747193787 265.40092607054976 0 0 0 0 59.455843091080169 96.444278974515328 0 96.444278974515328 94.118038979819175 0 0 0 0 -4.6824372133397674 58.870298542242381 0 58.870298542242381 165.00566921656718 0 0 0 0 -42.714716483171287 -24.187199667387176 0 -24.187199667387176 322.36865219609535 0 0 0 0 -10.139819767437075 27.182183879594959 0 27.182183879594959 113.08722727385612 0 0 0 0 37.149499530978119 -0.70566355898154143 0 -0.70566355898154143 -12.95810640930722 0 0 0 0 64.595476500073346 -63.980004040909989 0 -63.980004040909989 89.104764342831913 0 0 0 0 -38.936530502707683 -42.714903240790591 0 -42.714903240790591 275.16975343155718 0 0 0 0 -7.9229648052223638 56.657896974120376 0 56.657896974120376 79.725348165666219 0 0 0 0 -6.4128155816479833 21.111851673825868 0 21.111851673825868 27.518857268831802 0 0 0 0 -34.217055695486124 44.052849954536214 0 44.052849954536214 88.282334591458493 0 0 0 0 20.859118336602478 64.69283095209903 0 64.69283095209903 11.910598279297119 0 0 0 0 7.5490004813209453 9.6097684537962778 0 9.6097684537962778 101.69633644593341 0 0 0 0 -0.19162191167017895 23.207850242758155 0 23.207850242758155 8.0309415390863705 0 0 0 0 -2.5394403962866363 6.5347625976046402 0 6.5347625976046402 68.296374709258089 0 0 0 0 -4.5530880067248063 -2.7869017991863103 0 -2.7869017991863103 21.296287997414325 0 0 0 0 0.17109507715031214 7.1254021734421258 0 7.1254021734421258 46.845111818707664 0 0 0 0 4.4241126439610525 16.418216778860369 0 16.418216778860369 52.522723683920049 0 0 0 0 -15.180151083364763 10.753402938506042 0 10.753402938506042 71.88749161677697 0 0 0 0 -5.3980234656370527 -1.6573040110600203 0 -1.6573040110600203 10.827233667942068 0 0 0 0 -6.8117654678026156 -2.6045933178211271 0 -2.6045933178211271 35.983218762135039 0 0 0 0 -5.0158079431832903 5.7633439473574981 0 5.7633439473574981 42.964906025052187 0 0 0 0 0.41414645280747209 1.6295296257449081 0 1.6295296257449081 22.760120450286195 0 0 0 0 0.21285728922740077 -0.63808080913712217 0 -0.63808080913712217 -1.0903765381863977 0 0 0 0 -0.31710809061912926 -1.6380457214622481 0 -1.6380457214622481 0.77800861016075373 0 0 0 0 -0.028484854665293824 15.347745234408649 0 15.347745234408649 10.639495051997073 0 0 0 0 -3.8300209001391181 5.1600711258126353 0 5.1600711258126353 6.2631493320392337 0 0 0 0 137.41189876228236 239.56027075164093 0 239.56027075164093 175.56029156575823 0 0 0 0 2.6930665434649903 6.9484383649694479 0 6.9484383649694479 2.6805040257936881 0 0 0 0 42.067068232332531 -3.1183450691532926 0 -3.1183450691532926 -1.7529606621319545 0 0 0 0 -188.45908338977279 244.46364832413383 0 244.46364832413383 595.00536364046184 0 0 0 0 -382.65400682648215 -97.303945470648614 0 -97.303945470648614 552.97629131177382 0 0 0 0 448.6807772040861 20.118320525169111 0 20.118320525169111 -99.13552274358517 0 0 0 0 3.2305319974090025 7.3606759428756305 0 7.3606759428756305 -2.5164286276904342 0 0 0 0 -110.07944435458649 60.675429626731784 0 60.675429626731784 179.95790765676793 0 0 0 0 0.1464505676231056 2.7353028834331781 0 2.7353028834331781 51.433412074329681 0 0 0 0 3.5228006809449539 10.67127733096072 0 10.67127733096072 30.767839571133663 0 0 0 0 3.6861835177574598 10.404935499152259 0 10.404935499152259 4.9213116373031482 0 0 0 0 5.1721162604571873 18.457997501987847 0 18.457997501987847 37.664770966228389 0 0 0 0 -2.7366338342744712 30.041020977696462 0 30.041020977696462 98.547456929878535 0 0 0 0 -22.890673967870896 2.1653597295164086 0 2.1653597295164086 66.001674737474218 0 0 0 0 -3.4295383608027805 25.041541063828845 0 25.041541063828845 92.261657396051305 0 0 0 0 1.9132429799911854 38.629791429006872 0 38.629791429006872 18.645311627269209 0 0 0 0 -41.899366198389544 -16.903564834160761 0 -16.903564834160761 94.119433581466183 0 0 0 0 -49.992918291777642 1.1180449331715181 0 1.1180449331715181 109.704005843706 0 0 0 0 -30.934405477623841 25.000011207397506 0 25.000011207397506 119.07459440809907 0 0 0 0 -117.22103117853248 -312.42718897504619 0 -312.42718897504619 6.0611035021189537 0 0 0 0 13.7456867364765 103.06221638530909 0 103.06221638530909 244.59806028585808 0 0 0 0 -0.46713003179944446 3.7949389337233983 0 3.7949389337233983 5.3363508431712576 0 0 0 0 9.452401562214412 32.36000629192246 0 32.36000629192246 346.92464158795883 0 0 0 0 154.17510666186581 -98.995492790835669 0 -98.995492790835669 324.66717612767161 0 0 0 0 28.890625363433173 -50.42695713746798 0 -50.42695713746798 246.43966999239956 0 0 0 0 17.990821309002968 54.966803314848221 0 54.966803314848221 102.28374278908086 0 0 0 0 -28.592430910375697 56.704072093653394 0 56.704072093653394 203.81100340743615 0 0 0 0 -16.834031961136581 30.695633835073885 0 30.695633835073885 32.15250096362734 0 0 0 0 -50.024700937279249 12.039219291013069 0 12.039219291013069 148.33037364442225 0 0 0 0 -5.524574388670807 -17.107402520204229 0 -17.107402520204229 114.32283422148984 0 0 0 0 -90.053384253278637 3.1331673827644408 0 3.1331673827644408 180.48947095599851 0 0 0 0 -110.85248209702513 -126.33901853107818 0 -126.33901853107818 79.812277026030642 0 0 0 0 -3.1117531557079765 -3.036657644395568 0 -3.036657644395568 16.086910517731752 0 0 0 0 11.399503029115294 -31.064450855852556 0 -31.064450855852556 20.34282440993411 0 0 0 0 -9.8991856737702619 0.73226729335874552 0 0.73226729335874552 28.11086156372221 0 0 0 0 -10.404369394662353 0.91520899085298879 0 0.91520899085298879 37.085764645676136 0 0 0 0 -13.635790041997375 -6.7131189242482705 0 -6.7131189242482705 51.824759924465724 0 0 0 0 -13.750727444194126 -14.137633535578061 0 -14.137633535578061 37.299823068758997 0 0 0 0 -3.2106561705709282 11.813670632121102 0 11.813670632121102 37.889645154660684 0 0 0 0 -5.5992169973883321 2.5912248074551485 0 2.5912248074551485 17.09577237935817 0 0 0 0 -5.4156751476693898 -12.826461807766464 0 -12.826461807766464 19.5789437511703 0 0 0 0 -16.583197213832136 21.62866675109035 0 21.62866675109035 57.824811424289692 0 0 0 0 -12.309649199714841 7.0226390675088624 0 7.0226390675088624 61.288322484157106 0 0 0 0 -2.95853568350873 11.616691895136409 0 11.616691895136409 42.938951530162342 0 0 0 0 -10.004389412802993 16.58530573445023 0 16.58530573445023 34.398389326233882 0 0 0 0 -7.4247921541693689 14.829342489882809 0 14.829342489882809 60.254279898127606 0 0 0 0 -5.1333352125830061 30.302713877637871 0 30.302713877637871 83.032563555856541 0 0 0 0 -9.6965915172181667 29.405772852288464 0 29.405772852288464 94.805164989520563 0 0 0 0 -25.308232903172666 -4.9787040060909931 0 -4.9787040060909931 123.35779865346194 0 0 0 0 -9.3959794510046777 25.191996280267631 0 25.191996280267631 100.05257540247294 0 0 0 0 -10.716399196959856 10.000576567736061 0 10.000576567736061 114.64878933937507 0 0 0 0 -4.5810462841121975 20.301196188708133 0 20.301196188708133 35.465057630483258 0 0 0 0 -40.021319363241673 -1.4822045096916554 0 -1.4822045096916554 112.94823547026317 0 0 0 0 -97.356238545000451 50.375657127755403 0 50.375657127755403 87.568853796023177 0 0 0 0 10.634688888210803 32.281841071759118 0 32.281841071759118 75.197026567999274 0 0 0 0 10.276569059114991 3.6982571653061314 0 3.6982571653061314 98.109839232085506 0 0 0 0 -14.529391208642529 29.088187858122396 0 29.088187858122396 65.254181785460503 0 0 0 0 -20.016527725132601 13.138800331658601 0 13.138800331658601 127.32396962572278 0 0 0 0 -32.280782619407546 36.213039208872942 0 36.213039208872942 23.764467198016064 0 0 0 0 4.3404474151661603 42.675597856755395 0 42.675597856755395 59.820044258387242 0 0 0 0 3.0479657053553564 13.656055657963002 0 13.656055657963002 88.296002877183014 0 0 0 0 1.7064098340103993 8.8809549937007457 0 8.8809549937007457 26.803398463143594 0 0 0 0 98.933912464714467 187.37930694751594 0 187.37930694751594 25.748333058916614 0 0 0 0 -43.584502092630828 86.600371229185839 0 86.600371229185839 32.522887412531418 0 0 0 0 -347.62674784864066 78.562375865658396 0 78.562375865658396 277.00157558752835 0 0 0 0 -21.58867297886718 -1.5544920118322807 0 -1.5544920118322807 121.65898895548435 0 0 0 0 -21.267157558473173 -6.5204529899983754 0 -6.5204529899983754 88.78608403353428 0 0 0 0 -22.125972825852877 -2.5742633994883484 0 -2.5742633994883484 91.49074992033789 0 0 0 0 -64.702575551971677 -8.9831979500268062 0 -8.9831979500268062 88.646477447914094 0 0 0 0 -15.598782220297077 -2.8696993130010355 0 -2.8696993130010355 112.3247172916889 0 0 0 0 -3.3391281150816212 -3.60938373346562 0 -3.60938373346562 96.29011491821143 0 0 0 0 -10.823540506884456 11.021983639217979 0 11.021983639217979 111.2840104896909 0 0 0 0 3.9229193818982822 6.2800400289565914 0 6.2800400289565914 98.910442803615297 0 0 0 0 -29.167735351562442 -8.8549325752924233 0 -8.8549325752924233 99.166004560727515 0 0 0 0 -22.342836869055187 -21.54498869352668 0 -21.54498869352668 80.819188117165169 0 0 0 0 -23.554910297199967 15.669232038382688 0 15.669232038382688 97.462477983074677 0 0 0 0 -19.488940721083054 4.4091248527997777 0 4.4091248527997777 91.771023742057423 0 0 0 0 -22.841931496957841 15.778968079150218 0 15.778968079150218 85.530365432072358 0 0 0 0 -14.796182824919015 1.1901427011171108 0 1.1901427011171108 85.951858363869178 0 0 0 0 -14.210522617529932 4.8297864399708033 0 4.8297864399708033 69.995674919438898 0 0 0 0 -19.397497243657199 13.754166493211414 0 13.754166493211414 77.131674172484054 0 0 0 0 -16.03820462990916 -7.0441670340251221 0 -7.0441670340251221 74.235589517342987 0 0 0 0 -6.500200940101422 18.665826664026326 0 18.665826664026326 97.30681442986679 0 0 0 0 -17.647132851345305 17.757767571651129 0 17.757767571651129 109.45004520106124 0 0 0 0 -32.171145771550073 -3.6601889034029682 0 -3.6601889034029682 89.523209651744764 0 0 0 0 -11.993227537488565 19.729964007278909 0 19.729964007278909 100.70285788969613 0 0 0 0 -3.2598316701314616 12.369781194713596 0 12.369781194713596 90.580123263646811 0 0 0 0 17.798795584381878 28.605010855467299 0 28.605010855467299 95.682432754596903 0 0 0 0 7.9540988909820953 29.346945481203647 0 29.346945481203647 101.83531702797836 0 0 0 0 23.368830494659051 23.952619555351248 0 23.952619555351248 100.10214773783628 0 0 0 0 42.41315829433006 25.04442928876415 0 25.04442928876415 99.991239440739264 0 0 0 0 20.709808659014925 -4.2837996830585325 0 -4.2837996830585325 134.61999235480152 0 0 0 0 48.439777995645727 26.48792913055803 0 26.48792913055803 125.12662207841004 0 0 0 0 52.369912960250076 10.363402362816032 0 10.363402362816032 117.1804951862382 0 0 0 0 15.333532627064415 10.338401133552452 0 10.338401133552452 117.75006265964385 0 0 0 0 19.374737099934009 4.1725587670050572 0 4.1725587670050572 112.6141466909603 0 0 0 0 -4.0632098242022039 9.5431862910272685 0 9.5431862910272685 127.89009219372201 0 0 0 0 65.763440372200876 57.473476848310497 0 57.473476848310497 154.67080998519077 0 0 0 0 20.233672714298791 -15.982232698250414 0 -15.982232698250414 67.643643367762252 0 0 0 0 -32.524504831004606 3.5171453220982585 0 3.5171453220982585 231.6673282986776 0 0 0 0 -15.124984025269896 41.30082161816631 0 41.30082161816631 250.23460221474716 0 0 0 0 61.419860739038995 -221.40552663050767 0 -221.40552663050767 206.02639358746092 0 0 0 0 -140.47686715066629 -456.68967862350837 0 -456.68967862350837 808.39568967004016 0 0 0 0 341.11060826080438 245.41629516964349 0 245.41629516964349 -99.951852389131091 0 0 0 0 0.87468570055038519 -2.6633398142341118 0 -2.6633398142341118 5.4836335495839421 0 0 0 0 -5.2790303266864669 -6.6801449384430214 0 -6.6801449384430214 123.15531202809962 0 0 0 0 -49.817091264678311 -13.542238937083312 0 -13.542238937083312 127.70460865509631 0 0 0 0 -8.1455598338199522 -8.245315877691958 0 -8.245315877691958 49.164336713358196 0 0 0 0 -5.979722957120714 -144.18494146901207 0 -144.18494146901207 77.195822536763444 0 0 0 0 -20.426568742932645 -21.027656612268643 0 -21.027656612268643 140.68840646277431 0 0 0 0 -69.847688801658478 -52.982010902272123 0 -52.982010902272123 118.99657715245348 0 0 0 0 396.6214919512704 336.41132751375358 0 336.41132751375358 242.03235567783486 0 0 0 0 516.42543953262748 -376.34413070150595 0 -376.34413070150595 187.12454975389846 0 0 0 0 2.1247126615231622 4.0581743697490653 0 4.0581743697490653 14.393969706853319 0 0 0 0 -374.74507703729887 -390.5670876682675 0 -390.5670876682675 647.63198858125634 0 0 0 0 -304.82981126968753 152.14393267871947 0 152.14393267871947 154.48161094873808 0 0 0 0 -81.460049245977643 89.528180448885905 0 89.528180448885905 305.55594676634155 0 0 0 0 209.42203301329664 152.43357865018424 0 152.43357865018424 61.853895075715144 0 0 0 0 -42.173197860558275 182.03483825070873 0 182.03483825070873 397.05334387189396 0 0 0 0 -200.90388391926081 49.790956945775179 0 49.790956945775179 629.59674122401339 0 0 0 0 -126.38336481982969 152.2671639068185 0 152.2671639068185 386.71672631022693 0 0 0 0 9.4095319161151565 472.16466658680383 0 472.16466658680383 852.03778627357497 0 0 0 0 -449.18021695691095 -115.53105496148419 0 -115.53105496148419 950.00224568292469 0 0 0 0 -416.3238532918931 -385.15191616728282 0 -385.15191616728282 311.79906711938202 0 0 0 0 -93.886182510398612 61.294908858645158 0 61.294908858645158 344.51907451496436 0 0 0 0 -174.18217554904572 -60.752338900766517 0 -60.752338900766517 194.38634469292083 0 0 0 0 7.3269866090295181 -15.91657823561809 0 -15.91657823561809 141.59444297138884 0 0 0 0 -25.612740767651758 14.441682826360193 0 14.441682826360193 214.88768423460897 0 0 0 0 -74.00033697969252 4.6758579204254147 0 4.6758579204254147 227.54409411132019 0 0 0 0 12.989644906330795 -87.28559224165474 0 -87.28559224165474 412.65298762008405 0 0 0 0 -82.136400554552893 73.666035073824105 0 73.666035073824105 428.31561062766559 0 0 0 0 -17.082317839426423 -272.33265960944755 0 -272.33265960944755 488.1405900246782 0 0 0 0 2.5751208782121182 2.8155934994363401 0 2.8155934994363401 0.79261836161275667 0 0 0 0 -20.621924655059843 183.91435166070568 0 183.91435166070568 63.376941148078913 0 0 0 0 -17.957752940929822 157.43802954703915 0 157.43802954703915 163.85461666223273 0 0 0 0 58.22169279692389 11.66962138770532 0 11.66962138770532 -124.20287571019981 0 0 0 0 37.818577772724893 3.3922173421697153 0 3.3922173421697153 152.81238847513487 0 0 0 0 -125.78662199183145 -81.660627126646432 0 -81.660627126646432 144.67510108912029 0 0 0 0 314.62248770259703 -68.340171862349052 0 -68.340171862349052 50.961724872126069 0 0 0 0 -1.7713901532747514 -195.04465147611961 0 -195.04465147611961 510.82706571998187 0 0 0 0 -47.254754477952702 15.026726694288072 0 15.026726694288072 126.93742261046418 0 0 0 0 8.2188763133508473 219.26246331069683 0 219.26246331069683 433.83629547408987 0 0 0 0 -24.677137586869776 125.73425981176331 0 125.73425981176331 168.4476212937916 0 0 0 0 -0.5131600813481425 -0.25110795923926155 0 -0.25110795923926155 3.9720979249165378 0 0 0 0 -207.00890760698894 -248.65239006543152 0 -248.65239006543152 556.76918988286479 0 0 0 0 -234.92584763061245 -337.81366012106321 0 -337.81366012106321 276.35487089470462 0 0 0 0 5.5640362825776037 -59.250079332739801 0 -59.250079332739801 -123.97376720276952 0 0 0 0 -290.25116605957646 30.448795170653739 0 30.448795170653739 54.324848544109045 0 0 0 0 -202.24746462700739 12.428404753918159 0 12.428404753918159 102.77476368161615 0 0 0 0 -0.88713421133598835 -0.85895465738343368 0 -0.85895465738343368 8.5478463677228582 0 0 0 0 -94.60481701570734 22.383241913031952 0 22.383241913031952 78.536594035728399 0 0 0 0 -13.772914587872947 0.12079171195387062 0 0.12079171195387062 -14.59017116402083 0 0 0 0 -17.67434692805864 58.901308673478525 0 58.901308673478525 85.127525798057377 0 0 0 0 69.764272643217282 89.137995241333101 0 89.137995241333101 58.068681545174968 0 0 0 0 62.373371153197695 52.436610120105343 0 52.436610120105343 71.551797409976416 0 0 0 0 50.58520410676465 13.902407987404331 0 13.902407987404331 115.14921203590256 0 0 0 0 74.228448480443149 35.306450968179433 0 35.306450968179433 85.939740215924758 0 0 0 0 104.8109647651554 5.4994207308145633 0 5.4994207308145633 93.660897482093333 0 0 0 0 164.09054864349446 -112.45970050443339 0 -112.45970050443339 202.45051059181242 0 0 0 0 66.676329595360698 6.2199051587064389 0 6.2199051587064389 124.59490865429689 0 0 0 0 69.577600928184438 -21.944221470865614 0 -21.944221470865614 179.96228912877086 0 0 0 0 192.81774702266739 -9.9081225791126144 0 -9.9081225791126144 72.153691141352283 0 0 0 0 23.661990167136537 40.883464369908097 0 40.883464369908097 340.44716877362089 0 0 0 0 -50.117098368776169 -12.817610422954203 0 -12.817610422954203 118.30688105889203 0 0 0 0 -54.181365245018696 -7.6682301794094201 0 -7.6682301794094201 121.09871458884118 0 0 0 0 -15.91300470677561 7.8169424605748645 0 7.8169424605748645 110.04066653997688 0 0 0 0 29.574145201069911 55.803825400484413 0 55.803825400484413 151.34192438492914 0 0 0 0 -35.925701746856006 -27.081778925554961 0 -27.081778925554961 32.959815834763972 0 0 0 0 -15.033998314841824 54.027168629221705 0 54.027168629221705 200.30942412949832 0 0 0 0 -27.518382751650279 26.12661296856686 0 26.12661296856686 121.6816817352319 0 0 0 0 -32.346930692098454 -29.386779544870027 0 -29.386779544870027 33.625438454283774 0 0 0 0 -98.993495050448473 43.582587498020189 0 43.582587498020189 212.14685458866495 0 0 0 0 -100.17002495178076 34.423341812109697 0 34.423341812109697 328.08698464219106 0 0 0 0 -56.154492771770094 113.51383404145065 0 113.51383404145065 118.05165387015381 0 0 0 0 -113.71106710953529 60.800532777377583 0 60.800532777377583 29.790888410525213 0 0 0 0 -104.09472726322508 33.952668938722184 0 33.952668938722184 96.047456257996828 0 0 0 0 -16.353697722122547 -23.45019957429092 0 -23.45019957429092 86.610693126847622 0 0 0 0 -35.701009528784653 126.06189622906879 0 126.06189622906879 154.98979835744666 0 0 0 0 28.959269674274594 83.669240791395509 0 83.669240791395509 109.1041773762247 0 0 0 0 12.194468267293402 84.63667889307473 0 84.63667889307473 109.07364419510691 0 0 0 0 82.108868917150801 155.8239941337618 0 155.8239941337618 203.80263287469 0 0 0 0 119.17872649087164 87.280083758972623 0 87.280083758972623 -10.002667199994633 0 0 0 0 -2.8233288122031439 -124.54326438581421 0 -124.54326438581421 552.82405684080231 0 0 0 0 3.5049417464219879 0.70588911818851341 0 0.70588911818851341 -1.4759703420307049 0 0 0 0 -2.4246021008546847 3.2921398495520862 0 3.2921398495520862 71.034191393423612 0 0 0 0 87.758967018762519 -128.401698602599 0 -128.401698602599 260.12841264396701 0 0 0 0 123.50595316383311 11.219314561641511 0 11.219314561641511 449.4780464698685 0 0 0 0 -17.652917796458951 -9.4552509343402491 0 -9.4552509343402491 380.56019266493405 0 0 0 0 135.86399741948452 -143.36129109066962 0 -143.36129109066962 202.22269074702621 0 0 0 0 14.054469254370815 -143.70367834399832 0 -143.70367834399832 258.00396311105942 0 0 0 0 40.94829606108533 -171.06870555209406 0 -171.06870555209406 242.62683229574529 0 0 0 0 15.862581547354509 -140.53081858153874 0 -140.53081858153874 14.214501504499921 0 0 0 0 -298.68983382639476 -118.33673853378153 0 -118.33673853378153 62.304962073225084 0 0 0 0 -160.68824273580833 24.62892450387978 0 24.62892450387978 115.09726037943372 0 0 0 0 -0.44913667532303103 -0.30485781713577254 0 -0.30485781713577254 3.9320900579800488 0 0 0 0 -126.90104243728229 -329.01084898864008 0 -329.01084898864008 220.92035939141985 0 0 0 0 88.934033013575799 -142.98990249481568 0 -142.98990249481568 273.93099412018216 0 0 0 0 151.70363817601248 -5.0082266571496206 0 -5.0082266571496206 164.82115884231496 0 0 0 0 -26.250508613907868 9.3924571282705074 0 9.3924571282705074 177.39559405430566 0 0 0 0 20.182727040156692 38.84422574631742 0 38.84422574631742 196.64451135348327 0 0 0 0 6.9544586179636099 -36.695114202303898 0 -36.695114202303898 64.387436220322343 0 0 0 0 -1.1005795306150503 -43.916310784786731 0 -43.916310784786731 199.2295489881798 0 0 0 0 34.289724934615379 58.297248216562593 0 58.297248216562593 359.28872273180144 0 0 0 0 -76.031852447980896 -126.39837191676955 0 -126.39837191676955 453.11981854470315 0 0 0 0 88.587455685491193 -131.39478296061637 0 -131.39478296061637 185.41883782871491 0 0 0 0 59.224600806083515 -122.6260286610887 0 -122.6260286610887 196.6159100115425 0 0 0 0 -64.613321738221771 -129.66563166307338 0 -129.66563166307338 230.41907525003717 0 0 0 0 7.332989353105301 19.267693099491247 0 19.267693099491247 22.870822631554578 0 0 0 0 6.3163431787470294 -2.3703011654951176 0 -2.3703011654951176 156.33252714694402 0 0 0 0 -120.09118741847169 128.12022446882293 0 128.12022446882293 14.877814158975525 0 0 0 0 -16.977299545073038 -2.8049289780851723 0 -2.8049289780851723 158.48271511952402 0 0 0 0 -85.689784122412675 112.79625079644757 0 112.79625079644757 -60.935502371001348 0 0 0 0 -247.22569454416362 162.19404795331593 0 162.19404795331593 -84.933609800568547 0 0 0 0 -179.03075583009058 29.669682356478916 0 29.669682356478916 171.79269097456563 0 0 0 0 70.132236852625283 -85.090787482671203 0 -85.090787482671203 239.34002832211925 0 0 0 0 5.8042535751973405 14.441538801349532 0 14.441538801349532 21.505495876450542 0 0 0 0 36.762553247300275 94.523284523175334 0 94.523284523175334 129.45652468058506 0 0 0 0 10.974169042966423 56.035054125217584 0 56.035054125217584 144.73955760968965 0 0 0 0 10.533982609527811 57.257205016194803 0 57.257205016194803 223.10839995191873 0 0 0 0 11.813493968395051 47.382710043593306 0 47.382710043593306 114.55891924771322 0 0 0 0 -0.22949327018341137 39.035303749874856 0 39.035303749874856 134.4571853841926 0 0 0 0 -5.3503159945657899 22.850886842119507 0 22.850886842119507 102.98236753910351 0 0 0 0 -2.5094976976491807 36.843644217640502 0 36.843644217640502 118.72090134249129 0 0 0 0 17.938375987338077 44.641884415493223 0 44.641884415493223 99.394805793357591 0 0 0 0 21.258932648636801 61.829205052892121 0 61.829205052892121 122.98489493857437 0 0 0 0 39.738312733979001 71.696764535379089 0 71.696764535379089 91.50990122009398 0 0 0 0 43.041526361041178 44.475953487019069 0 44.475953487019069 96.237134929553918 0 0 0 0 13.904246292396238 41.761857891775207 0 41.761857891775207 97.388854864073437 0 0 0 0 42.439628660577 47.525487826734434 0 47.525487826734434 88.341554859484859 0 0 0 0 50.634584435834086 59.285997200270572 0 59.285997200270572 79.8916333064235 0 0 0 0 53.919867314120893 55.670305664192483 0 55.670305664192483 83.463577135798005 0 0 0 0 39.322514224735983 69.893107272257708 0 69.893107272257708 96.585073591396394 0 0 0 0 54.903888333518296 67.065777843220431 0 67.065777843220431 49.000537381002232 0 0 0 0 22.668553461197462 88.489423071638612 0 88.489423071638612 76.653271960596157 0 0 0 0 -4.7690313761072503 86.072466940051527 0 86.072466940051527 30.537679727001091 0 0 0 0 -0.63694892218563837 59.895629507439878 0 59.895629507439878 100.47167227039563 0 0 0 0 -0.78888294979542062 -1.0185296035786351 0 -1.0185296035786351 8.4290063576754655 0 0 0 0 -136.36650773099439 -0.7689947102297765 0 -0.7689947102297765 89.098636312970939 0 0 0 0 -16.053572390688942 165.80143698990611 0 165.80143698990611 450.80259407678676 0 0 0 0 53.616029949539097 54.444729893039209 0 54.444729893039209 77.609850518937549 0 0 0 0 14.579610458986963 139.16189904347533 0 139.16189904347533 249.50234939118934 0 0 0 0 33.477920571809022 68.579105656102087 0 68.579105656102087 100.02725398590792 0 0 0 0 1.030101664349818 -0.76540724623870404 0 -0.76540724623870404 -1.1303553886813484 0 0 0 0 -37.498825001039904 -26.612935639827967 0 -26.612935639827967 286.53701221592354 0 0 0 0 50.186828383653392 -78.413021044643358 0 -78.413021044643358 47.417031626290395 0 0 0 0 -48.850368535656344 -62.38193657152857 0 -62.38193657152857 494.9492794765348 0 0 0 0 9.8787021160223958 -27.55016271182933 0 -27.55016271182933 198.8790515484983 0 0 0 0 -12.245543494620506 -54.55720240711662 0 -54.55720240711662 261.76906163980124 0 0 0 0 -84.605067114104713 -22.623651042361502 0 -22.623651042361502 288.35946305973971 0 0 0 0 -92.713863186951357 -19.204822222608115 0 -19.204822222608115 425.63121362757261 0 0 0 0 -23.515558011081339 118.79134601417235 0 118.79134601417235 260.59080673787389 0 0 0 0 -19.611218371670475 144.91257513324825 0 144.91257513324825 184.52290268889533 0 0 0 0 51.716255812374357 140.47016318888399 0 140.47016318888399 30.417661926773519 0 0 0 0 48.221729433914334 119.88825129275642 0 119.88825129275642 38.449566293633211 0 0 0 0 67.203305983419341 196.60404004779127 0 196.60404004779127 177.8656920936437 0 0 0 0 27.639911078677869 247.97174496022672 0 247.97174496022672 285.24215706731252 0 0 0 0 51.437990731737045 -299.01065418919052 0 -299.01065418919052 211.95533550804862 0 0 0 0 -35.942172822997236 16.945500124864225 0 16.945500124864225 345.23388015936331 0 0 0 0 83.744990895442243 -996.72681181773169 0 -996.72681181773169 1760.3076066380841 0 0 0 0 -920.08968438383931 1030.1456608247695 0 1030.1456608247695 1711.6390699074723 0 0 0 0 23.348024071994587 -7.5183941390082509 0 -7.5183941390082509 176.40363977960533 0 0 0 0 23.353877125696357 -7.5613959277440657 0 -7.5613959277440657 139.5746982462897 0 0 0 0 -12.659627702479318 2.6993341906085249 0 2.6993341906085249 8.6741955905352466 0 0 0 0 -4.871408586819598 21.442307115063159 0 21.442307115063159 105.75119980998124 0 0 0 0 184.70395123650269 331.79752498497419 0 331.79752498497419 -152.01404475864388 0 0 0 0 19.848741493153284 7.1731810058618066 0 7.1731810058618066 111.47493623988271 0 0 0 0 2.2701239700872975 31.864976158096852 0 31.864976158096852 121.67153650066984 0 0 0 0 3.9382317372055695 22.615030211643443 0 22.615030211643443 172.83097293106857 0 0 0 0 -112.27346465196115 868.28897233107091 0 868.28897233107091 473.24074426747939 0 0 0 0 -13.61480279658754 -54.227027447728915 0 -54.227027447728915 561.18591731598372 0 0 0 0 62.855053298850635 -196.63949013942147 0 -196.63949013942147 238.4266069251189 0 0 0 0 355.26887696742642 -740.27559282303991 0 -740.27559282303991 963.1420544361672 0 0 0 0 2.1658175376389295 4.3358254791168527 0 4.3358254791168527 9.6169255215873992 0 0 0 0 -371.64113032896694 -190.05557031004264 0 -190.05557031004264 1719.7085177108327 0 0 0 0 178.24915159432203 -178.75083669182732 0 -178.75083669182732 399.87021033907439 0 0 0 0 453.49363139971592 -218.05776258584518 0 -218.05776258584518 192.53069888405662 0 0 0 0 5.4672562483688996 14.221817992676076 0 14.221817992676076 27.366904897562399 0 0 0 0 53.742327592130323 -92.956787627928861 0 -92.956787627928861 326.17510712742023 0 0 0 0 -51.529243104278976 -28.934200108110417 0 -28.934200108110417 39.340973658677058 0 0 0 0 14.598825696561107 5.6069723910584344 0 5.6069723910584344 -44.530813618619447 0 0 0 0 -73.096850703641849 22.87356455369212 0 22.87356455369212 43.593447971131354 0 0 0 0 -2.3740547800334753 12.146424749079415 0 12.146424749079415 28.724565717161113 0 0 0 0 -3.4589823150111312 6.7153113219901721 0 6.7153113219901721 28.219800263710763 0 0 0 0 -4.3600638809793963 6.5600086386018575 0 6.5600086386018575 40.266075606070444 0 0 0 0 -4.2220229219008072 5.8919062313600197 0 5.8919062313600197 8.317285592508231 0 0 0 0 -31.051390766747318 -4.8872522764908695 0 -4.8872522764908695 58.901574767132615 0 0 0 0 -14.232994835775571 11.110824381255838 0 11.110824381255838 30.267897696854561 0 0 0 0 -8.6480239454787746 7.3870245325424637 0 7.3870245325424637 26.499107378409185 0 0 0 0 6.2731321329454044 18.497132665584672 0 18.497132665584672 23.689790376443806 0 0 0 0 -12.967793713401988 13.564833918143563 0 13.564833918143563 43.278747522773301 0 0 0 0 12.915766389311898 22.312579196288798 0 22.312579196288798 117.8824400803494 0 0 0 0 10.908306913826436 -6.0871014616346883 0 -6.0871014616346883 45.265956784534069 0 0 0 0 -2.5621142397294534 4.4571963523274007 0 4.4571963523274007 45.708747742853802 0 0 0 0 16.208037308007306 52.263837597066328 0 52.263837597066328 104.45752154946638 0 0 0 0 27.464149295372408 3.1903249677427539 0 3.1903249677427539 59.172650496138431 0 0 0 0 -8.8260370088655691 -3.1949253108870153 0 -3.1949253108870153 150.04893525662249 0 0 0 0 9.8690445571169221 -38.586678144037933 0 -38.586678144037933 125.44076323905688 0 0 0 0 -7.3394618215218088 2.6337068854361974 0 2.6337068854361974 154.8478807564959 0 0 0 0 5.2320689656517061 20.357841409724642 0 20.357841409724642 -36.601447755734625 0 0 0 0 30.744147980839443 47.01679089041636 0 47.01679089041636 -20.520200887947794 0 0 0 0 26.952960453932064 -42.767144288540266 0 -42.767144288540266 145.62300494126043 0 0 0 0 5.5700104607751983 16.928302259586662 0 16.928302259586662 9.9947994193922103 0 0 0 0 3.5429457016452943 5.994260193094533 0 5.994260193094533 111.03290978676728 0 0 0 0 3.3795410811319435 -0.43948281937486922 0 -0.43948281937486922 -8.9620322755137174 0 0 0 0 2.5731171089337295 14.085838778590187 0 14.085838778590187 -32.013798541927827 0 0 0 0 -7.4398159559086707 23.560365473040292 0 23.560365473040292 -29.627991208421008 0 0 0 0 13.239323947601406 9.965807812199273 0 9.965807812199273 -38.730761804095891 0 0 0 0 2.5030543367038263 19.323579980378781 0 19.323579980378781 -24.232804914498047 0 0 0 0 2.6785828434003633 2.6531907286507703 0 2.6531907286507703 -10.804392237121647 0 0 0 0 22.400840500786217 -5.7071188500582366 0 -5.7071188500582366 0.18238981295644408 0 0 0 0 29.893215219241029 59.292736977336972 0 59.292736977336972 -91.044951877329368 0 0 0 0 3.7743483045726212 12.572462635771636 0 12.572462635771636 6.6990639490312116 0 0 0 0 5.4757233192978312 6.0720450682425353 0 6.0720450682425353 5.1879481188112342 0 0 0 0 85.922095305206312 7.5699733921173902 0 7.5699733921173902 -66.061135760568504 0 0 0 0 36.842064595915417 -24.449876039599076 0 -24.449876039599076 9.0708528689319792 0 0 0 0 -29.542403833904245 -0.057853320678987075 0 -0.057853320678987075 300.13361435978914 0 0 0 0 2.0542495535223821 -0.061256175337867091 0 -0.061256175337867091 -0.43942801590828395 0 0 0 0 31.242757824034243 6.4696246022158448 0 6.4696246022158448 -13.562274716443426 0 0 0 0 3.6727782402949902 1.5803281476622431 0 1.5803281476622431 0.027685956172916804 0 0 0 0 1.4278988615872628 0.29061489988351497 0 0.29061489988351497 -1.5658310087712906 0 0 0 0 -7.7060524481075845 -1.8356553202811483 0 -1.8356553202811483 111.51167864525996 0 0 0 0 11.984668995394713 5.8248834962150795 0 5.8248834962150795 184.28197453991743 0 0 0 0 -11.929938052014677 -2.4359966873607846 0 -2.4359966873607846 196.86522549312576 0 0 0 0 -0.38656829871342779 38.148099774202819 0 38.148099774202819 100.46184019915745 0 0 0 0 0.81209169867543096 65.548388046848231 0 65.548388046848231 111.67877063550259 0 0 0 0 3.9553953867743985 83.763289751886987 0 83.763289751886987 165.20213748404421 0 0 0 0 73.130677482125748 21.792439663319783 0 21.792439663319783 29.331246080928395 0 0 0 0 116.29054290885779 114.39793478573847 0 114.39793478573847 120.9971040226701 0 0 0 0 -15.621601742890402 2.0940807817373539 0 2.0940807817373539 50.87136142588286 0 0 0 0 -3.0740914358259488 27.381919863603031 0 27.381919863603031 61.856834026175022 0 0 0 0 -19.407322281543657 -0.61319151182681253 0 -0.61319151182681253 91.094636364937514 0 0 0 0 -3.1236095285898617 0.1259665269631709 0 0.1259665269631709 10.221434836315826 0 0 0 0 -19.655808870097033 3.1511609994216485 0 3.1511609994216485 131.39164290999292 0 0 0 0 -5.8392381643429871 132.32409180060449 0 132.32409180060449 44.707673578315735 0 0 0 0 -93.015029091407996 -28.035331283699634 0 -28.035331283699634 156.12119688913754 0 0 0 0 -212.23492954093399 105.56733313315272 0 105.56733313315272 34.582140441316369 0 0 0 0 -205.91027863714544 91.437966463276098 0 91.437966463276098 17.559460828910233 0 0 0 0 -296.87388698062978 180.06837477826821 0 180.06837477826821 -22.194703219571238 0 0 0 0 -224.49659615557539 72.109332614261803 0 72.109332614261803 -40.063761077213712 0 0 0 0 -81.429946019254203 -104.11789597700044 0 -104.11789597700044 174.88754791966471 0 0 0 0 -266.33112521670307 330.76877422422513 0 330.76877422422513 -266.7337354030642 0 0 0 0 -0.56071224740945347 -0.33029088628826386 0 -0.33029088628826386 -0.44770384852381184 0 0 0 0 -408.87880365764795 163.4536971554262 0 163.4536971554262 14.01409684113878 0 0 0 0 -141.07326201168144 147.31450494527598 0 147.31450494527598 -217.20773498921517 0 0 0 0 125.39749439634852 -48.357732505275635 0 -48.357732505275635 -58.332375624315318 0 0 0 0 -107.53919042392408 92.904037261268968 0 92.904037261268968 83.282426389931061 0 0 0 0 -2.5571200572852888 4.3714582884984026 0 4.3714582884984026 7.017978568403402 0 0 0 0 -53.439872519646087 77.450898166953266 0 77.450898166953266 -128.43932085770939 0 0 0 0 -126.59068813437807 93.026901048933723 0 93.026901048933723 -57.728410262250691 0 0 0 0 -119.05187993283744 79.463931261481775 0 79.463931261481775 -72.431157904582506 0 0 0 0 -122.70596592394031 95.906036288464747 0 95.906036288464747 -82.496214644609609 0 0 0 0 -118.10003488499933 83.343312043889455 0 83.343312043889455 -75.274373414293223 0 0 0 0 -213.75281707383431 126.38860518953265 0 126.38860518953265 8.53048494655377 0 0 0 0 -93.488270117935826 93.496125831869904 0 93.496125831869904 -84.257781714935845 0 0 0 0 -105.69990000683447 59.4360005926128 0 59.4360005926128 -3.7295697069275775 0 0 0 0 -52.24787639684655 64.902028086764403 0 64.902028086764403 -77.042590262084559 0 0 0 0 -27.950777541226216 17.102815475917396 0 17.102815475917396 -3.3406509948654275 0 0 0 0 62.576327957058311 18.284752781672069 0 18.284752781672069 -51.489424087931184 0 0 0 0 0.15750150344642977 17.409038779134548 0 17.409038779134548 12.237401349415128 0 0 0 0 -63.275182461872646 -1.3500017354599549 0 -1.3500017354599549 101.84597698442622 0 0 0 0 -45.658799163687945 38.526780668558786 0 38.526780668558786 65.597735940107668 0 0 0 0 -1.8316835998599004 0.051936427093529858 0 0.051936427093529858 0.37825026124248851 0 0 0 0 25.360190051535028 -0.77685703809765982 0 -0.77685703809765982 15.919232389569515 0 0 0 0 5.1090725904941792 54.09020704125578 0 54.09020704125578 -3.0239942583320953 0 0 0 0 -6.6665039622089353 25.469840543756618 0 25.469840543756618 -22.306335210716497 0 0 0 0 83.660569723341496 32.352968746290117 0 32.352968746290117 -9.6437266738488461 0 0 0 0 10.520630895635994 7.0351279361815884 0 7.0351279361815884 -2.6398745574478042 0 0 0 0 59.415269279310792 55.840493402281538 0 55.840493402281538 38.156682386445027 0 0 0 0 2.1526094756477505 22.527544456196665 0 22.527544456196665 -25.201385322685383 0 0 0 0 31.138464881893469 -64.603181964381292 0 -64.603181964381292 6.7737391901512183 0 0 0 0 -18.617993772883892 25.93467345566205 0 25.93467345566205 -1.8549906213520444 0 0 0 0 2.9412910082783128 16.997756878108703 0 16.997756878108703 -26.801666738446329 0 0 0 0 -29.32665804657654 8.2102660535783798 0 8.2102660535783798 2.5138604480225695 0 0 0 0 -1.9048405325030089 1.0757717555538804 0 1.0757717555538804 1.1956238634085743 0 0 0 0 7.4118419291338133 3.3213582256053655 0 3.3213582256053655 -0.48428437703701377 0 0 0 0 -7.4912363799030572 3.8757096106928657 0 3.8757096106928657 11.283886413461005 0 0 0 0 -42.015091465152182 25.727719807789981 0 25.727719807789981 81.308395865245984 0 0 0 0 -3.7111378888939726 32.072405468314173 0 32.072405468314173 126.41315375136401 0 0 0 0 -23.875913157931791 52.416532060735335 0 52.416532060735335 137.67399081082294 0 0 0 0 -62.886454001153652 50.879134338736549 0 50.879134338736549 124.12543235668022 0 0 0 0 -22.876002339465913 46.442355281657683 0 46.442355281657683 77.414056810564944 0 0 0 0 -225.04884362227222 56.277770794367825 0 56.277770794367825 206.46179205509907 0 0 0 0 -45.19614124196778 6.6704321614952278 0 6.6704321614952278 100.77301877600985 0 0 0 0 -149.34098414168875 52.280530738386005 0 52.280530738386005 82.113248451613799 0 0 0 0 -48.508136243448462 48.834802030745777 0 48.834802030745777 10.255408389730292 0 0 0 0 -133.07120686969847 78.527248313264863 0 78.527248313264863 8.1109212108258362 0 0 0 0 -84.067195861965502 26.144493993010656 0 26.144493993010656 58.67784012930133 0 0 0 0 -157.02683440518331 63.096156944816357 0 63.096156944816357 61.308260663310648 0 0 0 0 -173.77275433143541 91.575720239401562 0 91.575720239401562 17.671501564359005 0 0 0 0 -155.03834686339042 71.60064010977112 0 71.60064010977112 61.202974976105679 0 0 0 0 -260.49247364397206 138.30653357570372 0 138.30653357570372 93.566632775550715 0 0 0 0 -199.87769173967172 58.571954401557377 0 58.571954401557377 115.73971924420403 0 0 0 0 -160.5444058135588 65.72098172308506 0 65.72098172308506 59.402336511397152 0 0 0 0 -220.52085332817683 82.664913721255289 0 82.664913721255289 87.076749252456466 0 0 0 0 -219.1538103014725 84.397911003541594 0 84.397911003541594 85.626049261310982 0 0 0 0 -213.69626482294257 78.881651056371993 0 78.881651056371993 82.859150622811285 0 0 0 0 -143.91693997659797 36.26223629353899 0 36.26223629353899 -45.715056296652619 0 0 0 0 -124.26588993350947 11.714520891538996 0 11.714520891538996 -28.141094132266517 0 0 0 0 -179.04980839183713 112.10786112593314 0 112.10786112593314 -51.101295661035692 0 0 0 0 -172.09677946472038 20.539320402138401 0 20.539320402138401 -37.657715276475983 0 0 0 0 -342.45017733191776 188.38543583460341 0 188.38543583460341 -86.382559754376416 0 0 0 0 -142.0794875505353 31.0968536618293 0 31.0968536618293 -37.239478325641358 0 0 0 0 -130.38546141367692 137.25184340084343 0 137.25184340084343 147.46840745086956 0 0 0 0 -71.775133597058357 42.619553033315242 0 42.619553033315242 -186.79324903866836 0 0 0 0 -214.85422299690481 176.44450849621171 0 176.44450849621171 44.586638416896676 0 0 0 0 -126.60557742088304 290.62583384573827 0 290.62583384573827 -438.55307747355619 0 0 0 0 -81.77399723310873 -74.319771160073287 0 -74.319771160073287 307.82371914681971 0 0 0 0 -1.7755945157859419 0.045875762510508622 0 0.045875762510508622 0.035146357183933219 0 0 0 0 -17.446116686087407 33.188843069992799 0 33.188843069992799 147.90469746328745 0 0 0 0 -5.0703982730420059 -0.35757535975602295 0 -0.35757535975602295 -0.53661644758527771 0 0 0 0 -70.05832541954851 33.524567872180342 0 33.524567872180342 -44.329318821068227 0 0 0 0 -38.362358505939596 147.76802786594976 0 147.76802786594976 -203.92709858183298 0 0 0 0 39.817921295716587 80.114550100676752 0 80.114550100676752 -38.501099658908061 0 0 0 0 -141.14863132681353 20.107548387733914 0 20.107548387733914 232.94605768448673 0 0 0 0 -103.49413232364896 42.526202098383692 0 42.526202098383692 537.51380860931386 0 0 0 0 -9.1614383093006282 -6.3712786729959774 0 -6.3712786729959774 0.34787332161803453 0 0 0 0 123.08137816594922 -2.4265012336309155 0 -2.4265012336309155 234.17112536601053 0 0 0 0 -234.96138552321213 -188.1632944302055 0 -188.1632944302055 429.78660807973938 0 0 0 0 -7.2738871542325896 8.1500121046037037 0 8.1500121046037037 6.8294839150682911 0 0 0 0 5.9454508897905498 -32.612226832507304 0 -32.612226832507304 77.71680034360179 0 0 0 0 0.37698460310349269 -8.1747245065933711 0 -8.1747245065933711 1.3193628330803029 0 0 0 0 -98.229322522035091 26.846299308111156 0 26.846299308111156 103.28165977120079 0 0 0 0 -97.351456827407219 381.06237458015312 0 381.06237458015312 560.26026775283026 0 0 0 0 -256.011639313454 123.79001496950696 0 123.79001496950696 163.45771336102916 0 0 0 0 -262.64559148803369 50.269425419946856 0 50.269425419946856 483.37445698043302 0 0 0 0 -528.3903398020675 -111.90878941081974 0 -111.90878941081974 479.00504597551435 0 0 0 0 -660.66218602179504 127.0015034826647 0 127.0015034826647 1365.0053351527458 0 0 0 0 248.85121327148863 -473.25516052982857 0 -473.25516052982857 522.17643955192216 0 0 0 0 318.20460986931414 -386.53577079058414 0 -386.53577079058414 487.39851529530642 0 0 0 0 0.059824160848746644 -0.17133731889810377 0 -0.17133731889810377 4.3127741939395214 0 0 0 0 486.10280328322949 -778.79067663966816 0 -778.79067663966816 610.24924141018346 0 0 0 0 1011.8652623176858 249.78933239969774 0 249.78933239969774 912.47718470618565 0 0 0 0 998.79997127640695 -753.86045051869269 0 -753.86045051869269 373.35326596144296 0 0 0 0 0.47191255170098345 1.8251036313428166 0 1.8251036313428166 10.171817270746104 0 0 0 0 -6.4558837221395606 208.87496093898153 0 208.87496093898153 128.94644541112393 0 0 0 0 5.6071032934367508 27.889030882808989 0 27.889030882808989 61.529526315928535 0 0 0 0 7.4340655724981843 32.059236389781944 0 32.059236389781944 70.264025341740307 0 0 0 0 2.3764876889574538 34.912767930777363 0 34.912767930777363 46.433577057572847 0 0 0 0 13.025645737249121 30.512005458772922 0 30.512005458772922 17.972342002062017 0 0 0 0 41.193178923898358 74.1527834450917 0 74.1527834450917 1.6868205527680402 0 0 0 0 -16.845433154761462 1.9953516445163233 0 1.9953516445163233 51.649457163119642 0 0 0 0 -16.27264581806412 -28.36764699593914 0 -28.36764699593914 33.540248863924944 0 0 0 0 -46.51962457927857 -30.92775352821991 0 -30.92775352821991 47.77830550701583 0 0 0 0 -8.9823833936711708 34.931461412856152 0 34.931461412856152 96.81994106980801 0 0 0 0 36.127198452255925 8.5783922029459063 0 8.5783922029459063 28.109719561965903 0 0 0 0 -31.828003763001561 122.94014112195487 0 122.94014112195487 -78.01112745757564 0 0 0 0 -11.247264377815345 0.98032008662902825 0 0.98032008662902825 10.726051969080302 0 0 0 0 -18.920373841949186 10.400850347046799 0 10.400850347046799 38.933926497551511 0 0 0 0 -125.21048073651309 118.88491372052522 0 118.88491372052522 -61.879266446718248 0 0 0 0 -1.6769919440704371 15.514498084507068 0 15.514498084507068 -77.933022626493766 0 0 0 0 -2.034119941326304 8.8230688443803729 0 8.8230688443803729 9.639817808965276 0 0 0 0 -34.554976843788722 151.53058078091544 0 151.53058078091544 3.7335893452000164 0 0 0 0 -127.52704231681082 31.484076626647038 0 31.484076626647038 177.73867664691716 0 0 0 0 -53.205453229730665 56.890021385521322 0 56.890021385521322 204.98999352335159 0 0 0 0 -9.8188611446189498 47.460406023603355 0 47.460406023603355 -89.90216439229971 0 0 0 0 17.671337608393515 -72.692279709894137 0 -72.692279709894137 234.4602335857785 0 0 0 0 41.702612905624392 92.743654232866902 0 92.743654232866902 199.87624819397297 0 0 0 0 93.137049660201228 -27.33173064827497 0 -27.33173064827497 35.648277484535356 0 0 0 0 -15.410344871344085 -5.9730486634209896 0 -5.9730486634209896 -1.3944016015929421 0 0 0 0 -89.002545907826175 88.089443800034132 0 88.089443800034132 387.9047816371567 0 0 0 0 -11.109250750466344 18.549965711898039 0 18.549965711898039 225.03415946301357 0 0 0 0 18.665432122600151 69.016705992276911 0 69.016705992276911 104.13307197514951 0 0 0 0 12.268303112112989 52.045627901140051 0 52.045627901140051 85.037261402314471 0 0 0 0 2.2471166607340605 29.112889852129939 0 29.112889852129939 27.743619544641405 0 0 0 0 -23.703307265223316 12.407754238178313 0 12.407754238178313 65.178047384617457 0 0 0 0 -20.803199885618426 -1.234748468872148 0 -1.234748468872148 12.603514197298971 0 0 0 0 -28.3090152249666 42.131462301109423 0 42.131462301109423 185.81016856792667 0 0 0 0 -12.552064134719899 26.673188173846029 0 26.673188173846029 112.07104903328946 0 0 0 0 3.0397418814281991 40.470219977599754 0 40.470219977599754 52.014178028264922 0 0 0 0 -15.538066692860527 12.92977118988949 0 12.92977118988949 76.588650150983341 0 0 0 0 -26.347372574082328 66.503634400923829 0 66.503634400923829 182.30403457975626 0 0 0 0 5.1372815406208545 2.2232881302489806 0 2.2232881302489806 15.107251611123038 0 0 0 0 -1.4347856575137499 3.2086101251416643 0 3.2086101251416643 14.412957460521048 0 0 0 0 43.052032673031135 26.211973129132275 0 26.211973129132275 62.095802885054127 0 0 0 0 -10.969486137499349 20.694968121148889 0 20.694968121148889 56.187136512034726 0 0 0 0 -10.760298825771395 18.945026189454683 0 18.945026189454683 41.221561309330248 0 0 0 0 16.788596850232352 16.865222799062394 0 16.865222799062394 67.908979651333084 0 0 0 0 38.128401304262297 25.989050511678215 0 25.989050511678215 30.779887361923102 0 0 0 0 0.18175214617804158 55.537472736290511 0 55.537472736290511 19.534697790631071 0 0 0 0 18.331783272318717 17.680092283886552 0 17.680092283886552 39.071551094955794 0 0 0 0 -69.821643578536168 134.79146037964892 0 134.79146037964892 72.641016752881114 0 0 0 0 -64.853854667152518 -8.3449782579955354 0 -8.3449782579955354 170.4016357679975 0 0 0 0 -15.662762830334032 39.089259522028442 0 39.089259522028442 -14.583371650185654 0 0 0 0 -0.65222699208815627 17.23929534693756 0 17.23929534693756 63.313315631107272 0 0 0 0 -0.87748695687150757 50.992737047467017 0 50.992737047467017 17.369409235230705 0 0 0 0 -31.902494914478666 55.120645875065748 0 55.120645875065748 24.152360623105778 0 0 0 0 10.427201551523922 42.121014593819837 0 42.121014593819837 -5.4507850688241888 0 0 0 0 -26.810852775532112 36.405440546754107 0 36.405440546754107 67.009355712169054 0 0 0 0 0.4753587967828814 -2.2502614588013365 0 -2.2502614588013365 7.0400658723425664 0 0 0 0 10.394547146873609 20.752155415340106 0 20.752155415340106 13.797833680934858 0 0 0 0 2.7681195230712454 26.029431445760295 0 26.029431445760295 43.790637086356924 0 0 0 0 -2.5214838711326593 66.77612801552641 0 66.77612801552641 -115.79672367997227 0 0 0 0 -28.764848385013465 8.715788180623349 0 8.715788180623349 6.9022022180997737 0 0 0 0 -37.985856197739849 45.430145428874312 0 45.430145428874312 32.323675853705936 0 0 0 0 -14.831781154736746 15.276095299284862 0 15.276095299284862 35.110589753107888 0 0 0 0 25.209666308598798 53.651468631900684 0 53.651468631900684 70.892036746998201 0 0 0 0 -16.868871660928562 79.611650035124512 0 79.611650035124512 103.49074781161653 0 0 0 0 4.6039138794880916 4.6280772410587261 0 4.6280772410587261 -6.2868312042313406 0 0 0 0 -37.352151166734075 21.51221621635159 0 21.51221621635159 -38.854385284267209 0 0 0 0 -26.86930538424869 30.718386658422446 0 30.718386658422446 118.61175384824492 0 0 0 0 82.336871981195145 125.05834282281239 0 125.05834282281239 93.816312269042555 0 0 0 0 17.735538288185353 59.967634874279383 0 59.967634874279383 29.754632139453861 0 0 0 0 -44.126600948598934 77.533633485962127 0 77.533633485962127 161.43306379322075 0 0 0 0 -45.817894956690907 68.753632187831499 0 68.753632187831499 129.27576323018548 0 0 0 0 -35.078962399354168 88.999680578182051 0 88.999680578182051 141.41472438444907 0 0 0 0 74.437180798175177 64.993946374427651 0 64.993946374427651 68.429264372712623 0 0 0 0 -18.874908502202743 110.20534465916444 0 110.20534465916444 167.06183093344862 0 0 0 0 93.542697037627477 24.51302104093611 0 24.51302104093611 -135.29098448248897 0 0 0 0 2.0073553368249719 -3.3321443400177113 0 -3.3321443400177113 -1.4148104019763472 0 0 0 0 82.203757737671822 -42.02909762328818 0 -42.02909762328818 -66.068611683151175 0 0 0 0 -1.9519983392874565 58.106506572466969 0 58.106506572466969 -18.102188662032859 0 0 0 0 8.8334370949123695 -24.262042024713082 0 -24.262042024713082 144.57463288756742 0 0 0 0 -38.078478804131009 66.875110149862849 0 66.875110149862849 -19.089242172081867 0 0 0 0 -45.575815895345158 -15.293538355690544 0 -15.293538355690544 14.378801005896094 0 0 0 0 -83.35597274804968 -8.8262642296556351 0 -8.8262642296556351 18.360620550248314 0 0 0 0 4.8880673800305203 14.464292817143757 0 14.464292817143757 -4.2795691238879954 0 0 0 0 173.739161538399 -280.46445567047351 0 -280.46445567047351 39.839137980524356 0 0 0 0 -67.504169251511485 26.5987414210922 0 26.5987414210922 -5.2100396620071479 0 0 0 0 1.114425163445846 4.7890172905221684 0 4.7890172905221684 11.080493347971924 0 0 0 0 -58.978233910473136 11.28040044790805 0 11.28040044790805 21.817934911396151 0 0 0 0 -17.004332592046012 31.057413093854848 0 31.057413093854848 31.834407643311351 0 0 0 0 3.7758385297275368 10.98626593370833 0 10.98626593370833 0.48434186809943469 0 0 0 0 4.7294968222377065 18.286603886892408 0 18.286603886892408 58.594979679874086 0 0 0 0 -0.30155469657393041 44.332553625588844 0 44.332553625588844 75.974293533939999 0 0 0 0 -14.129362209213035 3.0745177132181953 0 3.0745177132181953 44.944116578805655 0 0 0 0 37.193922810906713 -17.718229939316871 0 -17.718229939316871 -5.6651138029428694 0 0 0 0 -3.1406919109711353 -2.562409133664886 0 -2.562409133664886 1.956339487009398 0 0 0 0 19.460006360996886 59.848783796001499 0 59.848783796001499 137.97007761515124 0 0 0 0 34.540900314188775 20.321086918185301 0 20.321086918185301 115.31484235852258 0 0 0 0 9.7261448668405137 63.622073679437108 0 63.622073679437108 87.841692662783316 0 0 0 0 -2.8639206844482299 -1.600411911374632 0 -1.600411911374632 7.4798160533282072 0 0 0 0 13.164369631970658 60.048834040519068 0 60.048834040519068 17.918622939265333 0 0 0 0 -5.8633183477022612 31.937410193279902 0 31.937410193279902 20.269451448351901 0 0 0 0 -64.298849267249153 -158.80749914811167 0 -158.80749914811167 -11.008309938357343 0 0 0 0 -11.367666462606568 4.5481464006159849 0 4.5481464006159849 42.963210458844834 0 0 0 0 -23.0980105347262 -26.595291725478091 0 -26.595291725478091 97.331711617523979 0 0 0 0 -22.241050129645373 -21.60554259206765 0 -21.60554259206765 123.37616802785487 0 0 0 0 32.939544266178018 52.864989691855953 0 52.864989691855953 126.45715507105706 0 0 0 0 47.957697339964398 51.621698700704655 0 51.621698700704655 75.955470345466892 0 0 0 0 31.761475450748094 25.578044581543509 0 25.578044581543509 85.427994588290858 0 0 0 0 5.6388407325092187 6.7117956315257175 0 6.7117956315257175 -7.1808993291728918 0 0 0 0 -15.516157771417056 74.904400321249341 0 74.904400321249341 25.085859919819086 0 0 0 0 27.774772147635758 16.091197401849058 0 16.091197401849058 62.896537509362133 0 0 0 0 44.125689713099575 42.002697761151012 0 42.002697761151012 51.810928962928301 0 0 0 0 33.344439654646294 91.542810477678358 0 91.542810477678358 113.98475065769162 0 0 0 0 14.904671117534008 28.586284910064933 0 28.586284910064933 83.872870163236257 0 0 0 0 6.2441335375053768 44.955022161482702 0 44.955022161482702 94.496806875948096 0 0 0 0 20.628157766803952 41.837355960663444 0 41.837355960663444 21.354932659371116 0 0 0 0 29.436884210279231 26.988830186774976 0 26.988830186774976 87.835325250332971 0 0 0 0 21.949040797703219 43.464295594118084 0 43.464295594118084 60.058498588219663 0 0 0 0 15.475092920008535 30.959359524554657 0 30.959359524554657 77.634006474645503 0 0 0 0 10.039374003323061 8.5433375292100848 0 8.5433375292100848 4.7078511726412131 0 0 0 0 5.8833963480890068 4.3265221696795777 0 4.3265221696795777 -9.6364501480238971 0 0 0 0 17.616116090846834 34.113545099692445 0 34.113545099692445 18.96827230017216 0 0 0 0 52.030650937991595 -9.5597146549880563 0 -9.5597146549880563 -102.35326532576073 0 0 0 0 -13.290366742072365 84.03476567443613 0 84.03476567443613 33.383299682624056 0 0 0 0 19.163493099738844 -51.548039924486147 0 -51.548039924486147 87.845799423430435 0 0 0 0 84.901757555487166 17.251727219925669 0 17.251727219925669 -33.791022512101335 0 0 0 0 -22.991721828428126 96.769402200850891 0 96.769402200850891 40.101696372301376 0 0 0 0 10.326703848131729 31.950377681476311 0 31.950377681476311 -13.969821322778444 0 0 0 0 -1.6608324543835664 31.40779599041182 0 31.40779599041182 27.573275886954178 0 0 0 0 18.862392570453352 25.19828499163938 0 25.19828499163938 19.686125582837537 0 0 0 0 97.50821049825521 184.66916481216276 0 184.66916481216276 69.100458081618854 0 0 0 0 -65.632187838691607 13.716606079877238 0 13.716606079877238 22.661932755466751 0 0 0 0 0.23277633347051108 9.4377372249578269 0 9.4377372249578269 8.8947318208691186 0 0 0 0 -41.183266115256629 48.124489394773263 0 48.124489394773263 27.356860917590893 0 0 0 0 40.366524056305934 -24.656693731914856 0 -24.656693731914856 -134.45925899181748 0 0 0 0 8.6478204958566494 21.422240407611753 0 21.422240407611753 35.836036106844404 0 0 0 0 9.7379757978533537 32.937998008703609 0 32.937998008703609 11.958453031075269 0 0 0 0 -117.96915604854757 188.8142249041066 0 188.8142249041066 393.51006134215277 0 0 0 0 194.23965195910569 82.770246464295269 0 82.770246464295269 -159.12832247275765 0 0 0 0 100.07937593965289 181.57538096359713 0 181.57538096359713 -113.67894048907328 0 0 0 0 -23.284610430855992 59.070741903724866 0 59.070741903724866 239.27468595091341 0 0 0 0 30.097802240698229 -209.86970848264173 0 -209.86970848264173 627.94368275669694 0 0 0 0 29.722826067729329 206.31327106439858 0 206.31327106439858 -129.58640816925254 0 0 0 0 1.5836455092456063 1.0624552015804909 0 1.0624552015804909 1.1354701332642634 0 0 0 0 -16.658123692328445 29.856175849919964 0 29.856175849919964 147.06158794437215 0 0 0 0 -81.893754270901809 37.571503201207634 0 37.571503201207634 91.189453727856744 0 0 0 0 -87.238552213772891 -19.471537604105833 0 -19.471537604105833 113.97213277150513 0 0 0 0 -58.465580565005439 -5.2807845581046422 0 -5.2807845581046422 133.49267288187548 0 0 0 0 10.532705210611766 -84.849743866654535 0 -84.849743866654535 293.58638045517728 0 0 0 0 -62.15045430772534 17.503460977240138 0 17.503460977240138 550.23949575329607 0 0 0 0 121.95368495116008 172.61908791454152 0 172.61908791454152 265.98559427434884 0 0 0 0 3.5757675292154545 213.48569061479157 0 213.48569061479157 304.82303093300288 0 0 0 0 10.202725705094963 -88.884981361192331 0 -88.884981361192331 325.58464905730125 0 0 0 0 73.327391219519541 217.16125154681276 0 217.16125154681276 489.55021931743613 0 0 0 0 -72.030393309180909 104.92559650963267 0 104.92559650963267 582.16795715319313 0 0 0 0 -0.29112854180258729 -2.2105309517254668 0 -2.2105309517254668 4.07122395459524 0 0 0 0 47.24150506788601 -46.851685648538478 0 -46.851685648538478 10.970678433302965 0 0 0 0 -0.11179444839227415 -1.2179858243912065 0 -1.2179858243912065 1.563173667819882 0 0 0 0 46.274758185615681 -101.77468439364785 0 -101.77468439364785 278.21925221686979 0 0 0 0 1.5964147761790173 -29.847956211654605 0 -29.847956211654605 -99.905661586162751 0 0 0 0 2.6660173606152817 -3.7249120131776579 0 -3.7249120131776579 3.4749929044926589 0 0 0 0 12.576013453645828 -170.0870501319805 0 -170.0870501319805 132.73774803646938 0 0 0 0 1.0438703768698048 -2.4754039813868047 0 -2.4754039813868047 1.7090102974878221 0 0 0 0 -6.6757981024102264 -87.004313418392485 0 -87.004313418392485 -90.264643466474809 0 0 0 0 -4.4592538148147582 66.537574340892206 0 66.537574340892206 81.727883036503044 0 0 0 0 -51.702951350575177 -78.287835794376406 0 -78.287835794376406 185.60303704380203 0 0 0 0 -59.630047545417256 -45.416931826588552 0 -45.416931826588552 49.682826262949675 0 0 0 0 -16.023563455659314 -8.6765108643448912 0 -8.6765108643448912 -6.2436773998415447 0 0 0 0 -58.994376001841374 -28.854175674274302 0 -28.854175674274302 109.3131351810589 0 0 0 0 50.949609356172004 -37.669189094860485 0 -37.669189094860485 -116.59415835930122 0 0 0 0 -6.5610834086328396 -140.9006082152373 0 -140.9006082152373 69.018688275536988 0 0 0 0 14.650187299697791 -113.29360247503791 0 -113.29360247503791 -13.040586952229205 0 0 0 0 36.68028637514476 -12.316687715908756 0 -12.316687715908756 263.61509977035894 0 0 0 0 86.950486389028811 259.87636587717861 0 259.87636587717861 252.34979743791087 0 0 0 0 11.612732439438197 -9.6973688846834136 0 -9.6973688846834136 3.7805300467922649 0 0 0 0 548.07186637917766 -407.36898004519753 0 -407.36898004519753 679.32238424665411 0 0 0 0 154.6525490911481 -3.6523826106422348 0 -3.6523826106422348 -10.247889168043912 0 0 0 0 404.96201058428414 190.8719465297545 0 190.8719465297545 24.958447227130819 0 0 0 0 0.34131845967637986 -0.67049865760816374 0 -0.67049865760816374 2.5949233903126299 0 0 0 0 -2504.3976024398144 980.63646159655764 0 980.63646159655764 2117.1771222805546 0 0 0 0 -0.97922948496622197 0.10753235235934255 0 0.10753235235934255 5.0576997087661084 0 0 0 0 101.80937912998343 -313.76467885744933 0 -313.76467885744933 949.01803037820355 0 0 0 0 -17.417862680169492 23.478074937243946 0 23.478074937243946 48.388617594902826 0 0 0 0 -12.022286886633992 38.5246083089678 0 38.5246083089678 85.446249201486353 0 0 0 0 -34.427883568056131 -14.357482368402998 0 -14.357482368402998 42.938794592289923 0 0 0 0 -9.6695005610745284 8.5866632210381795 0 8.5866632210381795 92.268074405794323 0 0 0 0 -13.385125446722668 12.637016095210129 0 12.637016095210129 101.53986914787674 0 0 0 0 -29.371010695460427 5.5520101478032302 0 5.5520101478032302 99.468831649326603 0 0 0 0 -58.706836145813213 5.9005377770008636 0 5.9005377770008636 113.4467185356516 0 0 0 0 10.8279689020492 -3.1678061342338921 0 -3.1678061342338921 21.168987172739648 0 0 0 0 -9.9268039884609607 13.868512184777501 0 13.868512184777501 117.56591435944574 0 0 0 0 -11.409451541378075 19.762211883084092 0 19.762211883084092 114.72600185561168 0 0 0 0 53.584080180466117 8.5032875723409234 0 8.5032875723409234 27.25119908657507 0 0 0 0 -8.5009216885687238 2.7544153734997963 0 2.7544153734997963 119.64049347857508 0 0 0 0 -199.97726691807111 11.742589270259487 0 11.742589270259487 237.99089408561849 0 0 0 0 49.969181628381193 10.665620978441439 0 10.665620978441439 120.07565085781971 0 0 0 0 -99.521923544985839 -72.861086990416425 0 -72.861086990416425 138.21376802570376 0 0 0 0 2.253329527337975 -19.999445797318852 0 -19.999445797318852 101.38714606843425 0 0 0 0 16.464656932826983 -12.026758469961351 0 -12.026758469961351 130.65448564576218 0 0 0 0 -0.82070583657920082 -12.734372363056332 0 -12.734372363056332 104.50076874372547 0 0 0 0 -131.01894092591829 106.3717259523437 0 106.3717259523437 363.02687513764249 0 0 0 0 81.47661037743228 -206.85369526403338 0 -206.85369526403338 101.45642073391355 0 0 0 0 -39.256087182777264 4.3277939213753598 0 4.3277939213753598 105.06541885127444 0 0 0 0 -28.549305063821521 -30.136003401177732 0 -30.136003401177732 191.01961217037945 0 0 0 0 -22.988070491896906 -8.8989135216415889 0 -8.8989135216415889 271.91870356589061 0 0 0 0 15.704660426639748 -91.569754180462041 0 -91.569754180462041 148.1049481598584 0 0 0 0 53.252215284434897 -110.53583115362926 0 -110.53583115362926 157.63179960135858 0 0 0 0 -38.472710909169109 -105.89593006403265 0 -105.89593006403265 138.0411961284135 0 0 0 0 77.224700221931471 16.571813480652963 0 16.571813480652963 320.52714100367666 0 0 0 0 61.197123456084228 -147.82204341163924 0 -147.82204341163924 332.16535900565532 0 0 0 0 93.783939383873076 -20.160371669455344 0 -20.160371669455344 56.591504456726625 0 0 0 0 3.9415590295995466 4.5532332252362862 0 4.5532332252362862 4.9506274844365308 0 0 0 0 240.3357683696625 -99.756173037993904 0 -99.756173037993904 49.232871729785984 0 0 0 0 -6.7733408315795778 6.7273389567350312 0 6.7273389567350312 23.536745033186889 0 0 0 0 -0.36369495252347406 -0.76610684458137257 0 -0.76610684458137257 33.853597935329162 0 0 0 0 -17.376136082899848 19.805375850756036 0 19.805375850756036 67.957522728764502 0 0 0 0 -4.333260429504719 6.0033224501012228 0 6.0033224501012228 35.471280700237912 0 0 0 0 0.016505594236696286 5.3240831619098472 0 5.3240831619098472 27.756978392573394 0 0 0 0 45.545632423348252 -19.595482188993628 0 -19.595482188993628 72.186935432298924 0 0 0 0 99.315228827112264 -93.302451296632626 0 -93.302451296632626 80.533025954464392 0 0 0 0 37.305944174775505 -76.424540321098902 0 -76.424540321098902 82.022696525469655 0 0 0 0 66.55809603827629 -65.929139406071954 0 -65.929139406071954 74.264970758893469 0 0 0 0 5.2980673659199518 2.1759803086101499 0 2.1759803086101499 23.67019128992516 0 0 0 0 -0.1490353646731819 8.8663025622881833 0 8.8663025622881833 22.145731607488415 0 0 0 0 36.435423891936807 -46.380350073912268 0 -46.380350073912268 66.685154129458169 0 0 0 0 -5.187298276084741 -1.3030223040084437 0 -1.3030223040084437 38.33259731858724 0 0 0 0 10.847950608328905 10.982265941088906 0 10.982265941088906 3.1382107747206902 0 0 0 0 14.635989237853209 -91.307905510522687 0 -91.307905510522687 104.11042719935904 0 0 0 0 -4.7509673328167992 -58.691037865207363 0 -58.691037865207363 106.95395822539649 0 0 0 0 36.044829528977061 -78.984433041921875 0 -78.984433041921875 103.71053464601573 0 0 0 0 -1.8298604559386149 -69.155691108240717 0 -69.155691108240717 149.21986203021152 0 0 0 0 24.706062024841231 -56.079367677979462 0 -56.079367677979462 111.23046529666317 0 0 0 0 -6.7174426101773861 -81.35838072592378 0 -81.35838072592378 18.849977081707038 0 0 0 0 -0.17788792069564252 -13.218054385014284 0 -13.218054385014284 30.457925769704222 0 0 0 0 22.171029417899263 -48.07189631867368 0 -48.07189631867368 149.14131873996286 0 0 0 0 -9.9938178484953823 -82.002664673933396 0 -82.002664673933396 133.95127358925674 0 0 0 0 -51.514027737539436 9.7507675084343646 0 9.7507675084343646 293.29664707577467 0 0 0 0 -4.351291476202821 0.94867419150659771 0 0.94867419150659771 31.093221991243826 0 0 0 0 -9.0596571136111379 18.406292803272663 0 18.406292803272663 52.459724745229323 0 0 0 0 0.63352993906794852 23.209709508582449 0 23.209709508582449 62.93559691111691 0 0 0 0 4.4959688475864823 -22.86244889072259 0 -22.86244889072259 108.43143121172034 0 0 0 0 -5.4880271995915439 9.58918380795199 0 9.58918380795199 51.341308921365652 0 0 0 0 -7.5414535462530239 29.710924397296608 0 29.710924397296608 102.20435547934926 0 0 0 0 16.06959824659684 -16.685373410221608 0 -16.685373410221608 55.093260346587982 0 0 0 0 -12.833753368572616 18.666639754272182 0 18.666639754272182 71.295276075619768 0 0 0 0 4.9183354886170747 9.3680464904239269 0 9.3680464904239269 77.744326300261193 0 0 0 0 -3.586331850985971 37.490963564556296 0 37.490963564556296 21.176987638812079 0 0 0 0 -8.7735757348260108 39.129993752759447 0 39.129993752759447 41.251640713756842 0 0 0 0 -2.7179748066782849 35.543299759050029 0 35.543299759050029 109.70593874296492 0 0 0 0 8.2392781698162025 40.760270122683892 0 40.760270122683892 67.849627162040633 0 0 0 0 1.0522104055307011 36.109458532498024 0 36.109458532498024 102.28462688955983 0 0 0 0 -33.325767442403958 52.326956786344454 0 52.326956786344454 159.11264830846631 0 0 0 0 -9.3231263882360054 20.143083043590085 0 20.143083043590085 57.515081304346317 0 0 0 0 -5.098861653914696 22.569023201957634 0 22.569023201957634 79.757823201115158 0 0 0 0 -63.786547075245835 59.156513230020209 0 59.156513230020209 164.94701226678444 0 0 0 0 -3.8669565631576113 -6.7946862101493863 0 -6.7946862101493863 19.374387373342959 0 0 0 0 -17.827840588135587 81.911223455936124 0 81.911223455936124 187.47746108792489 0 0 0 0 -1.8354032499555615 11.662794207244588 0 11.662794207244588 129.6960199774112 0 0 0 0 -45.307360395124306 -23.870383277890141 0 -23.870383277890141 175.79591975304356 0 0 0 0 4.7229667410528933 3.7245551002638706 0 3.7245551002638706 1.5602960410488294 0 0 0 0 -27.584344494058314 -125.63823594873611 0 -125.63823594873611 395.71672200404646 0 0 0 0 44.27329399246446 0.54984853794667288 0 0.54984853794667288 170.44837163224292 0 0 0 0 -41.849057083938533 45.581705442891689 0 45.581705442891689 24.846181700115267 0 0 0 0 -9.1747550931409023 -6.6321682662155581 0 -6.6321682662155581 81.440843256292283 0 0 0 0 7.39158408524818 3.5857615397318341 0 3.5857615397318341 20.025963641603141 0 0 0 0 -12.485502283934011 -21.844215788885776 0 -21.844215788885776 132.56688694449258 0 0 0 0 40.801517849205993 -11.47340724451351 0 -11.47340724451351 116.85170636013208 0 0 0 0 -24.081205202197452 -42.501740151288686 0 -42.501740151288686 222.08448362606578 0 0 0 0 -1.988676444998319 2.0022167443046044 0 2.0022167443046044 23.021493554140733 0 0 0 0 -9.8558483285905822 -39.104788628352253 0 -39.104788628352253 133.50641706134775 0 0 0 0 14.228810667159451 -38.236218161780926 0 -38.236218161780926 156.10803351370851 0 0 0 0 -34.373641591524574 6.8150990298890974 0 6.8150990298890974 218.37398155056871 0 0 0 0 
</DataArray>
<DataArray type="Float64" Name="cross_section_updated" format="ascii">
1 1 1 1 0.011687764489362755 1 0.0099599627870243686 1 0.010503498435470892 0.013946412973583157 1 1 0.023564701236402544 1 0.011421378124810496 1 1 1 1 1 1 1 1 1 1 1 1 1 1 1 1 0.010239134841693771 1 1 0.009437100798226317 1 1 1 1 1 1 1 1 1 1 1 1 1 1 1 1 1 1 1 1 1 1 0.011466334209760582 0.015609687373860844 1 1 1 1 1 1 1 1 1 1 1 1 1 1 1 0.010563076810184955 1 1 1 0.014096766147547275 1 1 0.010648630486646479 1 0.013755485637838866 1 0.010785445603715077 1 1 1 1 1 1 1 1 1 1 1 1 1 1 1 1 1 1 1 1 1 1 1 1 1 1 1 1 1 1 1 1 1 1 1 1 1 1 1 1 1 1 1 1 1 1 1 1 1 1 1 1 1 1 1 1 1 1 1 1 0.0081907728142906408 1 1 1 1 1 1 1 1 1 1 1 1 1 1 0.010080111976642013 1 1 1 1 1 0.015937944918291192 1 1 1 1 1 1 1 1 1 1 1 1 1 1 1 1 1 1 1 1 1 1 1 1 1 1 0.01024924566137035 1 1 1 1 1 0.010060302586216553 1 1 0.012138964374578568 1 1 1 1 1 1 1 1 1 1 1 1 1 1 1 1 1 1 1 1 1 1 0.012958671326839954 0.010067216856973118 1 0.01076649753818433 1 0.012114424665452178 1 1 1 1 1 0.010329905682140031 1 1 1 1 1 1 1 1 1 1 1 1 1 1 1 1 1 1 1 1 1 1 1 1 1 1 1 1 1 1 1 1 1 0.021580261511449948 1 1 1 1 1 1 0.023135820161079033 1 1 1 1 1 1 1 1 1 1 1 1 1 1 1 1 1 1 1 0.012996946510525451 1 1 1 1 0.0099732255906439787 1 1 1 1 1 0.011064128657373962 1 1 0.012184905848226794 0.011090399084642641 1 1 1 1 1 1 1 1 1 1 0.010693129731174056 1 1 1 1 1 1 1 1 1 1 1 1 1 1 1 1 1 1 1 1 1 1 1 1 1 1 1 1 1 1 1 1 1 1 1 1 1 1 1 1 0.011262138494015755 1 1 1 1 0.012205192434992788 1 1 1 1 1 1 0.010184607242556831 0.011374999319498591 1 1 1 1 1 1 1 1 1 1 0.01094467987442581 1 1 1 1 1 0.0094166792102698404 1 1 1 1 1 1 1 1 1 1 1 1 1 1 1 1 1 1 1 0.012043883592843778 1 1 1 1 1 1 0.010951616593678784 1 1 1 1 1 1 1 1 1 1 1 1 1 1 0.011260942404943441 1 0.010400758480086781 1 1 1 1 1 1 1 1 1 0.012172799709149276 1 1 1 1 1 1 1 1 1 1 0.011088451468779363 1 1 1 1 1 1 1 1 0.0099818462316327537 1 1 1 0.012376649210142998 1 1 0.011145419421749049 1 1 1 1 1 1 1 1 1 1 1 1 1 1 1 1 1 1 1 1 1 0.011813345233204776 1 0.010685842075623609 1 1 1 1 1 1 1 1 1 1 0.012500752254463482 1 1 1 1 1 1 1 1 1 1 1 1 1 1 1 1 1 1 1 0.010340909652368611 1 1 1 1 1 1 1 1 1 1 1 0.010939688279949431 1 0.010658105030979532 1 1 1 0.010921421981433704 0.010807256899701464 0.01109476274539887 1 1 1 1 1 0.011579219146329582 0.010328202243199879 1 1 1 1 0.01021713871640265 1 1 0.013124969318128829 1 1 1 1 1 0.010064604779887371 1 1 0.023621848819414804 0.0099348156606088381 1 0.0096749212101065775 1 1 1 1 1 1 1 0.010454220592300193 1 1 1 0.01099437247943706 1 1 1 0.0098585081560509762 1 1 1 0.010359253495821112 1 1 0.010004886949387773 1 1 1 1 1 1 1 1 1 1 1 1 1 1 0.010054308783086536 1 1 1 1 1 1 1 1 1 1 1 1 1 0.011240554660246756 1 1 1 0.010586672539672668 1 1 1 1 1 1 1 1 1 1 1 1 0.011693390163278326 1 1 1 1 1 1 1 0.012743615097313941 1 1 0.011127424977947997 1 1 1 1 0.017911324381095946 1 1 1 1 1 0.017294456477399411 1 0.012767493090434597 1 1 1 1 1 1 1 1 1 1 1 1 1 1 1 1 1 1 0.01035167088754441 1 1 1 1 1 0.010829475200589793 1 1 0.020121869599496071 1 1 1 1 1 1 1 0.021778725716060786 1 0.0099860108874185276 1 0.015983954895913567 1 0.01477120448537488 1 1 1 1 1 1 1 1 1 0.010111230196495411 1 1 1 0.0094084560452826552 1 1 1 0.0063947183442654458 1 1 0.01462899238469779 1 1 0.017286653406817412 1 0.0107558669634829 1 1 0.0076674841915669208 1 1 1 1 0.011450565954784005 1 0.0050225572666806398 1 0.011062607807011134 1 1 0.012593136861435372 0.010001135234450747 1 1 1 1 0.0086856128510228899 1 1 1 1 0.010898110088749711 1 1 1 1 1 1 1 1 1 1 0.0096153206775287693 1 1 1 1 1 1 1 1 1 1 1 1 1 1 0.01001779799189605 0.009993614476520354 1 1 1 1 1 1 1 1 1 1 1 1 1 0.010411729276552786 1 0.0099171361328417203 0.0098446203569580309 1 1 1 1 0.010754659832758477 1 1 1 1 0.0099951930291286312 1 1 1 1 0.010085575228383218 1 1 0.01010216878909698 1 1 1 1 1 1 1 1 1 1 1 1 1 1 1 1 0.010625329457237126 1 0.010024171298714506 1 1 1 1 1 1 1 1 1 1 1 0.011710792491089011 1 1 1 0.017295264076169208 1 1 1 1 1 0.017106262534449447 1 1 1 1 1 0.024786875927392774 1 0.012642297245125757 0.025896215372809995 1 1 0.026427259897105947 1 1 1 1 1 1 1 1 1 1 1 1 1 1 0.015413704694605807 1 0.013638847726674357 1 0.010825259954920737 1 1 1 1 1 1 0.011245531268423337 1 1 1 1 1 0.011610097945347984 1 1 1 1 1 1 1 0.010568594082162888 1 1 1 1 1 1 1 1 1 1 1 0.025563603896363835 0.0099752752536201722 1 1 0.011471236744703097 0.02567979193230421 1 1 1 1 1 1 1 1 1 1 1 1 1 1 1 1 1 1 1 1 1 1 1 1 1 1 1 1 1 1 1 1 1 0.022211500098126918 0.011036188650296019 1 1 1 1 1 1 1 1 1 1 0.010928713703448424 1 1 1 1 1 1 1 1 1 1 1 1 1 1 1 1 1 1 1 1 1 1 1 1 1 1 1 1 1 1 1 1 1 1 1 1 1 1 1 1 1 1 1 1 1 1 1 1 1 1 1 1 1 1 1 1 1 1 1 1 1 1 1 1 1 1 1 1 1 1 1 1 1 1 1 1 1 0.0098602959845903327 1 1 1 1 1 1 1 1 1 1 1 1 1 1 1 1 1 1 1 1 1 1 1 1 1 0.0095769597733660755 0.0093053238830187804 1 1 1 1 1 1 1 1 1 0.011247100215075001 1 1 0.011192070631642704 1 1 1 1 1 1 1 1 1 1 0.0099061340262693327 1 1 1 1 0.0099303780111301612 1 1 1 1 1 1 1 0.0094918946092985013 1 1 1 1 1 1 1 1 1 0.010485505259594612 1 1 1 1 1 1 1 1 1 1 1 1 1 1 0.011147628941805411 1 1 1 1 1 1 1 1 1 1 1 1 1 1 1 1 1 1 1 1 1 1 1 1 1 1 1 1 1 1 1 1 1 1 0.010349754726609588 1 1 1 1 1 1 0.010780344211308149 1 1 1 1 1 1 1 1 1 1 1 1 1 1 1 1 0.01024717456559901 1 1 1 1 1 1 1 1 1 1 1 1 1 1 1 1 1 1 1 1 1 0.010141868612332197 1 1 1 1 1 1 1 1 1 1 1 1 0.010074092253724449 1 1 1 0.010148443597865087 1 1 1 1 1 1 1 1 1 1 1 1 1 0.010074548292644231 1 1 1 1 1 1 1 1 0.010321273179316956 1 1 1 1 1 1 1 1 1 1 1 1 1 1 1 1 1 1 1 1 1 1 1 1 1 1 1 1 1 1 1 1 1 1 1 1 1 1 1 1 1 1 1 1 1 1 0.010564031524646602 1 1 1 1 1 1 1 1 1 1 1 1 1 0.01017200919675686 1 1 1 0.009458008109654116 1 1 1 1 1 1 0.0098335984214330176 1 1 1 0.0098228032984576108 1 1 1 1 1 1 1 1 1 0.010734191607435148 1 1 1 0.010511037669619427 1 1 1 1 0.011087795544004892 1 1 1 0.010507896208653479 1 1 1 0.010958750140889175 1 1 1 1 1 1 1 1 1 0.0090070396241465553 1 1 1 0.011339582461405436 1 0.009965715917410304 1 1 1 1 1 0.0083825507812979472 1 1 0.011516845259534348 1 1 1 1 1 1 1 1 1 1 1 1 1 1 1 1 1 1 1 1 1 1 1 1 1 1 1 1 1 1 1 1 1 0.010599652852780517 1 1 1 0.010705739873922477 1 0.014103420710917039 1 1 0.01009606385118097 1 1 1 0.011854858076658582 0.0099910835811540671 1 1 0.012318435055029556 0.0098776833531968884 1 1 0.0096360445264481662 1 1 1 1 1 1 1 1 0.011642654574453862 0.011535135446425447 1 1 1 1 1 1 1 1 1 0.0098710571689622634 1 1 1 0.009547061993912552 1 1 0.010959120384460409 1 0.0095966899005784662 1 0.0099997126575895792 1 1 1 0.0100380267593237 0.0089771336981344686 1 1 1 1 1 1 0.010100091621903026 1 1 1 0.010759413839395854 1 0.010271545548876031 1 1 1 1 0.0099719376033298012 1 1 0.011651732620075518 1 0.012485827042627292 1 0.010495785967596729 1 1 1 0.0097630281607919769 0.0094719204448844279 1 1 0.014919677505793103 1 1 0.0095690277689477257 1 1 0.011172968375147852 1 1 1 0.012360355553334194 1 0.010164686989650246 1 0.011516182151984463 1 1 1 1 0.010184500090506152 1 1 0.010521647287936274 1 1 1 1 1 1 0.01256117863140831 1 1 1 1 1 1 1 0.018725707836825096 1 1 1 1 1 1 1 1 0.018670794971064632 1 1 1 1 1 1 0.018489666427247701 1 1 1 1 0.020189052129278726 0.0099910336467700887 1 0.017776322246230797 1 0.0093184306013661539 1 0.022000941582364132 1 1 1 0.014335335824177516 0.015776067397877021 1 0.02280135695751305 1 1 0.010037034506207292 1 1 1 1 0.01363090980567111 1 1 1 1 1 1 1 1 1 0.011144946894087654 1 1 1 0.010298961040467474 1 1 0.0087861089530125863 1 1 1 1 1 1 1 1 0.0099953726403611224 1 1 0.0090925434814621564 1 1 1 1 0.010010486566844411 0.014103018894870124 0.0090925496898091665 1 0.010540635171660333 1 0.0098686201806646393 1 1 1 1 1 0.02020691612616643 1 1 0.014580121238164372 1 1 1 1 1 0.01129772367928061 1 0.0087281512838588305 1 0.011761255987712625 1 0.010910447958230419 0.0093504163487816358 1 0.013710109450179128 1 0.0096828353024426897 1 1 1 0.016986971920973773 1 0.012409221509797091 1 0.012740729152615612 0.0099971246603480311 1 0.008507174059192834 1 0.013761167395102747 1 1 0.012654704581759053 1 0.018679598905119464 0.0093392558245572778 0.017812914550396675 1 1 0.0090197593869143118 1 1 0.010089498551859978 1 1 1 0.0098448237535776577 1 1 0.017146980374229293 1 0.018950351673013201 1 1 1 0.010319655318677857 1 0.010350095505264889 1 1 1 1 0.021199007402592628 0.011758736947753059 1 1 1 1 1 0.014118988510228369 0.010816891032455225 1 1 1 0.010000213933030331 1 1 0.018335476783189406 1 1 0.004864581869706946 1 1 1 0.011472665847665845 0.017125142146758691 0.01321907182517449 1 1 1 1 1 1 1 1 1 1 0.003949370961749684 0.010974906036011912 1 1 1 0.01164334302177103 1 1 1 1 1 1 0.010016477930995731 1 1 1 1 1 1 1 1 0.0099718001638822613 1 1 1 1 0.017013967103070439 1 1 1 0.0078303815048881825 1 1 1 1 0.010143819338634246 0.0061262376461305003 1 1 1 1 0.0056105092592025636 1 1 1 1 1 0.01011537845853255 1 1 1 1 1 1 1 1 0.013619173319617549 1 1 1 0.015683890528623307 1 1 0.0083730868426446052 1 1 1 1 1 1 1 1 1 1 1 1 1 1 1 1 1 1 1 1 1 0.011266244430282716 1 1 1 1 1 1 1 1 1 1 1 1 1 0.0095066453756545814 1 1 1 1 1 1 1 1 1 1 1 1 1 1 1 1 1 1 1 0.010490674104127958 1 1 1 1 1 1 1 1 1 1 1 1 1 0.010564681573542314 1 1 1 1 0.021097264401987975 1 1 1 1 0.018590428344974722 1 1 1 1 1 1 1 1 1 1 1 1 1 1 1 1 1 1 1 0.01159913392388405 1 1 1 1 1 1 1 0.012356116794219628 0.014423721561730371 1 1 0.011664993552577893 1 1 1 1 1 1 0.0097323131742593147 1 1 1 1 1 1 1 1 1 1 1 1 1 1 1 1 1 1 1 1 1 1 1 1 1 1 1 1 1 1 1 1 1 1 1 1 1 1 1 1 1 1 1 1 1 1 1 1 1 1 1 1 1 1 1 1 1 1 1 1 1 1 1 1 1 1 1 0.012173016625869892 1 1 1 1 0.010288773117684207 1 1 1 0.010153552890796077 1 1 0.010792373970163718 1 1 1 1 1 1 1 1 1 1 0.01039700573860397 1 1 1 1 1 1 1 1 1 1 1 1 1 1 1 1 1 1 1 1 1 1 1 1 1 0.010765313382677749 1 1 0.010368307644073781 1 1 1 1 1 1 1 1 1 1 1 1 1 1 1 1 1 1 1 1 0.0104524940059267 1 1 1 1 1 1 1 1 1 1 1 1 0.010296528476821533 1 1 1 1 1 1 1 1 1 1 1 1 1 1 1 1 1 1 1 1 1 1 1 1 1 1 1 1 1 0.012748561545420865 1 1 1 0.010001235715127337 1 1 1 1 0.012203549841018849 1 1 1 1 0.01011173857380173 1 1 1 1 1 1 1 1 1 1 1 1 1 1 1 1 1 1 1 1 1 1 1 1 1 1 1 1 1 1 1 1 1 1 1 1 1 0.015237933654211132 1 1 0.010193252118869303 1 1 1 1 1 0.011983378537180506 0.013423702193502956 1 1 1 0.0099515800380125495 1 1 0.0097642215257526133 0.012654250311797625 1 0.015942269554363786 1 1 0.0099826722741853356 1 1 1 0.010062901297998601 1 0.010223134312475929 1 1 1 1 1 1 0.011596348719959704 0.0095136388542370158 1 1 1 0.011655214426447198 0.010037812873287585 1 0.014061889733236001 1 0.0079193636454113203 1 0.012716845720338592 1 1 1 0.014473022839202284 1 1 1 1 1 1 1 1 1 0.0092472429576645494 1 1 1 1 1 0.0097563762466700062 1 1 1 1 1 1 0.011769564643063987 1 1 1 1 1 1 1 1 1 1 1 1 0.0099841229309952373 1 1 1 1 1 0.013419327053189786 1 1 1 1 1 1 0.01381093110184266 1 1 1 1 1 1 0.0099630983912522217 1 1 1 1 1 0.012020592295219306 1 0.0099217094812796558 1 1 1 1 0.016416972376003647 1 1 1 1 1 1 1 1 1 0.0087740437791026544 0.016822386908948207 0.012570228809659807 1 1 1 1 0.0079742382273020346 1 0.012041359734956547 1 1 1 1 0.010526722236731562 1 0.012038965201571758 1 1 1 0.014432633879217864 0.009990540049357944 1 1 1 1 0.011328279899924569 1 0.014738632420260214 0.015146039340135782 0.0089066049020557515 1 1 1 1 0.013922140726719845 0.010040042935601207 1 0.014061835246616276 1 1 1 1 0.010347066401677903 1 0.01320961782988379 1 1 1 1 1 1 1 1 1 1 0.013313711064332004 0.014688531989752257 1 1 1 1 1 1 1 0.013014147993188367 1 1 1 1 1 1 1 1 1 1 1 1 0.010206218377031995 1 1 1 1 1 1 1 1 1 1 1 1 1 1 0.010329034966586024 1 0.010783474512693691 1 1 1 1 1 1 1 1 1 0.012347300093297235 1 1 1 1 1 1 1 1 0.012404704344423938 1 1 1 1 0.012557700084462596 1 1 1 1 0.011034084523702404 1 1 1 1 1 1 0.012975128598424918 1 1 1 1 1 1 1 1 0.010454439546107667 1 1 1 1 0.011657705695755041 1 1 1 0.010488170942208237 1 1 1 1 1 1 1 1 1 1 1 1 1 1 1 1 1 1 1 1 1 1 0.010711271799961838 1 1 0.0089254224935027861 1 1 1 1 0.0081412174099889344 1 1 1 1 1 1 1 1 1 1 1 1 1 1 0.010467581568942105 1 1 1 1 1 0.0096310529700484194 1 1 1 1 1 1 0.010909753288685292 1 1 1 1 1 1 1 1 1 1 0.010828710981714978 1 1 1 1 1 1 1 1 1 1 1 1 1 1 1 1 1 1 1 1 1 1 1 1 1 1 1 1 1 1 1 1 1 1 0.010636556383882686 1 1 1 1 1 1 1 1 1 1 0.010090309494696973 1 1 1 1 1 1 1 1 1 1 0.0099867979750782945 1 1 1 1 1 1 1 0.017169819542103087 1 0.010011542375782018 1 1 1 1 1 0.0095745536584101055 1 1 1 1 0.012301451688785457 1 1 1 1 1 1 1 1 1 0.010801871634274571 1 1 0.0094907625768990249 1 1 1 1 0.013743033442913426 0.0080497531334598194 0.011809090003242425 1 0.0099356952421191611 1 0.011102026887960491 1 1 1 1 1 1 1 1 1 0.0099806168347985804 1 1 1 1 0.010220247984913635 1 1 1 1 1 1 1 1 1 1 1 0.016375199913378276 0.0099814856243414466 1 1 1 1 1 0.010420338506758298 1 0.0097375102392213923 0.010804581568158922 1 0.010218642322113083 1 1 1 1 1 1 1 0.01024833047338403 1 1 1 1 1 0.010448918085566306 0.010135280964920213 1 0.011825682208297304 1 1 1 1 1 1 0.012943029193898732 1 1 0.011352296533156527 1 1 0.013150309189085739 1 1 1 1 1 1 1 1 1 0.010775436134355018 1 0.017097003254208501 1 1 1 1 1 0.0097204272466321316 1 1 0.013071146118734882 1 1 1 1 0.010028935984361179 1 1 0.010068825445291444 1 1 1 1 1 0.015987335580905211 1 1 1 1 1 1 1 0.016114900588621299 1 0.014148640212281427 1 1 1 1 0.017933380813789427 0.015416703350932476 1 1 0.011622908259962345 0.01647227379252688 1 1 1 0.010844046137126008 0.01508599190841637 1 1 1 0.0132317571683166 1 1 0.015863028309504215 0.010219372765711578 1 1 1 1 1 1 1 1 1 1 1 1 1 0.011676875746776757 1 1 0.01008832178542134 1 1 0.010138753583159051 1 0.010925017478069895 1 1 1 1 0.010081599148121123 1 0.01176399527651379 1 0.00999698032175899 1 1 1 0.012816134587258835 1 1 1 1 1 1 1 1 1 1 1 1 1 1 1 0.010580751380581037 1 1 1 1 1 1 1 1 0.01110085157401379 1 1 1 1 1 0.010904712903347919 0.01077553309287416 1 1 1 1 0.01095699973159253 1 0.010704886978315214 0.011482630896270095 1 1 1 1 1 1 0.011631774118737408 1 1 1 0.010771377103315539 1 1 1 1 1 1 0.010837096166994542 1 1 1 1 1 1 1 1 1 1 1 1 0.012229907150394398 1 1 1 1 1 1 1 1 1 1 0.010435533564842378 1 1 1 1 1 1 1 1 1 1 0.011224703202156771 1 1 1 1 1 1 1 1 0.010401043451791495 1 1 1 1 1 1 1 1 1 1 1 1 1 1 1 1 0.010217094035938009 1 0.014124114199542213 1 1 0.0099810893360052361 1 1 1 1 1 1 1 1 1 1 1 1 1 1 1 1 0.010139174226440817 1 1 1 1 1 0.013399026666333488 1 1 0.010427916364194493 1 1 1 0.015985769670498928 0.010457035250558206 1 1 0.0099688673294475068 1 1 1 1 1 1 0.014728554810150138 1 1 1 1 1 1 1 1 0.015096543521144827 1 1 1 1 1 1 0.010521611041523507 1 1 0.011931775856479013 1 1 1 1 0.012374758082904299 0.012308855720767726 1 1 0.0098255897826773891 1 0.01016460726582534 1 1 1 1 1 0.010720075915213536 1 1 1 1 1 1 0.012160657547103101 1 1 1 1 1 1 1 0.010520669365993829 1 1 1 0.010437162423459396 1 1 1 0.010011735142368982 1 1 1 0.011235590526668565 1 0.014349569575886548 1 1 1 1 1 1 1 1 1 1 1 1 1 0.014123171286785901 1 1 0.010477987168241774 1 0.010005588532831504 1 0.010208653411154416 1 1 1 1 0.01230199505698713 1 1 0.011621184720264424 1 1 1 0.010150911869901982 1 1 1 1 1 1 1 1 1 1 1 1 1 1 1 1 1 1 1 1 1 1 1 1 0.0098946754637315552 1 1 1 1 1 1 0.010279615550365545 1 1 0.011022181651045532 1 1 1 1 0.013706584274566662 1 0.012621212588209831 1 1 1 1 1 1 1 1 1 0.010027815580169179 1 0.010036696796796021 1 0.010119186375967655 1 1 1 1 1 1 0.014210954213536508 1 1 0.012869368142080218 1 1 1 0.010159565514599305 1 1 1 1 1 1 1 1 0.0072222737581539445 1 1 0.014423228419545976 1 1 0.0085019391119392634 1 0.0093966672845833526 1 1 1 1 0.013497508083044115 1 0.01373438521255747 0.014793182574955589 1 1 0.01017240555236508 1 1 1 1 1 0.010331971066964391 1 1 1 0.0088502421525429708 1 1 1 1 1 1 0.010475177558847824 1 1 1 1 0.012044702159446311 1 1 1 0.010112260891272607 1 1 1 1 1 0.010009433503370519 1 1 1 1 1 0.011289957014314766 1 1 0.010322897579114155 1 1 1 1 1 1 1 1 1 1 1 1 1 0.018451694053776668 1 1 1 1 1 1 1 0.018712957015335843 1 1 1 1 0.012775046962669231 1 1 1 1 1 1 1 1 1 1 0.009666047290097405 1 1 1 1 0.0089311116091397719 1 1 0.013372186621246895 1 0.013738737160076991 1 1 0.0099907811292486454 1 1 1 1 1 1 1 1 1 1 1 1 1 1 1 1 1 1 1 0.010051282113439496 1 1 1 1 1 1 1 1 1 1 1 1 1 1 1 1 1 1 1 1 0.011733760474154911 1 1 1 1 1 1 1 1 0.012292324719262853 1 1 1 1 1 0.010098131699543609 1 1 1 1 1 0.014838357312373075 1 1 1 0.01478274513185234 1 1 0.012795660372549188 1 1 1 0.0099455612063252957 1 0.012657539731301248 1 1 1 0.016248331696413487 0.010549517411636268 1 0.0110504714787536 1 1 0.01540124178839368 1 0.010313948940808138 1 0.014154570879506067 0.011180715248361266 1 1 0.0099958950202123989 1 1 1 1 0.012319244651262119 1 1 0.010105271217096926 1 1 0.010724823352930596 0.010915498523079041 1 1 1 1 0.010219419915027873 1 0.0095382854367380004 1 1 1 0.01397816549616893 0.010621405755509983 1 1 1 0.010410525395551659 0.012723670775555329 1 0.013427824083515784 1 1 1 1 1 1 0.010588794736797755 0.011874099132985205 1 1 1 0.010197489107875353 1 1 1 1 0.010018884227299161 1 1 1 1 0.0088881135896866498 0.011862811507374577 1 0.01265468249232018 0.011275201847050675 1 0.015911079351375975 1 1 0.0094719090083900635 0.0091648708874793802 1 0.01163717963008906 1 1 0.010163640867735987 1 1 0.01233838674538318 1 0.013654763622637778 1 1 1 0.010027682289694164 1 1 0.010520933397439834 1 1 1 1 1 1 1 1 1 1 1 0.010617752688093621 1 1 1 0.011822623590032702 1 0.015619596853153674 1 1 1 0.012707525943265867 0.0099809478576274278 1 1 0.010051596613037032 0.013244254780885872 1 1 0.011541030962698796 1 1 1 1 0.0093655366808818551 1 1 0.011523494459369024 1 0.010018541897992379 1 1 1 1 1 1 0.011948474183110742 1 1 1 1 1 1 1 1 1 1 1 0.011622797877120089 1 1 1 1 1 0.011079204535915484 1 1 0.015070779109250483 1 0.011530384093085908 1 0.011093436046259781 1 0.012330602967835808 1 1 0.0099379625135391503 1 1 0.0099874086903583396 1 1 1 0.017923958168484008 1 0.01003998131402822 1 0.012995725818841654 1 0.011342044153543854 1 1 1 0.011915960692971246 1 1 1 0.014328674805857103 1 1 1 1 1 0.0095422734171853648 0.01494887044986588 0.0088436093582911733 1 1 1 1 1 1 1 1 1 1 1 1 1 1 1 1 1 1 1 1 1 1 1 1 1 1 1 1 1 1 1 1 1 1 1 0.0095624799553332626 1 0.0085591404833090315 1 1 1 1 0.0059460540276759268 1 1 1 1 1 1 1 1 1 0.012057875772313754 1 0.010043987453705286 1 1 1 1 1 1 1 0.011563358197391058 1 0.010720784255720383 1 1 1 1 1 1 1 1 1 1 1 1 1 1 0.011609325976569105 1 1 1 1 1 1 1 0.014500931191168119 1 1 1 1 0.011521782259729718 1 1 1 1 0.011432852812875816 1 1 1 1 1 1 0.0094905786168762284 1 1 1 1 1 1 1 1 0.010917006499335425 1 1 1 1 1 1 1 1 1 1 1 1 1 1 1 0.011173739442945013 1 1 1 1 1 0.0095888419907858898 1 1 1 1 0.014612812359804028 1 1 1 1 1 1 1 1 1 1 1 1 0.010850263303344156 1 1 1 1 1 1 1 1 1 1 1 1 1 1 1 1 1 1 1 1 1 1 1 1 1 1 1 1 1 1 1 1 1 1 1 1 1 1 1 1 1 1 1 0.0099143884450262048 1 1 1 1 1 1 1 1 1 1 1 1 0.012840074630817154 1 0.017906155915267848 1 1 1 0.0093508332818726808 1 1 1 1 1 1 0.017617348457203925 1 1 1 1 1 1 0.010019367621178965 1 1 0.010906347569727635 0.010918121874208863 1 1 0.010161370431771946 1 1 0.0099019146559921542 0.012930193728297911 0.011360113064380504 1 1 1 1 1 1 1 1 1 1 0.020674586970127695 1 1 1 1 0.023304136313871286 1 1 1 1 0.014371278181883228 1 0.010966073461380755 1 1 1 1 0.010354493551836593 1 1 1 1 0.013376884795779261 1 1 1 1 0.01030867067048814 1 1 1 0.010205843282586051 1 1 1 1 1 1 1 1 1 1 1 1 1 1 1 1 1 1 1 1 1 1 1 1 1 1 1 1 1 1 1 1 1 1 1 1 1 1 1 1 0.028750975412166722 1 1 1 1 1 1 1 1 0.012052774817855483 1 1 1 1 0.013247900349037285 1 1 1 1 1 1 0.023803858699627999 1 1 1 0.027849396492902117 1 1 1 1 1 1 1 1 1 1 0.0098233296217658406 1 1 1 1 1 1 1 1 1 1 0.027115117205983398 1 1 1 0.0097651266290130316 0.010501979059839099 1 0.01894620716457187 0.0093772486562101656 1 1 1 1 1 0.0098248347235789929 1 1 1 1 1 1 1 1 0.0098097781323825649 1 1 1 1 1 1 1 1 1 0.011110166832845582 1 1 1 0.010493601682459601 1 0.0090843706445840142 1 0.010499737135454101 1 1 1 1 1 1 1 1 1 1 1 1 1 1 0.010284083900931468 0.010141423280013637 1 1 1 1 1 0.010056657948870269 1 1 1 1 1 1 1 1 1 1 1 1 1 1 1 1 1 1 0.010200089825539835 1 1 1 0.010131639126419864 1 1 1 1 1 1 1 0.010210687757846212 1 1 1 1 0.0099036762357659555 1 1 1 1 0.0099131728933067008 1 1 1 0.012743025899522148 1 0.011075153305298152 1 1 1 0.010434428309236167 1 1 1 1 1 1 1 1 1 1 1 1 1 1 1 1 1 1 1 1 1 1 1 1 1 0.01086131206285413 1 1 1 1 1 1 1 0.010003156597131739 1 1 1 1 1 0.010070910099814701 1 1 1 0.0098349701630792968 1 0.0096871980681275758 1 1 1 1 1 1 0.0099536149173547021 1 1 1 1 1 1 0.010731930833949042 1 1 1 1 1 1 1 0.011994730958592858 1 1 0.010729804977365729 1 1 1 0.012091209138041225 1 1 1 1 1 1 1 1 1 1 1 1 1 1 1 1 0.018727117738762043 1 1 1 1 1 1 1 1 1 0.013067255804180297 1 1 1 0.0088490866327114968 1 1 1 1 1 1 1 1 1 1 0.0096016665902100493 1 1 1 1 1 1 0.011328110656183877 1 1 0.01000281503110776 1 0.012071737871294784 1 1 1 1 1 1 1 1 0.0099522163401385734 1 1 1 0.012981571641779037 1 1 1 0.01297135837350297 1 1 1 1 0.011608553821509361 1 1 0.01086157443568089 1 0.010001596598600308 0.011483201301728181 0.010229907023237296 1 1 0.012348388336071756 0.011405861546137919 1 1 1 0.0099288657617226626 1 1 1 0.011786500812973678 1 1 1 1 1 1 1 1 1 0.010000521243198713 1 1 0.013765912793005236 0.0092520273818826222 0.0085225141612440825 0.0094655385078097395 0.0097806711975046007 1 1 0.01601635831024565 1 1 1 1 1 1 1 1 1 1 1 1 1 1 1 1 1 1 0.011860166129528144 1 1 1 1 1 1 1 1 0.010861143533399646 1 1 1 1 1 0.011556920140391606 1 0.0093715449265042335 0.010000653125560425 1 1 1 1 0.0089165407351073627 1 1 1 0.014372238307866055 1 1 1 0.013476422165087437 1 0.013415489247755255 1 1 1 0.013510369964456238 0.013375383495611584 0.014783776156232288 1 1 0.014536809499424425 1 0.0083447321740289602 0.0088343960610060713 1 0.013296859548490107 1 1 1 0.012202611716685852 1 0.0063815375075815493 1 1 1 1 1 1 1 1 1 1 1 1 1 1 1 1 1 1 1 1 1 1 1 1 1 0.011654785057229193 1 1 1 1 1 1 0.013707559875084664 1 1 1 1 1 1 0.020428003532556235 0.010986476863604785 1 1 1 1 0.010145256568092672 1 1 1 0.009998556997726676 1 1 1 1 0.010491448921321967 1 0.012787609912351528 1 0.026284709784879203 1 1 0.0087212597419581549 0.0069800411732461407 1 1 0.0043817926648979195 1 1 0.0056108774722699256 0.013168095170743205 0.0083115682812494179 1 1 0.0097549270832539819 1 1 1 1 1 1 1 1 1 1 1 1 1 1 1 1 1 1 1 1 1 1 1 1 1 1 1 1 1 1 1 1 0.010123942383567921 0.0090865387130026135 1 1 1 1 1 0.0095926770336042955 1 1 0.0088864812363979202 1 1 0.011712379622756678 1 1 1 1 1 1 1 1 1 1 1 1 1 1 1 0.013069958738956892 1 1 0.009993709475723438 0.0099835147099571232 1 1 1 1 0.0090839386062521524 0.011281629190188158 1 0.010007408271956853 0.012453413860741301 1 0.01082759717880113 1 1 1 1 0.01001067149907168 1 0.013586538059597709 1 1 0.011495499042783193 0.015351061967967901 1 0.010007751839148808 0.012501133713217826 1 1 0.012943787074011642 0.0097397988298318187 0.0097399709192972188 1 0.0099231533851063865 1 1 1 1 1 1 0.0097129279883964199 1 1 1 1 1 1 1 0.0099864302371721753 0.010187584653771165 1 1 1 0.010511925552559122 1 1 1 1 0.0084809167503134171 0.011772804566326182 1 1 1 0.012273454450897218 1 1 1 1 1 1 1 1 1 1 1 1 1 1 1 1 1 1 1 1 1 1 1 1 1 1 1 1 1 1 1 1 1 1 0.010059897545785384 1 1 1 1 1 1 1 1 1 0.014300161127916539 1 1 1 1 1 1 1 1 0.017252720107319017 1 1 1 1 1 1 1 1 1 1 0.008051113613638956 0.020170858085225861 1 0.019856345344864378 1 1 0.022739186729438775 1 1 1 1 1 1 1 1 0.02506495381360295 1 1 1 1 1 1 0.0084089923558135753 1 1 1 1 1 1 1 1 1 1 1 1 1 1 1 1 1 0.026965239121264174 1 1 0.011409802337738773 1 1 0.028083539611538925 1 0.0077196423226343919 1 1 1 1 0.012033907943520068 1 1 1 1 0.010561178640267491 1 1 1 1 1 0.015012906557201337 1 1 1 1 1 1 1 1 1 0.0083177838988082592 1 1 1 1 1 1 1 0.0099924493533585495 1 1 1 0.013810175423118963 1 1 1 1 1 1 1 0.011897140621958758 1 1 1 0.010026150422118109 1 1 1 1 1 1 1 1 1 1 0.01122830578823651 1 1 1 0.009240872120180238 1 1 0.010088207248879787 1 1 1 0.0088218267188888717 1 1 1 1 1 0.0088949326128209688 1 1 1 1 0.010016616211549138 1 1 1 1 1 1 1 1 1 1 1 1 1 1 1 1 1 0.0095892978834069033 1 1 1 1 0.008782607464280898 1 1 1 1 1 0.010169745154526833 1 1 1 1 1 1 0.011028317983465388 1 1 1 1 1 1 1 1 1 1 1 1 1 0.010248680416746939 1 1 1 0.010048948592364396 1 0.012641457397944769 1 0.0098554117993388014 1 1 0.0099828339112343293 1 1 1 0.012389329696039876 1 1 1 1 1 1 1 1 0.01091637435690513 1 1 1 1 1 0.0096991958399260236 1 1 1 1 1 1 1 1 1 0.013035851104935121 1 1 1 0.010876061637512022 1 1 1 1 1 1 1 1 1 1 1 1 1 1 1 0.0099843744740649651 1 1 1 1 1 1 1 1 1 1 0.010728759308237122 1 1 1 0.011671774230006687 1 1 1 1 1 1 1 1 1 1 1 1 1 1 1 1 1 1 1 1 1 0.010586390181182587 1 0.010289861704361058 1 1 1 1 1 1 1 1 1 1 1 1 1 0.010271869779638964 1 1 1 1 1 1 1 1 1 1 1 1 0.010512843751752956 1 0.010397405964748084 1 1 1 1 1 1 1 0.010868888505681094 1 1 1 1 1 0.011356356475543568 0.010485366298166918 0.015029858695931292 1 1 1 0.013818056801012247 1 1 1 1 1 1 1 1 1 1 1 1 1 1 1 1 1 1 1 1 1 1 1 1 1 1 1 1 1 1 1 1 1 0.01057370320032066 1 0.010240973972113994 1 1 1 1 1 1 1 1 1 1 1 1 1 1 1 1 1 1 1 1 1 0.011522245681504379 1 1 1 1 1 1 0.009545430518962476 1 1 1 1 1 1 1 0.0086013959453163195 0.0094807872838326684 1 1 1 1 1 1 1 1 1 1 0.010489064709279624 1 1 1 1 1 1 1 1 1 1 0.0099114109701869506 1 1 1 1 1 1 1 1 1 1 1 1 1 1 1 1 1 1 1 1 1 1 1 1 1 1 1 1 1 1 1 0.01068715987411085 1 1 1 0.010610770903117168 1 1 1 1 1 0.010276476644907964 1 1 0.011040435476305226 1 0.0099974762089923789 0.011393706716917293 1 1 1 1 1 0.010093134468538921 1 1 1 0.010078299077972962 1 1 1 1 1 1 1 1 1 1 1 1 1 1 1 0.010114764060996822 1 1 1 1 0.010179951126019821 1 1 1 1 1 1 0.010086816657480898 1 1 1 1 1 1 1 1 1 1 1 1 1 1 1 1 1 1 1 1 1 1 0.011373266792073487 1 1 1 1 1 1 1 1 1 1 1 1 1 1 1 1 1 1 1 1 1 1 1 1 1 1 1 1 1 1 1 1 1 1 1 1 1 1 1 0.013167099818359606 1 1 1 1 1 1 1 1 1 1 1 1 1 1 1 1 0.01035205612142333 1 1 1 1 1 1 0.01046974035169752 0.010083024018796828 1 1 1 1 0.010366015057827842 1 0.010371618660546093 1 1 0.010798321294969816 1 1 1 1 1 1 0.010827579902622668 1 1 1 0.012055926407149101 1 1 1 1 1 0.0097531214765732774 1 1 1 1 0.013241866654412236 0.010037780171149561 1 0.0090597810122890147 1 1 1 1 1 1 1 1 1 1 1 0.010020272697794793 1 1 1 0.010061078691150138 1 1 1 1 1 0.011716430612467318 1 1 0.011912920126707735 1 1 1 1 1 1 0.010597633759274677 1 0.0102767201839211 1 1 1 1 1 1 1 1 1 1 1 1 1 0.0096527512845496696 1 1 1 1 1 1 1 1 1 1 1 1 1 1 1 1 1 1 1 1 0.010112631091008243 0.01024847513210838 1 1 1 1 1 1 1 1 1 1 1 1 0.0092647980158245494 1 1 0.010243699428942821 1 0.009493105758204768 1 1 1 1 1 1 1 1 1 1 0.0093669659422466293 1 0.010610757503894834 1 0.010828227417550596 0.0087007033217566341 1 1 1 1 0.011845688604747103 1 1 0.01067001996355825 1 1 1 1 1 0.0237727311496111 1 1 1 1 1 1 1 1 1 1 0.010067674655754656 1 1 1 1 1 1 1 1 1 1 1 1 1 1 1 1 0.02638220618838379 1 1 1 1 0.0070269683340815191 1 1 0.0078955166460057576 1 1 1 1 1 0.010126075488406418 1 0.00908517760293482 1 0.013209753086836593 1 1 1 1 1 1 1 0.010100535631959156 1 0.010305618969049692 0.014229221546422931 1 1 0.011894066139950967 1 1 1 1 0.0074091239637697048 1 1 0.015478619248223127 1 1 1 1 1 1 0.0098891135380532718 1 1 1 1 1 0.010043485188717591 1 1 1 1 1 0.011010269995602869 1 1 1 1 0.012697819238370824 0.0097907952088197043 1 0.010501099529925999 1 1 1 1 0.010834210004837391 1 0.013602436826988955 1 1 1 1 1 1 0.010562173301072194 1 1 1 1 1 1 1 1 1 0.0098630905172075109 1 0.0095858451032137509 1 1 1 1 1 1 1 1 0.010905144607308275 1 0.010773392462444964 1 1 1 0.011616514233608438 1 0.0097444117825122509 1 1 1 1 1 1 1 1 1 0.0099384401683256206 1 1 0.010073130359142519 1 1 1 1 1 1 1 1 0.010023638095342475 0.01061531964500397 0.0098998555115159884 1 1 1 1 1 1 1 1 1 1 1 1 1 1 1 1 1 1 1 0.0099501218591978545 1 1 1 0.0095514292541696074 0.010487230968774163 1 1 1 1 1 1 1 0.011404021283305189 1 1 1 1 1 1 1 1 1 1 1 0.010567810081955268 1 1 1 1 1 1 1 1 1 1 0.011311922107411818 1 1 1 1 1 1 0.010446210455640955 1 1 1 1 1 1 1 1 1 1 1 1 1 1 1 0.011135844063406217 1 1 1 1 0.013443052128127497 1 1 1 1 1 1 1 0.0097108807634746531 1 0.010519532610644035 1 1 0.012565720400651884 1 1 1 0.0093838477505814848 1 0.0089194404501475345 1 0.010484637698848375 0.012456911945367972 1 1 1 0.01221680988739959 0.0099940648601742413 1 1 1 1 1 1 1 1 1 1 1 1 1 1 1 1 1 1 1 1 1 1 0.010611951657912646 1 1 1 1 1 1 1 1 1 1 0.0097131241326971485 0.010622522163230324 1 1 1 1 1 1 1 0.01022823470099371 1 1 1 0.010904630909010331 1 1 1 1 1 1 0.011533955362256937 0.020124530996924392 1 1 1 1 0.017070260858287431 1 1 1 1 1 0.01235542986699706 1 1 1 1 1 0.016096402190768671 1 1 1 1 1 1 1 1 1 1 1 0.01036468762948984 1 1 1 0.010641620070363404 1 1 1 1 1 1 1 1 1 1 1 1 1 1 1 1 0.011388150406035101 1 1 0.02396730893887121 1 1 1 0.012992473862826297 0.0074458860810351791 1 1 1 0.014365882394484233 0.017356293210437419 0.0096748438807340159 1 1 1 1 0.0097585238510251911 1 1 1 1 1 0.0093397109827741825 0.011457784127252232 1 1 0.013438747861036795 1 0.005979808227125594 1 0.010818350966690093 1 1 1 0.015805078596415813 1 1 0.0098291026026743021 1 1 1 1 1 0.0042196973138475726 1 1 1 1 1 1 1 1 1 1 1 1 1 1 1 1 1 1 1 1 1 1 1 0.0098970334277560124 1 1 1 1 1 1 1 1 1 1 1 1 1 1 1 1 1 1 1 1 1 1 1 1 1 1 1 1 1 1 1 1 1 1 1 0.010100892380107883 1 1 1 1 1 1 1 0.013035379468480022 1 1 1 1 0.010112406925290683 1 1 0.010011514545182803 1 1 1 1 1 0.015450008638345751 1 1 1 1 1 1 1 1 1 1 0.018158717298247095 0.021019227095701896 1 1 1 1 1 1 1 1 1 0.0099368562472857292 1 1 1 1 1 0.010721900006160932 1 1 1 1 1 1 1 1 1 1 1 1 1 1 1 1 1 1 1 1 0.009289272636022302 1 0.011080503351444655 1 0.011776434836461184 1 1 1 1 1 1 1 1 0.0096688962001722015 1 1 1 1 1 1 1 1 1 1 1 1 1 1 1 0.010321810151056173 1 1 1 1 1 1 1 1 1 1 1 1 1 1 1 1 1 1 1 1 1 1 0.0099800313980835959 1 1 1 1 1 0.0099387384318817794 1 0.0099931072169170271 1 0.010962625777059178 1 1 1 0.011250404291735802 0.011267117752924279 1 1 1 1 1 1 0.011920089521110283 0.010007121370307777 0.010242094595994265 1 0.011709875533832298 1 0.01123139657771473 1 1 1 1 1 1 0.009758395909037031 1 1 1 1 1 1 1 1 0.01334651563731535 1 1 1 0.010380659460429157 1 0.011493544274233811 1 1 0.011640127570933164 1 1 1 1 1 1 1 1 1 1 1 1 1 1 1 0.010124844286768618 1 1 1 1 1 1 1 0.0099912574309092839 1 1 1 1 1 1 1 0.013360581417970797 1 0.0087814451980508367 1 1 0.013729545833744727 1 1 1 1 1 1 1 1 1 0.010106360812245606 1 1 1 1 0.009983779278911302 1 1 0.012416959604155125 0.012024468106164685 1 1 1 1 1 1 1 1 0.011507103543607233 1 1 1 1 1 1 1 1 1 1 1 1 1 1 1 1 1 1 1 1 1 1 1 1 1 1 1 1 1 1 0.020437751776057392 1 1 1 1 1 1 1 1 1 1 1 0.0073791739177082732 1 1 0.00926836785034677 1 1 1 1 1 1 1 1 1 1 0.0098501221490892871 0.010496322733176511 1 1 1 1 0.0099992443725640499 0.010046811415225258 1 1 1 1 0.012079308668713821 1 1 1 0.014956579013327441 1 1 1 1 1 1 1 1 1 1 1 1 1 0.018350828951831426 1 0.017806489811361063 1 1 1 1 1 0.010042565947600885 1 1 0.011468339636903968 1 1 1 1 1 1 1 1 1 0.011176404549783976 1 1 1 1 1 1 1 1 1 1 0.018206534641863399 1 1 1 0.0099236033361588503 1 1 1 1 1 1 1 1 1 1 1 1 1 0.018592118055366411 0.013859447740913659 0.010045931586433627 1 1 0.0089460291984922308 1 1 1 1 1 1 1 1 1 1 1 1 1 1 0.010133027904927903 1 1 1 1 1 1 1 0.0096350700168764212 1 1 1 1 1 1 1 1 1 1 1 1 1 1 1 1 0.013410258326616716 1 1 1 1 1 1 1 0.011807319168254359 1 1 1 0.021561448055230838 1 1 1 1 1 1 1 1 1 1 1 1 1 1 1 1 0.01053429307634616 1 1 1 1 0.021880810449802029 1 0.020793483722999974 1 1 1 1 0.018159049633541029 1 1 1 1 1 1 1 1 1 1 1 1 1 1 1 1 1 0.00996515650075778 0.012372270833689501 1 1 1 1 1 1 1 1 1 1 1 1 1 1 1 1 1 1 0.013678432107478447 1 0.011068032930279611 1 1 1 1 1 1 1 1 0.0087591922175976923 1 1 0.009227618911214713 1 0.0097160916964685734 1 1 1 1 1 1 1 1 1 1 1 1 1 1 1 1 1 1 1 1 1 1 1 1 1 1 1 1 1 1 1 1 1 1 1 1 1 1 1 1 1 1 1 1 1 1 1 1 1 1 0.009977086589307578 1 1 1 1 0.011918923992092205 0.011203129893917975 1 1 1 1 1 1 1 1 0.012841113287151977 1 1 1 1 1 1 1 1 0.0096383758561739384 1 1 1 1 0.01004166482936631 1 0.0094226148932106957 0.010787392405644067 0.011368699495117762 1 1 1 1 1 1 1 1 1 0.010429214067574525 1 1 1 1 1 1 1 1 1 1 1 0.010675121411664287 1 1 1 1 1 1 1 1 1 1 1 1 0.010258679618512935 1 1 0.010203614529601217 1 1 1 1 1 0.010812788549787809 1 0.010597213372421189 1 1 1 1 1 1 1 1 1 1 1 1 1 1 1 1 1 1 1 1 1 1 1 0.010292904710721747 1 1 1 1 1 1 1 1 1 1 1 1 1 1 1 1 1 1 1 1 0.0098969141420870901 1 1 1 1 1 1 1 1 1 1 1 1 1 1 1 1 1 0.0096806374943113789 1 1 0.010540115018691926 1 1 1 1 1 1 1 1 1 0.010027042136829435 0.0096839879110791633 1 1 1 1 1 1 1 1 1 0.010469145656871161 1 0.010558330035805807 0.010381581768189825 1 1 0.0099626437342982474 1 0.01046373529817176 1 1 1 1 1 1 1 1 1 1 1 1 1 1 1 1 1 1 1 1 1 1 1 1 1 1 1 1 1 1 1 1 1 1 1 1 1 1 1 1 1 1 1 1 1 1 1 1 1 1 1 1 1 1 1 1 0.010253549106891822 1 0.01063576580783434 1 1 1 1 1 1 1 0.010588060639462694 1 1 0.011199888349323981 1 1 1 1 1 1 0.0096440290418088395 1 1 1 1 1 1 1 1 1 1 1 1 1 1 0.01113855808083198 1 1 1 0.010550497441369299 1 1 0.010237038938255293 1 1 1 1 0.010582683739710268 1 1 1 1 1 1 1 1 0.011371639109973292 0.010058108326708167 1 1 1 1 1 0.011956364945398649 1 1 0.010031519118589719 1 1 0.011100616553397835 1 1 1 1 1 0.016086250308936713 1 0.0099833959136147871 1 0.010832848845835082 1 1 1 0.010698037906154069 1 1 1 1 1 0.011585721227871616 1 1 1 0.011127444470715347 1 1 1 1 1 1 1 1 1 1 1 1 0.013252282388337519 0.013284288435063463 1 1 1 0.010552332309147035 1 1 1 1 0.0097574407579429298 1 1 1 1 1 1 0.013600859653555966 1 1 1 1 1 1 1 1 1 1 1 1 1 0.015351529124061646 1 1 1 0.015156569771284829 1 1 1 1 1 1 1 1 0.010947230789005698 0.010240759343316667 1 1 0.008368712537780619 1 1 0.01287809483279187 1 1 0.01072944520245623 1 1 0.010216455612561712 1 0.01095320273905165 1 1 1 1 1 1 1 1 1 0.013521215311576915 1 1 1 1 1 1 1 1 1 0.011159204886359072 1 1 1 1 1 1 1 1 1 1 0.01034238664802887 1 1 1 1 1 1 1 1 0.023557246515401732 1 1 1 1 1 1 1 0.0078951698953600626 1 0.011532812251747663 1 0.0092591983291227982 0.01136602818965936 0.0099997166299016331 0.010024485581349203 1 0.0094725830552556591 1 1 1 1 0.010428653905812574 0.0080799115247639774 1 0.010576511472382567 1 1 0.010618619757418485 1 1 1 1 0.010636774641748399 1 1 1 1 1 1 1 1 1 1 1 1 1 1 1 1 1 1 0.010003266101155012 1 1 1 1 0.013687277954097295 0.010090383348764312 1 1 1 0.010260194923378402 1 0.012776916518469216 1 1 0.010261303311749402 1 1 0.010008574085980666 1 1 1 1 1 1 1 0.014167965043467663 1 1 1 1 1 1 1 0.013925826463179913 0.010640304709138876 0.01127327565109529 0.012947176905317249 1 1 1 1 1 1 1 1 1 1 1 1 1 1 1 1 1 1 1 1 1 1 1 1 1 1 1 1 1 1 1 1 1 1 1 1 1 1 1 1 1 1 1 1 1 1 1 1 1 1 1 1 1 1 1 0.010171875665024945 1 1 1 1 1 1 1 1 1 1 1 1 0.011312977328208691 1 1 1 1 1 1 1 1 1 1 1 1 1 1 1 1 1 1 1 1 1 1 1 1 1 1 1 1 1 1 1 1 0.011025227134348437 1 1 1 0.011348725832259925 1 1 1 1 1 1 1 1 1 1 0.012659639925484341 1 1 1 1 1 1 1 1 1 1 1 1 1 1 1 1 1 0.012692569940222685 1 1 1 1 0.016908818448981063 1 1 1 1 1 1 1 0.018876667854716679 1 1 1 0.012083320351043723 1 1 1 1 1 1 1 1 1 1 1 1 1 1 1 1 1 1 1 1 1 1 1 1 1 1 1 1 1 1 1 1 1 1 1 1 1 1 1 1 1 1 1 1 1 1 1 1 0.017037522574202373 0.010710033580185054 0.014221551488513532 1 1 0.019357942544433848 0.012247062915937187 1 1 1 1 1 1 1 1 0.0088724091748902025 1 1 0.011227192300989716 1 0.0096752500943062328 1 1 1 0.011299045732518186 1 0.0097790771579979938 1 1 1 1 1 0.010041589417225036 1 1 1 1 1 1 1 1 1 1 1 1 1 1 1 1 1 1 1 1 1 1 1 1 1 1 1 1 1 1 1 1 0.010581535865994226 1 1 0.010289359960653985 1 0.010470332016065308 1 1 1 1 1 1 0.0099917630308722152 1 1 0.011524620747905098 1 1 1 1 1 1 1 0.010912268036188073 1 0.011307710803411317 1 0.011097168088229623 1 1 1 1 0.010264212050069436 1 0.010860668089199624 1 1 1 1 1 1 1 0.010438488727834115 0.010279590982598771 0.010609204586758313 1 1 1 1 1 1 1 1 1 1 1 1 1 1 1 1 1 1 1 1 1 1 1 1 1 1 1 0.010397023538061552 1 1 0.009671513460499109 1 1 1 1 1 1 1 1 1 1 1 1 1 1 1 1 1 1 1 1 1 1 1 1 1 1 1 1 1 1 1 1 1 1 0.0090764376853083948 1 0.010306044013404021 1 0.010021710359885624 1 1 1 1 0.0097755393404539339 1 1 1 1 0.0095064349866149055 0.010000699761696513 1 1 1 1 0.0090933050271638505 1 1 0.0095947029726432837 0.0089451175484243084 1 1 0.0094130463570869446 1 1 1 1 1 1 0.010540842465820162 1 1 1 1 1 1 1 0.010014814940533094 0.010039370206391771 1 1 1 0.0092080432041949014 1 1 0.010790378225336864 1 1 1 1 1 1 1 1 1 1 1 1 0.010494099606730544 1 1 1 0.010139995087515383 1 1 1 1 1 1 1 0.0096107223638908345 1 0.0096152225523579177 1 1 0.0094695116018462637 0.008734965328805331 0.0098181527542073772 1 1 1 1 1 1 1 1 1 1 1 1 1 1 0.0079634910000638201 1 1 1 1 0.0070245737959301318 1 1 1 1 1 1 1 1 0.005941599779028266 1 1 1 0.005003475918566043 1 1 1 1 1 1 1 1 1 1 1 1 1 1 1 1 1 1 1 1 0.022926779575491378 1 1 1 1 0.014136987116766022 1 0.010535886490284158 1 1 1 1 1 1 1 1 1 1 1 1 1 1 1 1 1 1 1 1 1 1 1 1 1 1 1 1 1 1 1 1 0.011510835917068992 1 1 1 1 1 1 0.024764318295844218 1 1 1 1 0.014486057065576879 1 1 1 0.021330047493598625 1 0.0099912783547974511 1 1 1 1 1 1 1 0.010545198954420919 1 1 1 1 1 1 1 1 0.008643901667843585 1 1 1 0.0094500569223497921 1 1 1 0.010018130399596857 1 1 1 1 1 1 1 1 1 1 0.012576907567896983 1 1 0.012005059116407989 1 1 1 1 1 1 1 1 1 1 1 1 1 1 1 1 1 1 1 1 1 1 1 1 1 0.010135896327554553 1 1 1 1 1 0.008194147604649692 0.010218543684561234 1 0.011154558928721491 0.0094994695060154916 1 0.0091456274296648436 1 0.010501939581377108 1 1 1 1 1 0.011015613259330374 1 0.0092261169304106942 0.0093492224328603959 0.010844834931245417 1 1 0.010075258271496145 1 1 1 0.0099626212501674194 1 1 1 1 1 1 0.01130442847385559 1 1 1 1 1 1 1 1 1 1 1 1 0.010445852813493885 1 1 1 1 1 1 1 1 1 1 1 1 1 1 1 1 1 1 1 1 0.014407511137891491 1 0.0098693822154509482 1 1 1 0.0098686462030820078 1 1 0.014336432270442586 1 1 1 1 1 1 1 1 1 1 1 1 1 1 1 1 1 1 1 0.014298792850339191 0.009626625896200754 1 1 1 1 1 1 0.014503255475033134 1 0.014398544579393864 1 1 0.011724392177877614 1 1 1 0.013221393235477066 1 0.010014460089598689 1 1 1 1 1 1 0.01204828219706958 1 0.011425968327547208 1 1 1 1 1 1 1 1 1 1 1 1 1 1 1 1 1 1 1 1 1 1 1 1 1 1 1 1 1 1 1 1 1 1 1 1 1 1 1 1 1 1 1 1 1 1 1 1 1 1 1 0.010410059509519948 1 1 1 1 1 1 1 1 1 0.0098642075250717567 1 1 0.010390921603936416 1 1 1 1 1 0.0096096157142897057 1 1 1 1 0.010760025459245127 1 1 1 1 1 0.011569547243482352 1 1 1 1 1 1 0.011735242516877414 1 0.01408711026604645 1 1 0.014980902490356661 1 0.0095323428673114823 1 1 1 1 1 1 0.012306957818255309 1 1 1 1 1 1 1 1 0.0096886667943294012 1 1 1 1 1 0.0089933612047219703 1 1 1 0.016410059387602916 1 1 0.012699022330782012 1 1 1 1 1 1 1 1 1 1 1 0.010855218722632461 1 1 1 1 1 1 1 1 1 1 1 1 1 1 0.011033819810297907 1 1 1 1 1 1 1 1 1 1 1 1 0.011905286066608772 1 1 1 1 1 1 1 1 1 0.011937753945750794 1 1 1 1 1 0.01414107576186484 1 1 1 0.01003571726008964 1 1 0.010043019024437164 1 0.01482793044966127 1 0.010903934135452889 1 1 1 1 1 1 1 1 1 1 1 1 1 1 1 1 1 1 1 1 1 1 1 0.012744178963210584 1 1 1 1 1 1 1 1 1 1 1 1 1 1 0.011292439867587732 1 1 1 1 0.014000159325592326 1 1 0.015441373109993939 0.0099220127862844031 1 1 1 1 0.011648151471293869 1 0.011770000810453927 0.010062086070490637 1 1 0.0097973527699869098 1 0.010491370238640912 0.0099945712054938657 0.0099611782156203248 1 0.011014202854531717 1 1 1 1 1 0.0078472441725744892 1 1 1 1 1 0.010303579635064241 0.0099842531565586066 1 1 1 0.010085788692585845 1 1 0.0096208725878551907 1 1 1 1 0.0099064405074613619 1 1 1 1 1 0.010037266937856202 1 1 1 1 1 1 1 1 1 1 1 1 1 1 1 1 1 1 1 0.010792426511278867 1 1 1 1 1 1 1 1 1 1 1 0.010154642494506996 1 1 1 1 1 1 1 1 1 1 0.0099513576602371784 1 1 1 1 1 1 1 0.012084292345548092 1 1 1 1 1 1 1 1 0.0092079982696099683 1 1 1 0.010159786421596871 0.011555080217493761 0.0099895711578026226 1 1 0.010000712498819661 1 0.0096220667921656233 0.0095133185953334247 1 0.011673825663318304 0.011388214448119398 0.010061880475668762 1 1 1 1 1 1 1 1 1 0.0098415283247725843 1 1 1 1 1 1 0.0093455924332791589 1 1 1 0.0099548371472957271 1 1 1 0.009533803621827007 1 1 1 1 1 1 1 1 1 1 1 1 1 1 1 1 0.010436273706121702 1 1 1 1 1 1 1 1 1 1 1 1 1 1 1 1 1 1 1 1 1 1 1 1 1 0.01076180430274128 1 1 0.010616735653664382 0.010260835446451113 1 0.0096451042200885011 0.010002587876199114 1 1 1 1 1 1 1 1 1 1 1 1 1 1 1 1 1 1 0.018263044528934715 1 1 1 1 1 1 1 1 1 1 1 1 1 0.009515403789492248 1 1 1 1 1 1 1 1 1 1 1 1 1 1 1 1 1 1 1 1 1 1 1 1 0.009984825586194037 1 1 1 1 1 1 1 1 1 1 0.010685577051412999 1 1 1 1 1 1 1 1 1 1 1 1 1 0.010808040995825868 1 1 1 1 1 1 1 1 1 1 1 0.010928480608667194 1 1 1 1 1 1 1 1 1 1 1 1 1 1 1 1 1 1 1 1 1 1 1 1 0.0097671904494455435 1 0.010975411111120031 1 1 1 1 1 1 1 1 1 1 0.0094313332693593734 0.0095841704782084741 1 1 1 1 0.010391646217278974 1 1 1 0.013800627561425806 1 1 1 1 1 1 1 1 1 0.010086447116106137 1 0.0098934781962647083 0.01059438305022245 1 1 1 1 0.011112434384504849 1 1 1 1 1 1 1 1 1 1 1 1 0.010574351426656614 1 1 1 1 0.011562523440491759 1 1 0.010530691853872298 1 1 1 1 1 1 0.0089912519815613691 1 1 1 1 1 1 1 0.0096942603163058718 1 0.0097950860508934263 1 1 1 1 1 1 1 1 1 1 1 1 1 1 1 1 1 1 1 1 1 1 1 1 1 0.011579701156721644 1 0.014723036626065049 1 1 1 1 1 0.0093423045427384836 1 1 0.017040616704042787 1 1 1 0.0098995146913198016 1 0.017314376937084347 1 0.0082925847444475682 1 1 1 1 0.0096195498897054185 1 1 0.010886421843473767 1 1 1 0.008975888067280783 1 1 1 1 1 1 1 1 1 1 1 1 1 1 1 1 1 1 1 1 0.010740034030762043 1 0.013275807405042361 1 1 0.013270136656186034 0.012700612826163216 1 1 0.010081574743601367 0.012808997100259191 0.014420016045151975 1 0.015696770432504635 1 1 0.0080382602118929218 0.0088147118083490694 0.014979280294448866 1 1 1 1 0.017266781051275364 1 0.01607692019647192 1 1 0.0086687570650768649 0.01729949242877081 1 1 0.010508913664703818 1 0.010372875934182964 1 1 1 1 1 1 0.010118708312298911 1 1 1 1 1 0.010028125583143666 1 1 0.012498276993773523 0.014655977962829518 1 1 1 1 1 1 1 0.015534591608861859 1 0.0099476579933261717 1 1 1 0.010179261059379732 1 1 0.015048463218581489 1 1 0.01499462153077777 0.011951880458428456 0.0094446470871375199 1 1 0.016030404516444705 1 1 1 1 1 1 1 1 1 1 1 1 1 1 1 1 1 1 1 1 1 1 1 0.0095777928432269899 1 0.0098704919394159187 1 1 1 1 1 1 1 1 1 1 1 1 1 1 0.0092910867919675892 1 1 1 0.009906108546882484 1 0.012040460478667293 1 1 1 1 0.010587044998354856 1 1 1 1 0.011789719419873673 1 0.010877470850090025 1 1 1 0.012625559360015928 1 1 1 0.010992879578801115 1 1 0.010186023825850899 1 1 1 1 0.014487207793608381 1 1 1 1 1 1 1 1 0.014327993045001548 1 0.013440377689264198 1 1 1 0.016461939316337444 1 1 0.011924485344486733 1 1 0.014011226507732216 1 1 0.014169046647388642 1 0.013503884942962886 1 1 1 1 1 1 1 1 0.013035197603136518 0.010330395855594825 1 0.01173500386690856 1 1 0.013066823880787781 1 0.011193586221400716 1 1 1 1 0.010041064974536124 1 1 1 1 1 1 1 1 1 1 1 1 1 1 1 1 1 1 1 1 1 1 1 1 1 1 1 1 1 1 1 1 1 1 1 1 1 1 1 1 1 1 1 1 1 1 1 1 1 1 1 1 1 1 1 1 1 0.012121679049394665 1 0.01082949240727113 1 1 1 1 1 1 1 1 1 1 1 1 1 1 1 1 1 1 1 1 1 1 1 1 1 1 1 0.0095604005173455762 1 1 0.015312467309721569 1 1 1 1 1 1 1 1 1 0.010045071570011797 1 1 1 0.010153767974315931 1 1 0.019875321542597468 1 1 1 1 1 1 1 0.017858239302236428 1 1 1 1 1 1 1 1 1 1 1 1 1 1 1 1 1 0.0083443965604928141 0.010505016134414496 1 1 0.0093765018381643632 1 1 1 1 1 1 0.0068718746876646891 1 1 1 1 1 1 1 0.0083978350104856967 1 1 1 1 1 0.0056752762786026834 1 1 0.0083473625504459793 1 1 0.016104014266801379 1 1 0.0089197772826808339 1 1 1 1 1 1 0.011353431701379833 1 1 1 1 0.015145350065483756 0.016691057574678671 1 1 1 1 0.010069242976051794 1 1 1 1 0.010634382953527231 1 1 1 1 1 0.010349582280331521 1 1 0.021278020140198743 1 1 0.011624255490735771 1 1 1 1 1 1 1 1 1 0.017137386370487916 1 1 1 1 1 1 1 1 1 1 0.015298640620322192 1 1 1 1 0.011213973562293623 1 0.0173990325019431 1 1 1 1 1 1 1 0.010188472308963054 1 1 1 1 1 1 1 1 1 1 1 1 1 1 1 1 1 1 1 1 1 1 1 1 1 1 1 1 1 1 1 0.011356292366985335 1 1 1 1 1 1 1 1 0.015777407948051846 1 1 1 1 1 1 1 1 0.014076351235405397 1 0.012082609398964493 1 1 1 1 1 1 1 1 1 1 1 1 1 0.010557278889567548 1 1 1 1 1 1 1 1 1 1 1 1 1 1 1 0.0095857825301857713 1 1 1 0.0096790742947225721 1 0.0090901432587388396 1 0.010068064807673492 1 1 1 0.0085313473438436756 1 1 1 1 1 1 1 0.0097712658618795724 1 1 1 1 1 0.011936011132396451 0.0088406664260992779 1 0.010131657680806212 1 1 1 1 0.0098652832919082709 0.010156719570837254 1 1 1 1 1 0.014253897210159516 1 1 1 1 0.014933637555070453 0.0091440655060752041 1 1 0.014296125322301786 1 1 1 1 1 1 1 1 1 1 1 1 1 1 1 1 1 1 1 1 1 1 1 1 1 1 1 1 1 1 1 1 1 1 1 1 1 1 1 1 1 1 1 1 1 1 1 0.01078129299822413 1 1 1 1 1 1 1 1 0.011111867703313197 1 1 1 1 1 1 1 1 1 1 1 1 1 1 1 1 1 1 1 1 1 1 1 1 1 1 1 1 1 1 1 1 1 0.012134335766695856 1 1 1 1 0.010153298478686254 1 0.010578360735782472 1 1 1 1 1 1 0.010749979744772459 1 1 1 1 1 1 1 1 1 1 1 0.01048259427384305 1 1 1 1 1 1 1 1 1 1 1 0.010032287560421368 1 1 1 0.010082594624993228 1 1 0.0098329303528657767 1 1 1 1 1 0.013825385740612367 0.015856554820493363 1 1 1 1 1 1 0.010527247804819298 1 1 1 1 1 1 1 1 1 1 0.009910133305589543 1 1 1 1 1 0.010608200136679128 1 1 1 1 1 0.01012033474097355 1 0.0092707846240056464 0.011472404290229946 1 1 0.010040572294174625 1 1 0.013081996901894506 0.014920283724087453 1 0.011696016761347707 1 0.010187752453165239 0.013752004916242209 1 1 0.010131512866475094 1 1 1 1 0.015997726614327711 1 1 0.010119944898988905 1 0.010069227798392397 0.0059669580697259 1 1 1 1 1 1 0.0095385357279569056 1 0.015436146953079431 1 1 1 0.0098407325890113671 1 1 1 1 1 1 1 1 0.013287383441300165 0.010018411082146803 0.0084429814511606804 1 1 1 1 1 1 1 1 1 1 1 1 1 1 1 0.010155880503286179 0.010014341569954541 1 1 1 1 1 1 1 0.0082085007009975921 1 1 0.014826791936983072 1 1 1 0.0095940263636433657 0.015733587298028623 1 0.01290133364145013 1 1 1 1 0.012186916221884378 1 1 1 0.011663206700531054 0.015670251003650885 1 1 1 0.010207498125689383 0.014792169945867809 1 0.011680358683457138 1 1 1 0.014807543903645574 0.014603778871361909 1 1 1 1 1 1 0.013638077157917693 1 1 1 1 1 0.015960720010578092 0.01648529983015588 1 1 1 1 1 0.01216405688556502 1 0.013936971370869522 1 1 0.012074849198253069 1 1 0.013259838778683655 0.014542673417720801 0.01084407148967529 1 1 1 1 1 1 1 1 1 1 1 1 0.012855577641520581 1 1 1 1 1 0.0098474343620746536 1 0.0098182691698865607 1 1 1 1 1 0.012014986676692589 1 1 1 1 1 1 1 1 1 1 1 1 1 1 1 1 1 1 1 0.010284510060472811 1 1 1 1 1 1 1 1 1 0.01030298742639129 1 1 1 1 0.010179932831031094 0.010622067038513122 1 1 1 1 1 1 0.013777091027721546 0.010227550467128988 1 1 0.012946953831120494 1 1 0.011823154867431358 1 1 0.016507673379809129 1 0.01000223423617342 0.0092586235638942426 1 0.012254334518272098 0.013187088303065159 1 1 1 0.010293731483730422 1 1 1 1 1 1 1 0.010040940628518263 1 1 0.010381425268751132 1 1 1 0.010052957475320909 1 0.0099740224910163915 1 1 1 1 0.011809760091981203 0.01049259367428703 1 1 0.010593564284079007 1 1 1 1 1 1 1 1 1 1 1 0.010478227008950625 1 0.011499974584905804 0.014173473320295929 0.019676436074668839 1 1 1 1 1 1 1 1 0.01590110843545154 1 1 0.010196003930011797 1 1 1 1 1 1 0.015708944275622215 1 1 1 0.0094908412956293767 1 1 1 0.015273142576783654 1 1 1 0.014837440085692821 1 1 0.018584340897261006 1 1 0.0099777082928451648 1 1 1 1 1 1 0.010200802455612818 1 0.010663905803352917 1 1 0.015482777348837028 1 0.015916328967620991 0.010030662901089282 0.011787348843900786 1 1 1 1 0.010012380939597876 1 1 0.0094750832406850071 0.023261437989038146 1 1 0.010038868703553571 1 1 1 1 1 1 1 1 1 1 1 0.0099553041415122827 1 1 1 0.01723980657261456 0.014509683365243636 1 0.013385933976022828 0.0085686125987617726 1 1 1 0.010067178739549687 1 1 1 1 1 1 1 1 0.010496504971873599 0.010096279026553634 1 1 1 1 1 1 1 1 0.010216954115054657 1 1 1 0.022988729353256888 0.010343644543870795 1 1 1 1 0.021167551197943228 1 1 1 1 1 1 0.010759868450826934 1 1 1 1 1 1 1 1 1 1 1 1 0.0094477083149125101 1 1 1 1 1 1 1 1 1 1 1 1 1 1 1 1 1 1 1 1 1 1 1 0.012401508245462482 1 1 0.011098900473627167 1 1 1 1 1 1 1 1 1 1 1 1 1 1 1 1 1 1 1 1 1 1 1 1 1 1 1 1 1 1 1 1 1 1 1 1 1 1 1 0.009904722978620481 1 1 1 1 1 0.0099810380464770004 1 1 1 1 1 1 1 1 0.0099388860278892127 0.011216526653509383 1 1 1 1 1 1 1 1 1 0.010344619182434922 1 1 1 1 0.010640521444302366 1 1 1 1 1 0.010043411373168932 1 1 0.0093646052609401807 1 1 0.010458339609479495 1 1 1 1 1 1 1 0.0097747973245060696 1 1 1 1 1 1 1 1 1 1 1 1 1 0.013487898071957459 1 1 1 0.0099565300714094182 1 0.0098690328119543369 0.015129848554791353 1 1 1 1 1 1 1 1 1 1 1 1 1 1 1 1 1 1 1 1 1 1 1 1 1 1 1 1 1 1 1 1 1 1 1 1 1 1 1 1 1 1 1 1 1 1 1 1 1 1 1 1 0.010252616697134891 1 1 1 1 1 1 1 1 0.010131545967128322 1 0.010106569031299049 1 1 1 1 1 1 1 1 1 1 1 1 1 1 1 1 1 1 1 1 1 1 1 1 1 0.010270833020776006 1 1 1 1 1 1 0.010243962707988857 1 1 1 1 1 1 1 1 1 1 1 1 1 1 1 1 1 0.010414324789583901 1 1 1 1 1 1 1 1 1 1 1 1 1 1 0.010633897752440787 1 1 0.010663148288084068 1 1 1 0.010486387166844887 1 1 1 1 1 1 1 1 1 1 1 1 1 1 1 1 0.011131510036581811 1 1 1 1 1 0.010469386354371016 1 1 1 0.010837486388965992 1 1 1 0.010406896904267431 1 1 1 1 1 1 1 1 1 1 1 1 1 1 1 1 1 1 1 1 1 1 1 1 0.010105577551009062 1 1 1 1 1 1 1 1 1 1 1 1 1 1 1 1 1 1 1 0.01013297564771317 1 1 1 1 1 1 1 1 1 1 1 1 1 1 1 1 1 0.013950582503227921 1 1 1 1 0.0096146039198301073 0.011553670794641736 1 0.013167501453456418 1 0.011370976742669153 1 0.010382166782839561 1 1 1 1 1 1 1 0.011162514873858552 1 0.011616868288532353 1 0.009554019771209489 0.0099994840263374143 0.011711476849232228 0.0096126217694431186 1 1 1 1 0.010761447159400615 0.0098788421767872243 0.010438782236632707 1 1 1 1 1 1 1 0.010042960385017664 1 1 0.012059315333345972 1 0.014051932833422331 1 1 0.013245502624066716 0.01070733311519311 1 1 1 1 1 1 0.012856675236778645 1 1 0.014757825133731849 1 1 1 1 0.0098030387611552118 1 0.010671478348001882 0.012666136765989723 1 1 1 1 0.010002092714251253 1 0.011369750934631389 1 1 1 0.01282215381368982 1 1 0.013003044520692142 1 1 1 1 0.011828813854734006 1 1 1 1 1 1 1 1 1 1 1 1 1 1 1 0.010145353282941281 1 1 1 1 1 0.010561278157879321 1 1 1 1 0.01309595683225359 1 0.0095362058842049478 1 1 1 1 0.013511515755818933 1 1 0.010003736037413219 1 1 1 1 1 0.011810467780639962 1 0.010057146212421281 1 1 0.010124068977659755 1 1 1 1 1 1 1 1 1 1 0.011824818778653969 1 1 1 1 1 1 1 1 0.010715237273120201 1 1 1 1 1 1 1 1 1 1 0.010141131745295554 1 1 1 1 1 1 1 1 1 1 1 1 1 0.011911231876737965 1 0.01049891548071694 1 1 1 1 1 1 1 1 1 1 0.012260695936039224 0.0099882047896000265 1 1 1 1 0.010006429240053349 0.010654630249171682 1 1 1 0.010870092400804977 1 1 1 0.012280767393955861 1 1 1 1 1 1 1 1 1 0.011898326489778717 1 1 1 1 0.010146744583696167 1 0.010458864833152115 1 1 1 1 1 1 1 1 0.010622624178088354 1 1 1 1 1 1 1 0.0077838998862395153 1 1 1 1 1 0.0049934041112695109 1 1 0.019610169002187611 1 0.010026069334782806 1 1 1 1 1 1 0.0096507624460492637 1 1 1 1 1 1 1 1 1 1 0.015967906141797581 1 1 0.010008979759021937 0.01727233206616189 1 1 1 1 1 1 1 1 0.0054051879450886259 1 0.023287129485355752 1 1 1 1 1 1 1 1 1 1 1 1 1 0.016287965649356161 1 0.0099588573208519056 1 1 1 1 1 1 1 1 1 1 1 1 1 1 1 1 1 1 1 1 0.010032382063936111 1 0.0098306904046498271 1 1 1 1 1 1 1 1 1 1 1 0.010230000121357863 1 1 1 0.01084164663192869 1 0.010775542564159597 1 1 1 0.010223891847562299 1 1 1 0.010001019428618724 0.010000057649593349 1 0.0095289947064969415 1 0.010138677376281994 1 1 1 1 0.010179563097983233 1 1 1 0.010746375487218822 1 1 0.013320503723374873 1 0.011296176652489656 1 1 1 1 1 0.0099719742566630829 1 1 1 1 1 0.0092646134792220732 1 0.021436388720292902 1 1 0.011460499652367338 1 1 1 0.0085786792554395017 1 1 0.0095565540069724921 1 1 1 0.014545292004008543 1 0.014739823708884303 1 1 1 1 1 0.010404458205061265 1 1 1 1 0.017247826174966757 0.0089615359255361994 1 0.013323138355811724 0.019042400667961083 0.012025755585504935 1 1 1 1 1 0.01546535379205816 1 0.020802198267021788 1 1 1 1 0.016564269966023729 1 1 1 1 1 1 1 1 1 1 1 1 1 1 1 1 1 1 1 1 1 1 1 1 1 1 1 1 1 0.010653986689967154 1 1 0.014500359532755731 1 0.020498105990596829 1 1 1 0.011537172432676263 1 1 1 1 1 1 1 1 1 1 1 1 1 1 1 1 1 1 0.010340163018969149 1 1 1 1 1 1 1 1 1 1 0.01036340903477409 1 1 1 1 1 0.01080441738140215 1 1 1 1 1 1 1 1 1 1 1 1 1 1 1 1 1 0.0096723339410877355 1 1 0.010154408069552501 1 1 1 1 1 1 1 1 1 1 1 1 0.010250295715346526 1 1 1 1 1 1 1 1 1 1 0.010363927036917006 1 1 1 1 1 1 1 1 1 1 1 1 0.013336960925764495 1 1 1 1 1 1 1 0.01271180413657178 1 1 1 1 1 1 1 1 1 1 1 1 1 1 1 1 1 1 1 1 0.010804935383545065 1 1 1 1 1 0.010077527099054387 1 1 1 1 1 1 1 1 1 1 1 1 1 1 1 1 1 1 1 0.0088508399852773433 1 1 1 1 1 1 1 1 1 0.011111060397471364 1 1 1 0.013317376068154731 1 1 1 1 1 0.01148513447640653 1 0.0098899672775677044 1 1 0.01117213148133997 0.012633906240847436 1 1 1 1 1 1 1 1 1 1 1 1 0.011302147874782757 1 0.010001426267707713 1 1 1 1 1 1 1 0.011525459150933705 0.010805846753437784 1 1 1 0.01015068453812736 1 0.010420818797148235 0.010038874097833345 1 1 1 1 1 1 1 1 0.01330731403621962 1 1 0.01002160595078481 1 1 1 1 1 1 1 1 1 0.0099197706483697204 1 1 1 1 0.0099772045120191458 1 1 1 1 1 1 1 1 1 1 1 0.010818215969318066 1 1 0.0098651554754604076 1 1 1 1 0.011167325561730713 1 1 1 1 1 1 0.0099575256561881265 0.010720952600338247 1 1 1 1 1 1 1 1 1 1 1 1 1 1 1 1 1 1 1 1 1 1 1 1 1 1 1 1 1 1 1 1 0.0098396063691814518 1 0.0095101640894692894 1 1 1 1 1 0.009056419139092154 1 1 0.0097978986540344926 1 0.01000195542167525 1 1 1 1 1 1 1 1 0.010027748398533437 1 1 1 0.010961851706249375 1 1 1 1 0.013007355411390909 1 0.013345370852274267 1 1 1 1 1 0.0091066931691491521 1 1 1 0.0099285090488397312 1 1 1 1 1 1 1 0.0084334879383213459 1 1 1 1 0.012019573023313043 1 0.0079158758518047007 1 1 1 0.016290472123592002 1 0.01052393945394374 0.010159913399534818 1 1 0.012737407974002598 1 1 1 1 1 1 1 0.010958996815811885 1 1 1 1 0.0099832787252263251 0.013247002108502727 0.014804787237733761 1 1 1 1 1 1 0.010203871017613695 1 1 1 1 1 1 1 1 1 1 0.010185983650441915 1 1 1 1 1 1 1 1 1 0.0099222147129536878 1 1 0.0096660198142553763 1 1 0.013050479557885684 1 0.0099303858925197629 1 1 1 0.010040393351595794 1 1 1 0.01283001094981015 1 1 1 1 1 0.010014501644987446 1 1 1 1 1 1 1 1 1 1 0.010421191280707452 0.0098484374057931558 0.013205361923186887 1 1 1 1 1 1 0.011293462402941074 0.014440387926581137 1 1 0.0099553244897761135 1 1 1 0.012372056023429369 1 1 1 1 1 1 0.01023145055261499 1 1 1 1 1 1 1 1 1 1 1 0.010424281010652497 1 0.01013882868102518 1 1 0.010540489042151191 1 0.010338400795362003 1 1 1 1 1 1 1 1 1 1 1 0.011730382741470776 1 1 1 0.010182767296668949 1 0.010493260280357809 1 1 1 1 1 1 1 1 0.011455514026755818 1 1 1 1 1 1 1 0.020449694633965808 1 0.020332752119431925 1 1 1 1 1 1 1 1 1 1 1 0.010081437950596205 1 0.0097558997617392118 1 1 1 0.012295031283388371 1 1 1 1 0.010972400798181521 1 1 0.0096345412471887 0.011641702933443758 1 1 1 1 1 1 0.0095640925727277955 1 1 1 0.010011399158303055 1 0.016292410515689019 1 0.011184599788736446 1 0.016095196574661276 1 0.016737575021364554 1 1 1 1 1 1 0.014192739845163199 0.017107572942892474 1 0.010028248409733523 1 1 1 0.010700434517765938 1 1 1 1 0.011235360831504891 1 1 1 0.010006856423038984 1 1 1 
</DataArray>
</CellData>
</Piece>
</UnstructuredGrid>
</VTKFile>
