<?xml version="1.0"?>
<VTKFile type="UnstructuredGrid" version="0.1" byte_order="LittleEndian">
<UnstructuredGrid>
<Piece NumberOfPoints="30214" NumberOfCells="10566">
<Points>
<DataArray type="Float64" NumberOfComponents="3" format="ascii">
-0.5 -0.5 0 -0.47127450964123302 -0.48033552846658562 0 -0.45758054275359911 -0.5 0 -0.5 -0.5 0 -0.47127450964123302 -0.48033552846658562 0 -0.48263055333194022 -0.46361072537293863 0 -0.5 -0.5 0 -0.48263055333194022 -0.46361072537293863 0 -0.5 -0.4430499581005044 0 -0.47127450964123302 -0.48033552846658562 0 -0.46952517697566148 -0.4661851678083439 0 -0.48263055333194022 -0.46361072537293863 0 -0.45758054275359911 -0.5 0 -0.45905921249339909 -0.47464795541041183 0 -0.44381103759202051 -0.47926905309511381 0 -0.47127450964123302 -0.48033552846658562 0 -0.45758054275359911 -0.5 0 -0.45905921249339909 -0.47464795541041183 0 -0.45758054275359911 -0.5 0 -0.44381103759202051 -0.47926905309511381 0 -0.42630188882038228 -0.49999999999999672 0 -0.45905921249339909 -0.47464795541041183 0 -0.44381103759202051 -0.47926905309511381 0 -0.46132018636366018 -0.45853810619023228 0 -0.47127450964123302 -0.48033552846658562 0 -0.45905921249339909 -0.47464795541041183 0 -0.46952517697566148 -0.4661851678083439 0 -0.44381103759202051 -0.47926905309511381 0 -0.46132018636366018 -0.45853810619023228 0 -0.44381103759202051 -0.47926905309511381 0 -0.44507287182711169 -0.46283954219636791 0 -0.42890665913302728 -0.47055117934507551 0 -0.45954132961929911 -0.45528482499783712 0 -0.43178514642755172 -0.4505545473535808 0 -0.45199239526185309 -0.44339962139611783 0 -0.43536086998342072 -0.42964840588022479 0 -0.43178514642755172 -0.4505545473535808 0 -0.45199239526185309 -0.44339962139611783 0 -0.45954132961929911 -0.45528482499783712 0 -0.43178514642755172 -0.4505545473535808 0 -0.44381103759202051 -0.47926905309511381 0 -0.44507287182711169 -0.46283954219636791 0 -0.46132018636366018 -0.45853810619023228 0 -0.44507287182711169 -0.46283954219636791 0 -0.45954132961929911 -0.45528482499783712 0 -0.43178514642755172 -0.4505545473535808 0 -0.45905921249339909 -0.47464795541041183 0 -0.46132018636366018 -0.45853810619023228 0 -0.46952517697566148 -0.4661851678083439 0 -0.44507287182711169 -0.46283954219636791 0 -0.45954132961929911 -0.45528482499783712 0 -0.46132018636366018 -0.45853810619023228 0 -0.45954132961929911 -0.45528482499783712 0 -0.46132018636366018 -0.45853810619023228 0 -0.45965612412188028 -0.45000002436498149 0 -0.46132018636366018 -0.45853810619023228 0 -0.46952517697566148 -0.4661851678083439 0 -0.47307631295164049 -0.4565352896642163 0 -0.46132018636366018 -0.45853810619023228 0 -0.45965612412188028 -0.45000002436498149 0 -0.4657705852427087 -0.442777544875739 0 -0.46132018636366018 -0.45853810619023228 0 -0.4657705852427087 -0.442777544875739 0 -0.47882933513530013 -0.43780715928535058 0 -0.45199239526185309 -0.44339962139611783 0 -0.45965612412188028 -0.45000002436498149 0 -0.4657705852427087 -0.442777544875739 0 -0.45199239526185309 -0.44339962139611783 0 -0.45954132961929911 -0.45528482499783712 0 -0.45965612412188028 -0.45000002436498149 0 -0.45199239526185309 -0.44339962139611783 0 -0.4657705852427087 -0.442777544875739 0 -0.45567021320113849 -0.4317489934516614 0 -0.46132018636366018 -0.45853810619023228 0 -0.47882933513530013 -0.43780715928535058 0 -0.47307631295164049 -0.4565352896642163 0 -0.47882933513530013 -0.43780715928535058 0 -0.47307631295164049 -0.4565352896642163 0 -0.48263055333194022 -0.46361072537293863 0 -0.46132018636366018 -0.45853810619023228 0 -0.47882933513530013 -0.43780715928535058 0 -0.46952517697566148 -0.4661851678083439 0 -0.47307631295164049 -0.4565352896642163 0 -0.48263055333194022 -0.46361072537293863 0 -0.47882933513530013 -0.43780715928535058 0 -0.48263055333194022 -0.46361072537293863 0 -0.5 -0.4430499581005044 0 -0.47882933513530013 -0.43780715928535058 0 -0.5 -0.4430499581005044 0 -0.48426088284062402 -0.42367696973549501 0 -0.5 -0.4430499581005044 0 -0.48426088284062402 -0.42367696973549501 0 -0.5 -0.39914568597315508 0 -0.47324378435070569 -0.41162700818862369 0 -0.48426088284062402 -0.42367696973549501 0 -0.5 -0.39914568597315508 0 -0.47324378435070569 -0.41162700818862369 0 -0.46923129471711422 -0.42675503712984131 0 -0.48426088284062402 -0.42367696973549501 0 -0.4657705852427087 -0.442777544875739 0 -0.47882933513530013 -0.43780715928535058 0 -0.46923129471711422 -0.42675503712984131 0 -0.47882933513530013 -0.43780715928535058 0 -0.46923129471711422 -0.42675503712984131 0 -0.48426088284062402 -0.42367696973549501 0 -0.5 -0.39914568597315508 0 -0.48367716904948888 -0.38489307389878691 0 -0.48066550668491581 -0.36286601695989168 0 -0.5 -0.39914568597315508 0 -0.47160852519057 -0.39558594731469171 0 -0.48367716904948888 -0.38489307389878691 0 -0.47324378435070569 -0.41162700818862369 0 -0.5 -0.39914568597315508 0 -0.47160852519057 -0.39558594731469171 0 -0.47160852519057 -0.39558594731469171 0 -0.48367716904948888 -0.38489307389878691 0 -0.45905322954349592 -0.37188095106008678 0 -0.48367716904948888 -0.38489307389878691 0 -0.45905322954349592 -0.37188095106008678 0 -0.47160852519057 -0.39558594731469171 0 -0.4557487315451077 -0.39267791498933391 0 -0.45905322954349592 -0.37188095106008678 0 -0.47324378435070569 -0.41162700818862369 0 -0.47160852519057 -0.39558594731469171 0 -0.4557487315451077 -0.39267791498933391 0 -0.4557487315451077 -0.39267791498933391 0 -0.45393808638695071 -0.41579764607192837 0 -0.43576172097429577 -0.40462852275608707 0 -0.4557487315451077 -0.39267791498933391 0 -0.43567430200286927 -0.38631782896401551 0 -0.43576172097429577 -0.40462852275608707 0 -0.4557487315451077 -0.39267791498933391 0 -0.43567430200286927 -0.38631782896401551 0 -0.44252406106880099 -0.37457734739501891 0 -0.4557487315451077 -0.39267791498933391 0 -0.45905322954349592 -0.37188095106008678 0 -0.44252406106880099 -0.37457734739501891 0 -0.4657705852427087 -0.442777544875739 0 -0.46923129471711422 -0.42675503712984131 0 -0.45567021320113849 -0.4317489934516614 0 -0.46923129471711422 -0.42675503712984131 0 -0.45567021320113849 -0.4317489934516614 0 -0.45393808638695071 -0.41579764607192837 0 -0.47324378435070569 -0.41162700818862369 0 -0.4557487315451077 -0.39267791498933391 0 -0.45393808638695071 -0.41579764607192837 0 -0.47324378435070569 -0.41162700818862369 0 -0.46923129471711422 -0.42675503712984131 0 -0.45393808638695071 -0.41579764607192837 0 -0.45393808638695071 -0.41579764607192837 0 -0.43536086998342072 -0.42964840588022479 0 -0.43576172097429577 -0.40462852275608707 0 -0.45567021320113849 -0.4317489934516614 0 -0.45393808638695071 -0.41579764607192837 0 -0.43536086998342072 -0.42964840588022479 0 -0.45199239526185309 -0.44339962139611783 0 -0.45567021320113849 -0.4317489934516614 0 -0.43536086998342072 -0.42964840588022479 0 -0.43536086998342072 -0.42964840588022479 0 -0.41755154048708298 -0.4317322927968813 0 -0.43178514642755172 -0.4505545473535808 0 -0.43536086998342072 -0.42964840588022479 0 -0.41635835196957038 -0.41149131273481609 0 -0.41755154048708298 -0.4317322927968813 0 -0.43536086998342072 -0.42964840588022479 0 -0.41635835196957038 -0.41149131273481609 0 -0.43576172097429577 -0.40462852275608707 0 -0.41635835196957038 -0.41149131273481609 0 -0.41755154048708298 -0.4317322927968813 0 -0.40022437081906809 -0.42114292830646022 0 -0.41755154048708298 -0.4317322927968813 0 -0.40022437081906809 -0.42114292830646022 0 -0.40402896323580439 -0.44582426970932448 0 -0.43567430200286927 -0.38631782896401551 0 -0.44252406106880099 -0.37457734739501891 0 -0.4248533911271779 -0.3744211112476899 0 -0.43567430200286927 -0.38631782896401551 0 -0.41748998395785653 -0.39183802789620348 0 -0.4248533911271779 -0.3744211112476899 0 -0.41635835196957038 -0.41149131273481609 0 -0.43576172097429577 -0.40462852275608707 0 -0.41748998395785653 -0.39183802789620348 0 -0.43567430200286927 -0.38631782896401551 0 -0.43576172097429577 -0.40462852275608707 0 -0.41748998395785653 -0.39183802789620348 0 -0.41635835196957038 -0.41149131273481609 0 -0.41748998395785653 -0.39183802789620348 0 -0.39063958477392979 -0.40155216245461622 0 -0.41748998395785653 -0.39183802789620348 0 -0.40280646380296281 -0.38037039167060982 0 -0.4248533911271779 -0.3744211112476899 0 -0.40280646380296281 -0.38037039167060982 0 -0.39063958477392979 -0.40155216245461622 0 -0.38351075703234289 -0.38068755050282788 0 -0.41748998395785653 -0.39183802789620348 0 -0.40280646380296281 -0.38037039167060982 0 -0.39063958477392979 -0.40155216245461622 0 -0.40280646380296281 -0.38037039167060982 0 -0.39063958477392979 -0.40155216245461622 0 -0.38099173138862252 -0.4017107418707262 0 -0.38351075703234289 -0.38068755050282788 0 -0.36419536828546012 -0.3930720201760311 0 -0.38099173138862252 -0.4017107418707262 0 -0.38351075703234289 -0.38068755050282788 0 -0.39063958477392979 -0.40155216245461622 0 -0.38099173138862252 -0.4017107418707262 0 -0.38351075703234289 -0.38068755050282788 0 -0.40022437081906809 -0.42114292830646022 0 -0.38974970496095768 -0.43269878082987029 0 -0.40402896323580439 -0.44582426970932448 0 -0.41635835196957038 -0.41149131273481609 0 -0.39063958477392979 -0.40155216245461622 0 -0.40022437081906809 -0.42114292830646022 0 -0.39063958477392979 -0.40155216245461622 0 -0.38099173138862252 -0.4017107418707262 0 -0.37847270574489938 -0.42273393323862418 0 -0.39063958477392979 -0.40155216245461622 0 -0.37847270574489938 -0.42273393323862418 0 -0.38099173138862252 -0.4017107418707262 0 -0.37847270574489938 -0.42273393323862418 0 -0.39063958477392979 -0.40155216245461622 0 -0.40022437081906809 -0.42114292830646022 0 -0.37847270574489938 -0.42273393323862418 0 -0.38974970496095768 -0.43269878082987029 0 -0.37847270574489938 -0.42273393323862418 0 -0.37627278004405651 -0.44109399206507222 0 -0.37847270574489938 -0.42273393323862418 0 -0.37627278004405651 -0.44109399206507222 0 -0.40022437081906809 -0.42114292830646022 0 -0.38974970496095768 -0.43269878082987029 0 -0.37847270574489938 -0.42273393323862418 0 -0.38974970496095768 -0.43269878082987029 0 -0.37627278004405651 -0.44109399206507222 0 -0.40402896323580439 -0.44582426970932448 0 -0.37627278004405651 -0.44109399206507222 0 -0.40402896323580439 -0.44582426970932448 0 -0.37627278004405651 -0.44109399206507222 0 -0.40402896323580439 -0.44582426970932448 0 -0.38777334074002939 -0.45740993635035693 0 -0.40402896323580439 -0.44582426970932448 0 -0.38777334074002939 -0.45740993635035693 0 -0.4097500633300617 -0.4720199224515591 0 -0.37627278004405651 -0.44109399206507222 0 -0.38777334074002939 -0.45740993635035693 0 -0.37274368348681619 -0.47054699603253869 0 -0.39169620707865849 -0.47979952440257578 0 -0.36921458692957548 -0.50000000000000522 0 -0.37274368348681619 -0.47054699603253869 0 -0.38777334074002939 -0.45740993635035693 0 -0.39169620707865849 -0.47979952440257578 0 -0.37274368348681619 -0.47054699603253869 0 -0.39775823787497888 -0.5 0 -0.39169620707865849 -0.47979952440257578 0 -0.36921458692957548 -0.50000000000000522 0 -0.39775823787497888 -0.5 0 -0.39169620707865849 -0.47979952440257578 0 -0.4097500633300617 -0.4720199224515591 0 -0.38777334074002939 -0.45740993635035693 0 -0.39169620707865849 -0.47979952440257578 0 -0.4097500633300617 -0.4720199224515591 0 -0.4097500633300617 -0.4720199224515591 0 -0.42630188882038228 -0.49999999999999672 0 -0.42890665913302728 -0.47055117934507551 0 -0.39775823787497888 -0.5 0 -0.4097500633300617 -0.4720199224515591 0 -0.42630188882038228 -0.49999999999999672 0 -0.44381103759202051 -0.47926905309511381 0 -0.42630188882038228 -0.49999999999999672 0 -0.44381103759202051 -0.47926905309511381 0 -0.42630188882038228 -0.49999999999999672 0 -0.42890665913302728 -0.47055117934507551 0 -0.44507287182711169 -0.46283954219636791 0 -0.42890665913302728 -0.47055117934507551 0 -0.43178514642755172 -0.4505545473535808 0 -0.4097500633300617 -0.4720199224515591 0 -0.42890665913302728 -0.47055117934507551 0 -0.43178514642755172 -0.4505545473535808 0 -0.41755154048708298 -0.4317322927968813 0 -0.40402896323580439 -0.44582426970932448 0 -0.43178514642755172 -0.4505545473535808 0 -0.40402896323580439 -0.44582426970932448 0 -0.43178514642755172 -0.4505545473535808 0 -0.40402896323580439 -0.44582426970932448 0 -0.4097500633300617 -0.4720199224515591 0 -0.43178514642755172 -0.4505545473535808 0 -0.44790462779998902 -0.26033877988327331 0 -0.45458139356056471 -0.244222552561319 0 -0.44175517444974821 -0.24557992957572569 0 -0.44790462779998902 -0.26033877988327331 0 -0.43360359240240659 -0.25821374267088593 0 -0.44175517444974821 -0.24557992957572569 0 -0.44790462779998902 -0.26033877988327331 0 -0.43553360603785363 -0.27362541494842868 0 -0.43360359240240659 -0.25821374267088593 0 -0.44790462779998902 -0.26033877988327331 0 -0.44617832537419311 -0.27224731979571321 0 -0.43553360603785363 -0.27362541494842868 0 -0.44617832537419311 -0.27224731979571321 0 -0.46451275197056152 -0.27294362686272322 0 -0.44489034175512171 -0.28410979493317828 0 -0.44790462779998902 -0.26033877988327331 0 -0.44617832537419311 -0.27224731979571321 0 -0.46451275197056152 -0.27294362686272322 0 -0.44617832537419311 -0.27224731979571321 0 -0.44489034175512171 -0.28410979493317828 0 -0.43553360603785363 -0.27362541494842868 0 -0.44790462779998902 -0.26033877988327331 0 -0.46451275197056152 -0.27294362686272322 0 -0.46330780305860519 -0.25093964145813569 0 -0.44790462779998902 -0.26033877988327331 0 -0.46330780305860519 -0.25093964145813569 0 -0.45458139356056471 -0.244222552561319 0 -0.46451275197056152 -0.27294362686272322 0 -0.48248197650006541 -0.26929219535367488 0 -0.47922744615713941 -0.24732627021167911 0 -0.46451275197056152 -0.27294362686272322 0 -0.46330780305860519 -0.25093964145813569 0 -0.47922744615713941 -0.24732627021167911 0 -0.46451275197056152 -0.27294362686272322 0 -0.47922744615713941 -0.24732627021167911 0 -0.48248197650006541 -0.26929219535367488 0 -0.5 -0.24642967178278341 0 -0.47922744615713941 -0.24732627021167911 0 -0.5 -0.27413897985040281 0 -0.48248197650006541 -0.26929219535367488 0 -0.5 -0.24642967178278341 0 -0.5 -0.27413897985040281 0 -0.48248197650006541 -0.26929219535367488 0 -0.48278766411715551 -0.29441801512909022 0 -0.46451275197056152 -0.27294362686272322 0 -0.48248197650006541 -0.26929219535367488 0 -0.46831535740571001 -0.28781686824833452 0 -0.48278766411715551 -0.29441801512909022 0 -0.46220329926397202 -0.30189933474686009 0 -0.46831535740571001 -0.28781686824833452 0 -0.48248197650006541 -0.26929219535367488 0 -0.48278766411715551 -0.29441801512909022 0 -0.46831535740571001 -0.28781686824833452 0 -0.5 -0.27413897985040281 0 -0.48278766411715551 -0.29441801512909022 0 -0.5 -0.3018482879180221 0 -0.48278766411715551 -0.29441801512909022 0 -0.5 -0.3018482879180221 0 -0.48957678643058072 -0.31395673790823719 0 -0.48278766411715551 -0.29441801512909022 0 -0.47576652243324019 -0.31528637508509721 0 -0.48957678643058072 -0.31395673790823719 0 -0.48278766411715551 -0.29441801512909022 0 -0.46220329926397202 -0.30189933474686009 0 -0.47576652243324019 -0.31528637508509721 0 -0.46220329926397202 -0.30189933474686009 0 -0.47576652243324019 -0.31528637508509721 0 -0.46220329926397202 -0.30189933474686009 0 -0.46167677500878468 -0.31416267637051981 0 -0.47576652243324019 -0.31528637508509721 0 -0.45578581173820859 -0.30750687435587981 0 -0.46220329926397202 -0.30189933474686009 0 -0.46167677500878468 -0.31416267637051981 0 -0.45578581173820859 -0.30750687435587981 0 -0.44946511489609409 -0.31540450279237209 0 -0.46167677500878468 -0.31416267637051981 0 -0.45578581173820859 -0.30750687435587981 0 -0.46220329926397202 -0.30189933474686009 0 -0.44979805778398357 -0.29856098351376742 0 -0.46451275197056152 -0.27294362686272322 0 -0.46831535740571001 -0.28781686824833452 0 -0.44979805778398357 -0.29856098351376742 0 -0.46220329926397202 -0.30189933474686009 0 -0.46831535740571001 -0.28781686824833452 0 -0.44979805778398357 -0.29856098351376742 0 -0.46451275197056152 -0.27294362686272322 0 -0.44979805778398357 -0.29856098351376742 0 -0.46451275197056152 -0.27294362686272322 0 -0.44489034175512171 -0.28410979493317828 0 -0.44979805778398357 -0.29856098351376742 0 -0.44489034175512171 -0.28410979493317828 0 -0.43326124638001762 -0.28848767604346037 0 -0.43553360603785363 -0.27362541494842868 0 -0.44489034175512171 -0.28410979493317828 0 -0.43891376255948311 -0.29536773960869128 0 -0.44979805778398357 -0.29856098351376742 0 -0.44489034175512171 -0.28410979493317828 0 -0.43891376255948311 -0.29536773960869128 0 -0.43326124638001762 -0.28848767604346037 0 -0.44979805778398357 -0.29856098351376742 0 -0.43508336359740668 -0.32417834016481212 0 -0.43536530915969163 -0.30701047425999239 0 -0.45578581173820859 -0.30750687435587981 0 -0.44979805778398357 -0.29856098351376742 0 -0.44946511489609409 -0.31540450279237209 0 -0.44979805778398357 -0.29856098351376742 0 -0.43508336359740668 -0.32417834016481212 0 -0.43891376255948311 -0.29536773960869128 0 -0.44979805778398357 -0.29856098351376742 0 -0.43536530915969163 -0.30701047425999239 0 -0.4622065545999573 -0.32642587779407412 0 -0.43508336359740668 -0.32417834016481212 0 -0.43819375911064989 -0.3262866435441642 0 -0.4622065545999573 -0.32642587779407412 0 -0.43508336359740668 -0.32417834016481212 0 -0.44946511489609409 -0.31540450279237209 0 -0.4622065545999573 -0.32642587779407412 0 -0.43508336359740668 -0.32417834016481212 0 -0.44979805778398357 -0.29856098351376742 0 -0.44946511489609409 -0.31540450279237209 0 -0.43508336359740668 -0.32417834016481212 0 -0.43819375911064989 -0.3262866435441642 0 -0.44941308467226138 -0.33542408911764049 0 -0.43589253816831819 -0.33669855071928428 0 -0.43819375911064989 -0.3262866435441642 0 -0.44941308467226138 -0.33542408911764049 0 -0.4622065545999573 -0.32642587779407412 0 -0.43891351440333509 -0.34343875356344239 0 -0.44941308467226138 -0.33542408911764049 0 -0.43589253816831819 -0.33669855071928428 0 -0.43891351440333509 -0.34343875356344239 0 -0.44941308467226138 -0.33542408911764049 0 -0.44897573196097629 -0.35033807170401432 0 -0.44941308467226138 -0.33542408911764049 0 -0.4622065545999573 -0.32642587779407412 0 -0.46308336732105859 -0.34739905144965078 0 -0.4622065545999573 -0.32642587779407412 0 -0.47747389036444399 -0.34175460505741612 0 -0.46308336732105859 -0.34739905144965078 0 -0.44946511489609409 -0.31540450279237209 0 -0.4622065545999573 -0.32642587779407412 0 -0.46167677500878468 -0.31416267637051981 0 -0.4622065545999573 -0.32642587779407412 0 -0.46167677500878468 -0.31416267637051981 0 -0.47576652243324019 -0.31528637508509721 0 -0.4622065545999573 -0.32642587779407412 0 -0.48932974560250803 -0.32867341542333461 0 -0.4622065545999573 -0.32642587779407412 0 -0.47576652243324019 -0.31528637508509721 0 -0.48932974560250803 -0.32867341542333461 0 -0.47576652243324019 -0.31528637508509721 0 -0.48932974560250803 -0.32867341542333461 0 -0.5 -0.3018482879180221 0 -0.48957678643058072 -0.31395673790823719 0 -0.50000000000000233 -0.32955759598564138 0 -0.47576652243324019 -0.31528637508509721 0 -0.48957678643058072 -0.31395673790823719 0 -0.48932974560250803 -0.32867341542333461 0 -0.48957678643058072 -0.31395673790823719 0 -0.50000000000000233 -0.32955759598564138 0 -0.48932974560250803 -0.32867341542333461 0 -0.50000000000000111 -0.33920506592084682 0 -0.48932974560250803 -0.32867341542333461 0 -0.47747389036444399 -0.34175460505741612 0 -0.50000000000000233 -0.32955759598564138 0 -0.48932974560250803 -0.32867341542333461 0 -0.50000000000000111 -0.33920506592084682 0 -0.50000000000000233 -0.32955759598564138 0 -0.48932974560250803 -0.32867341542333461 0 -0.50000000000000111 -0.33920506592084682 0 -0.48932974560250803 -0.32867341542333461 0 -0.4622065545999573 -0.32642587779407412 0 -0.48932974560250803 -0.32867341542333461 0 -0.47747389036444399 -0.34175460505741612 0 -0.47747389036444399 -0.34175460505741612 0 -0.48066550668491581 -0.36286601695989168 0 -0.46308336732105859 -0.34739905144965078 0 -0.5 -0.39914568597315508 0 -0.50000000000000111 -0.33920506592084682 0 -0.48066550668491581 -0.36286601695989168 0 -0.50000000000000111 -0.33920506592084682 0 -0.47747389036444399 -0.34175460505741612 0 -0.48066550668491581 -0.36286601695989168 0 -0.48367716904948888 -0.38489307389878691 0 -0.48066550668491581 -0.36286601695989168 0 -0.45905322954349592 -0.37188095106008678 0 -0.48066550668491581 -0.36286601695989168 0 -0.45905322954349592 -0.37188095106008678 0 -0.46308336732105859 -0.34739905144965078 0 -0.45905322954349592 -0.37188095106008678 0 -0.46308336732105859 -0.34739905144965078 0 -0.44897573196097629 -0.35033807170401432 0 -0.44941308467226138 -0.33542408911764049 0 -0.46308336732105859 -0.34739905144965078 0 -0.44897573196097629 -0.35033807170401432 0 -0.43891351440333509 -0.34343875356344239 0 -0.44897573196097629 -0.35033807170401432 0 -0.43717497359171442 -0.35210732740624251 0 -0.44897573196097629 -0.35033807170401432 0 -0.44204195592198681 -0.35874370068650502 0 -0.43717497359171442 -0.35210732740624251 0 -0.44204195592198681 -0.35874370068650502 0 -0.43442929003750319 -0.35886882822138633 0 -0.44204195592198681 -0.35874370068650502 0 -0.43442929003750319 -0.35886882822138633 0 -0.43717497359171442 -0.35210732740624251 0 -0.45905322954349592 -0.37188095106008678 0 -0.44252406106880099 -0.37457734739501891 0 -0.43442929003750319 -0.35886882822138633 0 -0.45905322954349592 -0.37188095106008678 0 -0.44204195592198681 -0.35874370068650502 0 -0.43442929003750319 -0.35886882822138633 0 -0.45905322954349592 -0.37188095106008678 0 -0.43442929003750319 -0.35886882822138633 0 -0.45905322954349592 -0.37188095106008678 0 -0.44897573196097629 -0.35033807170401432 0 -0.44204195592198681 -0.35874370068650502 0 -0.4248533911271779 -0.3744211112476899 0 -0.43442929003750319 -0.35886882822138633 0 -0.4149733428319945 -0.35918862088660258 0 -0.44252406106880099 -0.37457734739501891 0 -0.4248533911271779 -0.3744211112476899 0 -0.43442929003750319 -0.35886882822138633 0 -0.43442929003750319 -0.35886882822138633 0 -0.4149733428319945 -0.35918862088660258 0 -0.4196446697831413 -0.3510561346096901 0 -0.43442929003750319 -0.35886882822138633 0 -0.4149733428319945 -0.35918862088660258 0 -0.43891351440333509 -0.34343875356344239 0 -0.43717497359171442 -0.35210732740624251 0 -0.4196446697831413 -0.3510561346096901 0 -0.43442929003750319 -0.35886882822138633 0 -0.43717497359171442 -0.35210732740624251 0 -0.4196446697831413 -0.3510561346096901 0 -0.43442929003750319 -0.35886882822138633 0 -0.4196446697831413 -0.3510561346096901 0 -0.4149733428319945 -0.35918862088660258 0 -0.4196446697831413 -0.3510561346096901 0 -0.40532990608515862 -0.3434917291009863 0 -0.4149733428319945 -0.35918862088660258 0 -0.4196446697831413 -0.3510561346096901 0 -0.4196446697831413 -0.3510561346096901 0 -0.40532990608515862 -0.3434917291009863 0 -0.41702157192882489 -0.33924717417720651 0 -0.4196446697831413 -0.3510561346096901 0 -0.40532990608515862 -0.3434917291009863 0 -0.40280646380296281 -0.38037039167060982 0 -0.4248533911271779 -0.3744211112476899 0 -0.4149733428319945 -0.35918862088660258 0 -0.40280646380296281 -0.38037039167060982 0 -0.4149733428319945 -0.35918862088660258 0 -0.40280646380296281 -0.38037039167060982 0 -0.4149733428319945 -0.35918862088660258 0 -0.3860297826760633 -0.35966435913492972 0 -0.40280646380296281 -0.38037039167060982 0 -0.38351075703234289 -0.38068755050282788 0 -0.3860297826760633 -0.35966435913492972 0 -0.4149733428319945 -0.35918862088660258 0 -0.3860297826760633 -0.35966435913492972 0 -0.38351075703234289 -0.38068755050282788 0 -0.3860297826760633 -0.35966435913492972 0 -0.36980354622564299 -0.37440846250998178 0 -0.38351075703234289 -0.38068755050282788 0 -0.3860297826760633 -0.35966435913492972 0 -0.3860297826760633 -0.35966435913492972 0 -0.37673913532797471 -0.34994140888100272 0 -0.36319803036757081 -0.3600396390863585 0 -0.3860297826760633 -0.35966435913492972 0 -0.39715406320190549 -0.34759406546829918 0 -0.38842214202913589 -0.33969829462669338 0 -0.3860297826760633 -0.35966435913492972 0 -0.37673913532797471 -0.34994140888100272 0 -0.38842214202913589 -0.33969829462669338 0 -0.3860297826760633 -0.35966435913492972 0 -0.38842214202913589 -0.33969829462669338 0 -0.4149733428319945 -0.35918862088660258 0 -0.39715406320190549 -0.34759406546829918 0 -0.40532990608515862 -0.3434917291009863 0 -0.4149733428319945 -0.35918862088660258 0 -0.3860297826760633 -0.35966435913492972 0 -0.39715406320190549 -0.34759406546829918 0 -0.39101514238717527 -0.33592732359228372 0 -0.40295599133289778 -0.32058689393268569 0 -0.41215640262968822 -0.33160722817688237 0 -0.39101514238717527 -0.33592732359228372 0 -0.41215640262968822 -0.33160722817688237 0 -0.40532990608515862 -0.3434917291009863 0 -0.39101514238717527 -0.33592732359228372 0 -0.41215640262968822 -0.33160722817688237 0 -0.39715406320190549 -0.34759406546829918 0 -0.40532990608515862 -0.3434917291009863 0 -0.39101514238717527 -0.33592732359228372 0 -0.40532990608515862 -0.3434917291009863 0 -0.39101514238717527 -0.33592732359228372 0 -0.39715406320190549 -0.34759406546829918 0 -0.39101514238717527 -0.33592732359228372 0 -0.38842214202913589 -0.33969829462669338 0 -0.39101514238717527 -0.33592732359228372 0 -0.38842214202913589 -0.33969829462669338 0 -0.36930658623912882 -0.34036334267602902 0 -0.39101514238717527 -0.33592732359228372 0 -0.36930658623912882 -0.34036334267602902 0 -0.37673913532797471 -0.34994140888100272 0 -0.38842214202913589 -0.33969829462669338 0 -0.36930658623912882 -0.34036334267602902 0 -0.39101514238717527 -0.33592732359228372 0 -0.38233416814432492 -0.33134000306300659 0 -0.36930658623912882 -0.34036334267602902 0 -0.39101514238717527 -0.33592732359228372 0 -0.38233416814432492 -0.33134000306300659 0 -0.38974560491027371 -0.32620659369769828 0 -0.39101514238717527 -0.33592732359228372 0 -0.38233416814432492 -0.33134000306300659 0 -0.38233416814432492 -0.33134000306300659 0 -0.38974560491027371 -0.32620659369769828 0 -0.38233416814432492 -0.33134000306300659 0 -0.36930658623912882 -0.34036334267602902 0 -0.37964911481800828 -0.31919361570709409 0 -0.38950173024840479 -0.31495300547878641 0 -0.37807869957402179 -0.30556512522687412 0 -0.38233416814432492 -0.33134000306300659 0 -0.37964911481800828 -0.31919361570709409 0 -0.38974560491027371 -0.32620659369769828 0 -0.37964911481800828 -0.31919361570709409 0 -0.38974560491027371 -0.32620659369769828 0 -0.38950173024840479 -0.31495300547878641 0 -0.38950173024840479 -0.31495300547878641 0 -0.40295599133289778 -0.32058689393268569 0 -0.39551779150715022 -0.30416164449830208 0 -0.38974560491027371 -0.32620659369769828 0 -0.38950173024840479 -0.31495300547878641 0 -0.40295599133289778 -0.32058689393268569 0 -0.39101514238717527 -0.33592732359228372 0 -0.38974560491027371 -0.32620659369769828 0 -0.40295599133289778 -0.32058689393268569 0 -0.40295599133289778 -0.32058689393268569 0 -0.42114749173721527 -0.3185587097625262 0 -0.41216579360313321 -0.30609747661825359 0 -0.40295599133289778 -0.32058689393268569 0 -0.42114749173721527 -0.3185587097625262 0 -0.41215640262968822 -0.33160722817688237 0 -0.41215640262968822 -0.33160722817688237 0 -0.41702157192882489 -0.33924717417720651 0 -0.43329766287220151 -0.32728713276148302 0 -0.40532990608515862 -0.3434917291009863 0 -0.41215640262968822 -0.33160722817688237 0 -0.41702157192882489 -0.33924717417720651 0 -0.41215640262968822 -0.33160722817688237 0 -0.43329766287220151 -0.32728713276148302 0 -0.43891351440333509 -0.34343875356344239 0 -0.4196446697831413 -0.3510561346096901 0 -0.43589253816831819 -0.33669855071928428 0 -0.4196446697831413 -0.3510561346096901 0 -0.41702157192882489 -0.33924717417720651 0 -0.43329766287220151 -0.32728713276148302 0 -0.4196446697831413 -0.3510561346096901 0 -0.43329766287220151 -0.32728713276148302 0 -0.4196446697831413 -0.3510561346096901 0 -0.43589253816831819 -0.33669855071928428 0 -0.43329766287220151 -0.32728713276148302 0 -0.43819375911064989 -0.3262866435441642 0 -0.43589253816831819 -0.33669855071928428 0 -0.43329766287220151 -0.32728713276148302 0 -0.43819375911064989 -0.3262866435441642 0 -0.43329766287220151 -0.32728713276148302 0 -0.43819375911064989 -0.3262866435441642 0 -0.43329766287220151 -0.32728713276148302 0 -0.43508336359740668 -0.32417834016481212 0 -0.42114749173721527 -0.3185587097625262 0 -0.41215640262968822 -0.33160722817688237 0 -0.43329766287220151 -0.32728713276148302 0 -0.42114749173721527 -0.3185587097625262 0 -0.43329766287220151 -0.32728713276148302 0 -0.43508336359740668 -0.32417834016481212 0 -0.43508336359740668 -0.32417834016481212 0 -0.43018944830098083 -0.31583856508900299 0 -0.43536530915969163 -0.30701047425999239 0 -0.43329766287220151 -0.32728713276148302 0 -0.43508336359740668 -0.32417834016481212 0 -0.42114749173721527 -0.3185587097625262 0 -0.43508336359740668 -0.32417834016481212 0 -0.43018944830098083 -0.31583856508900299 0 -0.42114749173721527 -0.3185587097625262 0 -0.43018944830098083 -0.31583856508900299 0 -0.4250400752221471 -0.3069116080973413 0 -0.4250400752221471 -0.3069116080973413 0 -0.43079256062661581 -0.2986682378494942 0 -0.42138240981173919 -0.29556369123798532 0 -0.43018944830098083 -0.31583856508900299 0 -0.4250400752221471 -0.3069116080973413 0 -0.43536530915969163 -0.30701047425999239 0 -0.4250400752221471 -0.3069116080973413 0 -0.43536530915969163 -0.30701047425999239 0 -0.43079256062661581 -0.2986682378494942 0 -0.43891376255948311 -0.29536773960869128 0 -0.43536530915969163 -0.30701047425999239 0 -0.43079256062661581 -0.2986682378494942 0 -0.43891376255948311 -0.29536773960869128 0 -0.43079256062661581 -0.2986682378494942 0 -0.43326124638001762 -0.28848767604346037 0 -0.43326124638001762 -0.28848767604346037 0 -0.42138240981173919 -0.29556369123798532 0 -0.42024662207217128 -0.28167962753544729 0 -0.43326124638001762 -0.28848767604346037 0 -0.42024662207217128 -0.28167962753544729 0 -0.43553360603785363 -0.27362541494842868 0 -0.43079256062661581 -0.2986682378494942 0 -0.43326124638001762 -0.28848767604346037 0 -0.42138240981173919 -0.29556369123798532 0 -0.42138240981173919 -0.29556369123798532 0 -0.42024662207217128 -0.28167962753544729 0 -0.40695100200764961 -0.29080231218068148 0 -0.42024662207217128 -0.28167962753544729 0 -0.40695100200764961 -0.29080231218068148 0 -0.40497866873549088 -0.27303600330679662 0 -0.42138240981173919 -0.29556369123798532 0 -0.40695100200764961 -0.29080231218068148 0 -0.41216579360313321 -0.30609747661825359 0 -0.4250400752221471 -0.3069116080973413 0 -0.42138240981173919 -0.29556369123798532 0 -0.41216579360313321 -0.30609747661825359 0 -0.42114749173721527 -0.3185587097625262 0 -0.4250400752221471 -0.3069116080973413 0 -0.41216579360313321 -0.30609747661825359 0 -0.40295599133289778 -0.32058689393268569 0 -0.41216579360313321 -0.30609747661825359 0 -0.39551779150715022 -0.30416164449830208 0 -0.40695100200764961 -0.29080231218068148 0 -0.41216579360313321 -0.30609747661825359 0 -0.39551779150715022 -0.30416164449830208 0 -0.39551779150715022 -0.30416164449830208 0 -0.37807869957402179 -0.30556512522687412 0 -0.38867858531469163 -0.28454446756407481 0 -0.38950173024840479 -0.31495300547878641 0 -0.39551779150715022 -0.30416164449830208 0 -0.37807869957402179 -0.30556512522687412 0 -0.37807869957402179 -0.30556512522687412 0 -0.38867858531469163 -0.28454446756407481 0 -0.36221481843193432 -0.29272060108304859 0 -0.40695100200764961 -0.29080231218068148 0 -0.39551779150715022 -0.30416164449830208 0 -0.38867858531469163 -0.28454446756407481 0 -0.40695100200764961 -0.29080231218068148 0 -0.38867858531469163 -0.28454446756407481 0 -0.40497866873549088 -0.27303600330679662 0 -0.38867858531469163 -0.28454446756407481 0 -0.40497866873549088 -0.27303600330679662 0 -0.38559952071272591 -0.25768599133778097 0 -0.38867858531469163 -0.28454446756407481 0 -0.36868202621648771 -0.26876110932069419 0 -0.38867858531469163 -0.28454446756407481 0 -0.38559952071272591 -0.25768599133778097 0 -0.36868202621648771 -0.26876110932069419 0 -0.38559952071272591 -0.25768599133778097 0 -0.40722021890048532 -0.25568257929430799 0 -0.39735798066831651 -0.24142508423267431 0 -0.40497866873549088 -0.27303600330679662 0 -0.38559952071272591 -0.25768599133778097 0 -0.40722021890048532 -0.25568257929430799 0 -0.40497866873549088 -0.27303600330679662 0 -0.40722021890048532 -0.25568257929430799 0 -0.42018988095123999 -0.26428997911001101 0 -0.40722021890048532 -0.25568257929430799 0 -0.42018988095123999 -0.26428997911001101 0 -0.41955657755903231 -0.2435025069042 0 -0.42024662207217128 -0.28167962753544729 0 -0.40497866873549088 -0.27303600330679662 0 -0.42018988095123999 -0.26428997911001101 0 -0.42024662207217128 -0.28167962753544729 0 -0.42018988095123999 -0.26428997911001101 0 -0.43553360603785363 -0.27362541494842868 0 -0.42018988095123999 -0.26428997911001101 0 -0.43553360603785363 -0.27362541494842868 0 -0.43360359240240659 -0.25821374267088593 0 -0.42018988095123999 -0.26428997911001101 0 -0.43360359240240659 -0.25821374267088593 0 -0.41955657755903231 -0.2435025069042 0 -0.32603912114234329 -0.25165876443507063 0 -0.31034821064566459 -0.26265284360589902 0 -0.31179246768153418 -0.24782355150647559 0 -0.32603912114234329 -0.25165876443507063 0 -0.32738627651926322 -0.266197286797691 0 -0.31034821064566459 -0.26265284360589902 0 -0.32738627651926322 -0.266197286797691 0 -0.30608708592024308 -0.27941682251806682 0 -0.32738627651926322 -0.266197286797691 0 -0.30608708592024308 -0.27941682251806682 0 -0.31034821064566459 -0.26265284360589902 0 -0.32738627651926322 -0.266197286797691 0 -0.32445278379272352 -0.28342851107666728 0 -0.30608708592024308 -0.27941682251806682 0 -0.32738627651926322 -0.266197286797691 0 -0.34487429566661781 -0.27693854879446922 0 -0.32445278379272352 -0.28342851107666728 0 -0.32738627651926322 -0.266197286797691 0 -0.34868546711828302 -0.25297775107731479 0 -0.32603912114234329 -0.25165876443507063 0 -0.32738627651926322 -0.266197286797691 0 -0.34868546711828302 -0.25297775107731479 0 -0.32738627651926322 -0.266197286797691 0 -0.34868546711828302 -0.25297775107731479 0 -0.34487429566661781 -0.27693854879446922 0 -0.34868546711828302 -0.25297775107731479 0 -0.36868202621648771 -0.26876110932069419 0 -0.38559952071272591 -0.25768599133778097 0 -0.36988031000046262 -0.2515956850698382 0 -0.36868202621648771 -0.26876110932069419 0 -0.34868546711828302 -0.25297775107731479 0 -0.36988031000046262 -0.2515956850698382 0 -0.36868202621648771 -0.26876110932069419 0 -0.36868202621648771 -0.26876110932069419 0 -0.34487429566661781 -0.27693854879446922 0 -0.36221481843193432 -0.29272060108304859 0 -0.34868546711828302 -0.25297775107731479 0 -0.36868202621648771 -0.26876110932069419 0 -0.34487429566661781 -0.27693854879446922 0 -0.34487429566661781 -0.27693854879446922 0 -0.36221481843193432 -0.29272060108304859 0 -0.33327512518203189 -0.30541554474393368 0 -0.38867858531469163 -0.28454446756407481 0 -0.36868202621648771 -0.26876110932069419 0 -0.36221481843193432 -0.29272060108304859 0 -0.37807869957402179 -0.30556512522687412 0 -0.36221481843193432 -0.29272060108304859 0 -0.35780464666317902 -0.318377773903469 0 -0.36221481843193432 -0.29272060108304859 0 -0.33327512518203189 -0.30541554474393368 0 -0.35780464666317902 -0.318377773903469 0 -0.33327512518203189 -0.30541554474393368 0 -0.35780464666317902 -0.318377773903469 0 -0.34487429566661781 -0.27693854879446922 0 -0.33327512518203189 -0.30541554474393368 0 -0.32445278379272352 -0.28342851107666728 0 -0.32445278379272352 -0.28342851107666728 0 -0.30874560370088477 -0.2924533155843983 0 -0.30608708592024308 -0.27941682251806682 0 -0.33327512518203189 -0.30541554474393368 0 -0.32445278379272352 -0.28342851107666728 0 -0.30874560370088477 -0.2924533155843983 0 -0.33327512518203189 -0.30541554474393368 0 -0.30485942097994467 -0.3123083761081511 0 -0.30874560370088477 -0.2924533155843983 0 -0.33327512518203189 -0.30541554474393368 0 -0.30874560370088477 -0.2924533155843983 0 -0.33327512518203189 -0.30541554474393368 0 -0.32212258850447822 -0.32214102696541608 0 -0.30485942097994467 -0.3123083761081511 0 -0.32820242577759351 -0.33798202663495219 0 -0.31179831504766392 -0.35309331076550499 0 -0.3039047356649669 -0.33289423696270187 0 -0.32212258850447822 -0.32214102696541608 0 -0.32820242577759351 -0.33798202663495219 0 -0.3039047356649669 -0.33289423696270187 0 -0.32820242577759351 -0.33798202663495219 0 -0.34092625592310433 -0.32576007631967108 0 -0.34405910481531898 -0.33959201796877259 0 -0.32212258850447822 -0.32214102696541608 0 -0.32820242577759351 -0.33798202663495219 0 -0.34092625592310433 -0.32576007631967108 0 -0.32820242577759351 -0.33798202663495219 0 -0.34405910481531898 -0.33959201796877259 0 -0.33751678078948211 -0.34848193909056713 0 -0.33327512518203189 -0.30541554474393368 0 -0.32212258850447822 -0.32214102696541608 0 -0.34092625592310433 -0.32576007631967108 0 -0.33327512518203189 -0.30541554474393368 0 -0.34092625592310433 -0.32576007631967108 0 -0.35780464666317902 -0.318377773903469 0 -0.34092625592310433 -0.32576007631967108 0 -0.35780464666317902 -0.318377773903469 0 -0.35840438693012822 -0.33290312250979182 0 -0.38233416814432492 -0.33134000306300659 0 -0.37964911481800828 -0.31919361570709409 0 -0.35780464666317902 -0.318377773903469 0 -0.37964911481800828 -0.31919361570709409 0 -0.37807869957402179 -0.30556512522687412 0 -0.35780464666317902 -0.318377773903469 0 -0.38233416814432492 -0.33134000306300659 0 -0.35780464666317902 -0.318377773903469 0 -0.38233416814432492 -0.33134000306300659 0 -0.35780464666317902 -0.318377773903469 0 -0.35840438693012822 -0.33290312250979182 0 -0.36930658623912882 -0.34036334267602902 0 -0.35307668982193452 -0.3436798290302055 0 -0.35840438693012822 -0.33290312250979182 0 -0.36930658623912882 -0.34036334267602902 0 -0.35307668982193452 -0.3436798290302055 0 -0.38233416814432492 -0.33134000306300659 0 -0.36930658623912882 -0.34036334267602902 0 -0.35840438693012822 -0.33290312250979182 0 -0.35307668982193452 -0.3436798290302055 0 -0.35840438693012822 -0.33290312250979182 0 -0.34405910481531898 -0.33959201796877259 0 -0.34092625592310433 -0.32576007631967108 0 -0.35840438693012822 -0.33290312250979182 0 -0.34405910481531898 -0.33959201796877259 0 -0.35307668982193452 -0.3436798290302055 0 -0.3462280896496715 -0.34874511422744803 0 -0.35483489931206269 -0.35038691780043979 0 -0.36930658623912882 -0.34036334267602902 0 -0.35307668982193452 -0.3436798290302055 0 -0.35483489931206269 -0.35038691780043979 0 -0.35307668982193452 -0.3436798290302055 0 -0.34405910481531898 -0.33959201796877259 0 -0.3462280896496715 -0.34874511422744803 0 -0.35483489931206269 -0.35038691780043979 0 -0.36319803036757081 -0.3600396390863585 0 -0.34036627805907821 -0.36041491903778727 0 -0.3462280896496715 -0.34874511422744803 0 -0.35483489931206269 -0.35038691780043979 0 -0.34036627805907821 -0.36041491903778727 0 -0.35483489931206269 -0.35038691780043979 0 -0.34036627805907821 -0.36041491903778727 0 -0.36930658623912882 -0.34036334267602902 0 -0.35483489931206269 -0.35038691780043979 0 -0.36319803036757081 -0.3600396390863585 0 -0.37673913532797471 -0.34994140888100272 0 -0.36930658623912882 -0.34036334267602902 0 -0.36319803036757081 -0.3600396390863585 0 -0.36930658623912882 -0.34036334267602902 0 -0.35483489931206269 -0.35038691780043979 0 -0.3860297826760633 -0.35966435913492972 0 -0.36319803036757081 -0.3600396390863585 0 -0.36980354622564299 -0.37440846250998178 0 -0.3860297826760633 -0.35966435913492972 0 -0.36319803036757081 -0.3600396390863585 0 -0.36319803036757081 -0.3600396390863585 0 -0.36980354622564299 -0.37440846250998178 0 -0.35208379276677759 -0.3785787436497618 0 -0.36319803036757081 -0.3600396390863585 0 -0.34036627805907821 -0.36041491903778727 0 -0.35208379276677759 -0.3785787436497618 0 -0.36319803036757081 -0.3600396390863585 0 -0.34036627805907821 -0.36041491903778727 0 -0.33796894659390891 -0.37482284853627512 0 -0.34036627805907821 -0.36041491903778727 0 -0.32363951534986263 -0.37199388568579012 0 -0.33796894659390891 -0.37482284853627512 0 -0.34036627805907821 -0.36041491903778727 0 -0.35208379276677759 -0.3785787436497618 0 -0.34036627805907821 -0.36041491903778727 0 -0.32363951534986263 -0.37199388568579012 0 -0.34036627805907821 -0.36041491903778727 0 -0.32727744408625048 -0.35439054454718683 0 -0.32363951534986263 -0.37199388568579012 0 -0.3462280896496715 -0.34874511422744803 0 -0.34036627805907821 -0.36041491903778727 0 -0.33751678078948211 -0.34848193909056713 0 -0.32820242577759351 -0.33798202663495219 0 -0.33751678078948211 -0.34848193909056713 0 -0.32727744408625048 -0.35439054454718683 0 -0.34405910481531898 -0.33959201796877259 0 -0.3462280896496715 -0.34874511422744803 0 -0.33751678078948211 -0.34848193909056713 0 -0.34036627805907821 -0.36041491903778727 0 -0.33751678078948211 -0.34848193909056713 0 -0.32727744408625048 -0.35439054454718683 0 -0.32820242577759351 -0.33798202663495219 0 -0.32727744408625048 -0.35439054454718683 0 -0.31179831504766392 -0.35309331076550499 0 -0.32363951534986263 -0.37199388568579012 0 -0.30239428561283688 -0.36870101045517528 0 -0.31179831504766392 -0.35309331076550499 0 -0.32727744408625048 -0.35439054454718683 0 -0.32363951534986263 -0.37199388568579012 0 -0.31179831504766392 -0.35309331076550499 0 -0.30239428561283688 -0.36870101045517528 0 -0.31179831504766392 -0.35309331076550499 0 -0.2896576581608708 -0.35237554743188088 0 -0.31179831504766392 -0.35309331076550499 0 -0.2896576581608708 -0.35237554743188088 0 -0.3039047356649669 -0.33289423696270187 0 -0.30239428561283688 -0.36870101045517528 0 -0.2896576581608708 -0.35237554743188088 0 -0.28455579116959129 -0.37796049996255221 0 -0.2896576581608708 -0.35237554743188088 0 -0.26814247327847002 -0.36217697736650212 0 -0.28455579116959129 -0.37796049996255221 0 -0.26814247327847002 -0.36217697736650212 0 -0.28455579116959129 -0.37796049996255221 0 -0.26541227485786778 -0.38020024664842977 0 -0.26814247327847002 -0.36217697736650212 0 -0.25386558945051879 -0.3530705173033149 0 -0.2460462517754142 -0.36757361698329788 0 -0.26814247327847002 -0.36217697736650212 0 -0.26541227485786778 -0.38020024664842977 0 -0.2460462517754142 -0.36757361698329788 0 -0.26814247327847002 -0.36217697736650212 0 -0.25386558945051879 -0.3530705173033149 0 -0.26836930636391282 -0.34291439120107331 0 -0.25386558945051879 -0.3530705173033149 0 -0.26836930636391282 -0.34291439120107331 0 -0.25112350808519512 -0.33971512876303689 0 -0.2896576581608708 -0.35237554743188088 0 -0.26814247327847002 -0.36217697736650212 0 -0.26836930636391282 -0.34291439120107331 0 -0.26836930636391282 -0.34291439120107331 0 -0.26370449542184959 -0.32439830916062989 0 -0.28372211378657258 -0.32574986718107529 0 -0.2896576581608708 -0.35237554743188088 0 -0.26836930636391282 -0.34291439120107331 0 -0.28372211378657258 -0.32574986718107529 0 -0.25112350808519512 -0.33971512876303689 0 -0.26370449542184959 -0.32439830916062989 0 -0.24467208604712329 -0.3303991527425576 0 -0.26836930636391282 -0.34291439120107331 0 -0.25112350808519512 -0.33971512876303689 0 -0.26370449542184959 -0.32439830916062989 0 -0.26370449542184959 -0.32439830916062989 0 -0.2389315912862956 -0.3184393312024375 0 -0.26370449542184959 -0.32439830916062989 0 -0.28372211378657258 -0.32574986718107529 0 -0.27320250218064618 -0.31010664850366682 0 -0.28372211378657258 -0.32574986718107529 0 -0.28530276282076739 -0.30712542654371322 0 -0.27320250218064618 -0.31010664850366682 0 -0.28372211378657258 -0.32574986718107529 0 -0.30485942097994467 -0.3123083761081511 0 -0.28530276282076739 -0.30712542654371322 0 -0.2896576581608708 -0.35237554743188088 0 -0.28372211378657258 -0.32574986718107529 0 -0.3039047356649669 -0.33289423696270187 0 -0.28372211378657258 -0.32574986718107529 0 -0.3039047356649669 -0.33289423696270187 0 -0.30485942097994467 -0.3123083761081511 0 -0.32212258850447822 -0.32214102696541608 0 -0.3039047356649669 -0.33289423696270187 0 -0.30485942097994467 -0.3123083761081511 0 -0.30485942097994467 -0.3123083761081511 0 -0.30874560370088477 -0.2924533155843983 0 -0.29176878445266552 -0.29587245259974299 0 -0.30874560370088477 -0.2924533155843983 0 -0.2842160822197376 -0.27949108642486292 0 -0.30608708592024308 -0.27941682251806682 0 -0.30874560370088477 -0.2924533155843983 0 -0.29176878445266552 -0.29587245259974299 0 -0.2842160822197376 -0.27949108642486292 0 -0.30874560370088477 -0.2924533155843983 0 -0.2842160822197376 -0.27949108642486292 0 -0.29176878445266552 -0.29587245259974299 0 -0.27561137882290121 -0.29478332921042472 0 -0.2842160822197376 -0.27949108642486292 0 -0.30485942097994467 -0.3123083761081511 0 -0.29176878445266552 -0.29587245259974299 0 -0.28530276282076739 -0.30712542654371322 0 -0.29176878445266552 -0.29587245259974299 0 -0.28530276282076739 -0.30712542654371322 0 -0.27561137882290121 -0.29478332921042472 0 -0.27320250218064618 -0.31010664850366682 0 -0.25767176005114001 -0.29847631042249101 0 -0.27561137882290121 -0.29478332921042472 0 -0.28530276282076739 -0.30712542654371322 0 -0.27320250218064618 -0.31010664850366682 0 -0.27561137882290121 -0.29478332921042472 0 -0.26370449542184959 -0.32439830916062989 0 -0.27320250218064618 -0.31010664850366682 0 -0.25767176005114001 -0.29847631042249101 0 -0.26370449542184959 -0.32439830916062989 0 -0.25767176005114001 -0.29847631042249101 0 -0.2440991203977973 -0.30422705661905691 0 -0.25767176005114001 -0.29847631042249101 0 -0.26540043419204429 -0.27846896108082508 0 -0.24231703749730041 -0.27657564142023872 0 -0.27561137882290121 -0.29478332921042472 0 -0.26540043419204429 -0.27846896108082508 0 -0.2842160822197376 -0.27949108642486292 0 -0.25767176005114001 -0.29847631042249101 0 -0.27561137882290121 -0.29478332921042472 0 -0.26540043419204429 -0.27846896108082508 0 -0.26540043419204429 -0.27846896108082508 0 -0.26625968670899808 -0.25660261333856088 0 -0.2815970338993361 -0.2639909106715006 0 -0.26540043419204429 -0.27846896108082508 0 -0.2815970338993361 -0.2639909106715006 0 -0.2842160822197376 -0.27949108642486292 0 -0.26540043419204429 -0.27846896108082508 0 -0.26625968670899808 -0.25660261333856088 0 -0.24231703749730041 -0.27657564142023872 0 -0.26625968670899808 -0.25660261333856088 0 -0.24231703749730041 -0.27657564142023872 0 -0.24799023007116741 -0.24805905770765271 0 -0.26625968670899808 -0.25660261333856088 0 -0.2815970338993361 -0.2639909106715006 0 -0.28689770092791611 -0.24483144536993909 0 -0.29579668536928211 -0.25645242239556931 0 -0.2815970338993361 -0.2639909106715006 0 -0.28689770092791611 -0.24483144536993909 0 -0.29579668536928211 -0.25645242239556931 0 -0.2815970338993361 -0.2639909106715006 0 -0.29545474425404689 -0.2683906868646585 0 -0.2815970338993361 -0.2639909106715006 0 -0.2842160822197376 -0.27949108642486292 0 -0.29545474425404689 -0.2683906868646585 0 -0.2842160822197376 -0.27949108642486292 0 -0.29545474425404689 -0.2683906868646585 0 -0.30608708592024308 -0.27941682251806682 0 -0.29545474425404689 -0.2683906868646585 0 -0.30608708592024308 -0.27941682251806682 0 -0.31034821064566459 -0.26265284360589902 0 -0.29579668536928211 -0.25645242239556931 0 -0.31034821064566459 -0.26265284360589902 0 -0.31179246768153418 -0.24782355150647559 0 -0.29579668536928211 -0.25645242239556931 0 -0.29545474425404689 -0.2683906868646585 0 -0.31034821064566459 -0.26265284360589902 0 -0.33830611511599512 -0.45292479307120093 0 -0.32948382335132748 -0.47076075938606071 0 -0.34952089287927629 -0.47313721763371719 0 -0.33830611511599512 -0.45292479307120093 0 -0.34788106621678239 -0.43625540571220067 0 -0.32709133735270979 -0.43271236850868688 0 -0.33830611511599512 -0.45292479307120093 0 -0.32709133735270979 -0.43271236850868688 0 -0.32709133735270979 -0.43271236850868688 0 -0.30610346139935662 -0.42913556258632019 0 -0.31121785537273983 -0.45270702795329032 0 -0.33830611511599512 -0.45292479307120093 0 -0.32709133735270979 -0.43271236850868688 0 -0.31121785537273983 -0.45270702795329032 0 -0.33830611511599512 -0.45292479307120093 0 -0.32948382335132748 -0.47076075938606071 0 -0.31121785537273983 -0.45270702795329032 0 -0.32948382335132748 -0.47076075938606071 0 -0.31121785537273983 -0.45270702795329032 0 -0.31027504410754009 -0.47293376153448369 0 -0.32446747772506718 -0.486052625947481 0 -0.32948382335132748 -0.47076075938606071 0 -0.31027504410754009 -0.47293376153448369 0 -0.32446747772506718 -0.486052625947481 0 -0.30668184164809198 -0.5 0 -0.31027504410754009 -0.47293376153448369 0 -0.32446747772506718 -0.486052625947481 0 -0.3340908220524918 -0.500000000000004 0 -0.30668184164809198 -0.5 0 -0.32446747772506718 -0.486052625947481 0 -0.3340908220524918 -0.500000000000004 0 -0.34180585746588438 -0.48656860881686081 0 -0.3340908220524918 -0.500000000000004 0 -0.34180585746588438 -0.48656860881686081 0 -0.34925820771237748 -0.5 0 -0.3340908220524918 -0.500000000000004 0 -0.34180585746588438 -0.48656860881686081 0 -0.34180585746588438 -0.48656860881686081 0 -0.32948382335132748 -0.47076075938606071 0 -0.34952089287927629 -0.47313721763371719 0 -0.32446747772506718 -0.486052625947481 0 -0.34180585746588438 -0.48656860881686081 0 -0.32948382335132748 -0.47076075938606071 0 -0.34180585746588438 -0.48656860881686081 0 -0.34952089287927629 -0.47313721763371719 0 -0.35697324312577078 -0.48656860881685809 0 -0.34180585746588438 -0.48656860881686081 0 -0.34952089287927629 -0.47313721763371719 0 -0.34952089287927629 -0.47313721763371719 0 -0.35697324312577078 -0.48656860881685809 0 -0.34952089287927629 -0.47313721763371719 0 -0.35697324312577078 -0.48656860881685809 0 -0.36151252648252052 -0.47602330038831592 0 -0.34180585746588438 -0.48656860881686081 0 -0.34925820771237748 -0.5 0 -0.35697324312577078 -0.48656860881685809 0 -0.34925820771237748 -0.5 0 -0.35697324312577078 -0.48656860881685809 0 -0.36442559337226321 -0.50000000000000022 0 -0.36921458692957548 -0.50000000000000522 0 -0.37274368348681619 -0.47054699603253869 0 -0.35697324312577078 -0.48656860881685809 0 -0.36921458692957548 -0.50000000000000522 0 -0.36151252648252052 -0.47602330038831592 0 -0.35697324312577078 -0.48656860881685809 0 -0.36442559337226321 -0.50000000000000022 0 -0.36921458692957548 -0.50000000000000522 0 -0.35697324312577078 -0.48656860881685809 0 -0.36442559337226321 -0.50000000000000022 0 -0.36921458692957548 -0.50000000000000522 0 -0.37274368348681619 -0.47054699603253869 0 -0.36151252648252052 -0.47602330038831592 0 -0.37627278004405651 -0.44109399206507222 0 -0.37274368348681619 -0.47054699603253869 0 -0.37627278004405651 -0.44109399206507222 0 -0.37274368348681619 -0.47054699603253869 0 -0.35909584398006572 -0.45646783027471882 0 -0.37274368348681619 -0.47054699603253869 0 -0.36151252648252052 -0.47602330038831592 0 -0.35909584398006572 -0.45646783027471882 0 -0.33830611511599512 -0.45292479307120093 0 -0.34952089287927629 -0.47313721763371719 0 -0.34952089287927629 -0.47313721763371719 0 -0.35909584398006572 -0.45646783027471882 0 -0.33830611511599512 -0.45292479307120093 0 -0.34952089287927629 -0.47313721763371719 0 -0.35909584398006572 -0.45646783027471882 0 -0.34952089287927629 -0.47313721763371719 0 -0.36151252648252052 -0.47602330038831592 0 -0.35909584398006572 -0.45646783027471882 0 -0.36867079508085432 -0.4397984429157199 0 -0.34788106621678239 -0.43625540571220067 0 -0.35909584398006572 -0.45646783027471882 0 -0.36867079508085432 -0.4397984429157199 0 -0.34788106621678239 -0.43625540571220067 0 -0.33830611511599512 -0.45292479307120093 0 -0.35909584398006572 -0.45646783027471882 0 -0.34788106621678239 -0.43625540571220067 0 -0.35909584398006572 -0.45646783027471882 0 -0.36867079508085432 -0.4397984429157199 0 -0.37627278004405651 -0.44109399206507222 0 -0.35909584398006572 -0.45646783027471882 0 -0.36867079508085432 -0.4397984429157199 0 -0.37627278004405651 -0.44109399206507222 0 -0.36867079508085432 -0.4397984429157199 0 -0.37847270574489938 -0.42273393323862418 0 -0.37627278004405651 -0.44109399206507222 0 -0.36867079508085432 -0.4397984429157199 0 -0.37847270574489938 -0.42273393323862418 0 -0.36867079508085432 -0.4397984429157199 0 -0.36095852723495581 -0.4156530751373857 0 -0.37847270574489938 -0.42273393323862418 0 -0.36867079508085432 -0.4397984429157199 0 -0.38099173138862252 -0.4017107418707262 0 -0.37847270574489938 -0.42273393323862418 0 -0.36095852723495581 -0.4156530751373857 0 -0.36095852723495581 -0.4156530751373857 0 -0.34641238455768592 -0.3994368309155098 0 -0.34008563937038289 -0.41656415113289452 0 -0.36095852723495581 -0.4156530751373857 0 -0.34788106621678239 -0.43625540571220067 0 -0.34008563937038289 -0.41656415113289452 0 -0.36867079508085432 -0.4397984429157199 0 -0.36095852723495581 -0.4156530751373857 0 -0.34788106621678239 -0.43625540571220067 0 -0.36980354622564299 -0.37440846250998178 0 -0.36419536828546012 -0.3930720201760311 0 -0.35208379276677759 -0.3785787436497618 0 -0.38351075703234289 -0.38068755050282788 0 -0.36980354622564299 -0.37440846250998178 0 -0.36419536828546012 -0.3930720201760311 0 -0.38099173138862252 -0.4017107418707262 0 -0.36095852723495581 -0.4156530751373857 0 -0.36419536828546012 -0.3930720201760311 0 -0.36095852723495581 -0.4156530751373857 0 -0.36419536828546012 -0.3930720201760311 0 -0.34641238455768592 -0.3994368309155098 0 -0.34641238455768592 -0.3994368309155098 0 -0.35208379276677759 -0.3785787436497618 0 -0.33352208628186741 -0.38805585093559919 0 -0.36419536828546012 -0.3930720201760311 0 -0.34641238455768592 -0.3994368309155098 0 -0.35208379276677759 -0.3785787436497618 0 -0.33796894659390891 -0.37482284853627512 0 -0.32363951534986263 -0.37199388568579012 0 -0.33352208628186741 -0.38805585093559919 0 -0.33796894659390891 -0.37482284853627512 0 -0.35208379276677759 -0.3785787436497618 0 -0.33352208628186741 -0.38805585093559919 0 -0.34641238455768592 -0.3994368309155098 0 -0.33352208628186741 -0.38805585093559919 0 -0.32923464910056183 -0.40562031113694569 0 -0.33352208628186741 -0.38805585093559919 0 -0.32923464910056183 -0.40562031113694569 0 -0.31179322932240788 -0.39788248568931278 0 -0.32923464910056183 -0.40562031113694569 0 -0.31762851947275011 -0.41439989768267133 0 -0.31179322932240788 -0.39788248568931278 0 -0.32363951534986263 -0.37199388568579012 0 -0.33352208628186741 -0.38805585093559919 0 -0.31179322932240788 -0.39788248568931278 0 -0.34788106621678239 -0.43625540571220067 0 -0.33300315502895372 -0.42538811868699539 0 -0.32709133735270979 -0.43271236850868688 0 -0.34788106621678239 -0.43625540571220067 0 -0.32709133735270979 -0.43271236850868688 0 -0.34788106621678239 -0.43625540571220067 0 -0.33300315502895372 -0.42538811868699539 0 -0.34008563937038289 -0.41656415113289452 0 -0.34641238455768592 -0.3994368309155098 0 -0.32923464910056183 -0.40562031113694569 0 -0.34008563937038289 -0.41656415113289452 0 -0.32923464910056183 -0.40562031113694569 0 -0.34008563937038289 -0.41656415113289452 0 -0.32818172311018418 -0.4171686497757689 0 -0.33300315502895372 -0.42538811868699539 0 -0.34008563937038289 -0.41656415113289452 0 -0.32818172311018418 -0.4171686497757689 0 -0.32818172311018418 -0.4171686497757689 0 -0.31762851947275011 -0.41439989768267133 0 -0.32259536561114638 -0.42460926637151258 0 -0.32923464910056183 -0.40562031113694569 0 -0.32818172311018418 -0.4171686497757689 0 -0.31762851947275011 -0.41439989768267133 0 -0.32709133735270979 -0.43271236850868688 0 -0.30610346139935662 -0.42913556258632019 0 -0.32259536561114638 -0.42460926637151258 0 -0.32709133735270979 -0.43271236850868688 0 -0.30610346139935662 -0.42913556258632019 0 -0.31762851947275011 -0.41439989768267133 0 -0.32259536561114638 -0.42460926637151258 0 -0.30610346139935662 -0.42913556258632019 0 -0.32259536561114638 -0.42460926637151258 0 -0.32709133735270979 -0.43271236850868688 0 -0.33300315502895372 -0.42538811868699539 0 -0.32818172311018418 -0.4171686497757689 0 -0.32259536561114638 -0.42460926637151258 0 -0.33300315502895372 -0.42538811868699539 0 -0.32259536561114638 -0.42460926637151258 0 -0.32709133735270979 -0.43271236850868688 0 -0.31762851947275011 -0.41439989768267133 0 -0.30610346139935662 -0.42913556258632019 0 -0.30629719589665022 -0.41309036546519168 0 -0.30610346139935662 -0.42913556258632019 0 -0.30629719589665022 -0.41309036546519168 0 -0.29631992054361139 -0.41752200994877608 0 -0.31762851947275011 -0.41439989768267133 0 -0.30629719589665022 -0.41309036546519168 0 -0.31179322932240788 -0.39788248568931278 0 -0.30629719589665022 -0.41309036546519168 0 -0.29631992054361139 -0.41752200994877608 0 -0.29302265673445133 -0.40632769300914151 0 -0.29631992054361139 -0.41752200994877608 0 -0.28724470692313131 -0.41600128707637313 0 -0.28511558544600363 -0.42555875666395238 0 -0.29302265673445133 -0.40632769300914151 0 -0.2863861313600306 -0.40613286466630077 0 -0.27425208414649471 -0.41477290032897018 0 -0.29302265673445133 -0.40632769300914151 0 -0.27425208414649471 -0.41477290032897018 0 -0.29302265673445133 -0.40632769300914151 0 -0.28724470692313131 -0.41600128707637313 0 -0.27425208414649471 -0.41477290032897018 0 -0.29631992054361139 -0.41752200994877608 0 -0.29302265673445133 -0.40632769300914151 0 -0.28724470692313131 -0.41600128707637313 0 -0.28724470692313131 -0.41600128707637313 0 -0.28511558544600363 -0.42555875666395238 0 -0.27425208414649471 -0.41477290032897018 0 -0.28511558544600363 -0.42555875666395238 0 -0.27298030601342571 -0.43716362978913781 0 -0.29119591576296672 -0.44029926337836822 0 -0.30610346139935662 -0.42913556258632019 0 -0.28511558544600363 -0.42555875666395238 0 -0.30610346139935662 -0.42913556258632019 0 -0.29631992054361139 -0.41752200994877608 0 -0.28511558544600363 -0.42555875666395238 0 -0.30610346139935662 -0.42913556258632019 0 -0.28511558544600363 -0.42555875666395238 0 -0.29119591576296672 -0.44029926337836822 0 -0.32363951534986263 -0.37199388568579012 0 -0.3006512105220594 -0.3863089981423935 0 -0.31179322932240788 -0.39788248568931278 0 -0.32363951534986263 -0.37199388568579012 0 -0.30239428561283688 -0.36870101045517528 0 -0.3006512105220594 -0.3863089981423935 0 -0.30629719589665022 -0.41309036546519168 0 -0.29302265673445133 -0.40632769300914151 0 -0.31179322932240788 -0.39788248568931278 0 -0.29302265673445133 -0.40632769300914151 0 -0.31179322932240788 -0.39788248568931278 0 -0.29302265673445133 -0.40632769300914151 0 -0.3006512105220594 -0.3863089981423935 0 -0.31179322932240788 -0.39788248568931278 0 -0.29302265673445133 -0.40632769300914151 0 -0.3006512105220594 -0.3863089981423935 0 -0.2885017849432065 -0.3949884140523891 0 -0.29302265673445133 -0.40632769300914151 0 -0.2863861313600306 -0.40613286466630077 0 -0.2885017849432065 -0.3949884140523891 0 -0.2863861313600306 -0.40613286466630077 0 -0.2885017849432065 -0.3949884140523891 0 -0.27622419711576363 -0.39643920419380252 0 -0.2885017849432065 -0.3949884140523891 0 -0.28455579116959129 -0.37796049996255221 0 -0.27622419711576363 -0.39643920419380252 0 -0.30239428561283688 -0.36870101045517528 0 -0.3006512105220594 -0.3863089981423935 0 -0.28455579116959129 -0.37796049996255221 0 -0.3006512105220594 -0.3863089981423935 0 -0.2885017849432065 -0.3949884140523891 0 -0.28455579116959129 -0.37796049996255221 0 -0.28455579116959129 -0.37796049996255221 0 -0.27622419711576363 -0.39643920419380252 0 -0.26541227485786778 -0.38020024664842977 0 -0.27622419711576363 -0.39643920419380252 0 -0.26282325706823523 -0.40064000968601882 0 -0.26541227485786778 -0.38020024664842977 0 -0.2863861313600306 -0.40613286466630077 0 -0.27622419711576363 -0.39643920419380252 0 -0.27492141742263099 -0.4044962447187731 0 -0.27622419711576363 -0.39643920419380252 0 -0.27492141742263099 -0.4044962447187731 0 -0.26282325706823523 -0.40064000968601882 0 -0.26282325706823523 -0.40064000968601882 0 -0.26541227485786778 -0.38020024664842977 0 -0.24917516919066851 -0.39810422076305491 0 -0.26282325706823523 -0.40064000968601882 0 -0.2542798798337324 -0.4115301843719209 0 -0.24917516919066851 -0.39810422076305491 0 -0.26282325706823523 -0.40064000968601882 0 -0.26541227485786778 -0.38020024664842977 0 -0.26541227485786778 -0.38020024664842977 0 -0.24917516919066851 -0.39810422076305491 0 -0.24296228473010739 -0.38515410782651749 0 -0.26541227485786778 -0.38020024664842977 0 -0.24296228473010739 -0.38515410782651749 0 -0.2460462517754142 -0.36757361698329788 0 -0.28511558544600363 -0.42555875666395238 0 -0.26786392081403571 -0.43069777654200919 0 -0.27298030601342571 -0.43716362978913781 0 -0.28511558544600363 -0.42555875666395238 0 -0.26412770949265052 -0.42198195074158551 0 -0.28511558544600363 -0.42555875666395238 0 -0.26786392081403571 -0.43069777654200919 0 -0.26412770949265052 -0.42198195074158551 0 -0.26786392081403571 -0.43069777654200919 0 -0.27298030601342571 -0.43716362978913781 0 -0.25737333973673898 -0.44366598628467141 0 -0.26282325706823523 -0.40064000968601882 0 -0.27425208414649471 -0.41477290032897018 0 -0.2602046500978914 -0.42131337322053558 0 -0.28511558544600363 -0.42555875666395238 0 -0.27425208414649471 -0.41477290032897018 0 -0.26412770949265052 -0.42198195074158551 0 -0.2863861313600306 -0.40613286466630077 0 -0.27425208414649471 -0.41477290032897018 0 -0.2863861313600306 -0.40613286466630077 0 -0.27492141742263099 -0.4044962447187731 0 -0.27425208414649471 -0.41477290032897018 0 -0.27492141742263099 -0.4044962447187731 0 -0.26282325706823523 -0.40064000968601882 0 -0.27425208414649471 -0.41477290032897018 0 -0.27425208414649471 -0.41477290032897018 0 -0.2602046500978914 -0.42131337322053558 0 -0.26412770949265052 -0.42198195074158551 0 -0.27425208414649471 -0.41477290032897018 0 -0.26412770949265052 -0.42198195074158551 0 -0.27425208414649471 -0.41477290032897018 0 -0.2602046500978914 -0.42131337322053558 0 -0.2602046500978914 -0.42131337322053558 0 -0.23981855162260179 -0.41783912370989168 0 -0.26282325706823523 -0.40064000968601882 0 -0.2602046500978914 -0.42131337322053558 0 -0.2542798798337324 -0.4115301843719209 0 -0.2602046500978914 -0.42131337322053558 0 -0.2542798798337324 -0.4115301843719209 0 -0.23981855162260179 -0.41783912370989168 0 -0.26282325706823523 -0.40064000968601882 0 -0.2602046500978914 -0.42131337322053558 0 -0.2602046500978914 -0.42131337322053558 0 -0.26412770949265052 -0.42198195074158551 0 -0.26786392081403571 -0.43069777654200919 0 -0.25972266338135891 -0.42511855923069952 0 -0.25737333973673898 -0.44366598628467141 0 -0.25972266338135891 -0.42511855923069952 0 -0.25737333973673898 -0.44366598628467141 0 -0.25972266338135891 -0.42511855923069952 0 -0.24193883553039591 -0.43778151530356513 0 -0.25972266338135891 -0.42511855923069952 0 -0.25737333973673898 -0.44366598628467141 0 -0.24193883553039591 -0.43778151530356513 0 -0.2602046500978914 -0.42131337322053558 0 -0.25972266338135891 -0.42511855923069952 0 -0.23879819611692191 -0.43072422164858909 0 -0.26786392081403571 -0.43069777654200919 0 -0.25972266338135891 -0.42511855923069952 0 -0.26412770949265052 -0.42198195074158551 0 -0.2602046500978914 -0.42131337322053558 0 -0.25972266338135891 -0.42511855923069952 0 -0.26412770949265052 -0.42198195074158551 0 -0.2602046500978914 -0.42131337322053558 0 -0.25972266338135891 -0.42511855923069952 0 -0.25972266338135891 -0.42511855923069952 0 -0.26412770949265052 -0.42198195074158551 0 -0.25737333973673898 -0.44366598628467141 0 -0.25502401609211861 -0.46221341333864319 0 -0.25737333973673898 -0.44366598628467141 0 -0.25502401609211861 -0.46221341333864319 0 -0.2486693640797952 -0.44950451703568278 0 -0.25737333973673898 -0.44366598628467141 0 -0.25502401609211861 -0.46221341333864319 0 -0.26949079068290399 -0.44919894529416371 0 -0.2796780455384737 -0.45778184057146443 0 -0.26816017531398079 -0.47526441776456058 0 -0.25502401609211861 -0.46221341333864319 0 -0.2796780455384737 -0.45778184057146443 0 -0.26816017531398079 -0.47526441776456058 0 -0.25502401609211861 -0.46221341333864319 0 -0.2796780455384737 -0.45778184057146443 0 -0.26949079068290399 -0.44919894529416371 0 -0.27298030601342571 -0.43716362978913781 0 -0.26949079068290399 -0.44919894529416371 0 -0.29119591576296672 -0.44029926337836822 0 -0.2796780455384737 -0.45778184057146443 0 -0.26949079068290399 -0.44919894529416371 0 -0.29119591576296672 -0.44029926337836822 0 -0.27298030601342571 -0.43716362978913781 0 -0.25737333973673898 -0.44366598628467141 0 -0.26949079068290399 -0.44919894529416371 0 -0.2796780455384737 -0.45778184057146443 0 -0.29119591576296672 -0.44029926337836822 0 -0.29345321857271939 -0.45432180925491922 0 -0.2796780455384737 -0.45778184057146443 0 -0.29119591576296672 -0.44029926337836822 0 -0.2796780455384737 -0.45778184057146443 0 -0.29398306588642431 -0.46737741017386458 0 -0.29345321857271939 -0.45432180925491922 0 -0.29398306588642431 -0.46737741017386458 0 -0.29345321857271939 -0.45432180925491922 0 -0.31121785537273983 -0.45270702795329032 0 -0.29398306588642431 -0.46737741017386458 0 -0.31121785537273983 -0.45270702795329032 0 -0.31027504410754009 -0.47293376153448369 0 -0.29119591576296672 -0.44029926337836822 0 -0.29345321857271939 -0.45432180925491922 0 -0.31121785537273983 -0.45270702795329032 0 -0.30610346139935662 -0.42913556258632019 0 -0.29119591576296672 -0.44029926337836822 0 -0.31121785537273983 -0.45270702795329032 0 -0.30668184164809198 -0.5 0 -0.31027504410754009 -0.47293376153448369 0 -0.28345867459851343 -0.48284037824606962 0 -0.2796780455384737 -0.45778184057146443 0 -0.29398306588642431 -0.46737741017386458 0 -0.28345867459851343 -0.48284037824606962 0 -0.31027504410754009 -0.47293376153448369 0 -0.28345867459851343 -0.48284037824606962 0 -0.29398306588642431 -0.46737741017386458 0 -0.31027504410754009 -0.47293376153448369 0 -0.28345867459851343 -0.48284037824606962 0 -0.30668184164809198 -0.5 0 -0.28345867459851343 -0.48284037824606962 0 -0.27927286124369222 -0.5 0 -0.28345867459851343 -0.48284037824606962 0 -0.25664230508948721 -0.49274699495765639 0 -0.28345867459851343 -0.48284037824606962 0 -0.27927286124369222 -0.5 0 -0.25664230508948721 -0.49274699495765639 0 -0.2796780455384737 -0.45778184057146443 0 -0.28345867459851343 -0.48284037824606962 0 -0.26816017531398079 -0.47526441776456058 0 -0.28345867459851343 -0.48284037824606962 0 -0.26816017531398079 -0.47526441776456058 0 -0.25664230508948721 -0.49274699495765639 0 -0.26816017531398079 -0.47526441776456058 0 -0.25664230508948721 -0.49274699495765639 0 -0.26816017531398079 -0.47526441776456058 0 -0.25436592055621832 -0.47871187766141782 0 -0.25664230508948721 -0.49274699495765639 0 -0.25502401609211861 -0.46221341333864319 0 -0.26816017531398079 -0.47526441776456058 0 -0.25436592055621832 -0.47871187766141782 0 -0.27927286124369222 -0.5 0 -0.25664230508948721 -0.49274699495765639 0 -0.25186388083929251 -0.50000000000000444 0 -0.25436592055621832 -0.47871187766141782 0 -0.25664230508948721 -0.49274699495765639 0 -0.24704257586964221 -0.48744253195406562 0 -0.25664230508948721 -0.49274699495765639 0 -0.25186388083929251 -0.50000000000000444 0 -0.25664230508948721 -0.49274699495765639 0 -0.23700903684778199 -0.49999999999999961 0 -0.24704257586964221 -0.48744253195406562 0 -0.25664230508948721 -0.49274699495765639 0 -0.23700903684778199 -0.49999999999999961 0 -0.23700903684778199 -0.49999999999999961 0 -0.24704257586964221 -0.48744253195406562 0 -0.240153040985081 -0.47831125519718792 0 -0.25664230508948721 -0.49274699495765639 0 -0.25186388083929251 -0.50000000000000444 0 -0.23700903684778199 -0.49999999999999961 0 -0.25502401609211861 -0.46221341333864319 0 -0.25436592055621832 -0.47871187766141782 0 -0.240153040985081 -0.47831125519718792 0 -0.25436592055621832 -0.47871187766141782 0 -0.24704257586964221 -0.48744253195406562 0 -0.240153040985081 -0.47831125519718792 0 -0.240153040985081 -0.47831125519718792 0 -0.21916294629267161 -0.47911183572405291 0 -0.2276554640871675 -0.46489062959388128 0 -0.21916294629267161 -0.47911183572405291 0 -0.2276554640871675 -0.46489062959388128 0 -0.2147459374382511 -0.4623523772378661 0 -0.23700903684778199 -0.49999999999999961 0 -0.240153040985081 -0.47831125519718792 0 -0.21916294629267161 -0.47911183572405291 0 -0.23700903684778199 -0.49999999999999961 0 -0.21916294629267161 -0.47911183572405291 0 -0.21694718512382929 -0.5 0 -0.24193883553039591 -0.43778151530356513 0 -0.2486693640797952 -0.44950451703568278 0 -0.24034126495992719 -0.45435715321585118 0 -0.24193883553039591 -0.43778151530356513 0 -0.24034126495992719 -0.45435715321585118 0 -0.2241550076794335 -0.45044447137643151 0 -0.25737333973673898 -0.44366598628467141 0 -0.24193883553039591 -0.43778151530356513 0 -0.2486693640797952 -0.44950451703568278 0 -0.25502401609211861 -0.46221341333864319 0 -0.240153040985081 -0.47831125519718792 0 -0.24034126495992719 -0.45435715321585118 0 -0.240153040985081 -0.47831125519718792 0 -0.24034126495992719 -0.45435715321585118 0 -0.2276554640871675 -0.46489062959388128 0 -0.25502401609211861 -0.46221341333864319 0 -0.2486693640797952 -0.44950451703568278 0 -0.24034126495992719 -0.45435715321585118 0 -0.24034126495992719 -0.45435715321585118 0 -0.2276554640871675 -0.46489062959388128 0 -0.2241550076794335 -0.45044447137643151 0 -0.2276554640871675 -0.46489062959388128 0 -0.2241550076794335 -0.45044447137643151 0 -0.2147459374382511 -0.4623523772378661 0 -0.24193883553039591 -0.43778151530356513 0 -0.2241550076794335 -0.45044447137643151 0 -0.22116007582540939 -0.43334705126393802 0 -0.24193883553039591 -0.43778151530356513 0 -0.2241550076794335 -0.45044447137643151 0 -0.2241550076794335 -0.45044447137643151 0 -0.2059730757824717 -0.45011634805699452 0 -0.22116007582540939 -0.43334705126393802 0 -0.2059730757824717 -0.45011634805699452 0 -0.20301165475195329 -0.4353065219882436 0 -0.22116007582540939 -0.43334705126393802 0 -0.2059730757824717 -0.45011634805699452 0 -0.2147459374382511 -0.4623523772378661 0 -0.2007738926221502 -0.46895960890039567 0 -0.2241550076794335 -0.45044447137643151 0 -0.2059730757824717 -0.45011634805699452 0 -0.2147459374382511 -0.4623523772378661 0 -0.18875214822861369 -0.45788365013262539 0 -0.2007738926221502 -0.46895960890039567 0 -0.1825873656176531 -0.4739930533251786 0 -0.2059730757824717 -0.45011634805699452 0 -0.18875214822861369 -0.45788365013262539 0 -0.2007738926221502 -0.46895960890039567 0 -0.2059730757824717 -0.45011634805699452 0 -0.18675385504061359 -0.44263613258997059 0 -0.20301165475195329 -0.4353065219882436 0 -0.2059730757824717 -0.45011634805699452 0 -0.18875214822861369 -0.45788365013262539 0 -0.18675385504061359 -0.44263613258997059 0 -0.21694718512382929 -0.5 0 -0.2064218884529711 -0.48738140313372758 0 -0.19688533339987671 -0.49999999999999939 0 -0.21916294629267161 -0.47911183572405291 0 -0.21694718512382929 -0.5 0 -0.2064218884529711 -0.48738140313372758 0 -0.21916294629267161 -0.47911183572405291 0 -0.2147459374382511 -0.4623523772378661 0 -0.2007738926221502 -0.46895960890039567 0 -0.21916294629267161 -0.47911183572405291 0 -0.2064218884529711 -0.48738140313372758 0 -0.2007738926221502 -0.46895960890039567 0 -0.1932715903255019 -0.48378352777307759 0 -0.2007738926221502 -0.46895960890039567 0 -0.1825873656176531 -0.4739930533251786 0 -0.2064218884529711 -0.48738140313372758 0 -0.1932715903255019 -0.48378352777307759 0 -0.2007738926221502 -0.46895960890039567 0 -0.2064218884529711 -0.48738140313372758 0 -0.1932715903255019 -0.48378352777307759 0 -0.19688533339987671 -0.49999999999999939 0 -0.1932715903255019 -0.48378352777307759 0 -0.19688533339987671 -0.49999999999999939 0 -0.17695338834396149 -0.48690592982659109 0 -0.19688533339987671 -0.49999999999999939 0 -0.17695338834396149 -0.48690592982659109 0 -0.16693632409036929 -0.5 0 -0.19688533339987671 -0.49999999999999939 0 -0.17695338834396149 -0.48690592982659109 0 -0.17695338834396149 -0.48690592982659109 0 -0.16693632409036929 -0.5 0 -0.1556783795844873 -0.48816431212931449 0 -0.17695338834396149 -0.48690592982659109 0 -0.15702144328804599 -0.47381185965318312 0 -0.15702144328804599 -0.47381185965318312 0 -0.1825873656176531 -0.4739930533251786 0 -0.17472740000327419 -0.46220938964518982 0 -0.17695338834396149 -0.48690592982659109 0 -0.15702144328804599 -0.47381185965318312 0 -0.1556783795844873 -0.48816431212931449 0 -0.1932715903255019 -0.48378352777307759 0 -0.17695338834396149 -0.48690592982659109 0 -0.1825873656176531 -0.4739930533251786 0 -0.17695338834396149 -0.48690592982659109 0 -0.15702144328804599 -0.47381185965318312 0 -0.1825873656176531 -0.4739930533251786 0 -0.18875214822861369 -0.45788365013262539 0 -0.17472740000327419 -0.46220938964518982 0 -0.17289651707976561 -0.44697605456786682 0 -0.18875214822861369 -0.45788365013262539 0 -0.1825873656176531 -0.4739930533251786 0 -0.17472740000327419 -0.46220938964518982 0 -0.18675385504061359 -0.44263613258997059 0 -0.17289651707976561 -0.44697605456786682 0 -0.17085451839838289 -0.43115994623594478 0 -0.18875214822861369 -0.45788365013262539 0 -0.18675385504061359 -0.44263613258997059 0 -0.17289651707976561 -0.44697605456786682 0 -0.17289651707976561 -0.44697605456786682 0 -0.15876916788179121 -0.43891484239106898 0 -0.17085451839838289 -0.43115994623594478 0 -0.17289651707976561 -0.44697605456786682 0 -0.15937503022485741 -0.45160259996081509 0 -0.15876916788179121 -0.43891484239106898 0 -0.15702144328804599 -0.47381185965318312 0 -0.17472740000327419 -0.46220938964518982 0 -0.15937503022485741 -0.45160259996081509 0 -0.17472740000327419 -0.46220938964518982 0 -0.17289651707976561 -0.44697605456786682 0 -0.15937503022485741 -0.45160259996081509 0 -0.15702144328804599 -0.47381185965318312 0 -0.1370894982321306 -0.4607177894797751 0 -0.15702144328804599 -0.47381185965318312 0 -0.15937503022485741 -0.45160259996081509 0 -0.1370894982321306 -0.4607177894797751 0 -0.15937503022485741 -0.45160259996081509 0 -0.14355486072997919 -0.43839797009834103 0 -0.1370894982321306 -0.4607177894797751 0 -0.15937503022485741 -0.45160259996081509 0 -0.15876916788179121 -0.43891484239106898 0 -0.14355486072997919 -0.43839797009834103 0 -0.14355486072997919 -0.43839797009834103 0 -0.1370894982321306 -0.4607177894797751 0 -0.12801120671619179 -0.4364607379891457 0 -0.1370894982321306 -0.4607177894797751 0 -0.12801120671619179 -0.4364607379891457 0 -0.1171575531762151 -0.44762371930636707 0 -0.1370894982321306 -0.4607177894797751 0 -0.1171575531762151 -0.44762371930636707 0 -0.1370894982321306 -0.4607177894797751 0 -0.14049342741919749 -0.48010377116679859 0 -0.1188991173633912 -0.47548310547468198 0 -0.14049342741919749 -0.48010377116679859 0 -0.13698731478086201 -0.5 0 -0.1188991173633912 -0.47548310547468198 0 -0.16693632409036929 -0.5 0 -0.13698731478086201 -0.5 0 -0.1556783795844873 -0.48816431212931449 0 -0.14049342741919749 -0.48010377116679859 0 -0.13698731478086201 -0.5 0 -0.1556783795844873 -0.48816431212931449 0 -0.15702144328804599 -0.47381185965318312 0 -0.1370894982321306 -0.4607177894797751 0 -0.14049342741919749 -0.48010377116679859 0 -0.15702144328804599 -0.47381185965318312 0 -0.14049342741919749 -0.48010377116679859 0 -0.1556783795844873 -0.48816431212931449 0 -0.15593301472267851 -0.4035431422655798 0 -0.14604181094433469 -0.38967682726999858 0 -0.13402123650211911 -0.39980888262524739 0 -0.15593301472267851 -0.4035431422655798 0 -0.13402123650211911 -0.39980888262524739 0 -0.14729670541727849 -0.4142846347063584 0 -0.15593301472267851 -0.4035431422655798 0 -0.14604181094433469 -0.38967682726999858 0 -0.16333914531930241 -0.38821755648272183 0 -0.15593301472267851 -0.4035431422655798 0 -0.13402123650211911 -0.39980888262524739 0 -0.14604181094433469 -0.38967682726999858 0 -0.16333914531930241 -0.38821755648272183 0 -0.14265593549366029 -0.37280302595550058 0 -0.14265593549366029 -0.37280302595550058 0 -0.11595142545569 -0.37766360005184069 0 -0.14604181094433469 -0.38967682726999858 0 -0.13120816163852789 -0.38507418150443851 0 -0.14265593549366029 -0.37280302595550058 0 -0.13120816163852789 -0.38507418150443851 0 -0.14265593549366029 -0.37280302595550058 0 -0.11595142545569 -0.37766360005184069 0 -0.14729670541727849 -0.4142846347063584 0 -0.1237388924361741 -0.39740932317677208 0 -0.13402123650211911 -0.39980888262524739 0 -0.14729670541727849 -0.4142846347063584 0 -0.1237388924361741 -0.39740932317677208 0 -0.13120816163852789 -0.38507418150443851 0 -0.13402123650211911 -0.39980888262524739 0 -0.1237388924361741 -0.39740932317677208 0 -0.14604181094433469 -0.38967682726999858 0 -0.13120816163852789 -0.38507418150443851 0 -0.13402123650211911 -0.39980888262524739 0 -0.12875722922688959 -0.41285331950954329 0 -0.14729670541727849 -0.4142846347063584 0 -0.1237388924361741 -0.39740932317677208 0 -0.12875722922688959 -0.41285331950954329 0 -0.13620232959407819 -0.42307512083384852 0 -0.14729670541727849 -0.4142846347063584 0 -0.12875722922688959 -0.41285331950954329 0 -0.13620232959407819 -0.42307512083384852 0 -0.1229565837461923 -0.4205328578085098 0 -0.12801120671619179 -0.4364607379891457 0 -0.13620232959407819 -0.42307512083384852 0 -0.1229565837461923 -0.4205328578085098 0 -0.14355486072997919 -0.43839797009834103 0 -0.12801120671619179 -0.4364607379891457 0 -0.13620232959407819 -0.42307512083384852 0 -0.14355486072997919 -0.43839797009834103 0 -0.13620232959407819 -0.42307512083384852 0 -0.15133551640430201 -0.42916650285311242 0 -0.13620232959407819 -0.42307512083384852 0 -0.15133551640430201 -0.42916650285311242 0 -0.14729670541727849 -0.4142846347063584 0 -0.15876916788179121 -0.43891484239106898 0 -0.14355486072997919 -0.43839797009834103 0 -0.15133551640430201 -0.42916650285311242 0 -0.14729670541727849 -0.4142846347063584 0 -0.16648825200791079 -0.41545750930977032 0 -0.17085451839838289 -0.43115994623594478 0 -0.15593301472267851 -0.4035431422655798 0 -0.16648825200791079 -0.41545750930977032 0 -0.17784479294323791 -0.40727740190591211 0 -0.15593301472267851 -0.4035431422655798 0 -0.14729670541727849 -0.4142846347063584 0 -0.16648825200791079 -0.41545750930977032 0 -0.15876916788179121 -0.43891484239106898 0 -0.15133551640430201 -0.42916650285311242 0 -0.17085451839838289 -0.43115994623594478 0 -0.15133551640430201 -0.42916650285311242 0 -0.14729670541727849 -0.4142846347063584 0 -0.17085451839838289 -0.43115994623594478 0 -0.14729670541727849 -0.4142846347063584 0 -0.17085451839838289 -0.43115994623594478 0 -0.18675385504061359 -0.44263613258997059 0 -0.18102763148506781 -0.42137956516187203 0 -0.19325521310220539 -0.42682389706810708 0 -0.16648825200791079 -0.41545750930977032 0 -0.17085451839838289 -0.43115994623594478 0 -0.18102763148506781 -0.42137956516187203 0 -0.18675385504061359 -0.44263613258997059 0 -0.17085451839838289 -0.43115994623594478 0 -0.18102763148506781 -0.42137956516187203 0 -0.17784479294323791 -0.40727740190591211 0 -0.18102763148506781 -0.42137956516187203 0 -0.19975657116379739 -0.41101166154624358 0 -0.16648825200791079 -0.41545750930977032 0 -0.17784479294323791 -0.40727740190591211 0 -0.18102763148506781 -0.42137956516187203 0 -0.17784479294323791 -0.40727740190591211 0 -0.16333914531930241 -0.38821755648272183 0 -0.18605237429737681 -0.38729246311161952 0 -0.15593301472267851 -0.4035431422655798 0 -0.17784479294323791 -0.40727740190591211 0 -0.16333914531930241 -0.38821755648272183 0 -0.15593301472267851 -0.4035431422655798 0 -0.17784479294323791 -0.40727740190591211 0 -0.16333914531930241 -0.38821755648272183 0 -0.16936044553163029 -0.36794245185915841 0 -0.14265593549366029 -0.37280302595550058 0 -0.16333914531930241 -0.38821755648272183 0 -0.18605237429737681 -0.38729246311161952 0 -0.16936044553163029 -0.36794245185915841 0 -0.18605237429737681 -0.38729246311161952 0 -0.20994833525669271 -0.38622382911286463 0 -0.19606495556960021 -0.3630818777628162 0 -0.18605237429737681 -0.38729246311161952 0 -0.20994833525669271 -0.38622382911286463 0 -0.19975657116379739 -0.41101166154624358 0 -0.17784479294323791 -0.40727740190591211 0 -0.18605237429737681 -0.38729246311161952 0 -0.19975657116379739 -0.41101166154624358 0 -0.20994833525669271 -0.38622382911286463 0 -0.19975657116379739 -0.41101166154624358 0 -0.21978756139319949 -0.41442539262806799 0 -0.20994833525669271 -0.38622382911286463 0 -0.19975657116379739 -0.41101166154624358 0 -0.18675385504061359 -0.44263613258997059 0 -0.20301165475195329 -0.4353065219882436 0 -0.19325521310220539 -0.42682389706810708 0 -0.18675385504061359 -0.44263613258997059 0 -0.19325521310220539 -0.42682389706810708 0 -0.20301165475195329 -0.4353065219882436 0 -0.19325521310220539 -0.42682389706810708 0 -0.2079160540090664 -0.42360918096220768 0 -0.18102763148506781 -0.42137956516187203 0 -0.19325521310220539 -0.42682389706810708 0 -0.19975657116379739 -0.41101166154624358 0 -0.19325521310220539 -0.42682389706810708 0 -0.19975657116379739 -0.41101166154624358 0 -0.2079160540090664 -0.42360918096220768 0 -0.17784479294323791 -0.40727740190591211 0 -0.19975657116379739 -0.41101166154624358 0 -0.19325521310220539 -0.42682389706810708 0 -0.19975657116379739 -0.41101166154624358 0 -0.19975657116379739 -0.41101166154624358 0 -0.21978756139319949 -0.41442539262806799 0 -0.19975657116379739 -0.41101166154624358 0 -0.2079160540090664 -0.42360918096220768 0 -0.21978756139319949 -0.41442539262806799 0 -0.2079160540090664 -0.42360918096220768 0 -0.22116007582540939 -0.43334705126393802 0 -0.21978756139319949 -0.41442539262806799 0 -0.20301165475195329 -0.4353065219882436 0 -0.2079160540090664 -0.42360918096220768 0 -0.22116007582540939 -0.43334705126393802 0 -0.24193883553039591 -0.43778151530356513 0 -0.22116007582540939 -0.43334705126393802 0 -0.23879819611692191 -0.43072422164858909 0 -0.22116007582540939 -0.43334705126393802 0 -0.22890839365194471 -0.42345811067570061 0 -0.23879819611692191 -0.43072422164858909 0 -0.22116007582540939 -0.43334705126393802 0 -0.22890839365194471 -0.42345811067570061 0 -0.21978756139319949 -0.41442539262806799 0 -0.22890839365194471 -0.42345811067570061 0 -0.21978756139319949 -0.41442539262806799 0 -0.23981855162260179 -0.41783912370989168 0 -0.21978756139319949 -0.41442539262806799 0 -0.23981855162260179 -0.41783912370989168 0 -0.21978756139319949 -0.41442539262806799 0 -0.23981855162260179 -0.41783912370989168 0 -0.23095803065574891 -0.39629779589079389 0 -0.2542798798337324 -0.4115301843719209 0 -0.23981855162260179 -0.41783912370989168 0 -0.24917516919066851 -0.39810422076305491 0 -0.2602046500978914 -0.42131337322053558 0 -0.23981855162260179 -0.41783912370989168 0 -0.23879819611692191 -0.43072422164858909 0 -0.25972266338135891 -0.42511855923069952 0 -0.24193883553039591 -0.43778151530356513 0 -0.23879819611692191 -0.43072422164858909 0 -0.2602046500978914 -0.42131337322053558 0 -0.23879819611692191 -0.43072422164858909 0 -0.22890839365194471 -0.42345811067570061 0 -0.23981855162260179 -0.41783912370989168 0 -0.23879819611692191 -0.43072422164858909 0 -0.20994833525669271 -0.38622382911286463 0 -0.22455764158467459 -0.37730516111905188 0 -0.23095803065574891 -0.39629779589079389 0 -0.22455764158467459 -0.37730516111905188 0 -0.23095803065574891 -0.39629779589079389 0 -0.24296228473010739 -0.38515410782651749 0 -0.20994833525669271 -0.38622382911286463 0 -0.21978756139319949 -0.41442539262806799 0 -0.23095803065574891 -0.39629779589079389 0 -0.23981855162260179 -0.41783912370989168 0 -0.23095803065574891 -0.39629779589079389 0 -0.24917516919066851 -0.39810422076305491 0 -0.23095803065574891 -0.39629779589079389 0 -0.24917516919066851 -0.39810422076305491 0 -0.24296228473010739 -0.38515410782651749 0 -0.22455764158467459 -0.37730516111905188 0 -0.24296228473010739 -0.38515410782651749 0 -0.2460462517754142 -0.36757361698329788 0 -0.2460462517754142 -0.36757361698329788 0 -0.22677440757381939 -0.36098244664020063 0 -0.23948246821061711 -0.35091504453159428 0 -0.22455764158467459 -0.37730516111905188 0 -0.2460462517754142 -0.36757361698329788 0 -0.22677440757381939 -0.36098244664020063 0 -0.22455764158467459 -0.37730516111905188 0 -0.22677440757381939 -0.36098244664020063 0 -0.22014009934958931 -0.36143599667948623 0 -0.22677440757381939 -0.36098244664020063 0 -0.22014009934958931 -0.36143599667948623 0 -0.22014009934958931 -0.36143599667948623 0 -0.2267204201740361 -0.34543171238997827 0 -0.2143235016990708 -0.35296990377202192 0 -0.22677440757381939 -0.36098244664020063 0 -0.22014009934958931 -0.36143599667948623 0 -0.2267204201740361 -0.34543171238997827 0 -0.22014009934958931 -0.36143599667948623 0 -0.2267204201740361 -0.34543171238997827 0 -0.22677440757381939 -0.36098244664020063 0 -0.2267204201740361 -0.34543171238997827 0 -0.23948246821061711 -0.35091504453159428 0 -0.25386558945051879 -0.3530705173033149 0 -0.2460462517754142 -0.36757361698329788 0 -0.23948246821061711 -0.35091504453159428 0 -0.2267204201740361 -0.34543171238997827 0 -0.23948246821061711 -0.35091504453159428 0 -0.23905984470309119 -0.33917769330552772 0 -0.25386558945051879 -0.3530705173033149 0 -0.25112350808519512 -0.33971512876303689 0 -0.23948246821061711 -0.35091504453159428 0 -0.25112350808519512 -0.33971512876303689 0 -0.24467208604712329 -0.3303991527425576 0 -0.23905984470309119 -0.33917769330552772 0 -0.25112350808519512 -0.33971512876303689 0 -0.23948246821061711 -0.35091504453159428 0 -0.23905984470309119 -0.33917769330552772 0 -0.24467208604712329 -0.3303991527425576 0 -0.23905984470309119 -0.33917769330552772 0 -0.23330074099848419 -0.32942742810047088 0 -0.26370449542184959 -0.32439830916062989 0 -0.2389315912862956 -0.3184393312024375 0 -0.2440991203977973 -0.30422705661905691 0 -0.26370449542184959 -0.32439830916062989 0 -0.24467208604712329 -0.3303991527425576 0 -0.2389315912862956 -0.3184393312024375 0 -0.24467208604712329 -0.3303991527425576 0 -0.2389315912862956 -0.3184393312024375 0 -0.23330074099848419 -0.32942742810047088 0 -0.2389315912862956 -0.3184393312024375 0 -0.2141586871507416 -0.31248035324424522 0 -0.23330074099848419 -0.32942742810047088 0 -0.2149219486666962 -0.33192670726498402 0 -0.2141586871507416 -0.31248035324424522 0 -0.2389315912862956 -0.3184393312024375 0 -0.23330074099848419 -0.32942742810047088 0 -0.2141586871507416 -0.31248035324424522 0 -0.2267204201740361 -0.34543171238997827 0 -0.23330074099848419 -0.32942742810047088 0 -0.2267204201740361 -0.34543171238997827 0 -0.23905984470309119 -0.33917769330552772 0 -0.23330074099848419 -0.32942742810047088 0 -0.2267204201740361 -0.34543171238997827 0 -0.23330074099848419 -0.32942742810047088 0 -0.2149219486666962 -0.33192670726498402 0 -0.2267204201740361 -0.34543171238997827 0 -0.2149219486666962 -0.33192670726498402 0 -0.21114142752875439 -0.34398194343432559 0 -0.2149219486666962 -0.33192670726498402 0 -0.19790721505204431 -0.33679754188824479 0 -0.21114142752875439 -0.34398194343432559 0 -0.2149219486666962 -0.33192670726498402 0 -0.20091708031960781 -0.32203761034422351 0 -0.19790721505204431 -0.33679754188824479 0 -0.2149219486666962 -0.33192670726498402 0 -0.20091708031960781 -0.32203761034422351 0 -0.2141586871507416 -0.31248035324424522 0 -0.20091708031960781 -0.32203761034422351 0 -0.1882117677133692 -0.32246207403759081 0 -0.18938578301518749 -0.30652137528605278 0 -0.20091708031960781 -0.32203761034422351 0 -0.2141586871507416 -0.31248035324424522 0 -0.18938578301518749 -0.30652137528605278 0 -0.20091708031960781 -0.32203761034422351 0 -0.1882117677133692 -0.32246207403759081 0 -0.19790721505204431 -0.33679754188824479 0 -0.1882117677133692 -0.32246207403759081 0 -0.19790721505204431 -0.33679754188824479 0 -0.18241807663471279 -0.33512685013661919 0 -0.19790721505204431 -0.33679754188824479 0 -0.18408622095259619 -0.34854252388511547 0 -0.18241807663471279 -0.33512685013661919 0 -0.2023122272956456 -0.35118482787129651 0 -0.19606495556960021 -0.3630818777628162 0 -0.18408622095259619 -0.34854252388511547 0 -0.19790721505204431 -0.33679754188824479 0 -0.2023122272956456 -0.35118482787129651 0 -0.18408622095259619 -0.34854252388511547 0 -0.2023122272956456 -0.35118482787129651 0 -0.19606495556960021 -0.3630818777628162 0 -0.20939675179628789 -0.36065531448548888 0 -0.19606495556960021 -0.3630818777628162 0 -0.20939675179628789 -0.36065531448548888 0 -0.20994833525669271 -0.38622382911286463 0 -0.22455764158467459 -0.37730516111905188 0 -0.22014009934958931 -0.36143599667948623 0 -0.22014009934958931 -0.36143599667948623 0 -0.19606495556960021 -0.3630818777628162 0 -0.20939675179628789 -0.36065531448548888 0 -0.22014009934958931 -0.36143599667948623 0 -0.19606495556960021 -0.3630818777628162 0 -0.20994833525669271 -0.38622382911286463 0 -0.22014009934958931 -0.36143599667948623 0 -0.19606495556960021 -0.3630818777628162 0 -0.20994833525669271 -0.38622382911286463 0 -0.22014009934958931 -0.36143599667948623 0 -0.22014009934958931 -0.36143599667948623 0 -0.20939675179628789 -0.36065531448548888 0 -0.2143235016990708 -0.35296990377202192 0 -0.2267204201740361 -0.34543171238997827 0 -0.2143235016990708 -0.35296990377202192 0 -0.21114142752875439 -0.34398194343432559 0 -0.2023122272956456 -0.35118482787129651 0 -0.2143235016990708 -0.35296990377202192 0 -0.21114142752875439 -0.34398194343432559 0 -0.19790721505204431 -0.33679754188824479 0 -0.2023122272956456 -0.35118482787129651 0 -0.21114142752875439 -0.34398194343432559 0 -0.2023122272956456 -0.35118482787129651 0 -0.20939675179628789 -0.36065531448548888 0 -0.2143235016990708 -0.35296990377202192 0 -0.2267784058636389 -0.2531829608006998 0 -0.24231703749730041 -0.27657564142023872 0 -0.24799023007116741 -0.24805905770765271 0 -0.24231703749730041 -0.27657564142023872 0 -0.22354905983255491 -0.27060819086057297 0 -0.21841257170004619 -0.28391041307604198 0 -0.2267784058636389 -0.2531829608006998 0 -0.24231703749730041 -0.27657564142023872 0 -0.22354905983255491 -0.27060819086057297 0 -0.24231703749730041 -0.27657564142023872 0 -0.2284453452483492 -0.29867029134898132 0 -0.21841257170004619 -0.28391041307604198 0 -0.2284453452483492 -0.29867029134898132 0 -0.2153557400568758 -0.29729096548711781 0 -0.21841257170004619 -0.28391041307604198 0 -0.25767176005114001 -0.29847631042249101 0 -0.24231703749730041 -0.27657564142023872 0 -0.2440991203977973 -0.30422705661905691 0 -0.24231703749730041 -0.27657564142023872 0 -0.2440991203977973 -0.30422705661905691 0 -0.2284453452483492 -0.29867029134898132 0 -0.2389315912862956 -0.3184393312024375 0 -0.2440991203977973 -0.30422705661905691 0 -0.2284453452483492 -0.29867029134898132 0 -0.2389315912862956 -0.3184393312024375 0 -0.2284453452483492 -0.29867029134898132 0 -0.2141586871507416 -0.31248035324424522 0 -0.2284453452483492 -0.29867029134898132 0 -0.2141586871507416 -0.31248035324424522 0 -0.2153557400568758 -0.29729096548711781 0 -0.2141586871507416 -0.31248035324424522 0 -0.2153557400568758 -0.29729096548711781 0 -0.20040635612836599 -0.29410280427920271 0 -0.2141586871507416 -0.31248035324424522 0 -0.18938578301518749 -0.30652137528605278 0 -0.20040635612836599 -0.29410280427920271 0 -0.18938578301518749 -0.30652137528605278 0 -0.20040635612836599 -0.29410280427920271 0 -0.17704888311579259 -0.2915556156906004 0 -0.2141586871507416 -0.31248035324424522 0 -0.18938578301518749 -0.30652137528605278 0 -0.20040635612836599 -0.29410280427920271 0 -0.200768206806129 -0.27043361924312559 0 -0.2153557400568758 -0.29729096548711781 0 -0.20040635612836599 -0.29410280427920271 0 -0.21841257170004619 -0.28391041307604198 0 -0.20040635612836599 -0.29410280427920271 0 -0.21841257170004619 -0.28391041307604198 0 -0.200768206806129 -0.27043361924312559 0 -0.22354905983255491 -0.27060819086057297 0 -0.21841257170004619 -0.28391041307604198 0 -0.200768206806129 -0.27043361924312559 0 -0.20040635612836599 -0.29410280427920271 0 -0.200768206806129 -0.27043361924312559 0 -0.1848665286861699 -0.27028690912927822 0 -0.1848665286861699 -0.27028690912927822 0 -0.1823819740086263 -0.24436516961006241 0 -0.20113005748389201 -0.24676443420704861 0 -0.200768206806129 -0.27043361924312559 0 -0.20113005748389201 -0.24676443420704861 0 -0.200768206806129 -0.27043361924312559 0 -0.1848665286861699 -0.27028690912927822 0 -0.20113005748389201 -0.24676443420704861 0 -0.2267784058636389 -0.2531829608006998 0 -0.22354905983255491 -0.27060819086057297 0 -0.200768206806129 -0.27043361924312559 0 -0.2267784058636389 -0.2531829608006998 0 -0.200768206806129 -0.27043361924312559 0 -0.20113005748389201 -0.24676443420704861 0 -0.1716413308706112 -0.26194202718264648 0 -0.15688054560814499 -0.25886050243257253 0 -0.16419278721665839 -0.2396948744278187 0 -0.1716413308706112 -0.26194202718264648 0 -0.1848665286861699 -0.27028690912927822 0 -0.1823819740086263 -0.24436516961006241 0 -0.1848665286861699 -0.27028690912927822 0 -0.1621156857498037 -0.27657533886477581 0 -0.17704888311579259 -0.2915556156906004 0 -0.1716413308706112 -0.26194202718264648 0 -0.1848665286861699 -0.27028690912927822 0 -0.1621156857498037 -0.27657533886477581 0 -0.1716413308706112 -0.26194202718264648 0 -0.15688054560814499 -0.25886050243257253 0 -0.1621156857498037 -0.27657533886477581 0 -0.1621156857498037 -0.27657533886477581 0 -0.15888502881662861 -0.29395581214422911 0 -0.17704888311579259 -0.2915556156906004 0 -0.20040635612836599 -0.29410280427920271 0 -0.1848665286861699 -0.27028690912927822 0 -0.17704888311579259 -0.2915556156906004 0 -0.18938578301518749 -0.30652137528605278 0 -0.17704888311579259 -0.2915556156906004 0 -0.17083307709722301 -0.31086445595247703 0 -0.15888502881662861 -0.29395581214422911 0 -0.17704888311579259 -0.2915556156906004 0 -0.17083307709722301 -0.31086445595247703 0 -0.15888502881662861 -0.29395581214422911 0 -0.17083307709722301 -0.31086445595247703 0 -0.15198121202991219 -0.31074932663930183 0 -0.15888502881662861 -0.29395581214422911 0 -0.15198121202991219 -0.31074932663930183 0 -0.14617400354006169 -0.29936353954791067 0 -0.15198121202991219 -0.31074932663930183 0 -0.14617400354006169 -0.29936353954791067 0 -0.1397525030646232 -0.30774598691952099 0 -0.1397525030646232 -0.30774598691952099 0 -0.12770824317764151 -0.30633583095269978 0 -0.133260858922781 -0.29751509147080912 0 -0.14617400354006169 -0.29936353954791067 0 -0.1397525030646232 -0.30774598691952099 0 -0.133260858922781 -0.29751509147080912 0 -0.133260858922781 -0.29751509147080912 0 -0.14699041486636349 -0.28685148056569248 0 -0.1399045943754775 -0.27120178771947689 0 -0.133260858922781 -0.29751509147080912 0 -0.1399045943754775 -0.27120178771947689 0 -0.133260858922781 -0.29751509147080912 0 -0.1399045943754775 -0.27120178771947689 0 -0.1138835835546166 -0.28620059801020431 0 -0.1621156857498037 -0.27657533886477581 0 -0.15888502881662861 -0.29395581214422911 0 -0.14699041486636349 -0.28685148056569248 0 -0.14617400354006169 -0.29936353954791067 0 -0.133260858922781 -0.29751509147080912 0 -0.14699041486636349 -0.28685148056569248 0 -0.15888502881662861 -0.29395581214422911 0 -0.14617400354006169 -0.29936353954791067 0 -0.14699041486636349 -0.28685148056569248 0 -0.1621156857498037 -0.27657533886477581 0 -0.14699041486636349 -0.28685148056569248 0 -0.1399045943754775 -0.27120178771947689 0 -0.15688054560814499 -0.25886050243257253 0 -0.1621156857498037 -0.27657533886477581 0 -0.1399045943754775 -0.27120178771947689 0 -0.1399045943754775 -0.27120178771947689 0 -0.12937871783699009 -0.25205806651978629 0 -0.14654832982817401 -0.24488848396814461 0 -0.1399045943754775 -0.27120178771947689 0 -0.12937871783699009 -0.25205806651978629 0 -0.1187825477718987 -0.26456892488035078 0 -0.1399045943754775 -0.27120178771947689 0 -0.14654832982817401 -0.24488848396814461 0 -0.15688054560814499 -0.25886050243257253 0 -0.1399045943754775 -0.27120178771947689 0 -0.14654832982817401 -0.24488848396814461 0 -0.1664553243652922 -0.36510612037290763 0 -0.169513141403313 -0.34155868802060169 0 -0.1553575624236912 -0.34660629683769062 0 -0.16936044553163029 -0.36794245185915841 0 -0.1664553243652922 -0.36510612037290763 0 -0.14265593549366029 -0.37280302595550058 0 -0.18605237429737681 -0.38729246311161952 0 -0.19606495556960021 -0.3630818777628162 0 -0.16936044553163029 -0.36794245185915841 0 -0.19606495556960021 -0.3630818777628162 0 -0.1664553243652922 -0.36510612037290763 0 -0.19606495556960021 -0.3630818777628162 0 -0.16936044553163029 -0.36794245185915841 0 -0.1664553243652922 -0.36510612037290763 0 -0.19606495556960021 -0.3630818777628162 0 -0.16936044553163029 -0.36794245185915841 0 -0.1664553243652922 -0.36510612037290763 0 -0.18408622095259619 -0.34854252388511547 0 -0.169513141403313 -0.34155868802060169 0 -0.19606495556960021 -0.3630818777628162 0 -0.1664553243652922 -0.36510612037290763 0 -0.18408622095259619 -0.34854252388511547 0 -0.1882117677133692 -0.32246207403759081 0 -0.18241807663471279 -0.33512685013661919 0 -0.1737235856693834 -0.32741709897157129 0 -0.18241807663471279 -0.33512685013661919 0 -0.1737235856693834 -0.32741709897157129 0 -0.169513141403313 -0.34155868802060169 0 -0.18408622095259619 -0.34854252388511547 0 -0.18241807663471279 -0.33512685013661919 0 -0.169513141403313 -0.34155868802060169 0 -0.1882117677133692 -0.32246207403759081 0 -0.17083307709722301 -0.31086445595247703 0 -0.1737235856693834 -0.32741709897157129 0 -0.1882117677133692 -0.32246207403759081 0 -0.18938578301518749 -0.30652137528605278 0 -0.17083307709722301 -0.31086445595247703 0 -0.17083307709722301 -0.31086445595247703 0 -0.1737235856693834 -0.32741709897157129 0 -0.1582817926553434 -0.32929806060777411 0 -0.17083307709722301 -0.31086445595247703 0 -0.15198121202991219 -0.31074932663930183 0 -0.1582817926553434 -0.32929806060777411 0 -0.169513141403313 -0.34155868802060169 0 -0.1582817926553434 -0.32929806060777411 0 -0.1553575624236912 -0.34660629683769062 0 -0.1737235856693834 -0.32741709897157129 0 -0.169513141403313 -0.34155868802060169 0 -0.1582817926553434 -0.32929806060777411 0 -0.1582817926553434 -0.32929806060777411 0 -0.14153290280066641 -0.3264710638951952 0 -0.1553575624236912 -0.34660629683769062 0 -0.14153290280066641 -0.3264710638951952 0 -0.13340915427692029 -0.34443055359910452 0 -0.1553575624236912 -0.34660629683769062 0 -0.14153290280066641 -0.3264710638951952 0 -0.1553575624236912 -0.34660629683769062 0 -0.15198121202991219 -0.31074932663930183 0 -0.1582817926553434 -0.32929806060777411 0 -0.14153290280066641 -0.3264710638951952 0 -0.15198121202991219 -0.31074932663930183 0 -0.1397525030646232 -0.30774598691952099 0 -0.14153290280066641 -0.3264710638951952 0 -0.1397525030646232 -0.30774598691952099 0 -0.12770824317764151 -0.30633583095269978 0 -0.14153290280066641 -0.3264710638951952 0 -0.12770824317764151 -0.30633583095269978 0 -0.14153290280066641 -0.3264710638951952 0 -0.12595189727385181 -0.33018410737998483 0 -0.12770824317764151 -0.30633583095269978 0 -0.14153290280066641 -0.3264710638951952 0 -0.14153290280066641 -0.3264710638951952 0 -0.12595189727385181 -0.33018410737998483 0 -0.13340915427692029 -0.34443055359910452 0 -0.13340915427692029 -0.34443055359910452 0 -0.13684569316098411 -0.367130362982999 0 -0.1196173820537733 -0.35436316413501578 0 -0.13340915427692029 -0.34443055359910452 0 -0.1553575624236912 -0.34660629683769062 0 -0.13684569316098411 -0.367130362982999 0 -0.1664553243652922 -0.36510612037290763 0 -0.13684569316098411 -0.367130362982999 0 -0.16936044553163029 -0.36794245185915841 0 -0.14265593549366029 -0.37280302595550058 0 -0.1664553243652922 -0.36510612037290763 0 -0.1553575624236912 -0.34660629683769062 0 -0.13684569316098411 -0.367130362982999 0 -0.1664553243652922 -0.36510612037290763 0 -0.14265593549366029 -0.37280302595550058 0 -0.13684569316098411 -0.367130362982999 0 -0.14265593549366029 -0.37280302595550058 0 -0.13684569316098411 -0.367130362982999 0 -0.11595142545569 -0.37766360005184069 0 -0.13684569316098411 -0.367130362982999 0 -0.10723606195667609 -0.3691546055930911 0 -0.1196173820537733 -0.35436316413501578 0 -0.13684569316098411 -0.367130362982999 0 -0.10723606195667609 -0.3691546055930911 0 -0.13684569316098411 -0.367130362982999 0 -0.10723606195667609 -0.3691546055930911 0 -0.11595142545569 -0.37766360005184069 0 -0.10723606195667609 -0.3691546055930911 0 -0.11595142545569 -0.37766360005184069 0 -0.10723606195667609 -0.3691546055930911 0 -0.090885284367020633 -0.3631415774260503 0 -0.086715344408288278 -0.34911979328395448 0 -0.10723606195667609 -0.3691546055930911 0 -0.09232536180786495 -0.37017396562426591 0 -0.090885284367020633 -0.3631415774260503 0 -0.10723606195667609 -0.3691546055930911 0 -0.09232536180786495 -0.37017396562426591 0 -0.10723606195667609 -0.3691546055930911 0 -0.09232536180786495 -0.37017396562426591 0 -0.1001810794550692 -0.38053401164718648 0 -0.10723606195667609 -0.3691546055930911 0 -0.086715344408288278 -0.34911979328395448 0 -0.10723606195667609 -0.3691546055930911 0 -0.1056282000810876 -0.3500764664830236 0 -0.086715344408288278 -0.34911979328395448 0 -0.1056282000810876 -0.3500764664830236 0 -0.100341680911258 -0.33481966784673423 0 -0.086715344408288278 -0.34911979328395448 0 -0.13340915427692029 -0.34443055359910452 0 -0.1196173820537733 -0.35436316413501578 0 -0.1145831095949567 -0.34110275977545379 0 -0.1056282000810876 -0.3500764664830236 0 -0.1196173820537733 -0.35436316413501578 0 -0.1145831095949567 -0.34110275977545379 0 -0.10723606195667609 -0.3691546055930911 0 -0.1056282000810876 -0.3500764664830236 0 -0.1196173820537733 -0.35436316413501578 0 -0.12595189727385181 -0.33018410737998483 0 -0.13340915427692029 -0.34443055359910452 0 -0.1145831095949567 -0.34110275977545379 0 -0.12595189727385181 -0.33018410737998483 0 -0.1145831095949567 -0.34110275977545379 0 -0.1124898494788427 -0.32263831283168543 0 -0.12770824317764151 -0.30633583095269978 0 -0.12595189727385181 -0.33018410737998483 0 -0.1124898494788427 -0.32263831283168543 0 -0.096754971014739788 -0.31766000409245448 0 -0.100341680911258 -0.33481966784673423 0 -0.085878610889632875 -0.32832067061383402 0 -0.1124898494788427 -0.32263831283168543 0 -0.096754971014739788 -0.31766000409245448 0 -0.100341680911258 -0.33481966784673423 0 -0.1124898494788427 -0.32263831283168543 0 -0.096754971014739788 -0.31766000409245448 0 -0.1072744205259434 -0.30397408915826118 0 -0.1145831095949567 -0.34110275977545379 0 -0.1124898494788427 -0.32263831283168543 0 -0.100341680911258 -0.33481966784673423 0 -0.1056282000810876 -0.3500764664830236 0 -0.1145831095949567 -0.34110275977545379 0 -0.100341680911258 -0.33481966784673423 0 -0.100341680911258 -0.33481966784673423 0 -0.085878610889632875 -0.32832067061383402 0 -0.086715344408288278 -0.34911979328395448 0 -0.085878610889632875 -0.32832067061383402 0 -0.066194626859901157 -0.32908498097481731 0 -0.086715344408288278 -0.34911979328395448 0 -0.096754971014739788 -0.31766000409245448 0 -0.085878610889632875 -0.32832067061383402 0 -0.079367870071178431 -0.31204553400516227 0 -0.066194626859901157 -0.32908498097481731 0 -0.079367870071178431 -0.31204553400516227 0 -0.061986089044039058 -0.30086945862613862 0 -0.085878610889632875 -0.32832067061383402 0 -0.066194626859901157 -0.32908498097481731 0 -0.079367870071178431 -0.31204553400516227 0 -0.066194626859901157 -0.32908498097481731 0 -0.086715344408288278 -0.34911979328395448 0 -0.066194626859901157 -0.32908498097481731 0 -0.070816491389873476 -0.34842000630730552 0 -0.054347659135438368 -0.34770187875859221 0 -0.066194626859901157 -0.32908498097481731 0 -0.070816491389873476 -0.34842000630730552 0 -0.086715344408288278 -0.34911979328395448 0 -0.077264369295254001 -0.36411794520288898 0 -0.054347659135438368 -0.34770187875859221 0 -0.070816491389873476 -0.34842000630730552 0 -0.077264369295254001 -0.36411794520288898 0 -0.054347659135438368 -0.34770187875859221 0 -0.077264369295254001 -0.36411794520288898 0 -0.060753216710022213 -0.37099431730030352 0 -0.054347659135438368 -0.34770187875859221 0 -0.077264369295254001 -0.36411794520288898 0 -0.060753216710022213 -0.37099431730030352 0 -0.076548486592959819 -0.38483545617965181 0 -0.077264369295254001 -0.36411794520288898 0 -0.1001810794550692 -0.38053401164718648 0 -0.077264369295254001 -0.36411794520288898 0 -0.09232536180786495 -0.37017396562426591 0 -0.1001810794550692 -0.38053401164718648 0 -0.077264369295254001 -0.36411794520288898 0 -0.09232536180786495 -0.37017396562426591 0 -0.090885284367020633 -0.3631415774260503 0 -0.070816491389873476 -0.34842000630730552 0 -0.077264369295254001 -0.36411794520288898 0 -0.086715344408288278 -0.34911979328395448 0 -0.077264369295254001 -0.36411794520288898 0 -0.090885284367020633 -0.3631415774260503 0 -0.086715344408288278 -0.34911979328395448 0 -0.089818293535093519 -0.2633586966713794 0 -0.11010257242285861 -0.24835221853318229 0 -0.1000589239315916 -0.26606536506770873 0 -0.089818293535093519 -0.2633586966713794 0 -0.11010257242285861 -0.24835221853318229 0 -0.089818293535093519 -0.2633586966713794 0 -0.11010257242285861 -0.24835221853318229 0 -0.09394818964534804 -0.2472014160134432 0 -0.1187825477718987 -0.26456892488035078 0 -0.1000589239315916 -0.26606536506770873 0 -0.11010257242285861 -0.24835221853318229 0 -0.12937871783699009 -0.25205806651978629 0 -0.1187825477718987 -0.26456892488035078 0 -0.11010257242285861 -0.24835221853318229 0 -0.1187825477718987 -0.26456892488035078 0 -0.1000589239315916 -0.26606536506770873 0 -0.1138835835546166 -0.28620059801020431 0 -0.1399045943754775 -0.27120178771947689 0 -0.1187825477718987 -0.26456892488035078 0 -0.1138835835546166 -0.28620059801020431 0 -0.1000589239315916 -0.26606536506770873 0 -0.1138835835546166 -0.28620059801020431 0 -0.09236994419197371 -0.27589558242780532 0 -0.1000589239315916 -0.26606536506770873 0 -0.1138835835546166 -0.28620059801020431 0 -0.1000589239315916 -0.26606536506770873 0 -0.09236994419197371 -0.27589558242780532 0 -0.089818293535093519 -0.2633586966713794 0 -0.098608915334025493 -0.29028977794130217 0 -0.1138835835546166 -0.28620059801020431 0 -0.1072744205259434 -0.30397408915826118 0 -0.098608915334025493 -0.29028977794130217 0 -0.1138835835546166 -0.28620059801020431 0 -0.09236994419197371 -0.27589558242780532 0 -0.12770824317764151 -0.30633583095269978 0 -0.1138835835546166 -0.28620059801020431 0 -0.12770824317764151 -0.30633583095269978 0 -0.133260858922781 -0.29751509147080912 0 -0.1138835835546166 -0.28620059801020431 0 -0.12770824317764151 -0.30633583095269978 0 -0.1124898494788427 -0.32263831283168543 0 -0.1072744205259434 -0.30397408915826118 0 -0.12770824317764151 -0.30633583095269978 0 -0.1138835835546166 -0.28620059801020431 0 -0.1072744205259434 -0.30397408915826118 0 -0.098608915334025493 -0.29028977794130217 0 -0.1072744205259434 -0.30397408915826118 0 -0.091611551031516594 -0.30052310423051398 0 -0.096754971014739788 -0.31766000409245448 0 -0.1072744205259434 -0.30397408915826118 0 -0.091611551031516594 -0.30052310423051398 0 -0.079367870071178431 -0.31204553400516227 0 -0.091611551031516594 -0.30052310423051398 0 -0.076693151684407837 -0.29256762176561579 0 -0.096754971014739788 -0.31766000409245448 0 -0.079367870071178431 -0.31204553400516227 0 -0.091611551031516594 -0.30052310423051398 0 -0.079367870071178431 -0.31204553400516227 0 -0.076693151684407837 -0.29256762176561579 0 -0.061986089044039058 -0.30086945862613862 0 -0.076693151684407837 -0.29256762176561579 0 -0.066680714098823438 -0.28437002620684643 0 -0.061986089044039058 -0.30086945862613862 0 -0.076693151684407837 -0.29256762176561579 0 -0.066680714098823438 -0.28437002620684643 0 -0.07548059667371268 -0.27668036738764129 0 -0.076693151684407837 -0.29256762176561579 0 -0.087905077366077208 -0.28485551587972602 0 -0.07548059667371268 -0.27668036738764129 0 -0.098608915334025493 -0.29028977794130217 0 -0.091611551031516594 -0.30052310423051398 0 -0.087905077366077208 -0.28485551587972602 0 -0.091611551031516594 -0.30052310423051398 0 -0.076693151684407837 -0.29256762176561579 0 -0.087905077366077208 -0.28485551587972602 0 -0.098608915334025493 -0.29028977794130217 0 -0.087905077366077208 -0.28485551587972602 0 -0.09236994419197371 -0.27589558242780532 0 -0.087905077366077208 -0.28485551587972602 0 -0.09236994419197371 -0.27589558242780532 0 -0.07548059667371268 -0.27668036738764129 0 -0.09236994419197371 -0.27589558242780532 0 -0.07548059667371268 -0.27668036738764129 0 -0.078303486864808799 -0.26421274805344069 0 -0.09236994419197371 -0.27589558242780532 0 -0.078303486864808799 -0.26421274805344069 0 -0.089818293535093519 -0.2633586966713794 0 -0.07548059667371268 -0.27668036738764129 0 -0.078303486864808799 -0.26421274805344069 0 -0.059350655995231233 -0.27092063908117692 0 -0.066680714098823438 -0.28437002620684643 0 -0.07548059667371268 -0.27668036738764129 0 -0.059350655995231233 -0.27092063908117692 0 -0.068366573737641323 -0.25253740418488252 0 -0.078303486864808799 -0.26421274805344069 0 -0.059350655995231233 -0.27092063908117692 0 -0.068366573737641323 -0.25253740418488252 0 -0.083272819808187987 -0.25263187722785801 0 -0.078303486864808799 -0.26421274805344069 0 -0.083272819808187987 -0.25263187722785801 0 -0.089818293535093519 -0.2633586966713794 0 -0.09394818964534804 -0.2472014160134432 0 -0.083272819808187987 -0.25263187722785801 0 -0.078303486864808799 -0.26421274805344069 0 -0.089818293535093519 -0.2633586966713794 0 -0.046875099676261543 -0.25967945999221032 0 -0.024890178214298422 -0.25430902650138593 0 -0.035749307939398157 -0.23613236175456659 0 -0.046875099676261543 -0.25967945999221032 0 -0.022862485017565971 -0.27205499478054329 0 -0.024890178214298422 -0.25430902650138593 0 -0.068366573737641323 -0.25253740418488252 0 -0.046875099676261543 -0.25967945999221032 0 -0.059350655995231233 -0.27092063908117692 0 -0.046875099676261543 -0.25967945999221032 0 -0.059350655995231233 -0.27092063908117692 0 -0.047432147947605877 -0.27870769266788098 0 -0.066680714098823438 -0.28437002620684643 0 -0.059350655995231233 -0.27092063908117692 0 -0.055069796600467888 -0.28555648255771632 0 -0.059350655995231233 -0.27092063908117692 0 -0.047432147947605877 -0.27870769266788098 0 -0.055069796600467888 -0.28555648255771632 0 -0.046875099676261543 -0.25967945999221032 0 -0.033882858759090771 -0.28399049788291869 0 -0.022862485017565971 -0.27205499478054329 0 -0.046875099676261543 -0.25967945999221032 0 -0.047432147947605877 -0.27870769266788098 0 -0.033882858759090771 -0.28399049788291869 0 -0.046875099676261543 -0.25967945999221032 0 -0.033882858759090771 -0.28399049788291869 0 -0.033882858759090771 -0.28399049788291869 0 -0.043883078295701143 -0.29374532345826249 0 -0.02515319176312697 -0.28901535635654257 0 -0.047432147947605877 -0.27870769266788098 0 -0.033882858759090771 -0.28399049788291869 0 -0.043883078295701143 -0.29374532345826249 0 -0.066680714098823438 -0.28437002620684643 0 -0.055069796600467888 -0.28555648255771632 0 -0.061986089044039058 -0.30086945862613862 0 -0.047432147947605877 -0.27870769266788098 0 -0.043883078295701143 -0.29374532345826249 0 -0.055069796600467888 -0.28555648255771632 0 -0.043883078295701143 -0.29374532345826249 0 -0.055069796600467888 -0.28555648255771632 0 -0.061986089044039058 -0.30086945862613862 0 -0.043883078295701143 -0.29374532345826249 0 -0.061986089044039058 -0.30086945862613862 0 -0.045673909311514063 -0.30905016866567991 0 -0.045673909311514063 -0.30905016866567991 0 -0.02515319176312697 -0.28901535635654257 0 -0.045673909311514063 -0.30905016866567991 0 -0.021720441036629411 -0.30590239801533842 0 -0.031940421759058313 -0.32035981859530649 0 -0.043883078295701143 -0.29374532345826249 0 -0.045673909311514063 -0.30905016866567991 0 -0.02515319176312697 -0.28901535635654257 0 -0.045673909311514063 -0.30905016866567991 0 -0.021720441036629411 -0.30590239801533842 0 -0.02515319176312697 -0.28901535635654257 0 -0.021720441036629411 -0.30590239801533842 0 -0.01477602386468263 -0.29829372501661999 0 -0.02515319176312697 -0.28901535635654257 0 -0.004544949104850809 -0.28998090514241193 0 -0.005843262978067601 -0.31295642949440799 0 0.009871486307794693 -0.29915250655904557 0 -0.021720441036629411 -0.30590239801533842 0 -0.01477602386468263 -0.29829372501661999 0 -0.005843262978067601 -0.31295642949440799 0 -0.01477602386468263 -0.29829372501661999 0 -0.004544949104850809 -0.28998090514241193 0 -0.005843262978067601 -0.31295642949440799 0 -0.004544949104850809 -0.28998090514241193 0 -0.02515319176312697 -0.28901535635654257 0 -0.0046324742147398424 -0.26898054404740518 0 -0.01477602386468263 -0.29829372501661999 0 -0.004544949104850809 -0.28998090514241193 0 -0.02515319176312697 -0.28901535635654257 0 -0.033882858759090771 -0.28399049788291869 0 -0.02515319176312697 -0.28901535635654257 0 -0.022862485017565971 -0.27205499478054329 0 -0.02515319176312697 -0.28901535635654257 0 -0.022862485017565971 -0.27205499478054329 0 -0.0046324742147398424 -0.26898054404740518 0 -0.02515319176312697 -0.28901535635654257 0 -0.0046324742147398424 -0.26898054404740518 0 -0.0046324742147398424 -0.26898054404740518 0 -0.024890178214298422 -0.25430902650138593 0 -0.0090460024824604059 -0.24289386846019159 0 -0.022862485017565971 -0.27205499478054329 0 -0.0046324742147398424 -0.26898054404740518 0 -0.024890178214298422 -0.25430902650138593 0 -0.035964791226470873 -0.35448831704909078 0 -0.042689674795608402 -0.36917940564826812 0 -0.054347659135438368 -0.34770187875859221 0 -0.035964791226470873 -0.35448831704909078 0 -0.054347659135438368 -0.34770187875859221 0 -0.031430948975625692 -0.33128581231429099 0 -0.035964791226470873 -0.35448831704909078 0 -0.042689674795608402 -0.36917940564826812 0 -0.02254549095757066 -0.36041583931946108 0 -0.042689674795608402 -0.36917940564826812 0 -0.060753216710022213 -0.37099431730030352 0 -0.054347659135438368 -0.34770187875859221 0 -0.066194626859901157 -0.32908498097481731 0 -0.054347659135438368 -0.34770187875859221 0 -0.04952738682898062 -0.33155658013758998 0 -0.066194626859901157 -0.32908498097481731 0 -0.045673909311514063 -0.30905016866567991 0 -0.066194626859901157 -0.32908498097481731 0 -0.045673909311514063 -0.30905016866567991 0 -0.04952738682898062 -0.33155658013758998 0 -0.066194626859901157 -0.32908498097481731 0 -0.061986089044039058 -0.30086945862613862 0 -0.045673909311514063 -0.30905016866567991 0 -0.045673909311514063 -0.30905016866567991 0 -0.04952738682898062 -0.33155658013758998 0 -0.040395111972225672 -0.32295957757258559 0 -0.045673909311514063 -0.30905016866567991 0 -0.040395111972225672 -0.32295957757258559 0 -0.031940421759058313 -0.32035981859530649 0 -0.040395111972225672 -0.32295957757258559 0 -0.031940421759058313 -0.32035981859530649 0 -0.031430948975625692 -0.33128581231429099 0 -0.054347659135438368 -0.34770187875859221 0 -0.031430948975625692 -0.33128581231429099 0 -0.054347659135438368 -0.34770187875859221 0 -0.04952738682898062 -0.33155658013758998 0 -0.031430948975625692 -0.33128581231429099 0 -0.04952738682898062 -0.33155658013758998 0 -0.040395111972225672 -0.32295957757258559 0 -0.031430948975625692 -0.33128581231429099 0 -0.031430948975625692 -0.33128581231429099 0 -0.01206333993307738 -0.3389309273689578 0 -0.031430948975625692 -0.33128581231429099 0 -0.01206333993307738 -0.3389309273689578 0 -0.023104004814078719 -0.34725614578219738 0 -0.031430948975625692 -0.33128581231429099 0 -0.018637105976845082 -0.32212112090435169 0 -0.01206333993307738 -0.3389309273689578 0 -0.021720441036629411 -0.30590239801533842 0 -0.031940421759058313 -0.32035981859530649 0 -0.018637105976845082 -0.32212112090435169 0 -0.031430948975625692 -0.33128581231429099 0 -0.018637105976845082 -0.32212112090435169 0 -0.031940421759058313 -0.32035981859530649 0 -0.031430948975625692 -0.33128581231429099 0 -0.018637105976845082 -0.32212112090435169 0 -0.021720441036629411 -0.30590239801533842 0 -0.018637105976845082 -0.32212112090435169 0 -0.005843262978067601 -0.31295642949440799 0 -0.018637105976845082 -0.32212112090435169 0 -0.001421899869626134 -0.32503082824467561 0 -0.005843262978067601 -0.31295642949440799 0 -0.018637105976845082 -0.32212112090435169 0 -0.005843262978067601 -0.31295642949440799 0 -0.01206333993307738 -0.3389309273689578 0 0.0073042691094695146 -0.34657604242362822 0 -0.018637105976845082 -0.32212112090435169 0 -0.001421899869626134 -0.32503082824467561 0 -0.01206333993307738 -0.3389309273689578 0 -0.001421899869626134 -0.32503082824467561 0 -0.01206333993307738 -0.3389309273689578 0 0.0047812935972586972 -0.33386408607992962 0 -0.01206333993307738 -0.3389309273689578 0 -0.0076206109240504324 -0.35349594087154501 0 0.0073042691094695146 -0.34657604242362822 0 -0.0076206109240504324 -0.35349594087154501 0 0.0073042691094695146 -0.34657604242362822 0 -0.0076206109240504324 -0.35349594087154501 0 -0.02254549095757066 -0.36041583931946108 0 -0.01206333993307738 -0.3389309273689578 0 -0.0076206109240504324 -0.35349594087154501 0 -0.023104004814078719 -0.34725614578219738 0 -0.035964791226470873 -0.35448831704909078 0 -0.031430948975625692 -0.33128581231429099 0 -0.023104004814078719 -0.34725614578219738 0 -0.0076206109240504324 -0.35349594087154501 0 -0.023104004814078719 -0.34725614578219738 0 -0.02254549095757066 -0.36041583931946108 0 -0.035964791226470873 -0.35448831704909078 0 -0.023104004814078719 -0.34725614578219738 0 -0.02254549095757066 -0.36041583931946108 0 -0.042689674795608402 -0.36917940564826812 0 -0.02254549095757066 -0.36041583931946108 0 -0.023872678432908301 -0.37634159189261462 0 -0.02254549095757066 -0.36041583931946108 0 -0.0103623777508261 -0.37164375903504088 0 -0.023872678432908301 -0.37634159189261462 0 -0.0103623777508261 -0.37164375903504088 0 -0.00075225153846593049 -0.38498931512111112 0 0.0075592713510389299 -0.3666810191343462 0 -0.0076206109240504324 -0.35349594087154501 0 -0.0103623777508261 -0.37164375903504088 0 0.0075592713510389299 -0.3666810191343462 0 -0.0076206109240504324 -0.35349594087154501 0 -0.02254549095757066 -0.36041583931946108 0 -0.0103623777508261 -0.37164375903504088 0 -0.00075225153846593049 -0.38498931512111112 0 -0.01398426331951466 -0.38483056021407858 0 -0.0056507080066318244 -0.3977397897770456 0 -0.0103623777508261 -0.37164375903504088 0 -0.00075225153846593049 -0.38498931512111112 0 -0.01398426331951466 -0.38483056021407858 0 -0.0056507080066318244 -0.3977397897770456 0 -0.029283300868741129 -0.39343834524458099 0 -0.010791216498688611 -0.41548617836765311 0 -0.00075225153846593049 -0.38498931512111112 0 -0.0056507080066318244 -0.3977397897770456 0 0.0035198636644020588 -0.4085272073042775 0 -0.01398426331951466 -0.38483056021407858 0 -0.0056507080066318244 -0.3977397897770456 0 -0.029283300868741129 -0.39343834524458099 0 -0.0056507080066318244 -0.3977397897770456 0 -0.029283300868741129 -0.39343834524458099 0 -0.01398426331951466 -0.38483056021407858 0 -0.029283300868741129 -0.39343834524458099 0 -0.023872678432908301 -0.37634159189261462 0 -0.0103623777508261 -0.37164375903504088 0 -0.01398426331951466 -0.38483056021407858 0 -0.023872678432908301 -0.37634159189261462 0 -0.042689674795608402 -0.36917940564826812 0 -0.029283300868741129 -0.39343834524458099 0 -0.023872678432908301 -0.37634159189261462 0 -0.042689674795608402 -0.36917940564826812 0 -0.029283300868741129 -0.39343834524458099 0 -0.052915893730850441 -0.38913690071211637 0 -0.029283300868741129 -0.39343834524458099 0 -0.052915893730850441 -0.38913690071211637 0 -0.044065512568017468 -0.40758267629552708 0 -0.029283300868741129 -0.39343834524458099 0 -0.052915893730850441 -0.38913690071211637 0 -0.052915893730850441 -0.38913690071211637 0 -0.061215198234034769 -0.41621146576149981 0 -0.044065512568017468 -0.40758267629552708 0 -0.042689674795608402 -0.36917940564826812 0 -0.060753216710022213 -0.37099431730030352 0 -0.052915893730850441 -0.38913690071211637 0 -0.061215198234034769 -0.41621146576149981 0 -0.04509655619523599 -0.42652663243245909 0 -0.061618112799465379 -0.44468934506960422 0 -0.061215198234034769 -0.41621146576149981 0 -0.044065512568017468 -0.40758267629552708 0 -0.04509655619523599 -0.42652663243245909 0 -0.029283300868741129 -0.39343834524458099 0 -0.044065512568017468 -0.40758267629552708 0 -0.028700559955638701 -0.42035224883871891 0 -0.044065512568017468 -0.40758267629552708 0 -0.04509655619523599 -0.42652663243245909 0 -0.028700559955638701 -0.42035224883871891 0 -0.04509655619523599 -0.42652663243245909 0 -0.028700559955638701 -0.42035224883871891 0 -0.036430748325487157 -0.44160671692514752 0 -0.028700559955638701 -0.42035224883871891 0 -0.010791216498688611 -0.41548617836765311 0 -0.01242457269279211 -0.44079437955385198 0 -0.028700559955638701 -0.42035224883871891 0 -0.01242457269279211 -0.44079437955385198 0 -0.036430748325487157 -0.44160671692514752 0 -0.029283300868741129 -0.39343834524458099 0 -0.028700559955638701 -0.42035224883871891 0 -0.010791216498688611 -0.41548617836765311 0 -0.0056507080066318244 -0.3977397897770456 0 -0.010791216498688611 -0.41548617836765311 0 0.0035198636644020588 -0.4085272073042775 0 -0.010791216498688611 -0.41548617836765311 0 -0.01242457269279211 -0.44079437955385198 0 0.0077919788672700272 -0.43206509948744382 0 -0.01242457269279211 -0.44079437955385198 0 -0.0091240106075320768 -0.47139287809486929 0 0.01206409407013798 -0.45560299167060991 0 -0.01242457269279211 -0.44079437955385198 0 -0.026409488332778331 -0.45812993227951382 0 -0.0091240106075320768 -0.47139287809486929 0 -0.01242457269279211 -0.44079437955385198 0 -0.026409488332778331 -0.45812993227951382 0 -0.036430748325487157 -0.44160671692514752 0 -0.0091240106075320768 -0.47139287809486929 0 -0.017191277542832339 -0.5 0 0.00082994801377117458 -0.48721722349962071 0 -0.017191277542832339 -0.5 0 0.012757731766675049 -0.5 0 0.00082994801377117458 -0.48721722349962071 0 -0.026409488332778331 -0.45812993227951382 0 -0.0091240106075320768 -0.47139287809486929 0 -0.035087776426781972 -0.47763100171486023 0 -0.0091240106075320768 -0.47139287809486929 0 -0.017191277542832339 -0.5 0 -0.035087776426781972 -0.47763100171486023 0 -0.017191277542832339 -0.5 0 -0.035087776426781972 -0.47763100171486023 0 -0.04714028685233973 -0.5 0 -0.035087776426781972 -0.47763100171486023 0 -0.059985242628861013 -0.47406073103006779 0 -0.044335199977012497 -0.45914776337673729 0 -0.035087776426781972 -0.47763100171486023 0 -0.059985242628861013 -0.47406073103006779 0 -0.04714028685233973 -0.5 0 -0.059985242628861013 -0.47406073103006779 0 -0.04714028685233973 -0.5 0 -0.077089296161847121 -0.5 0 -0.026409488332778331 -0.45812993227951382 0 -0.036430748325487157 -0.44160671692514752 0 -0.044335199977012497 -0.45914776337673729 0 -0.026409488332778331 -0.45812993227951382 0 -0.035087776426781972 -0.47763100171486023 0 -0.044335199977012497 -0.45914776337673729 0 -0.059985242628861013 -0.47406073103006779 0 -0.044335199977012497 -0.45914776337673729 0 -0.061618112799465379 -0.44468934506960422 0 -0.04509655619523599 -0.42652663243245909 0 -0.036430748325487157 -0.44160671692514752 0 -0.061618112799465379 -0.44468934506960422 0 -0.036430748325487157 -0.44160671692514752 0 -0.044335199977012497 -0.45914776337673729 0 -0.061618112799465379 -0.44468934506960422 0 -0.059985242628861013 -0.47406073103006779 0 -0.061618112799465379 -0.44468934506960422 0 -0.088473363726613782 -0.46733217733731408 0 -0.061618112799465379 -0.44468934506960422 0 -0.088473363726613782 -0.46733217733731408 0 -0.091522182533081059 -0.44045952035156738 0 -0.088473363726613782 -0.46733217733731408 0 -0.077089296161847121 -0.5 0 -0.10703830547135459 -0.5 0 -0.059985242628861013 -0.47406073103006779 0 -0.088473363726613782 -0.46733217733731408 0 -0.077089296161847121 -0.5 0 -0.088473363726613782 -0.46733217733731408 0 -0.10703830547135459 -0.5 0 -0.1188991173633912 -0.47548310547468198 0 -0.13698731478086201 -0.5 0 -0.10703830547135459 -0.5 0 -0.1188991173633912 -0.47548310547468198 0 -0.088473363726613782 -0.46733217733731408 0 -0.091522182533081059 -0.44045952035156738 0 -0.1171575531762151 -0.44762371930636707 0 -0.091522182533081059 -0.44045952035156738 0 -0.1171575531762151 -0.44762371930636707 0 -0.1111064148185557 -0.42841697040803289 0 -0.088473363726613782 -0.46733217733731408 0 -0.1188991173633912 -0.47548310547468198 0 -0.1171575531762151 -0.44762371930636707 0 -0.1370894982321306 -0.4607177894797751 0 -0.1188991173633912 -0.47548310547468198 0 -0.1171575531762151 -0.44762371930636707 0 -0.12801120671619179 -0.4364607379891457 0 -0.1171575531762151 -0.44762371930636707 0 -0.1111064148185557 -0.42841697040803289 0 -0.12801120671619179 -0.4364607379891457 0 -0.1111064148185557 -0.42841697040803289 0 -0.1229565837461923 -0.4205328578085098 0 -0.091522182533081059 -0.44045952035156738 0 -0.1111064148185557 -0.42841697040803289 0 -0.094057831372973452 -0.41396294586286109 0 -0.1111064148185557 -0.42841697040803289 0 -0.094057831372973452 -0.41396294586286109 0 -0.1135722588569953 -0.41088978177795288 0 -0.094057831372973452 -0.41396294586286109 0 -0.1135722588569953 -0.41088978177795288 0 -0.1046773749341228 -0.39896173253129907 0 -0.1111064148185557 -0.42841697040803289 0 -0.1135722588569953 -0.41088978177795288 0 -0.1229565837461923 -0.4205328578085098 0 -0.12875722922688959 -0.41285331950954329 0 -0.1135722588569953 -0.41088978177795288 0 -0.1229565837461923 -0.4205328578085098 0 -0.12875722922688959 -0.41285331950954329 0 -0.1135722588569953 -0.41088978177795288 0 -0.1237388924361741 -0.39740932317677208 0 -0.1135722588569953 -0.41088978177795288 0 -0.1237388924361741 -0.39740932317677208 0 -0.1046773749341228 -0.39896173253129907 0 -0.1237388924361741 -0.39740932317677208 0 -0.1001810794550692 -0.38053401164718648 0 -0.1046773749341228 -0.39896173253129907 0 -0.1179338526380682 -0.38533035954805289 0 -0.11595142545569 -0.37766360005184069 0 -0.1001810794550692 -0.38053401164718648 0 -0.1237388924361741 -0.39740932317677208 0 -0.1001810794550692 -0.38053401164718648 0 -0.1237388924361741 -0.39740932317677208 0 -0.1179338526380682 -0.38533035954805289 0 -0.1001810794550692 -0.38053401164718648 0 -0.13120816163852789 -0.38507418150443851 0 -0.1179338526380682 -0.38533035954805289 0 -0.11595142545569 -0.37766360005184069 0 -0.13120816163852789 -0.38507418150443851 0 -0.1237388924361741 -0.39740932317677208 0 -0.1179338526380682 -0.38533035954805289 0 -0.10723606195667609 -0.3691546055930911 0 -0.11595142545569 -0.37766360005184069 0 -0.1001810794550692 -0.38053401164718648 0 -0.11595142545569 -0.37766360005184069 0 -0.1001810794550692 -0.38053401164718648 0 -0.094057831372973452 -0.41396294586286109 0 -0.1046773749341228 -0.39896173253129907 0 -0.090191156056754415 -0.39611126497427529 0 -0.1001810794550692 -0.38053401164718648 0 -0.1046773749341228 -0.39896173253129907 0 -0.090191156056754415 -0.39611126497427529 0 -0.090191156056754415 -0.39611126497427529 0 -0.076548486592959819 -0.38483545617965181 0 -0.07562234546736693 -0.40303291692644472 0 -0.094057831372973452 -0.41396294586286109 0 -0.090191156056754415 -0.39611126497427529 0 -0.07562234546736693 -0.40303291692644472 0 -0.1001810794550692 -0.38053401164718648 0 -0.090191156056754415 -0.39611126497427529 0 -0.076548486592959819 -0.38483545617965181 0 -0.1001810794550692 -0.38053401164718648 0 -0.076548486592959819 -0.38483545617965181 0 -0.077264369295254001 -0.36411794520288898 0 -0.1001810794550692 -0.38053401164718648 0 -0.076548486592959819 -0.38483545617965181 0 -0.052915893730850441 -0.38913690071211637 0 -0.076548486592959819 -0.38483545617965181 0 -0.060753216710022213 -0.37099431730030352 0 -0.052915893730850441 -0.38913690071211637 0 -0.076548486592959819 -0.38483545617965181 0 -0.052915893730850441 -0.38913690071211637 0 -0.061215198234034769 -0.41621146576149981 0 -0.07562234546736693 -0.40303291692644472 0 -0.052915893730850441 -0.38913690071211637 0 -0.076548486592959819 -0.38483545617965181 0 -0.07562234546736693 -0.40303291692644472 0 -0.061215198234034769 -0.41621146576149981 0 -0.07562234546736693 -0.40303291692644472 0 -0.078459063260364476 -0.42481404757543467 0 -0.061618112799465379 -0.44468934506960422 0 -0.091522182533081059 -0.44045952035156738 0 -0.078459063260364476 -0.42481404757543467 0 -0.061215198234034769 -0.41621146576149981 0 -0.061618112799465379 -0.44468934506960422 0 -0.078459063260364476 -0.42481404757543467 0 -0.091522182533081059 -0.44045952035156738 0 -0.094057831372973452 -0.41396294586286109 0 -0.078459063260364476 -0.42481404757543467 0 -0.094057831372973452 -0.41396294586286109 0 -0.07562234546736693 -0.40303291692644472 0 -0.078459063260364476 -0.42481404757543467 0 -0.081564886809306236 -0.077848276823537496 0 -0.095819267355142998 -0.093100475882593292 0 -0.096249617858097686 -0.068451489794434647 0 -0.081564886809306236 -0.077848276823537496 0 -0.075483874097425574 -0.091960270223096552 0 -0.095819267355142998 -0.093100475882593292 0 -0.081564886809306236 -0.077848276823537496 0 -0.074798251735323285 -0.064035465482545031 0 -0.096249617858097686 -0.068451489794434647 0 -0.081564886809306236 -0.077848276823537496 0 -0.074798251735323285 -0.064035465482545031 0 -0.061711844834798593 -0.073162620582751581 0 -0.074798251735323285 -0.064035465482545031 0 -0.064383672117533847 -0.052946717806106207 0 -0.061711844834798593 -0.073162620582751581 0 -0.081564886809306236 -0.077848276823537496 0 -0.075483874097425574 -0.091960270223096552 0 -0.061711844834798593 -0.073162620582751581 0 -0.075483874097425574 -0.091960270223096552 0 -0.061711844834798593 -0.073162620582751581 0 -0.059859028247580388 -0.099115041676980736 0 -0.067775048913141789 -0.1187009212069695 0 -0.080757396614958871 -0.1084360022093193 0 -0.059859028247580388 -0.099115041676980736 0 -0.075483874097425574 -0.091960270223096552 0 -0.080757396614958871 -0.1084360022093193 0 -0.059859028247580388 -0.099115041676980736 0 -0.080757396614958871 -0.1084360022093193 0 -0.059859028247580388 -0.099115041676980736 0 -0.067775048913141789 -0.1187009212069695 0 -0.080972372164692996 -0.1223595705838971 0 -0.080757396614958871 -0.1084360022093193 0 -0.067775048913141789 -0.1187009212069695 0 -0.080972372164692996 -0.1223595705838971 0 -0.071042242864177485 -0.12994407600429589 0 -0.080972372164692996 -0.1223595705838971 0 -0.080757396614958871 -0.1084360022093193 0 -0.1016557649823373 -0.1177569627416578 0 -0.080757396614958871 -0.1084360022093193 0 -0.1016557649823373 -0.1177569627416578 0 -0.080757396614958871 -0.1084360022093193 0 -0.1016557649823373 -0.1177569627416578 0 -0.095819267355142998 -0.093100475882593292 0 -0.075483874097425574 -0.091960270223096552 0 -0.080757396614958871 -0.1084360022093193 0 -0.095819267355142998 -0.093100475882593292 0 -0.1016557649823373 -0.1177569627416578 0 -0.1149939283451771 -0.10403374065896411 0 -0.095819267355142998 -0.093100475882593292 0 -0.1149939283451771 -0.10403374065896411 0 -0.12255413334971579 -0.12707792327399631 0 -0.13212598082945939 -0.1106749482025588 0 -0.1016557649823373 -0.1177569627416578 0 -0.1149939283451771 -0.10403374065896411 0 -0.12255413334971579 -0.12707792327399631 0 -0.1016557649823373 -0.1177569627416578 0 -0.12255413334971579 -0.12707792327399631 0 -0.1149939283451771 -0.10403374065896411 0 -0.1275363176743709 -0.091915897326001209 0 -0.13212598082945939 -0.1106749482025588 0 -0.1134761467842408 -0.080487614759645512 0 -0.12731882673796399 -0.072993440961287112 0 -0.1275363176743709 -0.091915897326001209 0 -0.1149939283451771 -0.10403374065896411 0 -0.1134761467842408 -0.080487614759645512 0 -0.1275363176743709 -0.091915897326001209 0 -0.1149939283451771 -0.10403374065896411 0 -0.1134761467842408 -0.080487614759645512 0 -0.095819267355142998 -0.093100475882593292 0 -0.1134761467842408 -0.080487614759645512 0 -0.095819267355142998 -0.093100475882593292 0 -0.096249617858097686 -0.068451489794434647 0 -0.1134761467842408 -0.080487614759645512 0 -0.096249617858097686 -0.068451489794434647 0 -0.1153676328932981 -0.062804861458731875 0 -0.1153676328932981 -0.062804861458731875 0 -0.12731882673796399 -0.072993440961287112 0 -0.1312861185148968 -0.058621885570568077 0 -0.1134761467842408 -0.080487614759645512 0 -0.1153676328932981 -0.062804861458731875 0 -0.12731882673796399 -0.072993440961287112 0 -0.1153676328932981 -0.062804861458731875 0 -0.120070998173872 -0.046573978844832407 0 -0.1312861185148968 -0.058621885570568077 0 -0.1153676328932981 -0.062804861458731875 0 -0.120070998173872 -0.046573978844832407 0 -0.1038040892907172 -0.049700758821623538 0 -0.11227565787884621 -0.032867394661444713 0 -0.120070998173872 -0.046573978844832407 0 -0.1308846358584379 -0.032608159478005397 0 -0.11227565787884621 -0.032867394661444713 0 -0.120070998173872 -0.046573978844832407 0 -0.1038040892907172 -0.049700758821623538 0 -0.1038040892907172 -0.049700758821623538 0 -0.085387106750378264 -0.051657618489228591 0 -0.093674494074750994 -0.037056079256495539 0 -0.11227565787884621 -0.032867394661444713 0 -0.1038040892907172 -0.049700758821623538 0 -0.093674494074750994 -0.037056079256495539 0 -0.096249617858097686 -0.068451489794434647 0 -0.1038040892907172 -0.049700758821623538 0 -0.085387106750378264 -0.051657618489228591 0 -0.096249617858097686 -0.068451489794434647 0 -0.1153676328932981 -0.062804861458731875 0 -0.1038040892907172 -0.049700758821623538 0 -0.1161720067836798 -0.0057384504907373448 0 -0.1243181929366337 -0.01286105707800741 0 -0.1082762961663878 -0.014691411325784821 0 -0.1161720067836798 -0.0057384504907373448 0 -0.1243181929366337 -0.01286105707800741 0 -0.1223498310080533 0.0029838050248971858 0 -0.1161720067836798 -0.0057384504907373448 0 -0.1082762961663878 -0.014691411325784821 0 -0.10833403638251719 0.00045540899958987168 0 -0.1161720067836798 -0.0057384504907373448 0 -0.10833403638251719 0.00045540899958987168 0 -0.1223498310080533 0.0029838050248971858 0 -0.11227565787884621 -0.032867394661444713 0 -0.1173902206349947 -0.022214016791888721 0 -0.1082762961663878 -0.014691411325784821 0 -0.11227565787884621 -0.032867394661444713 0 -0.1173902206349947 -0.022214016791888721 0 -0.1308846358584379 -0.032608159478005397 0 -0.1243181929366337 -0.01286105707800741 0 -0.1173902206349947 -0.022214016791888721 0 -0.1082762961663878 -0.014691411325784821 0 -0.1243181929366337 -0.01286105707800741 0 -0.1173902206349947 -0.022214016791888721 0 -0.1308846358584379 -0.032608159478005397 0 -0.11227565787884621 -0.032867394661444713 0 -0.095936202788065111 -0.022266001438413719 0 -0.093674494074750994 -0.037056079256495539 0 -0.11227565787884621 -0.032867394661444713 0 -0.095936202788065111 -0.022266001438413719 0 -0.1082762961663878 -0.014691411325784821 0 -0.095936202788065111 -0.022266001438413719 0 -0.1082762961663878 -0.014691411325784821 0 -0.096324643482503344 -0.0087324004799635927 0 -0.096324643482503344 -0.0087324004799635927 0 -0.095604690122484154 0.0046030214967198897 0 -0.10833403638251719 0.00045540899958987168 0 -0.1082762961663878 -0.014691411325784821 0 -0.096324643482503344 -0.0087324004799635927 0 -0.10833403638251719 0.00045540899958987168 0 -0.086737188235438467 -0.0026871390507275071 0 -0.081733980584739199 -0.014590034119932999 0 -0.076731109028641123 -0.003136302877962713 0 -0.096324643482503344 -0.0087324004799635927 0 -0.086737188235438467 -0.0026871390507275071 0 -0.095604690122484154 0.0046030214967198897 0 -0.095936202788065111 -0.022266001438413719 0 -0.096324643482503344 -0.0087324004799635927 0 -0.081733980584739199 -0.014590034119932999 0 -0.096324643482503344 -0.0087324004799635927 0 -0.086737188235438467 -0.0026871390507275071 0 -0.081733980584739199 -0.014590034119932999 0 -0.081733980584739199 -0.014590034119932999 0 -0.083416013212435497 -0.02710645661358083 0 -0.069767115535134233 -0.02580661695210687 0 -0.095936202788065111 -0.022266001438413719 0 -0.081733980584739199 -0.014590034119932999 0 -0.083416013212435497 -0.02710645661358083 0 -0.095936202788065111 -0.022266001438413719 0 -0.083416013212435497 -0.02710645661358083 0 -0.093674494074750994 -0.037056079256495539 0 -0.081733980584739199 -0.014590034119932999 0 -0.069767115535134233 -0.02580661695210687 0 -0.063035501838724486 -0.014406491157278061 0 -0.083416013212435497 -0.02710645661358083 0 -0.069767115535134233 -0.02580661695210687 0 -0.076136010422032482 -0.038709086954395212 0 -0.081733980584739199 -0.014590034119932999 0 -0.063035501838724486 -0.014406491157278061 0 -0.076731109028641123 -0.003136302877962713 0 -0.063035501838724486 -0.014406491157278061 0 -0.064502170934588127 -0.001812266123055262 0 -0.076731109028641123 -0.003136302877962713 0 -0.074798251735323285 -0.064035465482545031 0 -0.096249617858097686 -0.068451489794434647 0 -0.085387106750378264 -0.051657618489228591 0 -0.085387106750378264 -0.051657618489228591 0 -0.093674494074750994 -0.037056079256495539 0 -0.076136010422032482 -0.038709086954395212 0 -0.083416013212435497 -0.02710645661358083 0 -0.093674494074750994 -0.037056079256495539 0 -0.076136010422032482 -0.038709086954395212 0 -0.069767115535134233 -0.02580661695210687 0 -0.076136010422032482 -0.038709086954395212 0 -0.060271529513234383 -0.039128800435573381 0 -0.076136010422032482 -0.038709086954395212 0 -0.064383672117533847 -0.052946717806106207 0 -0.060271529513234383 -0.039128800435573381 0 -0.074798251735323285 -0.064035465482545031 0 -0.085387106750378264 -0.051657618489228591 0 -0.064383672117533847 -0.052946717806106207 0 -0.085387106750378264 -0.051657618489228591 0 -0.076136010422032482 -0.038709086954395212 0 -0.064383672117533847 -0.052946717806106207 0 -0.064383672117533847 -0.052946717806106207 0 -0.049114537221891338 -0.053143949187424273 0 -0.061711844834798593 -0.073162620582751581 0 -0.064383672117533847 -0.052946717806106207 0 -0.049114537221891338 -0.053143949187424273 0 -0.060271529513234383 -0.039128800435573381 0 -0.060271529513234383 -0.039128800435573381 0 -0.046252797799533257 -0.037545043784404812 0 -0.050756343061673308 -0.024947848513739771 0 -0.049114537221891338 -0.053143949187424273 0 -0.060271529513234383 -0.039128800435573381 0 -0.046252797799533257 -0.037545043784404812 0 -0.049114537221891338 -0.053143949187424273 0 -0.046252797799533257 -0.037545043784404812 0 -0.03334684051690754 -0.049924182295960962 0 -0.033599060846873398 -0.033103238306314897 0 -0.046252797799533257 -0.037545043784404812 0 -0.03334684051690754 -0.049924182295960962 0 -0.033599060846873398 -0.033103238306314897 0 -0.046252797799533257 -0.037545043784404812 0 -0.050756343061673308 -0.024947848513739771 0 -0.03334684051690754 -0.049924182295960962 0 -0.02672341792695988 -0.067018121534792599 0 -0.042270130695250999 -0.066622086834760508 0 -0.049114537221891338 -0.053143949187424273 0 -0.03334684051690754 -0.049924182295960962 0 -0.042270130695250999 -0.066622086834760508 0 -0.063035501838724486 -0.014406491157278061 0 -0.064502170934588127 -0.001812266123055262 0 -0.047243662405051123 -0.011713353931868981 0 -0.064502170934588127 -0.001812266123055262 0 -0.047243662405051123 -0.011713353931868981 0 -0.047595321881734168 0.0035205729130709691 0 -0.064502170934588127 -0.001812266123055262 0 -0.047243662405051123 -0.011713353931868981 0 -0.069767115535134233 -0.02580661695210687 0 -0.063035501838724486 -0.014406491157278061 0 -0.050756343061673308 -0.024947848513739771 0 -0.063035501838724486 -0.014406491157278061 0 -0.047243662405051123 -0.011713353931868981 0 -0.050756343061673308 -0.024947848513739771 0 -0.069767115535134233 -0.02580661695210687 0 -0.060271529513234383 -0.039128800435573381 0 -0.050756343061673308 -0.024947848513739771 0 -0.047243662405051123 -0.011713353931868981 0 -0.050756343061673308 -0.024947848513739771 0 -0.032171328843442877 -0.01872238797003695 0 -0.033599060846873398 -0.033103238306314897 0 -0.050756343061673308 -0.024947848513739771 0 -0.032171328843442877 -0.01872238797003695 0 -0.047243662405051123 -0.011713353931868981 0 -0.032171328843442877 -0.01872238797003695 0 -0.0335280131860973 -0.0010070592965236731 0 -0.047243662405051123 -0.011713353931868981 0 -0.0335280131860973 -0.0010070592965236731 0 -0.047595321881734168 0.0035205729130709691 0 -0.032171328843442877 -0.01872238797003695 0 -0.0335280131860973 -0.0010070592965236731 0 -0.02254512177247325 -0.007725459977860615 0 -0.02254512177247325 -0.007725459977860615 0 -0.0098585965785851441 -0.0059301340037717061 0 -0.019722241910513701 0.0071943322981713022 0 -0.0335280131860973 -0.0010070592965236731 0 -0.02254512177247325 -0.007725459977860615 0 -0.019722241910513701 0.0071943322981713022 0 -0.032171328843442877 -0.01872238797003695 0 -0.02254512177247325 -0.007725459977860615 0 -0.01744542834372723 -0.020162050917142051 0 -0.02254512177247325 -0.007725459977860615 0 -0.01744542834372723 -0.020162050917142051 0 -0.0098585965785851441 -0.0059301340037717061 0 -0.032171328843442877 -0.01872238797003695 0 -0.01744542834372723 -0.020162050917142051 0 -0.01836309192165456 -0.034929673220225867 0 -0.032171328843442877 -0.01872238797003695 0 -0.01836309192165456 -0.034929673220225867 0 -0.033599060846873398 -0.033103238306314897 0 -0.032171328843442877 -0.01872238797003695 0 -0.01836309192165456 -0.034929673220225867 0 -0.01744542834372723 -0.020162050917142051 0 -0.00075528267675825851 -0.03036709894775437 0 -0.0049491953562397877 -0.0175343341480187 0 -0.01744542834372723 -0.020162050917142051 0 -0.00075528267675825851 -0.03036709894775437 0 -0.01836309192165456 -0.034929673220225867 0 -0.0098585965785851441 -0.0059301340037717061 0 -0.0022331534232775431 0.014027187764504149 0 0.0082625261741114814 -0.013678052723406669 0 -0.0049491953562397877 -0.0175343341480187 0 -0.0098585965785851441 -0.0059301340037717061 0 0.0082625261741114814 -0.013678052723406669 0 -0.01744542834372723 -0.020162050917142051 0 -0.0049491953562397877 -0.0175343341480187 0 -0.0098585965785851441 -0.0059301340037717061 0 -0.03334684051690754 -0.049924182295960962 0 -0.01883809040978212 -0.057112745964453392 0 -0.01836309192165456 -0.034929673220225867 0 -0.03334684051690754 -0.049924182295960962 0 -0.01883809040978212 -0.057112745964453392 0 -0.02672341792695988 -0.067018121534792599 0 -0.033599060846873398 -0.033103238306314897 0 -0.03334684051690754 -0.049924182295960962 0 -0.01836309192165456 -0.034929673220225867 0 -0.00075528267675825851 -0.03036709894775437 0 -0.01836309192165456 -0.034929673220225867 0 -0.00084959469947161318 -0.04078921980705226 0 -0.01836309192165456 -0.034929673220225867 0 -0.00084959469947161318 -0.04078921980705226 0 -0.0045548549998684022 -0.051136958470416737 0 -0.01836309192165456 -0.034929673220225867 0 -0.0045548549998684022 -0.051136958470416737 0 -0.0045548549998684022 -0.051136958470416737 0 -0.0075685770819698926 -0.068976070717414059 0 0.0086210651613012734 -0.066602068005781945 0 -0.01883809040978212 -0.057112745964453392 0 -0.01836309192165456 -0.034929673220225867 0 -0.0045548549998684022 -0.051136958470416737 0 -0.01883809040978212 -0.057112745964453392 0 -0.0045548549998684022 -0.051136958470416737 0 -0.0075685770819698926 -0.068976070717414059 0 -0.01883809040978212 -0.057112745964453392 0 -0.0045548549998684022 -0.051136958470416737 0 -0.0075685770819698926 -0.068976070717414059 0 -0.0081906586628278915 -0.082046180493695206 0 0.0042741131284594726 -0.080502694156987076 0 -0.0075685770819698926 -0.068976070717414059 0 -0.0081906586628278915 -0.082046180493695206 0 -0.020469857480660911 -0.078723627449843431 0 -0.001263811914146808 -0.091988355269103608 0 -0.0081906586628278915 -0.082046180493695206 0 0.0042741131284594726 -0.080502694156987076 0 -0.0081906586628278915 -0.082046180493695206 0 -0.01592515996582132 -0.090040154875127787 0 -0.020469857480660911 -0.078723627449843431 0 -0.001263811914146808 -0.091988355269103608 0 -0.0081906586628278915 -0.082046180493695206 0 -0.01592515996582132 -0.090040154875127787 0 -0.01592515996582132 -0.090040154875127787 0 -0.020469857480660911 -0.078723627449843431 0 -0.027481267391464271 -0.087377661464935835 0 -0.020469857480660911 -0.078723627449843431 0 -0.027481267391464271 -0.087377661464935835 0 -0.034058464245559007 -0.07819704443092336 0 -0.01592515996582132 -0.090040154875127787 0 -0.027481267391464271 -0.087377661464935835 0 -0.02760880483980287 -0.099554782404358652 0 -0.0075685770819698926 -0.068976070717414059 0 -0.020469857480660911 -0.078723627449843431 0 -0.02672341792695988 -0.067018121534792599 0 -0.01883809040978212 -0.057112745964453392 0 -0.0075685770819698926 -0.068976070717414059 0 -0.02672341792695988 -0.067018121534792599 0 -0.020469857480660911 -0.078723627449843431 0 -0.02672341792695988 -0.067018121534792599 0 -0.034058464245559007 -0.07819704443092336 0 -0.042270130695250999 -0.066622086834760508 0 -0.034058464245559007 -0.07819704443092336 0 -0.048253756826178447 -0.079357379646673804 0 -0.02672341792695988 -0.067018121534792599 0 -0.042270130695250999 -0.066622086834760508 0 -0.034058464245559007 -0.07819704443092336 0 -0.027481267391464271 -0.087377661464935835 0 -0.034058464245559007 -0.07819704443092336 0 -0.038960659880201927 -0.089794081144642185 0 -0.027481267391464271 -0.087377661464935835 0 -0.038960659880201927 -0.089794081144642185 0 -0.02760880483980287 -0.099554782404358652 0 -0.034058464245559007 -0.07819704443092336 0 -0.038960659880201927 -0.089794081144642185 0 -0.048253756826178447 -0.079357379646673804 0 -0.048253756826178447 -0.079357379646673804 0 -0.061711844834798593 -0.073162620582751581 0 -0.059859028247580388 -0.099115041676980736 0 -0.038960659880201927 -0.089794081144642185 0 -0.048253756826178447 -0.079357379646673804 0 -0.059859028247580388 -0.099115041676980736 0 -0.042270130695250999 -0.066622086834760508 0 -0.048253756826178447 -0.079357379646673804 0 -0.061711844834798593 -0.073162620582751581 0 -0.049114537221891338 -0.053143949187424273 0 -0.042270130695250999 -0.066622086834760508 0 -0.061711844834798593 -0.073162620582751581 0 -0.067775048913141789 -0.1187009212069695 0 -0.05181828328692039 -0.11909786506011689 0 -0.057887858107156402 -0.13140115203712319 0 -0.067775048913141789 -0.1187009212069695 0 -0.05181828328692039 -0.11909786506011689 0 -0.059859028247580388 -0.099115041676980736 0 -0.038960659880201927 -0.089794081144642185 0 -0.059859028247580388 -0.099115041676980736 0 -0.05181828328692039 -0.11909786506011689 0 -0.059859028247580388 -0.099115041676980736 0 -0.042501480151325717 -0.1042223538092213 0 -0.038960659880201927 -0.089794081144642185 0 -0.059859028247580388 -0.099115041676980736 0 -0.042501480151325717 -0.1042223538092213 0 -0.038438447785017732 -0.116066263028345 0 -0.02760880483980287 -0.099554782404358652 0 -0.042501480151325717 -0.1042223538092213 0 -0.038438447785017732 -0.116066263028345 0 -0.02760880483980287 -0.099554782404358652 0 -0.038960659880201927 -0.089794081144642185 0 -0.042501480151325717 -0.1042223538092213 0 -0.02760880483980287 -0.099554782404358652 0 -0.038438447785017732 -0.116066263028345 0 -0.049268090730232791 -0.13257774365233099 0 -0.05181828328692039 -0.11909786506011689 0 -0.038438447785017732 -0.116066263028345 0 -0.049268090730232791 -0.13257774365233099 0 -0.05181828328692039 -0.11909786506011689 0 -0.042501480151325717 -0.1042223538092213 0 -0.038438447785017732 -0.116066263028345 0 -0.022097824036590229 -0.1145367840445064 0 -0.006714885710061895 -0.11986792212527519 0 -0.024526250696486718 -0.13595498578144369 0 -0.038438447785017732 -0.116066263028345 0 -0.022097824036590229 -0.1145367840445064 0 -0.02760880483980287 -0.099554782404358652 0 -0.038438447785017732 -0.116066263028345 0 -0.022097824036590229 -0.1145367840445064 0 -0.024526250696486718 -0.13595498578144369 0 -0.01592515996582132 -0.090040154875127787 0 -0.02760880483980287 -0.099554782404358652 0 -0.01126063231296209 -0.1034914312491544 0 -0.022097824036590229 -0.1145367840445064 0 -0.02760880483980287 -0.099554782404358652 0 -0.01126063231296209 -0.1034914312491544 0 -0.001263811914146808 -0.091988355269103608 0 -0.01126063231296209 -0.1034914312491544 0 0.0060466925886505643 -0.1049605887765548 0 -0.001263811914146808 -0.091988355269103608 0 -0.01592515996582132 -0.090040154875127787 0 -0.01126063231296209 -0.1034914312491544 0 -0.022097824036590229 -0.1145367840445064 0 -0.01126063231296209 -0.1034914312491544 0 -0.006714885710061895 -0.11986792212527519 0 -0.01126063231296209 -0.1034914312491544 0 -0.006714885710061895 -0.11986792212527519 0 0.0060466925886505643 -0.1049605887765548 0 -0.006714885710061895 -0.11986792212527519 0 -0.024526250696486718 -0.13595498578144369 0 0.0002155893372593129 -0.13933222791055699 0 -0.024526250696486718 -0.13595498578144369 0 0.0002155893372593129 -0.13933222791055699 0 -0.024526250696486718 -0.13595498578144369 0 -0.019680251788884651 -0.160009193528447 0 -0.039846888958170311 -0.14992882580749209 0 -0.002418015923269175 -0.1617067849051334 0 -0.019680251788884651 -0.160009193528447 0 0.0002155893372593129 -0.13933222791055699 0 -0.024526250696486718 -0.13595498578144369 0 -0.019680251788884651 -0.160009193528447 0 0.0002155893372593129 -0.13933222791055699 0 -0.002418015923269175 -0.1617067849051334 0 -0.0092513760294648389 -0.1787242095889518 0 0.003401792678531715 -0.1724930295959535 0 -0.002418015923269175 -0.1617067849051334 0 -0.0092513760294648389 -0.1787242095889518 0 -0.019680251788884651 -0.160009193528447 0 -0.0092513760294648389 -0.1787242095889518 0 0.0056573586955895282 -0.1894557141447514 0 0.003401792678531715 -0.1724930295959535 0 -0.019680251788884651 -0.160009193528447 0 -0.04554622314489995 -0.16982249473722191 0 -0.026162641560299089 -0.1878466900158007 0 -0.0092513760294648389 -0.1787242095889518 0 -0.019680251788884651 -0.160009193528447 0 -0.026162641560299089 -0.1878466900158007 0 -0.019680251788884651 -0.160009193528447 0 -0.04554622314489995 -0.16982249473722191 0 -0.039846888958170311 -0.14992882580749209 0 -0.04554622314489995 -0.16982249473722191 0 -0.026162641560299089 -0.1878466900158007 0 -0.04554622314489995 -0.16982249473722191 0 -0.026162641560299089 -0.1878466900158007 0 -0.045617718858536917 -0.19453668678819189 0 -0.04554622314489995 -0.16982249473722191 0 -0.058514836011498289 -0.18167168710444651 0 -0.045617718858536917 -0.19453668678819189 0 -0.04554622314489995 -0.16982249473722191 0 -0.058514836011498289 -0.18167168710444651 0 -0.073341368685158212 -0.16928121250346481 0 -0.04554622314489995 -0.16982249473722191 0 -0.061304729707695377 -0.150929478077898 0 -0.073341368685158212 -0.16928121250346481 0 -0.04554622314489995 -0.16982249473722191 0 -0.061304729707695377 -0.150929478077898 0 -0.039846888958170311 -0.14992882580749209 0 -0.061304729707695377 -0.150929478077898 0 -0.049268090730232791 -0.13257774365233099 0 -0.039846888958170311 -0.14992882580749209 0 -0.061304729707695377 -0.150929478077898 0 -0.049268090730232791 -0.13257774365233099 0 -0.061304729707695377 -0.150929478077898 0 -0.049268090730232791 -0.13257774365233099 0 -0.064371717628583916 -0.14032975907287079 0 -0.057887858107156402 -0.13140115203712319 0 -0.049268090730232791 -0.13257774365233099 0 -0.064371717628583916 -0.14032975907287079 0 -0.05181828328692039 -0.11909786506011689 0 -0.057887858107156402 -0.13140115203712319 0 -0.049268090730232791 -0.13257774365233099 0 -0.057887858107156402 -0.13140115203712319 0 -0.049268090730232791 -0.13257774365233099 0 -0.038438447785017732 -0.116066263028345 0 -0.024526250696486718 -0.13595498578144369 0 -0.049268090730232791 -0.13257774365233099 0 -0.024526250696486718 -0.13595498578144369 0 -0.049268090730232791 -0.13257774365233099 0 -0.039846888958170311 -0.14992882580749209 0 -0.024526250696486718 -0.13595498578144369 0 -0.049268090730232791 -0.13257774365233099 0 -0.024890178214298422 -0.25430902650138593 0 -0.0090460024824604059 -0.24289386846019159 0 -0.035749307939398157 -0.23613236175456659 0 -0.0090460024824604059 -0.24289386846019159 0 -0.01542872453243942 -0.22413605977771789 0 -0.035749307939398157 -0.23613236175456659 0 -0.0090460024824604059 -0.24289386846019159 0 -0.01542872453243942 -0.22413605977771789 0 0.01260452160890232 -0.2238950805729579 0 -0.01542872453243942 -0.22413605977771789 0 -0.035091812893305652 -0.21743658783414291 0 -0.035749307939398157 -0.23613236175456659 0 -0.0067790599756983854 -0.2058708852943793 0 -0.026162641560299089 -0.1878466900158007 0 -0.035091812893305652 -0.21743658783414291 0 -0.01542872453243942 -0.22413605977771789 0 -0.0067790599756983854 -0.2058708852943793 0 -0.035091812893305652 -0.21743658783414291 0 -0.01542872453243942 -0.22413605977771789 0 -0.0067790599756983854 -0.2058708852943793 0 0.01260452160890232 -0.2238950805729579 0 -0.0092513760294648389 -0.1787242095889518 0 -0.0067790599756983854 -0.2058708852943793 0 -0.026162641560299089 -0.1878466900158007 0 -0.0092513760294648389 -0.1787242095889518 0 -0.0067790599756983854 -0.2058708852943793 0 0.0056573586955895282 -0.1894557141447514 0 -0.0067790599756983854 -0.2058708852943793 0 -0.026162641560299089 -0.1878466900158007 0 -0.026162641560299089 -0.1878466900158007 0 -0.045617718858536917 -0.19453668678819189 0 -0.035091812893305652 -0.21743658783414291 0 -0.058514836011498289 -0.18167168710444651 0 -0.045617718858536917 -0.19453668678819189 0 -0.059130999179661019 -0.1995017639365137 0 -0.058514836011498289 -0.18167168710444651 0 -0.059130999179661019 -0.1995017639365137 0 -0.069182857223282365 -0.18825189240912779 0 -0.045617718858536917 -0.19453668678819189 0 -0.059130999179661019 -0.1995017639365137 0 -0.052435699958100837 -0.20873172254598679 0 -0.052435699958100837 -0.20873172254598679 0 -0.035091812893305652 -0.21743658783414291 0 -0.057505016693470953 -0.22187735012863999 0 -0.059130999179661019 -0.1995017639365137 0 -0.052435699958100837 -0.20873172254598679 0 -0.064832952165529617 -0.21030622404244559 0 -0.052435699958100837 -0.20873172254598679 0 -0.057505016693470953 -0.22187735012863999 0 -0.064832952165529617 -0.21030622404244559 0 -0.045617718858536917 -0.19453668678819189 0 -0.052435699958100837 -0.20873172254598679 0 -0.035091812893305652 -0.21743658783414291 0 -0.035091812893305652 -0.21743658783414291 0 -0.057505016693470953 -0.22187735012863999 0 -0.035749307939398157 -0.23613236175456659 0 -0.057505016693470953 -0.22187735012863999 0 -0.059867340593432357 -0.2353684221015018 0 -0.035749307939398157 -0.23613236175456659 0 -0.046875099676261543 -0.25967945999221032 0 -0.059867340593432357 -0.2353684221015018 0 -0.068366573737641323 -0.25253740418488252 0 -0.046875099676261543 -0.25967945999221032 0 -0.059867340593432357 -0.2353684221015018 0 -0.046875099676261543 -0.25967945999221032 0 -0.059867340593432357 -0.2353684221015018 0 -0.035749307939398157 -0.23613236175456659 0 -0.08392585227928881 -0.23259855007636721 0 -0.09394818964534804 -0.2472014160134432 0 -0.102227524344101 -0.2382541841557565 0 -0.083272819808187987 -0.25263187722785801 0 -0.08392585227928881 -0.23259855007636721 0 -0.09394818964534804 -0.2472014160134432 0 -0.068366573737641323 -0.25253740418488252 0 -0.083272819808187987 -0.25263187722785801 0 -0.08392585227928881 -0.23259855007636721 0 -0.068366573737641323 -0.25253740418488252 0 -0.059867340593432357 -0.2353684221015018 0 -0.08392585227928881 -0.23259855007636721 0 -0.059867340593432357 -0.2353684221015018 0 -0.075464516045495297 -0.22448224734131381 0 -0.072859581510601512 -0.2110573842107924 0 -0.059867340593432357 -0.2353684221015018 0 -0.072859581510601512 -0.2110573842107924 0 -0.057505016693470953 -0.22187735012863999 0 -0.059867340593432357 -0.2353684221015018 0 -0.072859581510601512 -0.2110573842107924 0 -0.059867340593432357 -0.2353684221015018 0 -0.075464516045495297 -0.22448224734131381 0 -0.08392585227928881 -0.23259855007636721 0 -0.075464516045495297 -0.22448224734131381 0 -0.085205289798658518 -0.21890463297659371 0 -0.08392585227928881 -0.23259855007636721 0 -0.08392585227928881 -0.23259855007636721 0 -0.093407143518805635 -0.220607839704211 0 -0.099115553132533965 -0.22696753018913529 0 -0.085205289798658518 -0.21890463297659371 0 -0.08392585227928881 -0.23259855007636721 0 -0.093407143518805635 -0.220607839704211 0 -0.072859581510601512 -0.2110573842107924 0 -0.098796764406531068 -0.21348467689278811 0 -0.090712779649517364 -0.2068432030859553 0 -0.072859581510601512 -0.2110573842107924 0 -0.098796764406531068 -0.21348467689278811 0 -0.085205289798658518 -0.21890463297659371 0 -0.072859581510601512 -0.2110573842107924 0 -0.098796764406531068 -0.21348467689278811 0 -0.084563308354491509 -0.2031862416933973 0 -0.090712779649517364 -0.2068432030859553 0 -0.072859581510601512 -0.2110573842107924 0 -0.085205289798658518 -0.21890463297659371 0 -0.093407143518805635 -0.220607839704211 0 -0.098796764406531068 -0.21348467689278811 0 -0.075464516045495297 -0.22448224734131381 0 -0.085205289798658518 -0.21890463297659371 0 -0.072859581510601512 -0.2110573842107924 0 -0.057505016693470953 -0.22187735012863999 0 -0.072859581510601512 -0.2110573842107924 0 -0.064832952165529617 -0.21030622404244559 0 -0.072859581510601512 -0.2110573842107924 0 -0.064832952165529617 -0.21030622404244559 0 -0.070276879548339263 -0.19935004230558209 0 -0.072859581510601512 -0.2110573842107924 0 -0.064832952165529617 -0.21030622404244559 0 -0.070276879548339263 -0.19935004230558209 0 -0.069182857223282365 -0.18825189240912779 0 -0.085378007662621797 -0.18763294692903121 0 -0.072859581510601512 -0.2110573842107924 0 -0.070276879548339263 -0.19935004230558209 0 -0.085378007662621797 -0.18763294692903121 0 -0.059130999179661019 -0.1995017639365137 0 -0.070276879548339263 -0.19935004230558209 0 -0.069182857223282365 -0.18825189240912779 0 -0.059130999179661019 -0.1995017639365137 0 -0.064832952165529617 -0.21030622404244559 0 -0.070276879548339263 -0.19935004230558209 0 -0.084563308354491509 -0.2031862416933973 0 -0.072859581510601512 -0.2110573842107924 0 -0.085378007662621797 -0.18763294692903121 0 -0.084563308354491509 -0.2031862416933973 0 -0.090712779649517364 -0.2068432030859553 0 -0.085378007662621797 -0.18763294692903121 0 -0.085378007662621797 -0.18763294692903121 0 -0.1003732303327087 -0.2104955038777733 0 -0.072859581510601512 -0.2110573842107924 0 -0.085378007662621797 -0.18763294692903121 0 -0.090712779649517364 -0.2068432030859553 0 -0.085378007662621797 -0.18763294692903121 0 -0.1003732303327087 -0.2104955038777733 0 -0.085378007662621797 -0.18763294692903121 0 -0.100774446794651 -0.19388349772215349 0 -0.1040123512147436 -0.18150737038395301 0 -0.085378007662621797 -0.18763294692903121 0 -0.100774446794651 -0.19388349772215349 0 -0.1003732303327087 -0.2104955038777733 0 -0.100774446794651 -0.19388349772215349 0 -0.1079559837632067 -0.20191978284918299 0 -0.1003732303327087 -0.2104955038777733 0 -0.100774446794651 -0.19388349772215349 0 -0.1079559837632067 -0.20191978284918299 0 -0.1151630451910209 -0.1918151676200095 0 -0.100774446794651 -0.19388349772215349 0 -0.1151630451910209 -0.1918151676200095 0 -0.1040123512147436 -0.18150737038395301 0 -0.1151630451910209 -0.1918151676200095 0 -0.11589924057645 -0.20414824054518119 0 -0.1260252679351592 -0.20043556862670639 0 -0.1079559837632067 -0.20191978284918299 0 -0.1151630451910209 -0.1918151676200095 0 -0.11589924057645 -0.20414824054518119 0 -0.1247339473024601 -0.2159119695747885 0 -0.098796764406531068 -0.21348467689278811 0 -0.11589924057645 -0.20414824054518119 0 -0.1247339473024601 -0.2159119695747885 0 -0.1075699559212026 -0.20925650448079769 0 -0.1079559837632067 -0.20191978284918299 0 -0.11589924057645 -0.20414824054518119 0 -0.1075699559212026 -0.20925650448079769 0 -0.1247339473024601 -0.2159119695747885 0 -0.1075699559212026 -0.20925650448079769 0 -0.098796764406531068 -0.21348467689278811 0 -0.1247339473024601 -0.2159119695747885 0 -0.098796764406531068 -0.21348467689278811 0 -0.106650177826681 -0.22125403366646551 0 -0.11589924057645 -0.20414824054518119 0 -0.1247339473024601 -0.2159119695747885 0 -0.1260252679351592 -0.20043556862670639 0 -0.1075699559212026 -0.20925650448079769 0 -0.1003732303327087 -0.2104955038777733 0 -0.098796764406531068 -0.21348467689278811 0 -0.098796764406531068 -0.21348467689278811 0 -0.099492409721137903 -0.22057852011314991 0 -0.106650177826681 -0.22125403366646551 0 -0.1079559837632067 -0.20191978284918299 0 -0.1075699559212026 -0.20925650448079769 0 -0.1003732303327087 -0.2104955038777733 0 -0.090712779649517364 -0.2068432030859553 0 -0.1003732303327087 -0.2104955038777733 0 -0.098796764406531068 -0.21348467689278811 0 -0.093407143518805635 -0.220607839704211 0 -0.098796764406531068 -0.21348467689278811 0 -0.099492409721137903 -0.22057852011314991 0 -0.08392585227928881 -0.23259855007636721 0 -0.099115553132533965 -0.22696753018913529 0 -0.102227524344101 -0.2382541841557565 0 -0.093407143518805635 -0.220607839704211 0 -0.099492409721137903 -0.22057852011314991 0 -0.099115553132533965 -0.22696753018913529 0 -0.099115553132533965 -0.22696753018913529 0 -0.1114284195379474 -0.2307356077843459 0 -0.102227524344101 -0.2382541841557565 0 -0.099115553132533965 -0.22696753018913529 0 -0.106650177826681 -0.22125403366646551 0 -0.1114284195379474 -0.2307356077843459 0 -0.099492409721137903 -0.22057852011314991 0 -0.099115553132533965 -0.22696753018913529 0 -0.106650177826681 -0.22125403366646551 0 -0.1247339473024601 -0.2159119695747885 0 -0.106650177826681 -0.22125403366646551 0 -0.1114284195379474 -0.2307356077843459 0 -0.1247339473024601 -0.2159119695747885 0 -0.1114284195379474 -0.2307356077843459 0 -0.13038685131062391 -0.2333457403949851 0 -0.12937871783699009 -0.25205806651978629 0 -0.11010257242285861 -0.24835221853318229 0 -0.13038685131062391 -0.2333457403949851 0 -0.11010257242285861 -0.24835221853318229 0 -0.13038685131062391 -0.2333457403949851 0 -0.1114284195379474 -0.2307356077843459 0 -0.11010257242285861 -0.24835221853318229 0 -0.13038685131062391 -0.2333457403949851 0 -0.1114284195379474 -0.2307356077843459 0 -0.11010257242285861 -0.24835221853318229 0 -0.102227524344101 -0.2382541841557565 0 -0.11010257242285861 -0.24835221853318229 0 -0.09394818964534804 -0.2472014160134432 0 -0.102227524344101 -0.2382541841557565 0 -0.078140399805880681 -0.15301040042284161 0 -0.098369770694800046 -0.1633228032551314 0 -0.1018957400190303 -0.14195064702059379 0 -0.078140399805880681 -0.15301040042284161 0 -0.083631407448849504 -0.1369598907572431 0 -0.1018957400190303 -0.14195064702059379 0 -0.080972372164692996 -0.1223595705838971 0 -0.1016557649823373 -0.1177569627416578 0 -0.083631407448849504 -0.1369598907572431 0 -0.080972372164692996 -0.1223595705838971 0 -0.083631407448849504 -0.1369598907572431 0 -0.071042242864177485 -0.12994407600429589 0 -0.083631407448849504 -0.1369598907572431 0 -0.071042242864177485 -0.12994407600429589 0 -0.064371717628583916 -0.14032975907287079 0 -0.067775048913141789 -0.1187009212069695 0 -0.057887858107156402 -0.13140115203712319 0 -0.071042242864177485 -0.12994407600429589 0 -0.057887858107156402 -0.13140115203712319 0 -0.071042242864177485 -0.12994407600429589 0 -0.064371717628583916 -0.14032975907287079 0 -0.078140399805880681 -0.15301040042284161 0 -0.083631407448849504 -0.1369598907572431 0 -0.064371717628583916 -0.14032975907287079 0 -0.061304729707695377 -0.150929478077898 0 -0.078140399805880681 -0.15301040042284161 0 -0.064371717628583916 -0.14032975907287079 0 -0.061304729707695377 -0.150929478077898 0 -0.078140399805880681 -0.15301040042284161 0 -0.073341368685158212 -0.16928121250346481 0 -0.061304729707695377 -0.150929478077898 0 -0.073341368685158212 -0.16928121250346481 0 -0.069182857223282365 -0.18825189240912779 0 -0.085378007662621797 -0.18763294692903121 0 -0.073341368685158212 -0.16928121250346481 0 -0.058514836011498289 -0.18167168710444651 0 -0.069182857223282365 -0.18825189240912779 0 -0.073341368685158212 -0.16928121250346481 0 -0.085378007662621797 -0.18763294692903121 0 -0.073341368685158212 -0.16928121250346481 0 -0.098369770694800046 -0.1633228032551314 0 -0.085378007662621797 -0.18763294692903121 0 -0.098369770694800046 -0.1633228032551314 0 -0.085378007662621797 -0.18763294692903121 0 -0.073341368685158212 -0.16928121250346481 0 -0.078140399805880681 -0.15301040042284161 0 -0.073341368685158212 -0.16928121250346481 0 -0.098369770694800046 -0.1633228032551314 0 -0.085378007662621797 -0.18763294692903121 0 -0.098369770694800046 -0.1633228032551314 0 -0.1040123512147436 -0.18150737038395301 0 -0.098369770694800046 -0.1633228032551314 0 -0.1040123512147436 -0.18150737038395301 0 -0.120376485730624 -0.17088243639343931 0 -0.1151630451910209 -0.1918151676200095 0 -0.120376485730624 -0.17088243639343931 0 -0.1366089960588934 -0.1876707853601918 0 -0.1151630451910209 -0.1918151676200095 0 -0.1040123512147436 -0.18150737038395301 0 -0.120376485730624 -0.17088243639343931 0 -0.098369770694800046 -0.1633228032551314 0 -0.120376485730624 -0.17088243639343931 0 -0.1172876036411285 -0.15245807462013 0 -0.120376485730624 -0.17088243639343931 0 -0.1172876036411285 -0.15245807462013 0 -0.1362685367029482 -0.14969034585941859 0 -0.098369770694800046 -0.1633228032551314 0 -0.1172876036411285 -0.15245807462013 0 -0.1018957400190303 -0.14195064702059379 0 -0.1016557649823373 -0.1177569627416578 0 -0.1018957400190303 -0.14195064702059379 0 -0.12255413334971579 -0.12707792327399631 0 -0.1016557649823373 -0.1177569627416578 0 -0.083631407448849504 -0.1369598907572431 0 -0.1018957400190303 -0.14195064702059379 0 -0.1172876036411285 -0.15245807462013 0 -0.1018957400190303 -0.14195064702059379 0 -0.12255413334971579 -0.12707792327399631 0 -0.12255413334971579 -0.12707792327399631 0 -0.14177211844533211 -0.12679889959132681 0 -0.1362685367029482 -0.14969034585941859 0 -0.14177211844533211 -0.12679889959132681 0 -0.15247315722691759 -0.13769127076650131 0 -0.1362685367029482 -0.14969034585941859 0 -0.14177211844533211 -0.12679889959132681 0 -0.15247315722691759 -0.13769127076650131 0 -0.15939483219938069 -0.1240537562166637 0 -0.1362685367029482 -0.14969034585941859 0 -0.15279815104007971 -0.1648196612125124 0 -0.15919519677401969 -0.15088068029150331 0 -0.15247315722691759 -0.13769127076650131 0 -0.1362685367029482 -0.14969034585941859 0 -0.15919519677401969 -0.15088068029150331 0 -0.1172876036411285 -0.15245807462013 0 -0.12255413334971579 -0.12707792327399631 0 -0.1362685367029482 -0.14969034585941859 0 -0.120376485730624 -0.17088243639343931 0 -0.1362685367029482 -0.14969034585941859 0 -0.1391487777356829 -0.17033715771852659 0 -0.120376485730624 -0.17088243639343931 0 -0.1391487777356829 -0.17033715771852659 0 -0.1366089960588934 -0.1876707853601918 0 -0.1391487777356829 -0.17033715771852659 0 -0.1587033991533699 -0.1788467834568222 0 -0.1366089960588934 -0.1876707853601918 0 -0.1362685367029482 -0.14969034585941859 0 -0.1391487777356829 -0.17033715771852659 0 -0.15279815104007971 -0.1648196612125124 0 -0.1391487777356829 -0.17033715771852659 0 -0.15279815104007971 -0.1648196612125124 0 -0.1587033991533699 -0.1788467834568222 0 -0.15279815104007971 -0.1648196612125124 0 -0.16790337105839109 -0.16228091671984221 0 -0.15919519677401969 -0.15088068029150331 0 -0.15279815104007971 -0.1648196612125124 0 -0.16790337105839109 -0.16228091671984221 0 -0.1587033991533699 -0.1788467834568222 0 -0.16790337105839109 -0.16228091671984221 0 -0.1587033991533699 -0.1788467834568222 0 -0.1787768226513276 -0.1736979404510442 0 -0.1787768226513276 -0.1736979404510442 0 -0.180408650953261 -0.19575024676140859 0 -0.2021692311499747 -0.1787905563102577 0 -0.1587033991533699 -0.1788467834568222 0 -0.1787768226513276 -0.1736979404510442 0 -0.180408650953261 -0.19575024676140859 0 -0.16790337105839109 -0.16228091671984221 0 -0.1787768226513276 -0.1736979404510442 0 -0.18340677857739479 -0.15748484147987599 0 -0.1787768226513276 -0.1736979404510442 0 -0.18340677857739479 -0.15748484147987599 0 -0.19242489346740341 -0.16732878467045359 0 -0.17453987815415489 -0.14795559342729539 0 -0.1795172896841761 -0.13558491746463261 0 -0.1910741798263324 -0.1450138446944495 0 -0.18340677857739479 -0.15748484147987599 0 -0.17453987815415489 -0.14795559342729539 0 -0.1910741798263324 -0.1450138446944495 0 -0.16790337105839109 -0.16228091671984221 0 -0.18340677857739479 -0.15748484147987599 0 -0.17453987815415489 -0.14795559342729539 0 -0.1795172896841761 -0.13558491746463261 0 -0.1891974076284528 -0.1313709602730172 0 -0.1910741798263324 -0.1450138446944495 0 -0.1795172896841761 -0.13558491746463261 0 -0.1891974076284528 -0.1313709602730172 0 -0.18246009017676071 -0.1244516614814577 0 -0.1795172896841761 -0.13558491746463261 0 -0.16573510201290709 -0.13703267187359369 0 -0.1722774999379717 -0.124183835126499 0 -0.1795172896841761 -0.13558491746463261 0 -0.18246009017676071 -0.1244516614814577 0 -0.1722774999379717 -0.124183835126499 0 -0.17453987815415489 -0.14795559342729539 0 -0.1795172896841761 -0.13558491746463261 0 -0.16573510201290709 -0.13703267187359369 0 -0.16573510201290709 -0.13703267187359369 0 -0.1722774999379717 -0.124183835126499 0 -0.15939483219938069 -0.1240537562166637 0 -0.15247315722691759 -0.13769127076650131 0 -0.16573510201290709 -0.13703267187359369 0 -0.15939483219938069 -0.1240537562166637 0 -0.15247315722691759 -0.13769127076650131 0 -0.16573510201290709 -0.13703267187359369 0 -0.15919519677401969 -0.15088068029150331 0 -0.16790337105839109 -0.16228091671984221 0 -0.17453987815415489 -0.14795559342729539 0 -0.15919519677401969 -0.15088068029150331 0 -0.17453987815415489 -0.14795559342729539 0 -0.16573510201290709 -0.13703267187359369 0 -0.15919519677401969 -0.15088068029150331 0 -0.15688054560814499 -0.25886050243257253 0 -0.14654832982817401 -0.24488848396814461 0 -0.16419278721665839 -0.2396948744278187 0 -0.14654832982817401 -0.24488848396814461 0 -0.13038685131062391 -0.2333457403949851 0 -0.14519959415451431 -0.22878716670918259 0 -0.14654832982817401 -0.24488848396814461 0 -0.15319206528087029 -0.2185751802168123 0 -0.16419278721665839 -0.2396948744278187 0 -0.12937871783699009 -0.25205806651978629 0 -0.14654832982817401 -0.24488848396814461 0 -0.13038685131062391 -0.2333457403949851 0 -0.1247339473024601 -0.2159119695747885 0 -0.13038685131062391 -0.2333457403949851 0 -0.15067113019838921 -0.2183392622567884 0 -0.13038685131062391 -0.2333457403949851 0 -0.15067113019838921 -0.2183392622567884 0 -0.14654832982817401 -0.24488848396814461 0 -0.15319206528087029 -0.2185751802168123 0 -0.13038685131062391 -0.2333457403949851 0 -0.14519959415451431 -0.22878716670918259 0 -0.15067113019838921 -0.2183392622567884 0 -0.14654832982817401 -0.24488848396814461 0 -0.14519959415451431 -0.22878716670918259 0 -0.15319206528087029 -0.2185751802168123 0 -0.14519959415451431 -0.22878716670918259 0 -0.15067113019838921 -0.2183392622567884 0 -0.15319206528087029 -0.2185751802168123 0 -0.15319206528087029 -0.2185751802168123 0 -0.1584553812061032 -0.19772919204254519 0 -0.14569616294077761 -0.2102074770408322 0 -0.1377211105469715 -0.2026316800333611 0 -0.1584553812061032 -0.19772919204254519 0 -0.15067113019838921 -0.2183392622567884 0 -0.15319206528087029 -0.2185751802168123 0 -0.1584553812061032 -0.19772919204254519 0 -0.14569616294077761 -0.2102074770408322 0 -0.15067113019838921 -0.2183392622567884 0 -0.1584553812061032 -0.19772919204254519 0 -0.15067113019838921 -0.2183392622567884 0 -0.15319206528087029 -0.2185751802168123 0 -0.1247339473024601 -0.2159119695747885 0 -0.14569616294077761 -0.2102074770408322 0 -0.15067113019838921 -0.2183392622567884 0 -0.1247339473024601 -0.2159119695747885 0 -0.14569616294077761 -0.2102074770408322 0 -0.1377211105469715 -0.2026316800333611 0 -0.1247339473024601 -0.2159119695747885 0 -0.15067113019838921 -0.2183392622567884 0 -0.1247339473024601 -0.2159119695747885 0 -0.1377211105469715 -0.2026316800333611 0 -0.1260252679351592 -0.20043556862670639 0 -0.1377211105469715 -0.2026316800333611 0 -0.1260252679351592 -0.20043556862670639 0 -0.1366089960588934 -0.1876707853601918 0 -0.1151630451910209 -0.1918151676200095 0 -0.1260252679351592 -0.20043556862670639 0 -0.1366089960588934 -0.1876707853601918 0 -0.1587033991533699 -0.1788467834568222 0 -0.1366089960588934 -0.1876707853601918 0 -0.1584553812061032 -0.19772919204254519 0 -0.1377211105469715 -0.2026316800333611 0 -0.1366089960588934 -0.1876707853601918 0 -0.1584553812061032 -0.19772919204254519 0 -0.1587033991533699 -0.1788467834568222 0 -0.1584553812061032 -0.19772919204254519 0 -0.180408650953261 -0.19575024676140859 0 -0.1584553812061032 -0.19772919204254519 0 -0.180408650953261 -0.19575024676140859 0 -0.16734952104037429 -0.2082224584286643 0 -0.180408650953261 -0.19575024676140859 0 -0.16734952104037429 -0.2082224584286643 0 -0.17734198672126281 -0.220835214693891 0 -0.180408650953261 -0.19575024676140859 0 -0.17734198672126281 -0.220835214693891 0 -0.20183056965581481 -0.20094290274061469 0 -0.15319206528087029 -0.2185751802168123 0 -0.1584553812061032 -0.19772919204254519 0 -0.16734952104037429 -0.2082224584286643 0 -0.15319206528087029 -0.2185751802168123 0 -0.16734952104037429 -0.2082224584286643 0 -0.17734198672126281 -0.220835214693891 0 -0.15319206528087029 -0.2185751802168123 0 -0.17734198672126281 -0.220835214693891 0 -0.15319206528087029 -0.2185751802168123 0 -0.17734198672126281 -0.220835214693891 0 -0.16419278721665839 -0.2396948744278187 0 -0.17734198672126281 -0.220835214693891 0 -0.1823819740086263 -0.24436516961006241 0 -0.20149190816165491 -0.22309524917097159 0 -0.1716413308706112 -0.26194202718264648 0 -0.1823819740086263 -0.24436516961006241 0 -0.16419278721665839 -0.2396948744278187 0 -0.17734198672126281 -0.220835214693891 0 -0.1823819740086263 -0.24436516961006241 0 -0.16419278721665839 -0.2396948744278187 0 -0.2267784058636389 -0.2531829608006998 0 -0.2139251264729658 -0.23711488357512411 0 -0.20113005748389201 -0.24676443420704861 0 -0.2139251264729658 -0.23711488357512411 0 -0.20113005748389201 -0.24676443420704861 0 -0.20149190816165491 -0.22309524917097159 0 -0.20113005748389201 -0.24676443420704861 0 -0.20149190816165491 -0.22309524917097159 0 -0.1823819740086263 -0.24436516961006241 0 -0.20113005748389201 -0.24676443420704861 0 -0.20149190816165491 -0.22309524917097159 0 -0.17734198672126281 -0.220835214693891 0 -0.20149190816165491 -0.22309524917097159 0 -0.20149190816165491 -0.22309524917097159 0 -0.22630013438267771 -0.22541689012177649 0 -0.2139251264729658 -0.23711488357512411 0 -0.20149190816165491 -0.22309524917097159 0 -0.22630013438267771 -0.22541689012177649 0 -0.20149190816165491 -0.22309524917097159 0 -0.20183056965581481 -0.20094290274061469 0 -0.22177629377490621 -0.20175862751497159 0 -0.20149190816165491 -0.22309524917097159 0 -0.22177629377490621 -0.20175862751497159 0 -0.22630013438267771 -0.22541689012177649 0 -0.20149190816165491 -0.22309524917097159 0 -0.20183056965581481 -0.20094290274061469 0 -0.17734198672126281 -0.220835214693891 0 -0.20149190816165491 -0.22309524917097159 0 -0.20183056965581481 -0.20094290274061469 0 -0.180408650953261 -0.19575024676140859 0 -0.20183056965581481 -0.20094290274061469 0 -0.2021692311499747 -0.1787905563102577 0 -0.20183056965581481 -0.20094290274061469 0 -0.2021692311499747 -0.1787905563102577 0 -0.20183056965581481 -0.20094290274061469 0 -0.22177629377490621 -0.20175862751497159 0 -0.21838872846103011 -0.17577233767187889 0 -0.24879912295523501 -0.20378885999729751 0 -0.23384729903302429 -0.18153552538729059 0 -0.22177629377490621 -0.20175862751497159 0 -0.24879912295523501 -0.20378885999729751 0 -0.23384729903302429 -0.18153552538729059 0 -0.22177629377490621 -0.20175862751497159 0 -0.24879912295523501 -0.20378885999729751 0 -0.22630013438267771 -0.22541689012177649 0 -0.22630013438267771 -0.22541689012177649 0 -0.24799023007116741 -0.24805905770765271 0 -0.25110836060370062 -0.22773853107258121 0 -0.22630013438267771 -0.22541689012177649 0 -0.25110836060370062 -0.22773853107258121 0 -0.24879912295523501 -0.20378885999729751 0 -0.22630013438267771 -0.22541689012177649 0 -0.25110836060370062 -0.22773853107258121 0 -0.2267784058636389 -0.2531829608006998 0 -0.22630013438267771 -0.22541689012177649 0 -0.24799023007116741 -0.24805905770765271 0 -0.2267784058636389 -0.2531829608006998 0 -0.2139251264729658 -0.23711488357512411 0 -0.22630013438267771 -0.22541689012177649 0 -0.20394365118860289 -0.1370288561672767 0 -0.21889547511081359 -0.1592821907772837 0 -0.2224145301078076 -0.14117613351005379 0 -0.20394365118860289 -0.1370288561672767 0 -0.21889547511081359 -0.1592821907772837 0 -0.20394365118860289 -0.1370288561672767 0 -0.2025078926441346 -0.15663820987990079 0 -0.21889547511081359 -0.1592821907772837 0 -0.20394365118860289 -0.1370288561672767 0 -0.2279518557007649 -0.1228908694111379 0 -0.2043453833745785 -0.1178791500473047 0 -0.20394365118860289 -0.1370288561672767 0 -0.2224145301078076 -0.14117613351005379 0 -0.2279518557007649 -0.1228908694111379 0 -0.20394365118860289 -0.1370288561672767 0 -0.1891974076284528 -0.1313709602730172 0 -0.18902351281835381 -0.1146262745521551 0 -0.20394365118860289 -0.1370288561672767 0 -0.18902351281835381 -0.1146262745521551 0 -0.20394365118860289 -0.1370288561672767 0 -0.1891974076284528 -0.1313709602730172 0 -0.1910741798263324 -0.1450138446944495 0 -0.18340677857739479 -0.15748484147987599 0 -0.1910741798263324 -0.1450138446944495 0 -0.2025078926441346 -0.15663820987990079 0 -0.20394365118860289 -0.1370288561672767 0 -0.1910741798263324 -0.1450138446944495 0 -0.2025078926441346 -0.15663820987990079 0 -0.2025078926441346 -0.15663820987990079 0 -0.2021692311499747 -0.1787905563102577 0 -0.18340677857739479 -0.15748484147987599 0 -0.19242489346740341 -0.16732878467045359 0 -0.2025078926441346 -0.15663820987990079 0 -0.19242489346740341 -0.16732878467045359 0 -0.2025078926441346 -0.15663820987990079 0 -0.2021692311499747 -0.1787905563102577 0 -0.1787768226513276 -0.1736979404510442 0 -0.19242489346740341 -0.16732878467045359 0 -0.2021692311499747 -0.1787905563102577 0 -0.20183056965581481 -0.20094290274061469 0 -0.2021692311499747 -0.1787905563102577 0 -0.21838872846103011 -0.17577233767187889 0 -0.2025078926441346 -0.15663820987990079 0 -0.21838872846103011 -0.17577233767187889 0 -0.21889547511081359 -0.1592821907772837 0 -0.2025078926441346 -0.15663820987990079 0 -0.2021692311499747 -0.1787905563102577 0 -0.21838872846103011 -0.17577233767187889 0 -0.21889547511081359 -0.1592821907772837 0 -0.23384729903302429 -0.18153552538729059 0 -0.21889547511081359 -0.1592821907772837 0 -0.23976247905868561 -0.16464043764739131 0 -0.23886713843104901 -0.14550261768451669 0 -0.21889547511081359 -0.1592821907772837 0 -0.23384729903302429 -0.18153552538729059 0 -0.23976247905868561 -0.16464043764739131 0 -0.21838872846103011 -0.17577233767187889 0 -0.21889547511081359 -0.1592821907772837 0 -0.23384729903302429 -0.18153552538729059 0 -0.22177629377490621 -0.20175862751497159 0 -0.21838872846103011 -0.17577233767187889 0 -0.23384729903302429 -0.18153552538729059 0 -0.24879912295523501 -0.20378885999729751 0 -0.23384729903302429 -0.18153552538729059 0 -0.25125200294963079 -0.17659370648398559 0 -0.23384729903302429 -0.18153552538729059 0 -0.23976247905868561 -0.16464043764739131 0 -0.25125200294963079 -0.17659370648398559 0 -0.23976247905868561 -0.16464043764739131 0 -0.25125200294963079 -0.17659370648398559 0 -0.25595047976891039 -0.1602881479038796 0 -0.23976247905868561 -0.16464043764739131 0 -0.23886713843104901 -0.14550261768451669 0 -0.25595047976891039 -0.1602881479038796 0 -0.21889547511081359 -0.1592821907772837 0 -0.23886713843104901 -0.14550261768451669 0 -0.2224145301078076 -0.14117613351005379 0 -0.23886713843104901 -0.14550261768451669 0 -0.2224145301078076 -0.14117613351005379 0 -0.2279518557007649 -0.1228908694111379 0 -0.2279518557007649 -0.1228908694111379 0 -0.25155832802695111 -0.12790258877497121 0 -0.23886713843104901 -0.14550261768451669 0 -0.2279518557007649 -0.1228908694111379 0 -0.25155832802695111 -0.12790258877497121 0 -0.24751073509376009 -0.1071278620471043 0 -0.2301858054955799 -0.1036455703143825 0 -0.2279518557007649 -0.1228908694111379 0 -0.24751073509376009 -0.1071278620471043 0 -0.2279518557007649 -0.1228908694111379 0 -0.25155832802695111 -0.12790258877497121 0 -0.24751073509376009 -0.1071278620471043 0 -0.2301858054955799 -0.1036455703143825 0 -0.24424353686769609 -0.088014519267964025 0 -0.2301858054955799 -0.1036455703143825 0 -0.22497611974761161 -0.087663931305712109 0 -0.2129032926981213 -0.1032879581255456 0 -0.2301858054955799 -0.1036455703143825 0 -0.2279518557007649 -0.1228908694111379 0 -0.2129032926981213 -0.1032879581255456 0 -0.23930717069476301 -0.069269132181812812 0 -0.24424353686769609 -0.088014519267964025 0 -0.22497611974761161 -0.087663931305712109 0 -0.23930717069476301 -0.069269132181812812 0 -0.24424353686769609 -0.088014519267964025 0 -0.25631117345383592 -0.077218138227814273 0 -0.2301858054955799 -0.1036455703143825 0 -0.24424353686769609 -0.088014519267964025 0 -0.22497611974761161 -0.087663931305712109 0 -0.23930717069476301 -0.069269132181812812 0 -0.22497611974761161 -0.087663931305712109 0 -0.21499257723836429 -0.072285673972544873 0 -0.23930717069476301 -0.069269132181812812 0 -0.21499257723836429 -0.072285673972544873 0 -0.2255053879794606 -0.052521193707550443 0 -0.22497611974761161 -0.087663931305712109 0 -0.21499257723836429 -0.072285673972544873 0 -0.2079178284113419 -0.088759226683190695 0 -0.21499257723836429 -0.072285673972544873 0 -0.2079178284113419 -0.088759226683190695 0 -0.1906977476144949 -0.0804317915990298 0 -0.22497611974761161 -0.087663931305712109 0 -0.2079178284113419 -0.088759226683190695 0 -0.2129032926981213 -0.1032879581255456 0 -0.2079178284113419 -0.088759226683190695 0 -0.1906977476144949 -0.0804317915990298 0 -0.19601940475811741 -0.10012677841312111 0 -0.1906977476144949 -0.0804317915990298 0 -0.19601940475811741 -0.10012677841312111 0 -0.18132353270389359 -0.098269831921935794 0 -0.21499257723836429 -0.072285673972544873 0 -0.1906977476144949 -0.0804317915990298 0 -0.20268983334446181 -0.055652167049021241 0 -0.1906977476144949 -0.0804317915990298 0 -0.1798742787094629 -0.058783140390490547 0 -0.20268983334446181 -0.055652167049021241 0 -0.2279518557007649 -0.1228908694111379 0 -0.2043453833745785 -0.1178791500473047 0 -0.2129032926981213 -0.1032879581255456 0 -0.2279518557007649 -0.1228908694111379 0 -0.2043453833745785 -0.1178791500473047 0 -0.2079178284113419 -0.088759226683190695 0 -0.2129032926981213 -0.1032879581255456 0 -0.19601940475811741 -0.10012677841312111 0 -0.2043453833745785 -0.1178791500473047 0 -0.2129032926981213 -0.1032879581255456 0 -0.19601940475811741 -0.10012677841312111 0 -0.19601940475811741 -0.10012677841312111 0 -0.18902351281835381 -0.1146262745521551 0 -0.1807389110483921 -0.1128674306834714 0 -0.2043453833745785 -0.1178791500473047 0 -0.19601940475811741 -0.10012677841312111 0 -0.18902351281835381 -0.1146262745521551 0 -0.20394365118860289 -0.1370288561672767 0 -0.2043453833745785 -0.1178791500473047 0 -0.18902351281835381 -0.1146262745521551 0 -0.2043453833745785 -0.1178791500473047 0 -0.18902351281835381 -0.1146262745521551 0 -0.1891974076284528 -0.1313709602730172 0 -0.18902351281835381 -0.1146262745521551 0 -0.18246009017676071 -0.1244516614814577 0 -0.18902351281835381 -0.1146262745521551 0 -0.18246009017676071 -0.1244516614814577 0 -0.1807389110483921 -0.1128674306834714 0 -0.18902351281835381 -0.1146262745521551 0 -0.1807389110483921 -0.1128674306834714 0 -0.1807389110483921 -0.1128674306834714 0 -0.1722774999379717 -0.124183835126499 0 -0.16625858148396849 -0.11006357735262801 0 -0.18246009017676071 -0.1244516614814577 0 -0.1807389110483921 -0.1128674306834714 0 -0.1722774999379717 -0.124183835126499 0 -0.16625858148396849 -0.11006357735262801 0 -0.15939483219938069 -0.1240537562166637 0 -0.1500253156350318 -0.10916331430221821 0 -0.1722774999379717 -0.124183835126499 0 -0.16625858148396849 -0.11006357735262801 0 -0.15939483219938069 -0.1240537562166637 0 -0.16625858148396849 -0.11006357735262801 0 -0.15866919359097109 -0.1021534083282637 0 -0.1500253156350318 -0.10916331430221821 0 -0.15866919359097109 -0.1021534083282637 0 -0.16692924386547581 -0.095772609280865867 0 -0.15189734447560749 -0.092630530779799061 0 -0.16625858148396849 -0.11006357735262801 0 -0.15866919359097109 -0.1021534083282637 0 -0.16692924386547581 -0.095772609280865867 0 -0.16625858148396849 -0.11006357735262801 0 -0.16692924386547581 -0.095772609280865867 0 -0.17454659884677501 -0.10503920455356271 0 -0.16692924386547581 -0.095772609280865867 0 -0.17454659884677501 -0.10503920455356271 0 -0.18132353270389359 -0.098269831921935794 0 -0.1807389110483921 -0.1128674306834714 0 -0.17454659884677501 -0.10503920455356271 0 -0.18132353270389359 -0.098269831921935794 0 -0.1807389110483921 -0.1128674306834714 0 -0.16625858148396849 -0.11006357735262801 0 -0.17454659884677501 -0.10503920455356271 0 -0.19601940475811741 -0.10012677841312111 0 -0.1807389110483921 -0.1128674306834714 0 -0.18132353270389359 -0.098269831921935794 0 -0.1906977476144949 -0.0804317915990298 0 -0.18132353270389359 -0.098269831921935794 0 -0.1732973399723011 -0.079555669755366654 0 -0.16692924386547581 -0.095772609280865867 0 -0.18132353270389359 -0.098269831921935794 0 -0.1732973399723011 -0.079555669755366654 0 -0.1732973399723011 -0.079555669755366654 0 -0.16597646027335791 -0.069306719613746459 0 -0.1798742787094629 -0.058783140390490547 0 -0.1906977476144949 -0.0804317915990298 0 -0.1732973399723011 -0.079555669755366654 0 -0.1798742787094629 -0.058783140390490547 0 -0.1906977476144949 -0.0804317915990298 0 -0.1798742787094629 -0.058783140390490547 0 -0.16597646027335791 -0.069306719613746459 0 -0.15461335409877441 -0.062249691294130681 0 -0.1798742787094629 -0.058783140390490547 0 -0.1732973399723011 -0.079555669755366654 0 -0.16597646027335791 -0.069306719613746459 0 -0.1561208683128931 -0.076638377014996539 0 -0.16597646027335791 -0.069306719613746459 0 -0.1561208683128931 -0.076638377014996539 0 -0.15461335409877441 -0.062249691294130681 0 -0.16692924386547581 -0.095772609280865867 0 -0.1732973399723011 -0.079555669755366654 0 -0.1607324959014699 -0.08665318752300806 0 -0.1732973399723011 -0.079555669755366654 0 -0.1607324959014699 -0.08665318752300806 0 -0.1561208683128931 -0.076638377014996539 0 -0.1607324959014699 -0.08665318752300806 0 -0.15189734447560749 -0.092630530779799061 0 -0.1561208683128931 -0.076638377014996539 0 -0.16692924386547581 -0.095772609280865867 0 -0.1607324959014699 -0.08665318752300806 0 -0.15189734447560749 -0.092630530779799061 0 -0.15189734447560749 -0.092630530779799061 0 -0.14126057769003919 -0.081617436582184663 0 -0.14068517574425521 -0.097956887639879142 0 -0.15189734447560749 -0.092630530779799061 0 -0.14126057769003919 -0.081617436582184663 0 -0.1561208683128931 -0.076638377014996539 0 -0.1561208683128931 -0.076638377014996539 0 -0.15461335409877441 -0.062249691294130681 0 -0.14882902937382519 -0.070524072511037234 0 -0.143518144803153 -0.062374127880772449 0 -0.15461335409877441 -0.062249691294130681 0 -0.1561208683128931 -0.076638377014996539 0 -0.14882902937382519 -0.070524072511037234 0 -0.15461335409877441 -0.062249691294130681 0 -0.14126057769003919 -0.081617436582184663 0 -0.1561208683128931 -0.076638377014996539 0 -0.14882902937382519 -0.070524072511037234 0 -0.14126057769003919 -0.081617436582184663 0 -0.14882902937382519 -0.070524072511037234 0 -0.13810789317124139 -0.07031221582557419 0 -0.14882902937382519 -0.070524072511037234 0 -0.13810789317124139 -0.07031221582557419 0 -0.143518144803153 -0.062374127880772449 0 -0.13810789317124139 -0.07031221582557419 0 -0.1312861185148968 -0.058621885570568077 0 -0.143518144803153 -0.062374127880772449 0 -0.14126057769003919 -0.081617436582184663 0 -0.13810789317124139 -0.07031221582557419 0 -0.12731882673796399 -0.072993440961287112 0 -0.13810789317124139 -0.07031221582557419 0 -0.12731882673796399 -0.072993440961287112 0 -0.1312861185148968 -0.058621885570568077 0 -0.14126057769003919 -0.081617436582184663 0 -0.12731882673796399 -0.072993440961287112 0 -0.1275363176743709 -0.091915897326001209 0 -0.14126057769003919 -0.081617436582184663 0 -0.1275363176743709 -0.091915897326001209 0 -0.14068517574425521 -0.097956887639879142 0 -0.1275363176743709 -0.091915897326001209 0 -0.13212598082945939 -0.1106749482025588 0 -0.14068517574425521 -0.097956887639879142 0 -0.12255413334971579 -0.12707792327399631 0 -0.14177211844533211 -0.12679889959132681 0 -0.13212598082945939 -0.1106749482025588 0 -0.14177211844533211 -0.12679889959132681 0 -0.13212598082945939 -0.1106749482025588 0 -0.1500253156350318 -0.10916331430221821 0 -0.14177211844533211 -0.12679889959132681 0 -0.15939483219938069 -0.1240537562166637 0 -0.1500253156350318 -0.10916331430221821 0 -0.13212598082945939 -0.1106749482025588 0 -0.1500253156350318 -0.10916331430221821 0 -0.14068517574425521 -0.097956887639879142 0 -0.15189734447560749 -0.092630530779799061 0 -0.1500253156350318 -0.10916331430221821 0 -0.14068517574425521 -0.097956887639879142 0 -0.15866919359097109 -0.1021534083282637 0 -0.15189734447560749 -0.092630530779799061 0 -0.1500253156350318 -0.10916331430221821 0 -0.1501814098446943 -0.019948363447854989 0 -0.15239738197173441 -0.041099027370992858 0 -0.15773833639284721 -0.029848034710789589 0 -0.14110764893460709 -0.028531049029192911 0 -0.1501814098446943 -0.019948363447854989 0 -0.15239738197173441 -0.041099027370992858 0 -0.1501814098446943 -0.019948363447854989 0 -0.15239738197173441 -0.041099027370992858 0 -0.14110764893460709 -0.028531049029192911 0 -0.1501814098446943 -0.019948363447854989 0 -0.1394250367880463 -0.015702929501361259 0 -0.1501814098446943 -0.019948363447854989 0 -0.1592257596125953 -0.017482833453482591 0 -0.15773833639284721 -0.029848034710789589 0 -0.1592257596125953 -0.017482833453482591 0 -0.14890150006416131 0.003167320015021291 0 -0.14796543771765441 0.001202300475282913 0 -0.1501814098446943 -0.019948363447854989 0 -0.14796543771765441 0.001202300475282913 0 -0.1394250367880463 -0.015702929501361259 0 -0.14796543771765441 0.001202300475282913 0 -0.1501814098446943 -0.019948363447854989 0 -0.1592257596125953 -0.017482833453482591 0 -0.14796543771765441 0.001202300475282913 0 -0.1501814098446943 -0.019948363447854989 0 -0.1394250367880463 -0.015702929501361259 0 -0.14796543771765441 0.001202300475282913 0 -0.13484827916613151 -0.0027808947433938811 0 -0.1394250367880463 -0.015702929501361259 0 -0.14796543771765441 0.001202300475282913 0 -0.1592257596125953 -0.017482833453482591 0 -0.14890150006416131 0.003167320015021291 0 -0.1243181929366337 -0.01286105707800741 0 -0.13484827916613151 -0.0027808947433938811 0 -0.1223498310080533 0.0029838050248971858 0 -0.1243181929366337 -0.01286105707800741 0 -0.13484827916613151 -0.0027808947433938811 0 -0.1394250367880463 -0.015702929501361259 0 -0.14110764893460709 -0.028531049029192911 0 -0.1394250367880463 -0.015702929501361259 0 -0.1308846358584379 -0.032608159478005397 0 -0.1394250367880463 -0.015702929501361259 0 -0.1308846358584379 -0.032608159478005397 0 -0.1243181929366337 -0.01286105707800741 0 -0.1394250367880463 -0.015702929501361259 0 -0.1308846358584379 -0.032608159478005397 0 -0.120070998173872 -0.046573978844832407 0 -0.1308846358584379 -0.032608159478005397 0 -0.13622479857643391 -0.043406340865123377 0 -0.14110764893460709 -0.028531049029192911 0 -0.1308846358584379 -0.032608159478005397 0 -0.13622479857643391 -0.043406340865123377 0 -0.120070998173872 -0.046573978844832407 0 -0.13622479857643391 -0.043406340865123377 0 -0.1312861185148968 -0.058621885570568077 0 -0.13622479857643391 -0.043406340865123377 0 -0.1312861185148968 -0.058621885570568077 0 -0.1416020080050551 -0.053003944897148651 0 -0.1312861185148968 -0.058621885570568077 0 -0.143518144803153 -0.062374127880772449 0 -0.1416020080050551 -0.053003944897148651 0 -0.15461335409877441 -0.062249691294130681 0 -0.15239738197173441 -0.041099027370992858 0 -0.15461335409877441 -0.062249691294130681 0 -0.14917320931910619 -0.056219399485141187 0 -0.15239738197173441 -0.041099027370992858 0 -0.143518144803153 -0.062374127880772449 0 -0.1416020080050551 -0.053003944897148651 0 -0.14917320931910619 -0.056219399485141187 0 -0.1416020080050551 -0.053003944897148651 0 -0.14917320931910619 -0.056219399485141187 0 -0.15239738197173441 -0.041099027370992858 0 -0.143518144803153 -0.062374127880772449 0 -0.15461335409877441 -0.062249691294130681 0 -0.14917320931910619 -0.056219399485141187 0 -0.13622479857643391 -0.043406340865123377 0 -0.1416020080050551 -0.053003944897148651 0 -0.15239738197173441 -0.041099027370992858 0 -0.14110764893460709 -0.028531049029192911 0 -0.13622479857643391 -0.043406340865123377 0 -0.15239738197173441 -0.041099027370992858 0 -0.15239738197173441 -0.041099027370992858 0 -0.16955001916102941 -0.038132986921986467 0 -0.16376020891959819 -0.050244792760565371 0 -0.15239738197173441 -0.041099027370992858 0 -0.16955001916102941 -0.038132986921986467 0 -0.15773833639284721 -0.029848034710789589 0 -0.15461335409877441 -0.062249691294130681 0 -0.15239738197173441 -0.041099027370992858 0 -0.16376020891959819 -0.050244792760565371 0 -0.15461335409877441 -0.062249691294130681 0 -0.16376020891959819 -0.050244792760565371 0 -0.1798742787094629 -0.058783140390490547 0 -0.16955001916102941 -0.038132986921986467 0 -0.16376020891959819 -0.050244792760565371 0 -0.1798742787094629 -0.058783140390490547 0 -0.15461335409877441 -0.062249691294130681 0 -0.1798742787094629 -0.058783140390490547 0 -0.16955001916102941 -0.038132986921986467 0 -0.1798742787094629 -0.058783140390490547 0 -0.16955001916102941 -0.038132986921986467 0 -0.1798742787094629 -0.058783140390490547 0 -0.19167506265417131 -0.042501140437349268 0 -0.16955001916102941 -0.038132986921986467 0 -0.194287205224737 -0.021325750197712229 0 -0.19167506265417131 -0.042501140437349268 0 -0.16955001916102941 -0.038132986921986467 0 -0.17610437938758031 -0.0128557269437331 0 -0.194287205224737 -0.021325750197712229 0 -0.16955001916102941 -0.038132986921986467 0 -0.1592257596125953 -0.017482833453482591 0 -0.17610437938758031 -0.0128557269437331 0 -0.16955001916102941 -0.038132986921986467 0 -0.1592257596125953 -0.017482833453482591 0 -0.16955001916102941 -0.038132986921986467 0 -0.1592257596125953 -0.017482833453482591 0 -0.15773833639284721 -0.029848034710789589 0 -0.1592257596125953 -0.017482833453482591 0 -0.17610437938758031 -0.0128557269437331 0 -0.169000741073837 0.0059288131650698048 0 -0.1592257596125953 -0.017482833453482591 0 -0.14890150006416131 0.003167320015021291 0 -0.169000741073837 0.0059288131650698048 0 -0.17610437938758031 -0.0128557269437331 0 -0.169000741073837 0.0059288131650698048 0 -0.18819939858690191 0.0026979606130545031 0 -0.17610437938758031 -0.0128557269437331 0 -0.194287205224737 -0.021325750197712229 0 -0.18819939858690191 0.0026979606130545031 0 -0.194287205224737 -0.021325750197712229 0 -0.20870483855239319 -0.0032175623307339201 0 -0.18819939858690191 0.0026979606130545031 0 -0.194287205224737 -0.021325750197712229 0 -0.21579282652663179 -0.02213165561995439 0 -0.21166768042173831 -0.038536311649494497 0 -0.194287205224737 -0.021325750197712229 0 -0.21579282652663179 -0.02213165561995439 0 -0.20870483855239319 -0.0032175623307339201 0 -0.21579282652663179 -0.02213165561995439 0 -0.20870483855239319 -0.0032175623307339201 0 -0.22955938951886709 -0.011319915092621461 0 -0.1798742787094629 -0.058783140390490547 0 -0.20268983334446181 -0.055652167049021241 0 -0.1798742787094629 -0.058783140390490547 0 -0.20268983334446181 -0.055652167049021241 0 -0.19167506265417131 -0.042501140437349268 0 -0.194287205224737 -0.021325750197712229 0 -0.19167506265417131 -0.042501140437349268 0 -0.21166768042173831 -0.038536311649494497 0 -0.20268983334446181 -0.055652167049021241 0 -0.19167506265417131 -0.042501140437349268 0 -0.21166768042173831 -0.038536311649494497 0 -0.20268983334446181 -0.055652167049021241 0 -0.2255053879794606 -0.052521193707550443 0 -0.20268983334446181 -0.055652167049021241 0 -0.21166768042173831 -0.038536311649494497 0 -0.2255053879794606 -0.052521193707550443 0 -0.21499257723836429 -0.072285673972544873 0 -0.20268983334446181 -0.055652167049021241 0 -0.2255053879794606 -0.052521193707550443 0 -0.21579282652663179 -0.02213165561995439 0 -0.21166768042173831 -0.038536311649494497 0 -0.2348335355388026 -0.03580134409819051 0 -0.21166768042173831 -0.038536311649494497 0 -0.2255053879794606 -0.052521193707550443 0 -0.2348335355388026 -0.03580134409819051 0 -0.2255053879794606 -0.052521193707550443 0 -0.2348335355388026 -0.03580134409819051 0 -0.24832094261445931 -0.049390220366079651 0 -0.2348335355388026 -0.03580134409819051 0 -0.24769867626179309 -0.036548158279317677 0 -0.2498027046761663 -0.023864356069986981 0 -0.2348335355388026 -0.03580134409819051 0 -0.24769867626179309 -0.036548158279317677 0 -0.24832094261445931 -0.049390220366079651 0 -0.23930717069476301 -0.069269132181812812 0 -0.24832094261445931 -0.049390220366079651 0 -0.26043171613710692 -0.063294835920327266 0 -0.2255053879794606 -0.052521193707550443 0 -0.24832094261445931 -0.049390220366079651 0 -0.23930717069476301 -0.069269132181812812 0 -0.2255053879794606 -0.052521193707550443 0 -0.24832094261445931 -0.049390220366079651 0 -0.20870483855239319 -0.0032175623307339201 0 -0.22955938951886709 -0.011319915092621461 0 -0.22355847216147801 0.013912248749877039 0 -0.21579282652663179 -0.02213165561995439 0 -0.2348335355388026 -0.03580134409819051 0 -0.22955938951886709 -0.011319915092621461 0 -0.2348335355388026 -0.03580134409819051 0 -0.22955938951886709 -0.011319915092621461 0 -0.2498027046761663 -0.023864356069986981 0 -0.22955938951886709 -0.011319915092621461 0 -0.2498027046761663 -0.023864356069986981 0 -0.2442909533675125 0.00031103310138003761 0 -0.2498027046761663 -0.023864356069986981 0 -0.26550398180889229 -0.0098114856531268026 0 -0.2442909533675125 0.00031103310138003761 0 -0.2498027046761663 -0.023864356069986981 0 -0.26550398180889229 -0.0098114856531268026 0 -0.26538951177681108 -0.024156852866491729 0 -0.2498027046761663 -0.023864356069986981 0 -0.26046960096281191 -0.035061801547299411 0 -0.2498027046761663 -0.023864356069986981 0 -0.26538951177681108 -0.024156852866491729 0 -0.26046960096281191 -0.035061801547299411 0 -0.26538951177681108 -0.024156852866491729 0 -0.28399703544963772 -0.021614946766470879 0 -0.27583315962696131 -0.03392837223791674 0 -0.26550398180889229 -0.0098114856531268026 0 -0.26538951177681108 -0.024156852866491729 0 -0.28399703544963772 -0.021614946766470879 0 -0.26538951177681108 -0.024156852866491729 0 -0.27583315962696131 -0.03392837223791674 0 -0.26046960096281191 -0.035061801547299411 0 -0.26550398180889229 -0.0098114856531268026 0 -0.28399703544963772 -0.021614946766470879 0 -0.28240901437822719 0.0024836699232438889 0 -0.28399703544963772 -0.021614946766470879 0 -0.30093296684982329 -0.0069527509089821991 0 -0.28240901437822719 0.0024836699232438889 0 -0.28399703544963772 -0.021614946766470879 0 -0.30961063242971221 -0.025530655713858701 0 -0.30093296684982329 -0.0069527509089821991 0 -0.28399703544963772 -0.021614946766470879 0 -0.30961063242971221 -0.025530655713858701 0 -0.29817315269608741 -0.042549012984710727 0 -0.30681823099308042 -0.05619617744702976 0 -0.29817315269608741 -0.042549012984710727 0 -0.2921213373333047 -0.054032251272976693 0 -0.30681823099308042 -0.05619617744702976 0 -0.2921213373333047 -0.054032251272976693 0 -0.29895492338308138 -0.063794588238333727 0 -0.29817315269608741 -0.042549012984710727 0 -0.32520980814271683 -0.038838778944812608 0 -0.30961063242971221 -0.025530655713858701 0 -0.29817315269608741 -0.042549012984710727 0 -0.32520980814271683 -0.038838778944812608 0 -0.30681823099308042 -0.05619617744702976 0 -0.29817315269608741 -0.042549012984710727 0 -0.32520980814271683 -0.038838778944812608 0 -0.28399703544963772 -0.021614946766470879 0 -0.29817315269608741 -0.042549012984710727 0 -0.27583315962696131 -0.03392837223791674 0 -0.29817315269608741 -0.042549012984710727 0 -0.27113649724945832 -0.046259247024610949 0 -0.29817315269608741 -0.042549012984710727 0 -0.27583315962696131 -0.03392837223791674 0 -0.27113649724945832 -0.046259247024610949 0 -0.29817315269608741 -0.042549012984710727 0 -0.2921213373333047 -0.054032251272976693 0 -0.27113649724945832 -0.046259247024610949 0 -0.2921213373333047 -0.054032251272976693 0 -0.28552388234481602 -0.061362230670198248 0 -0.27113649724945832 -0.046259247024610949 0 -0.2921213373333047 -0.054032251272976693 0 -0.28552388234481602 -0.061362230670198248 0 -0.29895492338308138 -0.063794588238333727 0 -0.28552388234481602 -0.061362230670198248 0 -0.27113649724945832 -0.046259247024610949 0 -0.27370623781901249 -0.062923852755627313 0 -0.27113649724945832 -0.046259247024610949 0 -0.26043171613710692 -0.063294835920327266 0 -0.27370623781901249 -0.062923852755627313 0 -0.28552388234481602 -0.061362230670198248 0 -0.27113649724945832 -0.046259247024610949 0 -0.27113649724945832 -0.046259247024610949 0 -0.26046960096281191 -0.035061801547299411 0 -0.27583315962696131 -0.03392837223791674 0 -0.27113649724945832 -0.046259247024610949 0 -0.26046960096281191 -0.035061801547299411 0 -0.24832094261445931 -0.049390220366079651 0 -0.27113649724945832 -0.046259247024610949 0 -0.26046960096281191 -0.035061801547299411 0 -0.24769867626179309 -0.036548158279317677 0 -0.24832094261445931 -0.049390220366079651 0 -0.26046960096281191 -0.035061801547299411 0 -0.24769867626179309 -0.036548158279317677 0 -0.2498027046761663 -0.023864356069986981 0 -0.26046960096281191 -0.035061801547299411 0 -0.24832094261445931 -0.049390220366079651 0 -0.27113649724945832 -0.046259247024610949 0 -0.24832094261445931 -0.049390220366079651 0 -0.27113649724945832 -0.046259247024610949 0 -0.26043171613710692 -0.063294835920327266 0 -0.26043171613710692 -0.063294835920327266 0 -0.25631117345383592 -0.077218138227814273 0 -0.2761002827348733 -0.075338537565388844 0 -0.23930717069476301 -0.069269132181812812 0 -0.26043171613710692 -0.063294835920327266 0 -0.25631117345383592 -0.077218138227814273 0 -0.24424353686769609 -0.088014519267964025 0 -0.25631117345383592 -0.077218138227814273 0 -0.26147316083473993 -0.090173666203578362 0 -0.25631117345383592 -0.077218138227814273 0 -0.26147316083473993 -0.090173666203578362 0 -0.2761002827348733 -0.075338537565388844 0 -0.27731232207606382 -0.091352993293784046 0 -0.2761002827348733 -0.075338537565388844 0 -0.28699603567913767 -0.082541547774952859 0 -0.26147316083473993 -0.090173666203578362 0 -0.27731232207606382 -0.091352993293784046 0 -0.2761002827348733 -0.075338537565388844 0 -0.26043171613710692 -0.063294835920327266 0 -0.2761002827348733 -0.075338537565388844 0 -0.27370623781901249 -0.062923852755627313 0 -0.28552388234481602 -0.061362230670198248 0 -0.27370623781901249 -0.062923852755627313 0 -0.28309150481277451 -0.069376982964522993 0 -0.2761002827348733 -0.075338537565388844 0 -0.27370623781901249 -0.062923852755627313 0 -0.28309150481277451 -0.069376982964522993 0 -0.26933758794635138 -0.109274127635187 0 -0.25155832802695111 -0.12790258877497121 0 -0.27516480035313728 -0.13291430813880439 0 -0.24751073509376009 -0.1071278620471043 0 -0.26933758794635138 -0.109274127635187 0 -0.25155832802695111 -0.12790258877497121 0 -0.24751073509376009 -0.1071278620471043 0 -0.24424353686769609 -0.088014519267964025 0 -0.26147316083473993 -0.090173666203578362 0 -0.24751073509376009 -0.1071278620471043 0 -0.26147316083473993 -0.090173666203578362 0 -0.26933758794635138 -0.109274127635187 0 -0.26147316083473993 -0.090173666203578362 0 -0.27731232207606382 -0.091352993293784046 0 -0.26933758794635138 -0.109274127635187 0 -0.27731232207606382 -0.091352993293784046 0 -0.26933758794635138 -0.109274127635187 0 -0.29265454318521639 -0.099437087289813125 0 -0.26933758794635138 -0.109274127635187 0 -0.28122743825111601 -0.1189906247208351 0 -0.29265454318521639 -0.099437087289813125 0 -0.26933758794635138 -0.109274127635187 0 -0.28122743825111601 -0.1189906247208351 0 -0.27516480035313728 -0.13291430813880439 0 -0.29265454318521639 -0.099437087289813125 0 -0.29309103455514252 -0.1284711110449078 0 -0.29265454318521639 -0.099437087289813125 0 -0.30428604616711258 -0.1157336480575287 0 -0.29309103455514252 -0.1284711110449078 0 -0.28122743825111601 -0.1189906247208351 0 -0.29265454318521639 -0.099437087289813125 0 -0.29309103455514252 -0.1284711110449078 0 -0.29265454318521639 -0.099437087289813125 0 -0.30851355187504992 -0.1011235880358597 0 -0.29977774481844288 -0.089055156846938502 0 -0.29265454318521639 -0.099437087289813125 0 -0.30851355187504992 -0.1011235880358597 0 -0.30428604616711258 -0.1157336480575287 0 -0.30428604616711258 -0.1157336480575287 0 -0.31569029366080958 -0.1154173900306919 0 -0.31148080755934432 -0.13421906388637089 0 -0.30851355187504992 -0.1011235880358597 0 -0.30428604616711258 -0.1157336480575287 0 -0.31569029366080958 -0.1154173900306919 0 -0.29221805181529031 -0.070403063534718202 0 -0.29529430720919642 -0.073607930244125666 0 -0.29991126744017488 -0.076465214315784374 0 -0.28552388234481602 -0.061362230670198248 0 -0.29991126744017488 -0.076465214315784374 0 -0.28552388234481602 -0.061362230670198248 0 -0.29991126744017488 -0.076465214315784374 0 -0.29895492338308138 -0.063794588238333727 0 -0.28552388234481602 -0.061362230670198248 0 -0.29221805181529031 -0.070403063534718202 0 -0.29991126744017488 -0.076465214315784374 0 -0.28552388234481602 -0.061362230670198248 0 -0.29221805181529031 -0.070403063534718202 0 -0.28309150481277451 -0.069376982964522993 0 -0.29221805181529031 -0.070403063534718202 0 -0.28460146876051889 -0.074415032959895724 0 -0.28699603567913767 -0.082541547774952859 0 -0.2761002827348733 -0.075338537565388844 0 -0.28309150481277451 -0.069376982964522993 0 -0.28460146876051889 -0.074415032959895724 0 -0.29221805181529031 -0.070403063534718202 0 -0.28309150481277451 -0.069376982964522993 0 -0.28460146876051889 -0.074415032959895724 0 -0.2761002827348733 -0.075338537565388844 0 -0.28460146876051889 -0.074415032959895724 0 -0.28699603567913767 -0.082541547774952859 0 -0.29265454318521639 -0.099437087289813125 0 -0.29529430720919642 -0.073607930244125666 0 -0.29977774481844288 -0.089055156846938502 0 -0.29265454318521639 -0.099437087289813125 0 -0.29221805181529031 -0.070403063534718202 0 -0.28699603567913767 -0.082541547774952859 0 -0.29265454318521639 -0.099437087289813125 0 -0.29221805181529031 -0.070403063534718202 0 -0.29265454318521639 -0.099437087289813125 0 -0.29221805181529031 -0.070403063534718202 0 -0.29529430720919642 -0.073607930244125666 0 -0.27731232207606382 -0.091352993293784046 0 -0.29265454318521639 -0.099437087289813125 0 -0.28699603567913767 -0.082541547774952859 0 -0.29529430720919642 -0.073607930244125666 0 -0.29977774481844288 -0.089055156846938502 0 -0.29991126744017488 -0.076465214315784374 0 -0.31167580034953363 -0.078841877495018003 0 -0.29991126744017488 -0.076465214315784374 0 -0.31776305045312048 -0.087513092725335723 0 -0.29977774481844288 -0.089055156846938502 0 -0.31235934596604809 -0.089532434324783805 0 -0.29991126744017488 -0.076465214315784374 0 -0.31235934596604809 -0.089532434324783805 0 -0.29991126744017488 -0.076465214315784374 0 -0.31776305045312048 -0.087513092725335723 0 -0.29991126744017488 -0.076465214315784374 0 -0.31776305045312048 -0.087513092725335723 0 -0.30851355187504992 -0.1011235880358597 0 -0.29977774481844288 -0.089055156846938502 0 -0.31235934596604809 -0.089532434324783805 0 -0.31235934596604809 -0.089532434324783805 0 -0.29991126744017488 -0.076465214315784374 0 -0.31167580034953363 -0.078841877495018003 0 -0.30842429252536119 -0.075192598571730426 0 -0.31459622126727982 -0.074770105943084184 0 -0.31167580034953363 -0.078841877495018003 0 -0.30842429252536119 -0.075192598571730426 0 -0.29991126744017488 -0.076465214315784374 0 -0.30842429252536119 -0.075192598571730426 0 -0.29991126744017488 -0.076465214315784374 0 -0.30745469019272159 -0.069027944994548701 0 -0.30842429252536119 -0.075192598571730426 0 -0.30745469019272159 -0.069027944994548701 0 -0.31459622126727982 -0.074770105943084184 0 -0.29529430720919642 -0.073607930244125666 0 -0.29991126744017488 -0.076465214315784374 0 -0.30681823099308042 -0.05619617744702976 0 -0.29895492338308138 -0.063794588238333727 0 -0.30745469019272159 -0.069027944994548701 0 -0.29991126744017488 -0.076465214315784374 0 -0.29895492338308138 -0.063794588238333727 0 -0.30745469019272159 -0.069027944994548701 0 -0.30681823099308042 -0.05619617744702976 0 -0.30745469019272159 -0.069027944994548701 0 -0.32056708253333271 -0.063035283567854691 0 -0.30745469019272159 -0.069027944994548701 0 -0.32056708253333271 -0.063035283567854691 0 -0.31459622126727982 -0.074770105943084184 0 -0.32056708253333271 -0.063035283567854691 0 -0.32469408323888721 -0.07798251172607204 0 -0.33405673247653073 -0.067336741199602743 0 -0.32056708253333271 -0.063035283567854691 0 -0.32469408323888721 -0.07798251172607204 0 -0.31459622126727982 -0.074770105943084184 0 -0.32469408323888721 -0.07798251172607204 0 -0.31459622126727982 -0.074770105943084184 0 -0.31768417006173139 -0.08026837591915531 0 -0.31167580034953363 -0.078841877495018003 0 -0.31459622126727982 -0.074770105943084184 0 -0.31768417006173139 -0.08026837591915531 0 -0.31167580034953363 -0.078841877495018003 0 -0.31768417006173139 -0.08026837591915531 0 -0.31776305045312048 -0.087513092725335723 0 -0.32469408323888721 -0.07798251172607204 0 -0.31768417006173139 -0.08026837591915531 0 -0.31776305045312048 -0.087513092725335723 0 -0.31776305045312048 -0.087513092725335723 0 -0.3356148334660658 -0.09856097113488746 0 -0.31235934596604809 -0.089532434324783805 0 -0.31776305045312048 -0.087513092725335723 0 -0.31902788386828318 -0.096116341698356339 0 -0.32469408323888721 -0.07798251172607204 0 -0.31776305045312048 -0.087513092725335723 0 -0.33131637257751151 -0.086084526518449084 0 -0.31776305045312048 -0.087513092725335723 0 -0.33131637257751151 -0.086084526518449084 0 -0.3356148334660658 -0.09856097113488746 0 -0.32469408323888721 -0.07798251172607204 0 -0.33131637257751151 -0.086084526518449084 0 -0.33763380345794919 -0.078026101812323528 0 -0.33131637257751151 -0.086084526518449084 0 -0.34087609227153509 -0.088339955193626654 0 -0.3356148334660658 -0.09856097113488746 0 -0.34087609227153509 -0.088339955193626654 0 -0.3356148334660658 -0.09856097113488746 0 -0.35086245522598591 -0.094034036860726797 0 -0.34087609227153509 -0.088339955193626654 0 -0.33763380345794919 -0.078026101812323528 0 -0.34961821041010183 -0.080528102331054813 0 -0.33131637257751151 -0.086084526518449084 0 -0.34087609227153509 -0.088339955193626654 0 -0.33763380345794919 -0.078026101812323528 0 -0.33763380345794919 -0.078026101812323528 0 -0.33405673247653073 -0.067336741199602743 0 -0.35121977823438172 -0.064154575852377202 0 -0.32469408323888721 -0.07798251172607204 0 -0.33763380345794919 -0.078026101812323528 0 -0.33405673247653073 -0.067336741199602743 0 -0.31569029366080958 -0.1154173900306919 0 -0.31148080755934432 -0.13421906388637089 0 -0.32701368010603971 -0.12535392456464331 0 -0.31569029366080958 -0.1154173900306919 0 -0.32705923356452798 -0.1120526932038572 0 -0.32701368010603971 -0.12535392456464331 0 -0.31569029366080958 -0.1154173900306919 0 -0.32705923356452798 -0.1120526932038572 0 -0.32088863758113167 -0.103851622270915 0 -0.32088863758113167 -0.103851622270915 0 -0.31902788386828318 -0.096116341698356339 0 -0.3356148334660658 -0.09856097113488746 0 -0.31776305045312048 -0.087513092725335723 0 -0.31902788386828318 -0.096116341698356339 0 -0.3356148334660658 -0.09856097113488746 0 -0.32705923356452798 -0.1120526932038572 0 -0.32088863758113167 -0.103851622270915 0 -0.3356148334660658 -0.09856097113488746 0 -0.30851355187504992 -0.1011235880358597 0 -0.31569029366080958 -0.1154173900306919 0 -0.32088863758113167 -0.103851622270915 0 -0.30851355187504992 -0.1011235880358597 0 -0.31235934596604809 -0.089532434324783805 0 -0.31902788386828318 -0.096116341698356339 0 -0.30851355187504992 -0.1011235880358597 0 -0.32088863758113167 -0.103851622270915 0 -0.31902788386828318 -0.096116341698356339 0 -0.3356148334660658 -0.09856097113488746 0 -0.33608872300859299 -0.1170795580181484 0 -0.35346661647900968 -0.1096088495444416 0 -0.32705923356452798 -0.1120526932038572 0 -0.3356148334660658 -0.09856097113488746 0 -0.33608872300859299 -0.1170795580181484 0 -0.33608872300859299 -0.1170795580181484 0 -0.35346661647900968 -0.1096088495444416 0 -0.34079878377585182 -0.1328978884811122 0 -0.32705923356452798 -0.1120526932038572 0 -0.33608872300859299 -0.1170795580181484 0 -0.32701368010603971 -0.12535392456464331 0 -0.35346661647900968 -0.1096088495444416 0 -0.35751337283710488 -0.1338114492032971 0 -0.3356148334660658 -0.09856097113488746 0 -0.35346661647900968 -0.1096088495444416 0 -0.35086245522598591 -0.094034036860726797 0 -0.3356148334660658 -0.09856097113488746 0 -0.35346661647900968 -0.1096088495444416 0 -0.35346661647900968 -0.1096088495444416 0 -0.35086245522598591 -0.094034036860726797 0 -0.35346661647900968 -0.1096088495444416 0 -0.35086245522598591 -0.094034036860726797 0 -0.36348850962624929 -0.099448116601732944 0 -0.36348850962624929 -0.099448116601732944 0 -0.37135355724530489 -0.1206784859253858 0 -0.37854116185681569 -0.093277124219890789 0 -0.37135355724530489 -0.1206784859253858 0 -0.37854116185681569 -0.093277124219890789 0 -0.35346661647900968 -0.1096088495444416 0 -0.37135355724530489 -0.1206784859253858 0 -0.35346661647900968 -0.1096088495444416 0 -0.37135355724530489 -0.1206784859253858 0 -0.35751337283710488 -0.1338114492032971 0 -0.35346661647900968 -0.1096088495444416 0 -0.36348850962624929 -0.099448116601732944 0 -0.37135355724530489 -0.1206784859253858 0 -0.35121977823438172 -0.064154575852377202 0 -0.34961821041010183 -0.080528102331054813 0 -0.363218757324132 -0.079642086458219352 0 -0.33763380345794919 -0.078026101812323528 0 -0.35121977823438172 -0.064154575852377202 0 -0.34961821041010183 -0.080528102331054813 0 -0.35086245522598591 -0.094034036860726797 0 -0.36348850962624929 -0.099448116601732944 0 -0.363218757324132 -0.079642086458219352 0 -0.34087609227153509 -0.088339955193626654 0 -0.35086245522598591 -0.094034036860726797 0 -0.34961821041010183 -0.080528102331054813 0 -0.35086245522598591 -0.094034036860726797 0 -0.34961821041010183 -0.080528102331054813 0 -0.363218757324132 -0.079642086458219352 0 -0.36348850962624929 -0.099448116601732944 0 -0.363218757324132 -0.079642086458219352 0 -0.37854116185681569 -0.093277124219890789 0 -0.363218757324132 -0.079642086458219352 0 -0.38175488208810648 -0.07296752722021202 0 -0.37854116185681569 -0.093277124219890789 0 -0.35121977823438172 -0.064154575852377202 0 -0.363218757324132 -0.079642086458219352 0 -0.37127075384044111 -0.064208181430602265 0 -0.363218757324132 -0.079642086458219352 0 -0.37127075384044111 -0.064208181430602265 0 -0.38175488208810648 -0.07296752722021202 0 -0.35121977823438172 -0.064154575852377202 0 -0.37127075384044111 -0.064208181430602265 0 -0.37131673229994988 -0.048080790452629252 0 -0.35121977823438172 -0.064154575852377202 0 -0.37131673229994988 -0.048080790452629252 0 -0.35141510064382281 -0.043057108237924552 0 -0.35121977823438172 -0.064154575852377202 0 -0.35141510064382281 -0.043057108237924552 0 -0.33616891491810241 -0.053485233039386279 0 -0.35141510064382281 -0.043057108237924552 0 -0.35788099380385358 -0.02094767362894882 0 -0.340316808308395 -0.030599240886735411 0 -0.37131673229994988 -0.048080790452629252 0 -0.35141510064382281 -0.043057108237924552 0 -0.35788099380385358 -0.02094767362894882 0 -0.37131673229994988 -0.048080790452629252 0 -0.35788099380385358 -0.02094767362894882 0 -0.38635500728086869 -0.02794513498893212 0 -0.35788099380385358 -0.02094767362894882 0 -0.38635500728086869 -0.02794513498893212 0 -0.37492315947775567 0.00068643500448066594 0 -0.35788099380385358 -0.02094767362894882 0 -0.38635500728086869 -0.02794513498893212 0 -0.35788099380385358 -0.02094767362894882 0 -0.34260016405189148 0.0055051996388869604 0 -0.37492315947775567 0.00068643500448066594 0 -0.35788099380385358 -0.02094767362894882 0 -0.340316808308395 -0.030599240886735411 0 -0.32940698032683852 -0.01395021226896551 0 -0.340316808308395 -0.030599240886735411 0 -0.32940698032683852 -0.01395021226896551 0 -0.32520980814271683 -0.038838778944812608 0 -0.35788099380385358 -0.02094767362894882 0 -0.32940698032683852 -0.01395021226896551 0 -0.32940698032683852 -0.01395021226896551 0 -0.31917167620333581 0.003780572795301198 0 -0.34260016405189148 0.0055051996388869604 0 -0.35788099380385358 -0.02094767362894882 0 -0.32940698032683852 -0.01395021226896551 0 -0.34260016405189148 0.0055051996388869604 0 -0.30093296684982329 -0.0069527509089821991 0 -0.32940698032683852 -0.01395021226896551 0 -0.30961063242971221 -0.025530655713858701 0 -0.30093296684982329 -0.0069527509089821991 0 -0.32940698032683852 -0.01395021226896551 0 -0.30093296684982329 -0.0069527509089821991 0 -0.32940698032683852 -0.01395021226896551 0 -0.31917167620333581 0.003780572795301198 0 -0.30961063242971221 -0.025530655713858701 0 -0.32940698032683852 -0.01395021226896551 0 -0.32520980814271683 -0.038838778944812608 0 -0.30681823099308042 -0.05619617744702976 0 -0.32056708253333271 -0.063035283567854691 0 -0.32520980814271683 -0.038838778944812608 0 -0.32056708253333271 -0.063035283567854691 0 -0.32520980814271683 -0.038838778944812608 0 -0.33616891491810241 -0.053485233039386279 0 -0.33405673247653073 -0.067336741199602743 0 -0.35121977823438172 -0.064154575852377202 0 -0.33616891491810241 -0.053485233039386279 0 -0.32056708253333271 -0.063035283567854691 0 -0.33405673247653073 -0.067336741199602743 0 -0.33616891491810241 -0.053485233039386279 0 -0.35141510064382281 -0.043057108237924552 0 -0.340316808308395 -0.030599240886735411 0 -0.33616891491810241 -0.053485233039386279 0 -0.340316808308395 -0.030599240886735411 0 -0.32520980814271683 -0.038838778944812608 0 -0.33616891491810241 -0.053485233039386279 0 -0.29579668536928211 -0.25645242239556931 0 -0.29936780808744051 -0.24502228694107051 0 -0.31179246768153418 -0.24782355150647559 0 -0.29936780808744051 -0.24502228694107051 0 -0.31179246768153418 -0.24782355150647559 0 -0.30072481304574628 -0.23238181297419061 0 -0.30072481304574628 -0.23238181297419061 0 -0.29943094159318567 -0.2147489503246803 0 -0.31418365827466921 -0.2257453454244672 0 -0.30072481304574628 -0.23238181297419061 0 -0.27591658682472342 -0.23006017202338591 0 -0.29943094159318567 -0.2147489503246803 0 -0.30072481304574628 -0.23238181297419061 0 -0.27591658682472342 -0.23006017202338591 0 -0.30072481304574628 -0.23238181297419061 0 -0.28689770092791611 -0.24483144536993909 0 -0.27591658682472342 -0.23006017202338591 0 -0.29936780808744051 -0.24502228694107051 0 -0.30072481304574628 -0.23238181297419061 0 -0.28689770092791611 -0.24483144536993909 0 -0.29579668536928211 -0.25645242239556931 0 -0.29936780808744051 -0.24502228694107051 0 -0.28689770092791611 -0.24483144536993909 0 -0.26625968670899808 -0.25660261333856088 0 -0.28689770092791611 -0.24483144536993909 0 -0.27591658682472342 -0.23006017202338591 0 -0.26625968670899808 -0.25660261333856088 0 -0.24799023007116741 -0.24805905770765271 0 -0.27591658682472342 -0.23006017202338591 0 -0.24799023007116741 -0.24805905770765271 0 -0.25110836060370062 -0.22773853107258121 0 -0.27591658682472342 -0.23006017202338591 0 -0.25110836060370062 -0.22773853107258121 0 -0.27591658682472342 -0.23006017202338591 0 -0.25110836060370062 -0.22773853107258121 0 -0.27591658682472342 -0.23006017202338591 0 -0.27161534214353977 -0.20806418652357819 0 -0.24879912295523501 -0.20378885999729751 0 -0.25110836060370062 -0.22773853107258121 0 -0.27161534214353977 -0.20806418652357819 0 -0.24879912295523501 -0.20378885999729751 0 -0.26757122821509988 -0.18440575994211461 0 -0.25125200294963079 -0.17659370648398559 0 -0.24879912295523501 -0.20378885999729751 0 -0.27161534214353977 -0.20806418652357819 0 -0.26757122821509988 -0.18440575994211461 0 -0.27161534214353977 -0.20806418652357819 0 -0.29104341443953452 -0.1951857011407005 0 -0.26757122821509988 -0.18440575994211461 0 -0.27161534214353977 -0.20806418652357819 0 -0.29104341443953452 -0.1951857011407005 0 -0.29943094159318567 -0.2147489503246803 0 -0.27591658682472342 -0.23006017202338591 0 -0.27161534214353977 -0.20806418652357819 0 -0.29943094159318567 -0.2147489503246803 0 -0.29104341443953452 -0.1951857011407005 0 -0.29943094159318567 -0.2147489503246803 0 -0.30831351997264311 -0.20213133496328481 0 -0.29943094159318567 -0.2147489503246803 0 -0.30831351997264311 -0.20213133496328481 0 -0.31826711105761701 -0.21296599205817421 0 -0.29943094159318567 -0.2147489503246803 0 -0.31826711105761701 -0.21296599205817421 0 -0.31418365827466921 -0.2257453454244672 0 -0.29104341443953452 -0.1951857011407005 0 -0.30831351997264311 -0.20213133496328481 0 -0.30945124156585779 -0.18175750548615219 0 -0.30945124156585779 -0.18175750548615219 0 -0.29352752592506859 -0.15750513480000239 0 -0.31742348002851739 -0.1588850951523072 0 -0.30945124156585779 -0.18175750548615219 0 -0.29352752592506859 -0.15750513480000239 0 -0.28699769715028861 -0.1755030981251193 0 -0.29352752592506859 -0.15750513480000239 0 -0.28699769715028861 -0.1755030981251193 0 -0.27500904493687528 -0.15218203441936731 0 -0.29104341443953452 -0.1951857011407005 0 -0.28699769715028861 -0.1755030981251193 0 -0.26757122821509988 -0.18440575994211461 0 -0.29104341443953452 -0.1951857011407005 0 -0.30945124156585779 -0.18175750548615219 0 -0.28699769715028861 -0.1755030981251193 0 -0.26757122821509988 -0.18440575994211461 0 -0.25595047976891039 -0.1602881479038796 0 -0.27500904493687528 -0.15218203441936731 0 -0.28699769715028861 -0.1755030981251193 0 -0.26757122821509988 -0.18440575994211461 0 -0.27500904493687528 -0.15218203441936731 0 -0.26757122821509988 -0.18440575994211461 0 -0.25125200294963079 -0.17659370648398559 0 -0.25595047976891039 -0.1602881479038796 0 -0.27500904493687528 -0.15218203441936731 0 -0.25973819068743592 -0.14337931393876621 0 -0.27516480035313728 -0.13291430813880439 0 -0.23886713843104901 -0.14550261768451669 0 -0.25595047976891039 -0.1602881479038796 0 -0.25973819068743592 -0.14337931393876621 0 -0.25595047976891039 -0.1602881479038796 0 -0.27500904493687528 -0.15218203441936731 0 -0.25973819068743592 -0.14337931393876621 0 -0.23886713843104901 -0.14550261768451669 0 -0.25973819068743592 -0.14337931393876621 0 -0.25155832802695111 -0.12790258877497121 0 -0.25973819068743592 -0.14337931393876621 0 -0.25155832802695111 -0.12790258877497121 0 -0.27516480035313728 -0.13291430813880439 0 -0.25155832802695111 -0.12790258877497121 0 -0.27516480035313728 -0.13291430813880439 0 -0.27500904493687528 -0.15218203441936731 0 -0.27516480035313728 -0.13291430813880439 0 -0.29309103455514252 -0.1284711110449078 0 -0.28122743825111601 -0.1189906247208351 0 -0.27516480035313728 -0.13291430813880439 0 -0.29309103455514252 -0.1284711110449078 0 -0.29352752592506859 -0.15750513480000239 0 -0.29309103455514252 -0.1284711110449078 0 -0.29352752592506859 -0.15750513480000239 0 -0.27500904493687528 -0.15218203441936731 0 -0.29309103455514252 -0.1284711110449078 0 -0.29352752592506859 -0.15750513480000239 0 -0.31148080755934432 -0.13421906388637089 0 -0.31742348002851739 -0.1588850951523072 0 -0.29352752592506859 -0.15750513480000239 0 -0.29309103455514252 -0.1284711110449078 0 -0.31148080755934432 -0.13421906388637089 0 -0.30428604616711258 -0.1157336480575287 0 -0.29309103455514252 -0.1284711110449078 0 -0.31148080755934432 -0.13421906388637089 0 -0.31148080755934432 -0.13421906388637089 0 -0.32701368010603971 -0.12535392456464331 0 -0.32852110792257427 -0.14392876959749279 0 -0.32852110792257427 -0.14392876959749279 0 -0.3375151231956568 -0.1611826308628351 0 -0.31742348002851739 -0.1588850951523072 0 -0.31148080755934432 -0.13421906388637089 0 -0.32852110792257427 -0.14392876959749279 0 -0.31742348002851739 -0.1588850951523072 0 -0.32852110792257427 -0.14392876959749279 0 -0.34079878377585182 -0.1328978884811122 0 -0.34832090061258758 -0.14806923604811459 0 -0.32852110792257427 -0.14392876959749279 0 -0.34832090061258758 -0.14806923604811459 0 -0.3375151231956568 -0.1611826308628351 0 -0.33608872300859299 -0.1170795580181484 0 -0.32701368010603971 -0.12535392456464331 0 -0.34079878377585182 -0.1328978884811122 0 -0.32701368010603971 -0.12535392456464331 0 -0.32852110792257427 -0.14392876959749279 0 -0.34079878377585182 -0.1328978884811122 0 -0.34079878377585182 -0.1328978884811122 0 -0.35751337283710488 -0.1338114492032971 0 -0.34832090061258758 -0.14806923604811459 0 -0.35346661647900968 -0.1096088495444416 0 -0.34079878377585182 -0.1328978884811122 0 -0.35751337283710488 -0.1338114492032971 0 -0.37135355724530489 -0.1206784859253858 0 -0.35751337283710488 -0.1338114492032971 0 -0.36645684322025268 -0.1393462673937691 0 -0.37135355724530489 -0.1206784859253858 0 -0.36645684322025268 -0.1393462673937691 0 -0.37135355724530489 -0.1206784859253858 0 -0.36645684322025268 -0.1393462673937691 0 -0.38346464430233251 -0.12817363736860651 0 -0.35751337283710488 -0.1338114492032971 0 -0.3615601291952012 -0.15801404886215251 0 -0.36645684322025268 -0.1393462673937691 0 -0.3615601291952012 -0.15801404886215251 0 -0.37985328678610331 -0.1528123495608239 0 -0.35751337283710488 -0.1338114492032971 0 -0.36645684322025268 -0.1393462673937691 0 -0.3615601291952012 -0.15801404886215251 0 -0.36645684322025268 -0.1393462673937691 0 -0.3615601291952012 -0.15801404886215251 0 -0.35751337283710488 -0.1338114492032971 0 -0.34832090061258758 -0.14806923604811459 0 -0.3615601291952012 -0.15801404886215251 0 -0.3615601291952012 -0.15801404886215251 0 -0.35716003440244792 -0.1747885649174169 0 -0.3500996587011348 -0.16381786822623839 0 -0.3615601291952012 -0.15801404886215251 0 -0.35716003440244792 -0.1747885649174169 0 -0.34832090061258758 -0.14806923604811459 0 -0.3500996587011348 -0.16381786822623839 0 -0.3375151231956568 -0.1611826308628351 0 -0.34832090061258758 -0.14806923604811459 0 -0.3500996587011348 -0.16381786822623839 0 -0.3615601291952012 -0.15801404886215251 0 -0.3500996587011348 -0.16381786822623839 0 -0.35716003440244792 -0.1747885649174169 0 -0.34259793339921418 -0.1758489505403498 0 -0.3615601291952012 -0.15801404886215251 0 -0.37298075812614351 -0.1730626031988228 0 -0.36595176996711948 -0.184279312703786 0 -0.3615601291952012 -0.15801404886215251 0 -0.37432012382907109 -0.16357502817253011 0 -0.37985328678610331 -0.1528123495608239 0 -0.3615601291952012 -0.15801404886215251 0 -0.36595176996711948 -0.184279312703786 0 -0.3615601291952012 -0.15801404886215251 0 -0.37432012382907109 -0.16357502817253011 0 -0.37298075812614351 -0.1730626031988228 0 -0.3615601291952012 -0.15801404886215251 0 -0.36595176996711948 -0.184279312703786 0 -0.35716003440244792 -0.1747885649174169 0 -0.37298075812614351 -0.1730626031988228 0 -0.36595176996711948 -0.184279312703786 0 -0.38058936620114697 -0.1869362109351772 0 -0.35716003440244792 -0.1747885649174169 0 -0.34259793339921418 -0.1758489505403498 0 -0.35275993960969532 -0.19156308097268149 0 -0.36595176996711948 -0.184279312703786 0 -0.35716003440244792 -0.1747885649174169 0 -0.35275993960969532 -0.19156308097268149 0 -0.35716003440244792 -0.1747885649174169 0 -0.35275993960969532 -0.19156308097268149 0 -0.34259793339921418 -0.1758489505403498 0 -0.33233568413346382 -0.18843113703177561 0 -0.35275993960969532 -0.19156308097268149 0 -0.34259793339921418 -0.1758489505403498 0 -0.32404507400260318 -0.17471746628099 0 -0.33233568413346382 -0.18843113703177561 0 -0.34259793339921418 -0.1758489505403498 0 -0.3375151231956568 -0.1611826308628351 0 -0.32404507400260318 -0.17471746628099 0 -0.3500996587011348 -0.16381786822623839 0 -0.34259793339921418 -0.1758489505403498 0 -0.3375151231956568 -0.1611826308628351 0 -0.3375151231956568 -0.1611826308628351 0 -0.31742348002851739 -0.1588850951523072 0 -0.32404507400260318 -0.17471746628099 0 -0.30945124156585779 -0.18175750548615219 0 -0.31742348002851739 -0.1588850951523072 0 -0.32404507400260318 -0.17471746628099 0 -0.30945124156585779 -0.18175750548615219 0 -0.32404507400260318 -0.17471746628099 0 -0.33233568413346382 -0.18843113703177561 0 -0.30945124156585779 -0.18175750548615219 0 -0.3239151490260968 -0.19959655170557461 0 -0.33233568413346382 -0.18843113703177561 0 -0.30831351997264311 -0.20213133496328481 0 -0.30945124156585779 -0.18175750548615219 0 -0.3239151490260968 -0.19959655170557461 0 -0.30831351997264311 -0.20213133496328481 0 -0.3239151490260968 -0.19959655170557461 0 -0.31826711105761701 -0.21296599205817421 0 -0.31826711105761701 -0.21296599205817421 0 -0.33458532315325262 -0.21176926255668621 0 -0.32679259413270789 -0.22157634090947939 0 -0.3239151490260968 -0.19959655170557461 0 -0.31826711105761701 -0.21296599205817421 0 -0.33458532315325262 -0.21176926255668621 0 -0.3239151490260968 -0.19959655170557461 0 -0.33458532315325262 -0.21176926255668621 0 -0.34053801427374653 -0.2005240781373745 0 -0.33458532315325262 -0.21176926255668621 0 -0.35195565927566252 -0.2098405713228215 0 -0.3420335408826588 -0.22327965554703941 0 -0.33458532315325262 -0.21176926255668621 0 -0.34053801427374653 -0.2005240781373745 0 -0.35195565927566252 -0.2098405713228215 0 -0.34053801427374653 -0.2005240781373745 0 -0.33233568413346382 -0.18843113703177561 0 -0.35275993960969532 -0.19156308097268149 0 -0.3239151490260968 -0.19959655170557461 0 -0.34053801427374653 -0.2005240781373745 0 -0.33233568413346382 -0.18843113703177561 0 -0.34053801427374653 -0.2005240781373745 0 -0.35275993960969532 -0.19156308097268149 0 -0.35195565927566252 -0.2098405713228215 0 -0.36595176996711948 -0.184279312703786 0 -0.37034341073903698 -0.2105445765454195 0 -0.36595176996711948 -0.184279312703786 0 -0.35275993960969532 -0.19156308097268149 0 -0.37034341073903698 -0.2105445765454195 0 -0.36595176996711948 -0.184279312703786 0 -0.37034341073903698 -0.2105445765454195 0 -0.38058936620114697 -0.1869362109351772 0 -0.37034341073903698 -0.2105445765454195 0 -0.35195565927566252 -0.2098405713228215 0 -0.36494936715941428 -0.22494625934063581 0 -0.35275993960969532 -0.19156308097268149 0 -0.37034341073903698 -0.2105445765454195 0 -0.35195565927566252 -0.2098405713228215 0 -0.35195565927566252 -0.2098405713228215 0 -0.36494936715941428 -0.22494625934063581 0 -0.3420335408826588 -0.22327965554703941 0 -0.36494936715941428 -0.22494625934063581 0 -0.34838526230814648 -0.23684204522761851 0 -0.3420335408826588 -0.22327965554703941 0 -0.37034341073903698 -0.2105445765454195 0 -0.3747350515109541 -0.23680984038705319 0 -0.36494936715941428 -0.22494625934063581 0 -0.37123748534952422 -0.23898063653024121 0 -0.34838526230814648 -0.23684204522761851 0 -0.37034341073903698 -0.2105445765454195 0 -0.3747350515109541 -0.23680984038705319 0 -0.3794067543610411 -0.22639241448067571 0 -0.37034341073903698 -0.2105445765454195 0 -0.36494936715941428 -0.22494625934063581 0 -0.3747350515109541 -0.23680984038705319 0 -0.36494936715941428 -0.22494625934063581 0 -0.37123748534952422 -0.23898063653024121 0 -0.3747350515109541 -0.23680984038705319 0 -0.34868546711828302 -0.25297775107731479 0 -0.37123748534952422 -0.23898063653024121 0 -0.37123748534952422 -0.23898063653024121 0 -0.34838526230814648 -0.23684204522761851 0 -0.34868546711828302 -0.25297775107731479 0 -0.36988031000046262 -0.2515956850698382 0 -0.37123748534952422 -0.23898063653024121 0 -0.36988031000046262 -0.2515956850698382 0 -0.37123748534952422 -0.23898063653024121 0 -0.37515938377760077 -0.23934766156114759 0 -0.37123748534952422 -0.23898063653024121 0 -0.37515938377760077 -0.23934766156114759 0 -0.37123748534952422 -0.23898063653024121 0 -0.3747350515109541 -0.23680984038705319 0 -0.37515938377760077 -0.23934766156114759 0 -0.3747350515109541 -0.23680984038705319 0 -0.37515938377760077 -0.23934766156114759 0 -0.37123748534952422 -0.23898063653024121 0 -0.3747350515109541 -0.23680984038705319 0 -0.34868546711828302 -0.25297775107731479 0 -0.37123748534952422 -0.23898063653024121 0 -0.34838526230814648 -0.23684204522761851 0 -0.34868546711828302 -0.25297775107731479 0 -0.34838526230814648 -0.23684204522761851 0 -0.32553303926676908 -0.23470345392499531 0 -0.34838526230814648 -0.23684204522761851 0 -0.32553303926676908 -0.23470345392499531 0 -0.32603912114234329 -0.25165876443507063 0 -0.34868546711828302 -0.25297775107731479 0 -0.32553303926676908 -0.23470345392499531 0 -0.34868546711828302 -0.25297775107731479 0 -0.32553303926676908 -0.23470345392499531 0 -0.34838526230814648 -0.23684204522761851 0 -0.3420335408826588 -0.22327965554703941 0 -0.32553303926676908 -0.23470345392499531 0 -0.3420335408826588 -0.22327965554703941 0 -0.32679259413270789 -0.22157634090947939 0 -0.32553303926676908 -0.23470345392499531 0 -0.33458532315325262 -0.21176926255668621 0 -0.3420335408826588 -0.22327965554703941 0 -0.32679259413270789 -0.22157634090947939 0 -0.30072481304574628 -0.23238181297419061 0 -0.31418365827466921 -0.2257453454244672 0 -0.32553303926676908 -0.23470345392499531 0 -0.32679259413270789 -0.22157634090947939 0 -0.31418365827466921 -0.2257453454244672 0 -0.32553303926676908 -0.23470345392499531 0 -0.30072481304574628 -0.23238181297419061 0 -0.32553303926676908 -0.23470345392499531 0 -0.31826711105761701 -0.21296599205817421 0 -0.32679259413270789 -0.22157634090947939 0 -0.31418365827466921 -0.2257453454244672 0 -0.31418365827466921 -0.2257453454244672 0 -0.32553303926676908 -0.23470345392499531 0 -0.31179246768153418 -0.24782355150647559 0 -0.30072481304574628 -0.23238181297419061 0 -0.32553303926676908 -0.23470345392499531 0 -0.32603912114234329 -0.25165876443507063 0 -0.31179246768153418 -0.24782355150647559 0 -0.32553303926676908 -0.23470345392499531 0 -0.43360359240240659 -0.25821374267088593 0 -0.41955657755903231 -0.2435025069042 0 -0.44175517444974821 -0.24557992957572569 0 -0.43534609419137937 -0.23741217744029849 0 -0.41955657755903231 -0.2435025069042 0 -0.44175517444974821 -0.24557992957572569 0 -0.43534609419137937 -0.23741217744029849 0 -0.42793615668767138 -0.23195009798913049 0 -0.41955657755903231 -0.2435025069042 0 -0.41955657755903231 -0.2435025069042 0 -0.44175517444974821 -0.24557992957572569 0 -0.43441849880960931 -0.22397773879407451 0 -0.42793615668767138 -0.23195009798913049 0 -0.4408563205974585 -0.22943219937785139 0 -0.43534609419137937 -0.23741217744029849 0 -0.42793615668767138 -0.23195009798913049 0 -0.4408563205974585 -0.22943219937785139 0 -0.43441849880960931 -0.22397773879407451 0 -0.43206119538446031 -0.21577952454663471 0 -0.44358010409810311 -0.22122379674294121 0 -0.43441849880960931 -0.22397773879407451 0 -0.422257408896207 -0.2212509389777369 0 -0.43206119538446031 -0.21577952454663471 0 -0.43441849880960931 -0.22397773879407451 0 -0.422257408896207 -0.2212509389777369 0 -0.42793615668767138 -0.23195009798913049 0 -0.422257408896207 -0.2212509389777369 0 -0.42793615668767138 -0.23195009798913049 0 -0.41246430745885038 -0.23014097501985881 0 -0.422257408896207 -0.2212509389777369 0 -0.41246430745885038 -0.23014097501985881 0 -0.40969620743579888 -0.21762730629069371 0 -0.41246430745885038 -0.23014097501985881 0 -0.39876280205018089 -0.22455589122951591 0 -0.40969620743579888 -0.21762730629069371 0 -0.41246430745885038 -0.23014097501985881 0 -0.41955657755903231 -0.2435025069042 0 -0.39735798066831651 -0.24142508423267431 0 -0.41955657755903231 -0.2435025069042 0 -0.39735798066831651 -0.24142508423267431 0 -0.40722021890048532 -0.25568257929430799 0 -0.41955657755903231 -0.2435025069042 0 -0.39735798066831651 -0.24142508423267431 0 -0.42793615668767138 -0.23195009798913049 0 -0.41246430745885038 -0.23014097501985881 0 -0.41955657755903231 -0.2435025069042 0 -0.38559952071272591 -0.25768599133778097 0 -0.36988031000046262 -0.2515956850698382 0 -0.37515938377760077 -0.23934766156114759 0 -0.39735798066831651 -0.24142508423267431 0 -0.37515938377760077 -0.23934766156114759 0 -0.39735798066831651 -0.24142508423267431 0 -0.37515938377760077 -0.23934766156114759 0 -0.38816974987060571 -0.23158309111032219 0 -0.38559952071272591 -0.25768599133778097 0 -0.39735798066831651 -0.24142508423267431 0 -0.37515938377760077 -0.23934766156114759 0 -0.37683279972772549 -0.23550785394042881 0 -0.37515938377760077 -0.23934766156114759 0 -0.38816974987060571 -0.23158309111032219 0 -0.3747350515109541 -0.23680984038705319 0 -0.37683279972772549 -0.23550785394042881 0 -0.37515938377760077 -0.23934766156114759 0 -0.3747350515109541 -0.23680984038705319 0 -0.37683279972772549 -0.23550785394042881 0 -0.37683279972772549 -0.23550785394042881 0 -0.3794067543610411 -0.22639241448067571 0 -0.38816974987060571 -0.23158309111032219 0 -0.3747350515109541 -0.23680984038705319 0 -0.37683279972772549 -0.23550785394042881 0 -0.3794067543610411 -0.22639241448067571 0 -0.3794067543610411 -0.22639241448067571 0 -0.38816974987060571 -0.23158309111032219 0 -0.38695275995688272 -0.217516710420155 0 -0.41246430745885038 -0.23014097501985881 0 -0.39735798066831651 -0.24142508423267431 0 -0.39876280205018089 -0.22455589122951591 0 -0.39735798066831651 -0.24142508423267431 0 -0.38816974987060571 -0.23158309111032219 0 -0.39876280205018089 -0.22455589122951591 0 -0.38816974987060571 -0.23158309111032219 0 -0.39876280205018089 -0.22455589122951591 0 -0.38695275995688272 -0.217516710420155 0 -0.39876280205018089 -0.22455589122951591 0 -0.3979358069106313 -0.2090421803033915 0 -0.40969620743579888 -0.21762730629069371 0 -0.3979358069106313 -0.2090421803033915 0 -0.40913345022087649 -0.20690076671707699 0 -0.40969620743579888 -0.21762730629069371 0 -0.3979358069106313 -0.2090421803033915 0 -0.40536834181403841 -0.19933025862309101 0 -0.40913345022087649 -0.20690076671707699 0 -0.39876280205018089 -0.22455589122951591 0 -0.3979358069106313 -0.2090421803033915 0 -0.38695275995688272 -0.217516710420155 0 -0.37034341073903698 -0.2105445765454195 0 -0.3794067543610411 -0.22639241448067571 0 -0.38695275995688272 -0.217516710420155 0 -0.37034341073903698 -0.2105445765454195 0 -0.38695275995688272 -0.217516710420155 0 -0.38585462931197889 -0.20319538062125531 0 -0.3979358069106313 -0.2090421803033915 0 -0.38695275995688272 -0.217516710420155 0 -0.38585462931197889 -0.20319538062125531 0 -0.37034341073903698 -0.2105445765454195 0 -0.38585462931197889 -0.20319538062125531 0 -0.38058936620114697 -0.1869362109351772 0 -0.38585462931197889 -0.20319538062125531 0 -0.39345180275219632 -0.191937224902133 0 -0.38058936620114697 -0.1869362109351772 0 -0.3979358069106313 -0.2090421803033915 0 -0.39345180275219632 -0.191937224902133 0 -0.40536834181403841 -0.19933025862309101 0 -0.39345180275219632 -0.191937224902133 0 -0.41386605175772723 -0.19099932847357881 0 -0.39345180275219632 -0.191937224902133 0 -0.41386605175772723 -0.19099932847357881 0 -0.40313619564716358 -0.18009050310883989 0 -0.3979358069106313 -0.2090421803033915 0 -0.38585462931197889 -0.20319538062125531 0 -0.39345180275219632 -0.191937224902133 0 -0.39345180275219632 -0.191937224902133 0 -0.40536834181403841 -0.19933025862309101 0 -0.41386605175772723 -0.19099932847357881 0 -0.41386605175772723 -0.19099932847357881 0 -0.41245459742875962 -0.1977717927192745 0 -0.41245459742875962 -0.1977717927192745 0 -0.41603016583843649 -0.20438042131021811 0 -0.42268791656390109 -0.19974568300671339 0 -0.41386605175772723 -0.19099932847357881 0 -0.41245459742875962 -0.1977717927192745 0 -0.42268791656390109 -0.19974568300671339 0 -0.41245459742875962 -0.1977717927192745 0 -0.40913345022087649 -0.20690076671707699 0 -0.41603016583843649 -0.20438042131021811 0 -0.40536834181403841 -0.19933025862309101 0 -0.41386605175772723 -0.19099932847357881 0 -0.41245459742875962 -0.1977717927192745 0 -0.40536834181403841 -0.19933025862309101 0 -0.41245459742875962 -0.1977717927192745 0 -0.40913345022087649 -0.20690076671707699 0 -0.40913345022087649 -0.20690076671707699 0 -0.41626105674099928 -0.2122357507898317 0 -0.41603016583843649 -0.20438042131021811 0 -0.40913345022087649 -0.20690076671707699 0 -0.40969620743579888 -0.21762730629069371 0 -0.41626105674099928 -0.2122357507898317 0 -0.422257408896207 -0.2212509389777369 0 -0.41626105674099928 -0.2122357507898317 0 -0.42495620674629248 -0.20960893518106311 0 -0.422257408896207 -0.2212509389777369 0 -0.40969620743579888 -0.21762730629069371 0 -0.41626105674099928 -0.2122357507898317 0 -0.41603016583843649 -0.20438042131021811 0 -0.42495620674629248 -0.20960893518106311 0 -0.42268791656390109 -0.19974568300671339 0 -0.41626105674099928 -0.2122357507898317 0 -0.41603016583843649 -0.20438042131021811 0 -0.42495620674629248 -0.20960893518106311 0 -0.42495620674629248 -0.20960893518106311 0 -0.43413865290921361 -0.20449901039689719 0 -0.42268791656390109 -0.19974568300671339 0 -0.422257408896207 -0.2212509389777369 0 -0.42495620674629248 -0.20960893518106311 0 -0.43206119538446031 -0.21577952454663471 0 -0.42495620674629248 -0.20960893518106311 0 -0.43206119538446031 -0.21577952454663471 0 -0.43413865290921361 -0.20449901039689719 0 -0.43206119538446031 -0.21577952454663471 0 -0.43413865290921361 -0.20449901039689719 0 -0.44222753946600768 -0.21063360283113669 0 -0.43413865290921361 -0.20449901039689719 0 -0.43492702781844023 -0.19003171931862359 0 -0.42268791656390109 -0.19974568300671339 0 -0.41386605175772723 -0.19099932847357881 0 -0.43492702781844023 -0.19003171931862359 0 -0.42268791656390109 -0.19974568300671339 0 -0.41386605175772723 -0.19099932847357881 0 -0.43492702781844023 -0.19003171931862359 0 -0.42434566864503243 -0.18280137109470321 0 -0.41386605175772723 -0.19099932847357881 0 -0.43492702781844023 -0.19003171931862359 0 -0.42434566864503243 -0.18280137109470321 0 -0.43693439862787559 -0.18039991844789091 0 -0.41788079337659878 -0.17173572673210891 0 -0.43693439862787559 -0.18039991844789091 0 -0.41788079337659878 -0.17173572673210891 0 -0.43492702781844023 -0.19003171931862359 0 -0.42434566864503243 -0.18280137109470321 0 -0.43693439862787559 -0.18039991844789091 0 -0.43693439862787559 -0.18039991844789091 0 -0.41788079337659878 -0.17173572673210891 0 -0.43754614593498692 -0.16129284129103599 0 -0.41788079337659878 -0.17173572673210891 0 -0.42285399924723849 -0.1478732054629939 0 -0.43754614593498692 -0.16129284129103599 0 -0.41499832689017552 -0.17042499094624139 0 -0.399373403200173 -0.15786254218277329 0 -0.42285399924723849 -0.1478732054629939 0 -0.41788079337659878 -0.17173572673210891 0 -0.42285399924723849 -0.1478732054629939 0 -0.41499832689017552 -0.17042499094624139 0 -0.41788079337659878 -0.17173572673210891 0 -0.42285399924723849 -0.1478732054629939 0 -0.41499832689017552 -0.17042499094624139 0 -0.41788079337659878 -0.17173572673210891 0 -0.41386605175772723 -0.19099932847357881 0 -0.41788079337659878 -0.17173572673210891 0 -0.41131541483025158 -0.18040368067704901 0 -0.41026267116832471 -0.17510622553350941 0 -0.41131541483025158 -0.18040368067704901 0 -0.40313619564716358 -0.18009050310883989 0 -0.41386605175772723 -0.19099932847357881 0 -0.42434566864503243 -0.18280137109470321 0 -0.41788079337659878 -0.17173572673210891 0 -0.41386605175772723 -0.19099932847357881 0 -0.41788079337659878 -0.17173572673210891 0 -0.41788079337659878 -0.17173572673210891 0 -0.41026267116832471 -0.17510622553350941 0 -0.41131541483025158 -0.18040368067704901 0 -0.41499832689017552 -0.17042499094624139 0 -0.41026267116832471 -0.17510622553350941 0 -0.40391015799043922 -0.1705743894157086 0 -0.41499832689017552 -0.17042499094624139 0 -0.41788079337659878 -0.17173572673210891 0 -0.41026267116832471 -0.17510622553350941 0 -0.41386605175772723 -0.19099932847357881 0 -0.41131541483025158 -0.18040368067704901 0 -0.40313619564716358 -0.18009050310883989 0 -0.39345180275219632 -0.191937224902133 0 -0.40313619564716358 -0.18009050310883989 0 -0.3940840859996918 -0.17446557775222321 0 -0.40313619564716358 -0.18009050310883989 0 -0.3940840859996918 -0.17446557775222321 0 -0.40391015799043922 -0.1705743894157086 0 -0.41026267116832471 -0.17510622553350941 0 -0.40313619564716358 -0.18009050310883989 0 -0.40391015799043922 -0.1705743894157086 0 -0.37298075812614351 -0.1730626031988228 0 -0.38058936620114697 -0.1869362109351772 0 -0.38329024097949471 -0.16831380681617411 0 -0.39345180275219632 -0.191937224902133 0 -0.3940840859996918 -0.17446557775222321 0 -0.38058936620114697 -0.1869362109351772 0 -0.3940840859996918 -0.17446557775222321 0 -0.38058936620114697 -0.1869362109351772 0 -0.38329024097949471 -0.16831380681617411 0 -0.38329024097949471 -0.16831380681617411 0 -0.399373403200173 -0.15786254218277329 0 -0.37985328678610331 -0.1528123495608239 0 -0.37432012382907109 -0.16357502817253011 0 -0.38329024097949471 -0.16831380681617411 0 -0.37985328678610331 -0.1528123495608239 0 -0.37432012382907109 -0.16357502817253011 0 -0.37298075812614351 -0.1730626031988228 0 -0.38329024097949471 -0.16831380681617411 0 -0.3940840859996918 -0.17446557775222321 0 -0.38329024097949471 -0.16831380681617411 0 -0.399373403200173 -0.15786254218277329 0 -0.3940840859996918 -0.17446557775222321 0 -0.40391015799043922 -0.1705743894157086 0 -0.399373403200173 -0.15786254218277329 0 -0.41499832689017552 -0.17042499094624139 0 -0.40391015799043922 -0.1705743894157086 0 -0.399373403200173 -0.15786254218277329 0 -0.399373403200173 -0.15786254218277329 0 -0.39374499990466238 -0.14097762832754501 0 -0.37985328678610331 -0.1528123495608239 0 -0.399373403200173 -0.15786254218277329 0 -0.39374499990466238 -0.14097762832754501 0 -0.41019733602127911 -0.14036770829388059 0 -0.39374499990466238 -0.14097762832754501 0 -0.37985328678610331 -0.1528123495608239 0 -0.38133895206363222 -0.1404865110097491 0 -0.36645684322025268 -0.1393462673937691 0 -0.37985328678610331 -0.1528123495608239 0 -0.38133895206363222 -0.1404865110097491 0 -0.36645684322025268 -0.1393462673937691 0 -0.38133895206363222 -0.1404865110097491 0 -0.38346464430233251 -0.12817363736860651 0 -0.39374499990466238 -0.14097762832754501 0 -0.38133895206363222 -0.1404865110097491 0 -0.38346464430233251 -0.12817363736860651 0 -0.39374499990466238 -0.14097762832754501 0 -0.38346464430233251 -0.12817363736860651 0 -0.39525364798665008 -0.1206099903290718 0 -0.39374499990466238 -0.14097762832754501 0 -0.40791658896366562 -0.12761410361279041 0 -0.41019733602127911 -0.14036770829388059 0 -0.39374499990466238 -0.14097762832754501 0 -0.40791658896366562 -0.12761410361279041 0 -0.39525364798665008 -0.1206099903290718 0 -0.41019733602127911 -0.14036770829388059 0 -0.42285399924723849 -0.1478732054629939 0 -0.42709768879065563 -0.12751106188329969 0 -0.40791658896366562 -0.12761410361279041 0 -0.41019733602127911 -0.14036770829388059 0 -0.42709768879065563 -0.12751106188329969 0 -0.399373403200173 -0.15786254218277329 0 -0.42285399924723849 -0.1478732054629939 0 -0.399373403200173 -0.15786254218277329 0 -0.41019733602127911 -0.14036770829388059 0 -0.42285399924723849 -0.1478732054629939 0 -0.42285399924723849 -0.1478732054629939 0 -0.44044528430132812 -0.14038935499400859 0 -0.42285399924723849 -0.1478732054629939 0 -0.44044528430132812 -0.14038935499400859 0 -0.43754614593498692 -0.16129284129103599 0 -0.42285399924723849 -0.1478732054629939 0 -0.42709768879065563 -0.12751106188329969 0 -0.42285399924723849 -0.1478732054629939 0 -0.42709768879065563 -0.12751106188329969 0 -0.44044528430132812 -0.14038935499400859 0 -0.42709768879065563 -0.12751106188329969 0 -0.44044528430132812 -0.14038935499400859 0 -0.44468897384474548 -0.12002721141431399 0 -0.44044528430132812 -0.14038935499400859 0 -0.45803656935541742 -0.13290550452502251 0 -0.44468897384474548 -0.12002721141431399 0 -0.44044528430132812 -0.14038935499400859 0 -0.45803656935541742 -0.13290550452502251 0 -0.45803656935541742 -0.13290550452502251 0 -0.44468897384474548 -0.12002721141431399 0 -0.44044528430132812 -0.14038935499400859 0 -0.45556748427866289 -0.15408868104255899 0 -0.43754614593498692 -0.16129284129103599 0 -0.44044528430132812 -0.14038935499400859 0 -0.45556748427866289 -0.15408868104255899 0 -0.45803656935541742 -0.13290550452502251 0 -0.45556748427866289 -0.15408868104255899 0 -0.45803656935541742 -0.13290550452502251 0 -0.47901828467770941 -0.15314950125611021 0 -0.45803656935541742 -0.13290550452502251 0 -0.47901828467770941 -0.15314950125611021 0 -0.45803656935541742 -0.13290550452502251 0 -0.47199006911445113 -0.12696927500031449 0 -0.45901838346204188 -0.1161292499609772 0 -0.45803656935541742 -0.13290550452502251 0 -0.47199006911445113 -0.12696927500031449 0 -0.45803656935541742 -0.13290550452502251 0 -0.47199006911445113 -0.12696927500031449 0 -0.47901828467770941 -0.15314950125611021 0 -0.47199006911445113 -0.12696927500031449 0 -0.48361384598086771 -0.1326636109024327 0 -0.47901828467770941 -0.15314950125611021 0 -0.47199006911445113 -0.12696927500031449 0 -0.48361384598086771 -0.1326636109024327 0 -0.48594356887348478 -0.12103304547560639 0 -0.48361384598086771 -0.1326636109024327 0 -0.49259406344053752 -0.1358114774087758 0 -0.47901828467770941 -0.15314950125611021 0 -0.49259406344053752 -0.1358114774087758 0 -0.5 -0.14491476006819559 0 -0.5 -0.11643602214919301 0 -0.48361384598086771 -0.1326636109024327 0 -0.4923196252396223 -0.1252888034212187 0 -0.48594356887348478 -0.12103304547560639 0 -0.48361384598086771 -0.1326636109024327 0 -0.49259406344053752 -0.1358114774087758 0 -0.4923196252396223 -0.1252888034212187 0 -0.49259406344053752 -0.1358114774087758 0 -0.4923196252396223 -0.1252888034212187 0 -0.5 -0.11643602214919301 0 -0.49259406344053752 -0.1358114774087758 0 -0.5 -0.14491476006819559 0 -0.47901828467770941 -0.15314950125611021 0 -0.47901828467770941 -0.15314950125611021 0 -0.47967678852487478 -0.17423404930371919 0 -0.46657050554086887 -0.16666895747920071 0 -0.5 -0.14491476006819559 0 -0.47901828467770941 -0.15314950125611021 0 -0.50000000000000089 -0.1733934979871983 0 -0.47901828467770941 -0.15314950125611021 0 -0.50000000000000089 -0.1733934979871983 0 -0.47901828467770941 -0.15314950125611021 0 -0.50000000000000089 -0.1733934979871983 0 -0.47967678852487478 -0.17423404930371919 0 -0.50000000000000089 -0.1733934979871983 0 -0.48773526509230608 -0.1868240347465141 0 -0.5 -0.19605693085118131 0 -0.50000000000000089 -0.1733934979871983 0 -0.48773526509230608 -0.1868240347465141 0 -0.47967678852487478 -0.17423404930371919 0 -0.48773526509230608 -0.1868240347465141 0 -0.47967678852487478 -0.17423404930371919 0 -0.47411450138703781 -0.18823132041616239 0 -0.47967678852487478 -0.17423404930371919 0 -0.46531372507605068 -0.17935537212255259 0 -0.46657050554086887 -0.16666895747920071 0 -0.47967678852487478 -0.17423404930371919 0 -0.46531372507605068 -0.17935537212255259 0 -0.47411450138703781 -0.18823132041616239 0 -0.46531372507605068 -0.17935537212255259 0 -0.45254962631693613 -0.1728700456127259 0 -0.45598800387915339 -0.1890641101636707 0 -0.46531372507605068 -0.17935537212255259 0 -0.45598800387915339 -0.1890641101636707 0 -0.47411450138703781 -0.18823132041616239 0 -0.46531372507605068 -0.17935537212255259 0 -0.46657050554086887 -0.16666895747920071 0 -0.45254962631693613 -0.1728700456127259 0 -0.45556748427866289 -0.15408868104255899 0 -0.46657050554086887 -0.16666895747920071 0 -0.45254962631693613 -0.1728700456127259 0 -0.45556748427866289 -0.15408868104255899 0 -0.47901828467770941 -0.15314950125611021 0 -0.46657050554086887 -0.16666895747920071 0 -0.43693439862787559 -0.18039991844789091 0 -0.43754614593498692 -0.16129284129103599 0 -0.45254962631693613 -0.1728700456127259 0 -0.45556748427866289 -0.15408868104255899 0 -0.43754614593498692 -0.16129284129103599 0 -0.45254962631693613 -0.1728700456127259 0 -0.43693439862787559 -0.18039991844789091 0 -0.45598800387915339 -0.1890641101636707 0 -0.43492702781844023 -0.19003171931862359 0 -0.43693439862787559 -0.18039991844789091 0 -0.45598800387915339 -0.1890641101636707 0 -0.43693439862787559 -0.18039991844789091 0 -0.45254962631693613 -0.1728700456127259 0 -0.45598800387915339 -0.1890641101636707 0 -0.43492702781844023 -0.19003171931862359 0 -0.44687813492330819 -0.20123586797319329 0 -0.45598800387915339 -0.1890641101636707 0 -0.43492702781844023 -0.19003171931862359 0 -0.45598800387915339 -0.1890641101636707 0 -0.43413865290921361 -0.20449901039689719 0 -0.43492702781844023 -0.19003171931862359 0 -0.44687813492330819 -0.20123586797319329 0 -0.43413865290921361 -0.20449901039689719 0 -0.44687813492330819 -0.20123586797319329 0 -0.44222753946600768 -0.21063360283113669 0 -0.43206119538446031 -0.21577952454663471 0 -0.44222753946600768 -0.21063360283113669 0 -0.44358010409810311 -0.22122379674294121 0 -0.44222753946600768 -0.21063360283113669 0 -0.45569454149334471 -0.21204366808547051 0 -0.44358010409810311 -0.22122379674294121 0 -0.44687813492330819 -0.20123586797319329 0 -0.44222753946600768 -0.21063360283113669 0 -0.45569454149334471 -0.21204366808547051 0 -0.44687813492330819 -0.20123586797319329 0 -0.45569454149334471 -0.21204366808547051 0 -0.45917913864050952 -0.1996149134473853 0 -0.45569454149334471 -0.21204366808547051 0 -0.46588456300945502 -0.2053110421719829 0 -0.45917913864050952 -0.1996149134473853 0 -0.45569454149334471 -0.21204366808547051 0 -0.46935164191505141 -0.21361667817322241 0 -0.46297625638900958 -0.22032113466261161 0 -0.45569454149334471 -0.21204366808547051 0 -0.46588456300945502 -0.2053110421719829 0 -0.46935164191505141 -0.21361667817322241 0 -0.45598800387915339 -0.1890641101636707 0 -0.47411450138703781 -0.18823132041616239 0 -0.45598800387915339 -0.1890641101636707 0 -0.47411450138703781 -0.18823132041616239 0 -0.47043651971438538 -0.19563424266899029 0 -0.46588456300945502 -0.2053110421719829 0 -0.45917913864050952 -0.1996149134473853 0 -0.47043651971438538 -0.19563424266899029 0 -0.44687813492330819 -0.20123586797319329 0 -0.45917913864050952 -0.1996149134473853 0 -0.45598800387915339 -0.1890641101636707 0 -0.45598800387915339 -0.1890641101636707 0 -0.47043651971438538 -0.19563424266899029 0 -0.45917913864050952 -0.1996149134473853 0 -0.45598800387915339 -0.1890641101636707 0 -0.47043651971438538 -0.19563424266899029 0 -0.47411450138703781 -0.18823132041616239 0 -0.47043651971438538 -0.19563424266899029 0 -0.48488503554961759 -0.20220437517430939 0 -0.46588456300945502 -0.2053110421719829 0 -0.47043651971438538 -0.19563424266899029 0 -0.47476097328398359 -0.2056457084848462 0 -0.47043651971438538 -0.19563424266899029 0 -0.48488503554961759 -0.20220437517430939 0 -0.47476097328398359 -0.2056457084848462 0 -0.47043651971438538 -0.19563424266899029 0 -0.48488503554961759 -0.20220437517430939 0 -0.48773526509230608 -0.1868240347465141 0 -0.47411450138703781 -0.18823132041616239 0 -0.48488503554961759 -0.20220437517430939 0 -0.48773526509230608 -0.1868240347465141 0 -0.48488503554961759 -0.20220437517430939 0 -0.5 -0.19605693085118131 0 -0.48488503554961759 -0.20220437517430939 0 -0.50000000000000111 -0.2187203637151641 0 -0.48046215431602929 -0.21356907681648341 0 -0.48488503554961759 -0.20220437517430939 0 -0.5 -0.19605693085118131 0 -0.50000000000000111 -0.2187203637151641 0 -0.48488503554961759 -0.20220437517430939 0 -0.48046215431602929 -0.21356907681648341 0 -0.47476097328398359 -0.2056457084848462 0 -0.46588456300945502 -0.2053110421719829 0 -0.47476097328398359 -0.2056457084848462 0 -0.46935164191505141 -0.21361667817322241 0 -0.48046215431602929 -0.21356907681648341 0 -0.47476097328398359 -0.2056457084848462 0 -0.46935164191505141 -0.21361667817322241 0 -0.48046215431602929 -0.21356907681648341 0 -0.46935164191505141 -0.21361667817322241 0 -0.47331312083149402 -0.22765825853487481 0 -0.50000000000000111 -0.2187203637151641 0 -0.47331312083149402 -0.22765825853487481 0 -0.50000000000000111 -0.2187203637151641 0 -0.48813514174715827 -0.23503364106112529 0 -0.5 -0.24642967178278341 0 -0.50000000000000111 -0.2187203637151641 0 -0.47331312083149402 -0.22765825853487481 0 -0.48813514174715827 -0.23503364106112529 0 -0.50000000000000111 -0.2187203637151641 0 -0.48046215431602929 -0.21356907681648341 0 -0.47331312083149402 -0.22765825853487481 0 -0.48813514174715827 -0.23503364106112529 0 -0.5 -0.24642967178278341 0 -0.47922744615713941 -0.24732627021167911 0 -0.46330780305860519 -0.25093964145813569 0 -0.47331312083149402 -0.22765825853487481 0 -0.47922744615713941 -0.24732627021167911 0 -0.47331312083149402 -0.22765825853487481 0 -0.48813514174715827 -0.23503364106112529 0 -0.47922744615713941 -0.24732627021167911 0 -0.46330780305860519 -0.25093964145813569 0 -0.47331312083149402 -0.22765825853487481 0 -0.45458139356056471 -0.244222552561319 0 -0.47331312083149402 -0.22765825853487481 0 -0.45458139356056471 -0.244222552561319 0 -0.4466262416629867 -0.2365961533545852 0 -0.47331312083149402 -0.22765825853487481 0 -0.45381657370456813 -0.2247017473388129 0 -0.4466262416629867 -0.2365961533545852 0 -0.47331312083149402 -0.22765825853487481 0 -0.4466262416629867 -0.2365961533545852 0 -0.47331312083149402 -0.22765825853487481 0 -0.46297625638900958 -0.22032113466261161 0 -0.45381657370456813 -0.2247017473388129 0 -0.46935164191505141 -0.21361667817322241 0 -0.47331312083149402 -0.22765825853487481 0 -0.46297625638900958 -0.22032113466261161 0 -0.45569454149334471 -0.21204366808547051 0 -0.46297625638900958 -0.22032113466261161 0 -0.45381657370456813 -0.2247017473388129 0 -0.45381657370456813 -0.2247017473388129 0 -0.4408563205974585 -0.22943219937785139 0 -0.4466262416629867 -0.2365961533545852 0 -0.45569454149334471 -0.21204366808547051 0 -0.45381657370456813 -0.2247017473388129 0 -0.44358010409810311 -0.22122379674294121 0 -0.45381657370456813 -0.2247017473388129 0 -0.44358010409810311 -0.22122379674294121 0 -0.4408563205974585 -0.22943219937785139 0 -0.43441849880960931 -0.22397773879407451 0 -0.44358010409810311 -0.22122379674294121 0 -0.4408563205974585 -0.22943219937785139 0 -0.43534609419137937 -0.23741217744029849 0 -0.4408563205974585 -0.22943219937785139 0 -0.4466262416629867 -0.2365961533545852 0 -0.43534609419137937 -0.23741217744029849 0 -0.44175517444974821 -0.24557992957572569 0 -0.4466262416629867 -0.2365961533545852 0 -0.45458139356056471 -0.244222552561319 0 -0.44175517444974821 -0.24557992957572569 0 -0.4466262416629867 -0.2365961533545852 0 -0.40635513716440103 -0.046416220606887493 0 -0.42863009910472333 -0.041856526873367141 0 -0.4144670742876122 -0.01863123427539019 0 -0.40635513716440103 -0.046416220606887493 0 -0.42000160401024927 -0.059086665285630127 0 -0.40538337688964549 -0.073223353714388761 0 -0.40635513716440103 -0.046416220606887493 0 -0.42000160401024927 -0.059086665285630127 0 -0.42863009910472333 -0.041856526873367141 0 -0.43521300897446091 -0.059380131677378857 0 -0.42863009910472333 -0.041856526873367141 0 -0.44739575143215088 -0.049993419945652748 0 -0.42000160401024927 -0.059086665285630127 0 -0.43521300897446091 -0.059380131677378857 0 -0.42863009910472333 -0.041856526873367141 0 -0.42863009910472333 -0.041856526873367141 0 -0.43267563193947978 -0.023028124541662288 0 -0.44428928219330838 -0.033909723079743513 0 -0.42863009910472333 -0.041856526873367141 0 -0.43267563193947978 -0.023028124541662288 0 -0.4144670742876122 -0.01863123427539019 0 -0.43267563193947978 -0.023028124541662288 0 -0.4144670742876122 -0.01863123427539019 0 -0.43440512054686459 0.0032665137653844138 0 -0.4144670742876122 -0.01863123427539019 0 -0.39688607544404059 -0.0087952237153667637 0 -0.41384150635103828 0.005547563565654787 0 -0.4144670742876122 -0.01863123427539019 0 -0.43440512054686459 0.0032665137653844138 0 -0.41384150635103828 0.005547563565654787 0 -0.4144670742876122 -0.01863123427539019 0 -0.39688607544404059 -0.0087952237153667637 0 -0.38635500728086869 -0.02794513498893212 0 -0.40635513716440103 -0.046416220606887493 0 -0.4144670742876122 -0.01863123427539019 0 -0.38635500728086869 -0.02794513498893212 0 -0.39688607544404059 -0.0087952237153667637 0 -0.38635500728086869 -0.02794513498893212 0 -0.37492315947775567 0.00068643500448066594 0 -0.37131673229994988 -0.048080790452629252 0 -0.38635500728086869 -0.02794513498893212 0 -0.3888436192556356 -0.056195927169573487 0 -0.40635513716440103 -0.046416220606887493 0 -0.38635500728086869 -0.02794513498893212 0 -0.3888436192556356 -0.056195927169573487 0 -0.40635513716440103 -0.046416220606887493 0 -0.3888436192556356 -0.056195927169573487 0 -0.40538337688964549 -0.073223353714388761 0 -0.37127075384044111 -0.064208181430602265 0 -0.37131673229994988 -0.048080790452629252 0 -0.3888436192556356 -0.056195927169573487 0 -0.37127075384044111 -0.064208181430602265 0 -0.3888436192556356 -0.056195927169573487 0 -0.38175488208810648 -0.07296752722021202 0 -0.38175488208810648 -0.07296752722021202 0 -0.37854116185681569 -0.093277124219890789 0 -0.3935073222171519 -0.091837941538817275 0 -0.38175488208810648 -0.07296752722021202 0 -0.3935073222171519 -0.091837941538817275 0 -0.40538337688964549 -0.073223353714388761 0 -0.3935073222171519 -0.091837941538817275 0 -0.40538337688964549 -0.073223353714388761 0 -0.40878721293246001 -0.093353609885066385 0 -0.3888436192556356 -0.056195927169573487 0 -0.38175488208810648 -0.07296752722021202 0 -0.40538337688964549 -0.073223353714388761 0 -0.38175488208810648 -0.07296752722021202 0 -0.40538337688964549 -0.073223353714388761 0 -0.37135355724530489 -0.1206784859253858 0 -0.38346464430233251 -0.12817363736860651 0 -0.38691555983268727 -0.11081816093602991 0 -0.38346464430233251 -0.12817363736860651 0 -0.38691555983268727 -0.11081816093602991 0 -0.39525364798665008 -0.1206099903290718 0 -0.37135355724530489 -0.1206784859253858 0 -0.38346464430233251 -0.12817363736860651 0 -0.37135355724530489 -0.1206784859253858 0 -0.37854116185681569 -0.093277124219890789 0 -0.38691555983268727 -0.11081816093602991 0 -0.37854116185681569 -0.093277124219890789 0 -0.3935073222171519 -0.091837941538817275 0 -0.38691555983268727 -0.11081816093602991 0 -0.3935073222171519 -0.091837941538817275 0 -0.38691555983268727 -0.11081816093602991 0 -0.39966173970319668 -0.1073878732573159 0 -0.3935073222171519 -0.091837941538817275 0 -0.39966173970319668 -0.1073878732573159 0 -0.40878721293246001 -0.093353609885066385 0 -0.38691555983268727 -0.11081816093602991 0 -0.39966173970319668 -0.1073878732573159 0 -0.39525364798665008 -0.1206099903290718 0 -0.39966173970319668 -0.1073878732573159 0 -0.40619361933133008 -0.1160853286363292 0 -0.39525364798665008 -0.1206099903290718 0 -0.39966173970319668 -0.1073878732573159 0 -0.40619361933133008 -0.1160853286363292 0 -0.4115428783681806 -0.10489119115354401 0 -0.40791658896366562 -0.12761410361279041 0 -0.40619361933133008 -0.1160853286363292 0 -0.39525364798665008 -0.1206099903290718 0 -0.40791658896366562 -0.12761410361279041 0 -0.42709768879065563 -0.12751106188329969 0 -0.4176999361082277 -0.1140850602291754 0 -0.40791658896366562 -0.12761410361279041 0 -0.40619361933133008 -0.1160853286363292 0 -0.4176999361082277 -0.1140850602291754 0 -0.40619361933133008 -0.1160853286363292 0 -0.4176999361082277 -0.1140850602291754 0 -0.4115428783681806 -0.10489119115354401 0 -0.4176999361082277 -0.1140850602291754 0 -0.4115428783681806 -0.10489119115354401 0 -0.42396640096607702 -0.10003324566024691 0 -0.39966173970319668 -0.1073878732573159 0 -0.4115428783681806 -0.10489119115354401 0 -0.40878721293246001 -0.093353609885066385 0 -0.4115428783681806 -0.10489119115354401 0 -0.42396640096607702 -0.10003324566024691 0 -0.40878721293246001 -0.093353609885066385 0 -0.43134137833407338 -0.10714891830360571 0 -0.43449883515379017 -0.091998755113772979 0 -0.44645340851115811 -0.1044252641571342 0 -0.42396640096607702 -0.10003324566024691 0 -0.43134137833407338 -0.10714891830360571 0 -0.43449883515379017 -0.091998755113772979 0 -0.43134137833407338 -0.10714891830360571 0 -0.43449883515379017 -0.091998755113772979 0 -0.4176999361082277 -0.1140850602291754 0 -0.42396640096607702 -0.10003324566024691 0 -0.43134137833407338 -0.10714891830360571 0 -0.42396640096607702 -0.10003324566024691 0 -0.43134137833407338 -0.10714891830360571 0 -0.42709768879065563 -0.12751106188329969 0 -0.43134137833407338 -0.10714891830360571 0 -0.42709768879065563 -0.12751106188329969 0 -0.43134137833407338 -0.10714891830360571 0 -0.44468897384474548 -0.12002721141431399 0 -0.42709768879065563 -0.12751106188329969 0 -0.4176999361082277 -0.1140850602291754 0 -0.43134137833407338 -0.10714891830360571 0 -0.42000160401024927 -0.059086665285630127 0 -0.40538337688964549 -0.073223353714388761 0 -0.42901187169118449 -0.073479180208565503 0 -0.40538337688964549 -0.073223353714388761 0 -0.42901187169118449 -0.073479180208565503 0 -0.40538337688964549 -0.073223353714388761 0 -0.42064584581014081 -0.086240076509274038 0 -0.42901187169118449 -0.073479180208565503 0 -0.40538337688964549 -0.073223353714388761 0 -0.40878721293246001 -0.093353609885066385 0 -0.42064584581014081 -0.086240076509274038 0 -0.42396640096607702 -0.10003324566024691 0 -0.40878721293246001 -0.093353609885066385 0 -0.42064584581014081 -0.086240076509274038 0 -0.43449883515379017 -0.091998755113772979 0 -0.42901187169118449 -0.073479180208565503 0 -0.44851911818430701 -0.088244285838145559 0 -0.42064584581014081 -0.086240076509274038 0 -0.43449883515379017 -0.091998755113772979 0 -0.42901187169118449 -0.073479180208565503 0 -0.42396640096607702 -0.10003324566024691 0 -0.42064584581014081 -0.086240076509274038 0 -0.43449883515379017 -0.091998755113772979 0 -0.42000160401024927 -0.059086665285630127 0 -0.43521300897446091 -0.059380131677378857 0 -0.42901187169118449 -0.073479180208565503 0 -0.42901187169118449 -0.073479180208565503 0 -0.45264036649272338 -0.073735006702742231 0 -0.43521300897446091 -0.059380131677378857 0 -0.42901187169118449 -0.073479180208565503 0 -0.45264036649272338 -0.073735006702742231 0 -0.42901187169118449 -0.073479180208565503 0 -0.45264036649272338 -0.073735006702742231 0 -0.44851911818430701 -0.088244285838145559 0 -0.44851911818430701 -0.088244285838145559 0 -0.46752238625318648 -0.090756581966766933 0 -0.45973408741236721 -0.10168557661493249 0 -0.45264036649272338 -0.073735006702742231 0 -0.46752238625318648 -0.090756581966766933 0 -0.47626886129426238 -0.073990833196919348 0 -0.45264036649272338 -0.073735006702742231 0 -0.44851911818430701 -0.088244285838145559 0 -0.46752238625318648 -0.090756581966766933 0 -0.45264036649272338 -0.073735006702742231 0 -0.46454746136641889 -0.065287396767945705 0 -0.45921412975919562 -0.055354843107287027 0 -0.45264036649272338 -0.073735006702742231 0 -0.46454746136641889 -0.065287396767945705 0 -0.47626886129426238 -0.073990833196919348 0 -0.45264036649272338 -0.073735006702742231 0 -0.47626886129426238 -0.073990833196919348 0 -0.43134137833407338 -0.10714891830360571 0 -0.44468897384474548 -0.12002721141431399 0 -0.44645340851115811 -0.1044252641571342 0 -0.43134137833407338 -0.10714891830360571 0 -0.44468897384474548 -0.12002721141431399 0 -0.44468897384474548 -0.12002721141431399 0 -0.44645340851115811 -0.1044252641571342 0 -0.45901838346204188 -0.1161292499609772 0 -0.44851911818430701 -0.088244285838145559 0 -0.44645340851115811 -0.1044252641571342 0 -0.45973408741236721 -0.10168557661493249 0 -0.43449883515379017 -0.091998755113772979 0 -0.44851911818430701 -0.088244285838145559 0 -0.44645340851115811 -0.1044252641571342 0 -0.46752238625318648 -0.090756581966766933 0 -0.45973408741236721 -0.10168557661493249 0 -0.47320719253411198 -0.11076266805414541 0 -0.44645340851115811 -0.1044252641571342 0 -0.45973408741236721 -0.10168557661493249 0 -0.45901838346204188 -0.1161292499609772 0 -0.45803656935541742 -0.13290550452502251 0 -0.44468897384474548 -0.12002721141431399 0 -0.45901838346204188 -0.1161292499609772 0 -0.47199006911445113 -0.12696927500031449 0 -0.45901838346204188 -0.1161292499609772 0 -0.47320719253411198 -0.11076266805414541 0 -0.45973408741236721 -0.10168557661493249 0 -0.45901838346204188 -0.1161292499609772 0 -0.47320719253411198 -0.11076266805414541 0 -0.47199006911445113 -0.12696927500031449 0 -0.47320719253411198 -0.11076266805414541 0 -0.48594356887348478 -0.12103304547560639 0 -0.47320719253411198 -0.11076266805414541 0 -0.48429424326694182 -0.099639818309069247 0 -0.48594356887348478 -0.12103304547560639 0 -0.47199006911445113 -0.12696927500031449 0 -0.48594356887348478 -0.12103304547560639 0 -0.46752238625318648 -0.090756581966766933 0 -0.47320719253411198 -0.11076266805414541 0 -0.48429424326694182 -0.099639818309069247 0 -0.48429424326694182 -0.099639818309069247 0 -0.5 -0.11643602214919301 0 -0.50000000000000111 -0.087957284230190363 0 -0.4923196252396223 -0.1252888034212187 0 -0.48429424326694182 -0.099639818309069247 0 -0.5 -0.11643602214919301 0 -0.4923196252396223 -0.1252888034212187 0 -0.48429424326694182 -0.099639818309069247 0 -0.48594356887348478 -0.12103304547560639 0 -0.4923196252396223 -0.1252888034212187 0 -0.48429424326694182 -0.099639818309069247 0 -0.46454746136641889 -0.065287396767945705 0 -0.47626886129426238 -0.073990833196919348 0 -0.46921761286621477 -0.05145516242527369 0 -0.47626886129426238 -0.073990833196919348 0 -0.49006476523187481 -0.07414020190482809 0 -0.47614985406062249 -0.054788522987274782 0 -0.47626886129426238 -0.073990833196919348 0 -0.46921761286621477 -0.05145516242527369 0 -0.49006476523187481 -0.07414020190482809 0 -0.47614985406062249 -0.054788522987274782 0 -0.47626886129426238 -0.073990833196919348 0 -0.49006476523187481 -0.07414020190482809 0 -0.48429424326694182 -0.099639818309069247 0 -0.47626886129426238 -0.073990833196919348 0 -0.48429424326694182 -0.099639818309069247 0 -0.47626886129426238 -0.073990833196919348 0 -0.48765696744826981 -0.083932034410251752 0 -0.46752238625318648 -0.090756581966766933 0 -0.48429424326694182 -0.099639818309069247 0 -0.47626886129426238 -0.073990833196919348 0 -0.48429424326694182 -0.099639818309069247 0 -0.48765696744826981 -0.083932034410251752 0 -0.50000000000000111 -0.087957284230190363 0 -0.48765696744826981 -0.083932034410251752 0 -0.50000000000000111 -0.087957284230190363 0 -0.49006476523187481 -0.07414020190482809 0 -0.50000000000000111 -0.087957284230190363 0 -0.4940344295953969 -0.074183181592096498 0 -0.49006476523187481 -0.07414020190482809 0 -0.50000000000000111 -0.087957284230190363 0 -0.49006476523187481 -0.07414020190482809 0 -0.49006476523187481 -0.07414020190482809 0 -0.48790435826147788 -0.061495082123399353 0 -0.47614985406062249 -0.054788522987274782 0 -0.50000000000000111 -0.087957284230190363 0 -0.4940344295953969 -0.074183181592096498 0 -0.5 -0.062765776331119461 0 -0.4940344295953969 -0.074183181592096498 0 -0.49006476523187481 -0.07414020190482809 0 -0.49257275351447161 -0.067600896431630988 0 -0.47626886129426238 -0.073990833196919348 0 -0.48765696744826981 -0.083932034410251752 0 -0.49006476523187481 -0.07414020190482809 0 -0.4940344295953969 -0.074183181592096498 0 -0.49006476523187481 -0.07414020190482809 0 -0.49006476523187481 -0.07414020190482809 0 -0.49257275351447161 -0.067600896431630988 0 -0.48790435826147788 -0.061495082123399353 0 -0.5 -0.062765776331119461 0 -0.49257275351447161 -0.067600896431630988 0 -0.48790435826147788 -0.061495082123399353 0 -0.4940344295953969 -0.074183181592096498 0 -0.5 -0.062765776331119461 0 -0.49257275351447161 -0.067600896431630988 0 -0.5 -0.062765776331119461 0 -0.48868594564135448 -0.049926903672279248 0 -0.48790435826147788 -0.061495082123399353 0 -0.5 -0.062765776331119461 0 -0.48868594564135448 -0.049926903672279248 0 -0.5 -0.037574268432048703 0 -0.48868594564135448 -0.049926903672279248 0 -0.5 -0.037574268432048703 0 -0.48111556280933049 -0.036539278952111967 0 -0.47614985406062249 -0.054788522987274782 0 -0.46223494288936989 -0.035436844069721717 0 -0.48111556280933049 -0.036539278952111967 0 -0.47614985406062249 -0.054788522987274782 0 -0.46223494288936989 -0.035436844069721717 0 -0.48868594564135448 -0.049926903672279248 0 -0.48111556280933049 -0.036539278952111967 0 -0.47614985406062249 -0.054788522987274782 0 -0.47626886129426238 -0.073990833196919348 0 -0.46921761286621477 -0.05145516242527369 0 -0.47614985406062249 -0.054788522987274782 0 -0.46921761286621477 -0.05145516242527369 0 -0.47614985406062249 -0.054788522987274782 0 -0.46223494288936989 -0.035436844069721717 0 -0.48868594564135448 -0.049926903672279248 0 -0.48790435826147788 -0.061495082123399353 0 -0.47614985406062249 -0.054788522987274782 0 -0.46454746136641889 -0.065287396767945705 0 -0.46921761286621477 -0.05145516242527369 0 -0.45921412975919562 -0.055354843107287027 0 -0.45921412975919562 -0.055354843107287027 0 -0.46223494288936989 -0.035436844069721717 0 -0.44739575143215088 -0.049993419945652748 0 -0.46921761286621477 -0.05145516242527369 0 -0.45921412975919562 -0.055354843107287027 0 -0.46223494288936989 -0.035436844069721717 0 -0.46223494288936989 -0.035436844069721717 0 -0.44428928219330838 -0.033909723079743513 0 -0.44739575143215088 -0.049993419945652748 0 -0.42863009910472333 -0.041856526873367141 0 -0.44428928219330838 -0.033909723079743513 0 -0.44739575143215088 -0.049993419945652748 0 -0.43521300897446091 -0.059380131677378857 0 -0.45264036649272338 -0.073735006702742231 0 -0.44739575143215088 -0.049993419945652748 0 -0.45264036649272338 -0.073735006702742231 0 -0.45921412975919562 -0.055354843107287027 0 -0.44739575143215088 -0.049993419945652748 0 -0.44832003171811718 -0.016085165152168651 0 -0.45261757770624778 0.0062359303747732782 0 -0.43440512054686459 0.0032665137653844138 0 -0.44832003171811718 -0.016085165152168651 0 -0.43440512054686459 0.0032665137653844138 0 -0.43267563193947978 -0.023028124541662288 0 -0.44832003171811718 -0.016085165152168651 0 -0.43440512054686459 0.0032665137653844138 0 -0.43267563193947978 -0.023028124541662288 0 -0.44428928219330838 -0.033909723079743513 0 -0.44832003171811718 -0.016085165152168651 0 -0.46223494288936989 -0.035436844069721717 0 -0.44428928219330838 -0.033909723079743513 0 -0.44832003171811718 -0.016085165152168651 0 -0.46223494288936989 -0.035436844069721717 0 -0.44832003171811718 -0.016085165152168651 0 -0.46223494288936989 -0.035436844069721717 0 -0.44832003171811718 -0.016085165152168651 0 -0.47267116329820141 -0.018931809972225551 0 -0.44832003171811718 -0.016085165152168651 0 -0.47267116329820141 -0.018931809972225551 0 -0.47292424156740942 0.0013346335415540961 0 -0.44832003171811718 -0.016085165152168651 0 -0.47292424156740942 0.0013346335415540961 0 -0.45261757770624778 0.0062359303747732782 0 -0.47267116329820141 -0.018931809972225551 0 -0.5 -0.012382760532978151 0 -0.47292424156740942 0.0013346335415540961 0 -0.48111556280933049 -0.036539278952111967 0 -0.46223494288936989 -0.035436844069721717 0 -0.47267116329820141 -0.018931809972225551 0 -0.48111556280933049 -0.036539278952111967 0 -0.47267116329820141 -0.018931809972225551 0 -0.5 -0.012382760532978151 0 -0.5 -0.037574268432048703 0 -0.48111556280933049 -0.036539278952111967 0 -0.5 -0.012382760532978151 0 -0.5 -0.012382760532978151 0 -0.5 0.01280874736609261 0 -0.47292424156740942 0.0013346335415540961 0 -0.5 0.01280874736609261 0 -0.47907170865176851 0.028297439829684651 0 -0.5 0.038000255265163319 0 -0.47907170865176851 0.028297439829684651 0 -0.47292424156740942 0.0013346335415540961 0 -0.4564083736319372 0.025304715510944351 0 -0.5 0.01280874736609261 0 -0.47907170865176851 0.028297439829684651 0 -0.47292424156740942 0.0013346335415540961 0 -0.5 0.038000255265163319 0 -0.48136377549581411 0.050583907304777222 0 -0.499999999999999 0.063191763164234013 0 -0.48136377549581411 0.050583907304777222 0 -0.47860270392331672 0.070517504351001958 0 -0.499999999999999 0.063191763164234013 0 -0.47907170865176851 0.028297439829684651 0 -0.5 0.038000255265163319 0 -0.48136377549581411 0.050583907304777222 0 -0.47907170865176851 0.028297439829684651 0 -0.48136377549581411 0.050583907304777222 0 -0.46037789422462178 0.049337805249948283 0 -0.48136377549581411 0.050583907304777222 0 -0.46037789422462178 0.049337805249948283 0 -0.48136377549581411 0.050583907304777222 0 -0.46449578161884197 0.06422536128450991 0 -0.47860270392331672 0.070517504351001958 0 -0.48136377549581411 0.050583907304777222 0 -0.46037789422462178 0.049337805249948283 0 -0.46449578161884197 0.06422536128450991 0 -0.46037789422462178 0.049337805249948283 0 -0.44585203590750527 0.066354017604895774 0 -0.46449578161884197 0.06422536128450991 0 -0.47907170865176851 0.028297439829684651 0 -0.46037789422462178 0.049337805249948283 0 -0.4564083736319372 0.025304715510944351 0 -0.46037789422462178 0.049337805249948283 0 -0.43939201295342961 0.048091703195118872 0 -0.4564083736319372 0.025304715510944351 0 -0.43939201295342961 0.048091703195118872 0 -0.4564083736319372 0.025304715510944351 0 -0.43939201295342961 0.048091703195118872 0 -0.4564083736319372 0.025304715510944351 0 -0.4324457190921438 0.023832982231874741 0 -0.46037789422462178 0.049337805249948283 0 -0.43939201295342961 0.048091703195118872 0 -0.44585203590750527 0.066354017604895774 0 -0.46037789422462178 0.049337805249948283 0 -0.43939201295342961 0.048091703195118872 0 -0.43939201295342961 0.048091703195118872 0 -0.43396097792956001 0.070496826338702342 0 -0.44585203590750527 0.066354017604895774 0 -0.47292424156740942 0.0013346335415540961 0 -0.4564083736319372 0.025304715510944351 0 -0.45261757770624778 0.0062359303747732782 0 -0.4564083736319372 0.025304715510944351 0 -0.45261757770624778 0.0062359303747732782 0 -0.4324457190921438 0.023832982231874741 0 -0.45261757770624778 0.0062359303747732782 0 -0.43440512054686459 0.0032665137653844138 0 -0.4324457190921438 0.023832982231874741 0 -0.43440512054686459 0.0032665137653844138 0 -0.41384150635103828 0.005547563565654787 0 -0.4324457190921438 0.023832982231874741 0 -0.41384150635103828 0.005547563565654787 0 -0.4084029574719642 0.027427078915916149 0 -0.39686273901115099 0.0087692150910254601 0 -0.41384150635103828 0.005547563565654787 0 -0.4084029574719642 0.027427078915916149 0 -0.4324457190921438 0.023832982231874741 0 -0.43939201295342961 0.048091703195118872 0 -0.4324457190921438 0.023832982231874741 0 -0.4180992260210652 0.046827377660890908 0 -0.43939201295342961 0.048091703195118872 0 -0.42186580979104632 0.071561432307992237 0 -0.43939201295342961 0.048091703195118872 0 -0.4180992260210652 0.046827377660890908 0 -0.43939201295342961 0.048091703195118872 0 -0.42259657450700971 0.054789732968302481 0 -0.4180992260210652 0.046827377660890908 0 -0.43939201295342961 0.048091703195118872 0 -0.42186580979104632 0.071561432307992237 0 -0.42195920802744258 0.066022137109655626 0 -0.43939201295342961 0.048091703195118872 0 -0.42259657450700971 0.054789732968302481 0 -0.42195920802744258 0.066022137109655626 0 -0.41093585102610147 0.05821771390754453 0 -0.4180992260210652 0.046827377660890908 0 -0.39680643908870078 0.045563052126662493 0 -0.42259657450700971 0.054789732968302481 0 -0.41093585102610147 0.05821771390754453 0 -0.42195920802744258 0.066022137109655626 0 -0.42259657450700971 0.054789732968302481 0 -0.41093585102610147 0.05821771390754453 0 -0.4180992260210652 0.046827377660890908 0 -0.4084029574719642 0.027427078915916149 0 -0.4324457190921438 0.023832982231874741 0 -0.4180992260210652 0.046827377660890908 0 -0.4180992260210652 0.046827377660890908 0 -0.39680643908870078 0.045563052126662493 0 -0.4084029574719642 0.027427078915916149 0 -0.4180992260210652 0.046827377660890908 0 -0.39680643908870078 0.045563052126662493 0 -0.4084029574719642 0.027427078915916149 0 -0.39680643908870078 0.045563052126662493 0 -0.38496521190278798 0.025109553659444232 0 -0.39680643908870078 0.045563052126662493 0 -0.39913286933446518 0.062452755642718287 0 -0.38665458305488271 0.05847453519953514 0 -0.41093585102610147 0.05821771390754453 0 -0.39680643908870078 0.045563052126662493 0 -0.39913286933446518 0.062452755642718287 0 -0.38665458305488271 0.05847453519953514 0 -0.37551365215633642 0.044298726592434078 0 -0.37387850990431448 0.062946018274287127 0 -0.39680643908870078 0.045563052126662493 0 -0.38665458305488271 0.05847453519953514 0 -0.37551365215633642 0.044298726592434078 0 -0.39680643908870078 0.045563052126662493 0 -0.37551365215633642 0.044298726592434078 0 -0.38496521190278798 0.025109553659444232 0 -0.39680643908870078 0.045563052126662493 0 -0.37551365215633642 0.044298726592434078 0 -0.38496521190278798 0.025109553659444232 0 -0.39686273901115099 0.0087692150910254601 0 -0.37492315947775567 0.00068643500448066594 0 -0.39688607544404059 -0.0087952237153667637 0 -0.39686273901115099 0.0087692150910254601 0 -0.37492315947775567 0.00068643500448066594 0 -0.39688607544404059 -0.0087952237153667637 0 -0.41384150635103828 0.005547563565654787 0 -0.39686273901115099 0.0087692150910254601 0 -0.4084029574719642 0.027427078915916149 0 -0.38496521190278798 0.025109553659444232 0 -0.39686273901115099 0.0087692150910254601 0 -0.40470509105073921 0.095271978872957311 0 -0.39427733783070029 0.1110979969878249 0 -0.41799523436478131 0.1068372516057724 0 -0.39432701601369602 0.097314717214728258 0 -0.40470509105073921 0.095271978872957311 0 -0.39427733783070029 0.1110979969878249 0 -0.39427733783070029 0.1110979969878249 0 -0.41799523436478131 0.1068372516057724 0 -0.40470509105073921 0.095271978872957311 0 -0.39427733783070029 0.1110979969878249 0 -0.39432701601369602 0.097314717214728258 0 -0.40470509105073921 0.095271978872957311 0 -0.40879472512015369 0.089065212995399226 0 -0.39767957462087711 0.1237261347518519 0 -0.39427733783070029 0.1110979969878249 0 -0.40982091998377662 0.1224656789345407 0 -0.39767957462087711 0.1237261347518519 0 -0.39427733783070029 0.1110979969878249 0 -0.38596012170000321 0.124641361876796 0 -0.39427733783070029 0.1110979969878249 0 -0.38596012170000321 0.124641361876796 0 -0.37676252652610281 0.114244403806679 0 -0.39427733783070029 0.1110979969878249 0 -0.37676252652610281 0.114244403806679 0 -0.39427733783070029 0.1110979969878249 0 -0.38596012170000321 0.124641361876796 0 -0.38596012170000321 0.124641361876796 0 -0.37676252652610281 0.114244403806679 0 -0.3729849361723272 0.12668834954876429 0 -0.39427733783070029 0.1110979969878249 0 -0.37676252652610281 0.114244403806679 0 -0.38288032873089822 0.1006874066906638 0 -0.37676252652610281 0.114244403806679 0 -0.37582211223743478 0.1049757750267844 0 -0.38288032873089822 0.1006874066906638 0 -0.39432701601369602 0.097314717214728258 0 -0.39427733783070029 0.1110979969878249 0 -0.38288032873089822 0.1006874066906638 0 -0.38790434990658368 0.094200344672314001 0 -0.38288032873089822 0.1006874066906638 0 -0.3830411962496329 0.090864889638143431 0 -0.39432701601369602 0.097314717214728258 0 -0.38790434990658368 0.094200344672314001 0 -0.38288032873089822 0.1006874066906638 0 -0.37582211223743478 0.1049757750267844 0 -0.38288032873089822 0.1006874066906638 0 -0.37253186122469822 0.098415657789440364 0 -0.38288032873089822 0.1006874066906638 0 -0.37658788622561168 0.092711792275154942 0 -0.3830411962496329 0.090864889638143431 0 -0.38288032873089822 0.1006874066906638 0 -0.37658788622561168 0.092711792275154942 0 -0.37253186122469822 0.098415657789440364 0 -0.37555297397874032 0.085780478295353665 0 -0.38207100312382358 0.0846091250189068 0 -0.3830411962496329 0.090864889638143431 0 -0.37658788622561168 0.092711792275154942 0 -0.37555297397874032 0.085780478295353665 0 -0.3830411962496329 0.090864889638143431 0 -0.37772743409545789 0.079304346604285147 0 -0.38207100312382358 0.0846091250189068 0 -0.38573879419078938 0.078621886845196415 0 -0.37555297397874032 0.085780478295353665 0 -0.37772743409545789 0.079304346604285147 0 -0.38207100312382358 0.0846091250189068 0 -0.38207100312382358 0.0846091250189068 0 -0.38573879419078938 0.078621886845196415 0 -0.39136885863210769 0.087934365145720436 0 -0.38573879419078938 0.078621886845196415 0 -0.39136885863210769 0.087934365145720436 0 -0.39310961728813459 0.079871158325758987 0 -0.38790434990658368 0.094200344672314001 0 -0.3830411962496329 0.090864889638143431 0 -0.39136885863210769 0.087934365145720436 0 -0.38207100312382358 0.0846091250189068 0 -0.3830411962496329 0.090864889638143431 0 -0.39136885863210769 0.087934365145720436 0 -0.38665458305488271 0.05847453519953514 0 -0.38130105386412971 0.070472832784219619 0 -0.37387850990431448 0.062946018274287127 0 -0.38130105386412971 0.070472832784219619 0 -0.37387850990431448 0.062946018274287127 0 -0.37259314556063949 0.073287357160551736 0 -0.37772743409545789 0.079304346604285147 0 -0.38573879419078938 0.078621886845196415 0 -0.38130105386412971 0.070472832784219619 0 -0.37772743409545789 0.079304346604285147 0 -0.38130105386412971 0.070472832784219619 0 -0.37259314556063949 0.073287357160551736 0 -0.38573879419078938 0.078621886845196415 0 -0.38130105386412971 0.070472832784219619 0 -0.39136932410953851 0.070572309224554666 0 -0.38573879419078938 0.078621886845196415 0 -0.39136932410953851 0.070572309224554666 0 -0.39310961728813459 0.079871158325758987 0 -0.38665458305488271 0.05847453519953514 0 -0.38130105386412971 0.070472832784219619 0 -0.39136932410953851 0.070572309224554666 0 -0.39913286933446518 0.062452755642718287 0 -0.38665458305488271 0.05847453519953514 0 -0.39136932410953851 0.070572309224554666 0 -0.39913286933446518 0.062452755642718287 0 -0.39136932410953851 0.070572309224554666 0 -0.39988865089414222 0.07325112925764804 0 -0.39136932410953851 0.070572309224554666 0 -0.39988865089414222 0.07325112925764804 0 -0.39310961728813459 0.079871158325758987 0 -0.39988865089414222 0.07325112925764804 0 -0.39310961728813459 0.079871158325758987 0 -0.40023960424687022 0.080770534885983694 0 -0.39988865089414222 0.07325112925764804 0 -0.40828177878527572 0.068804514323824936 0 -0.40719871160056892 0.077035503143047773 0 -0.39988865089414222 0.07325112925764804 0 -0.40023960424687022 0.080770534885983694 0 -0.40719871160056892 0.077035503143047773 0 -0.41093585102610147 0.05821771390754453 0 -0.39913286933446518 0.062452755642718287 0 -0.40828177878527572 0.068804514323824936 0 -0.39913286933446518 0.062452755642718287 0 -0.39988865089414222 0.07325112925764804 0 -0.40828177878527572 0.068804514323824936 0 -0.39432701601369602 0.097314717214728258 0 -0.38790434990658368 0.094200344672314001 0 -0.39136885863210769 0.087934365145720436 0 -0.39432701601369602 0.097314717214728258 0 -0.39136885863210769 0.087934365145720436 0 -0.39883467005341611 0.089107856000784635 0 -0.39136885863210769 0.087934365145720436 0 -0.39628519969379261 0.084702223933867157 0 -0.39883467005341611 0.089107856000784635 0 -0.39136885863210769 0.087934365145720436 0 -0.39310961728813459 0.079871158325758987 0 -0.39628519969379261 0.084702223933867157 0 -0.39310961728813459 0.079871158325758987 0 -0.39628519969379261 0.084702223933867157 0 -0.40023960424687022 0.080770534885983694 0 -0.39628519969379261 0.084702223933867157 0 -0.40023960424687022 0.080770534885983694 0 -0.40297229119913619 0.084493744470277285 0 -0.40023960424687022 0.080770534885983694 0 -0.40297229119913619 0.084493744470277285 0 -0.40719871160056892 0.077035503143047773 0 -0.39432701601369602 0.097314717214728258 0 -0.39883467005341611 0.089107856000784635 0 -0.40879472512015369 0.089065212995399226 0 -0.40297229119913619 0.084493744470277285 0 -0.39883467005341611 0.089107856000784635 0 -0.40879472512015369 0.089065212995399226 0 -0.39628519969379261 0.084702223933867157 0 -0.40297229119913619 0.084493744470277285 0 -0.39883467005341611 0.089107856000784635 0 -0.40470509105073921 0.095271978872957311 0 -0.40879472512015369 0.089065212995399226 0 -0.41986495670434282 0.08959533159003126 0 -0.40879472512015369 0.089065212995399226 0 -0.42186580979104632 0.071561432307992237 0 -0.40470509105073921 0.095271978872957311 0 -0.40879472512015369 0.089065212995399226 0 -0.40879472512015369 0.089065212995399226 0 -0.41986495670434282 0.08959533159003126 0 -0.42186580979104632 0.071561432307992237 0 -0.40297229119913619 0.084493744470277285 0 -0.40879472512015369 0.089065212995399226 0 -0.40719871160056892 0.077035503143047773 0 -0.40879472512015369 0.089065212995399226 0 -0.42195920802744258 0.066022137109655626 0 -0.40879472512015369 0.089065212995399226 0 -0.42186580979104632 0.071561432307992237 0 -0.42195920802744258 0.066022137109655626 0 -0.40879472512015369 0.089065212995399226 0 -0.40719871160056892 0.077035503143047773 0 -0.42195920802744258 0.066022137109655626 0 -0.41093585102610147 0.05821771390754453 0 -0.40828177878527572 0.068804514323824936 0 -0.42195920802744258 0.066022137109655626 0 -0.40828177878527572 0.068804514323824936 0 -0.40719871160056892 0.077035503143047773 0 -0.42195920802744258 0.066022137109655626 0 -0.43939201295342961 0.048091703195118872 0 -0.42186580979104632 0.071561432307992237 0 -0.43396097792956001 0.070496826338702342 0 -0.42186580979104632 0.071561432307992237 0 -0.43396097792956001 0.070496826338702342 0 -0.42688691922586691 0.081307991860966336 0 -0.41986495670434282 0.08959533159003126 0 -0.42186580979104632 0.071561432307992237 0 -0.42688691922586691 0.081307991860966336 0 -0.41986495670434282 0.08959533159003126 0 -0.42688691922586691 0.081307991860966336 0 -0.42893070841629238 0.095027741407638228 0 -0.43396097792956001 0.070496826338702342 0 -0.42688691922586691 0.081307991860966336 0 -0.43580811176995238 0.085168986724538515 0 -0.42688691922586691 0.081307991860966336 0 -0.43580811176995238 0.085168986724538515 0 -0.42893070841629238 0.095027741407638228 0 -0.41986495670434282 0.08959533159003126 0 -0.42893070841629238 0.095027741407638228 0 -0.41799523436478131 0.1068372516057724 0 -0.41799523436478131 0.1068372516057724 0 -0.44171313089886183 0.102576506223717 0 -0.42893070841629238 0.095027741407638228 0 -0.41799523436478131 0.1068372516057724 0 -0.44171313089886183 0.102576506223717 0 -0.43580811176995238 0.085168986724538515 0 -0.42893070841629238 0.095027741407638228 0 -0.44171313089886183 0.102576506223717 0 -0.40470509105073921 0.095271978872957311 0 -0.41986495670434282 0.08959533159003126 0 -0.41799523436478131 0.1068372516057724 0 -0.39427733783070029 0.1110979969878249 0 -0.41799523436478131 0.1068372516057724 0 -0.40982091998377662 0.1224656789345407 0 -0.41799523436478131 0.1068372516057724 0 -0.40982091998377662 0.1224656789345407 0 -0.42153390450313782 0.1237646829823759 0 -0.42153390450313782 0.1237646829823759 0 -0.43237086287688747 0.11871624964908439 0 -0.42911809280136171 0.12899504293780781 0 -0.41799523436478131 0.1068372516057724 0 -0.42153390450313782 0.1237646829823759 0 -0.43237086287688747 0.11871624964908439 0 -0.41799523436478131 0.1068372516057724 0 -0.43237086287688747 0.11871624964908439 0 -0.44171313089886183 0.102576506223717 0 -0.43237086287688747 0.11871624964908439 0 -0.44615313573504017 0.11962413569049619 0 -0.43812152236168611 0.1311172872658766 0 -0.44615313573504017 0.11962413569049619 0 -0.44171313089886183 0.102576506223717 0 -0.45984393420617242 0.1107507727799716 0 -0.43237086287688747 0.11871624964908439 0 -0.44615313573504017 0.11962413569049619 0 -0.44171313089886183 0.102576506223717 0 -0.44171313089886183 0.102576506223717 0 -0.45398093457087912 0.094444359895851121 0 -0.45984393420617242 0.1107507727799716 0 -0.43580811176995238 0.085168986724538515 0 -0.44171313089886183 0.102576506223717 0 -0.45398093457087912 0.094444359895851121 0 -0.45398093457087912 0.094444359895851121 0 -0.45984393420617242 0.1107507727799716 0 -0.47533408813277439 0.095882288213258254 0 -0.44615313573504017 0.11962413569049619 0 -0.45984393420617242 0.1107507727799716 0 -0.45558642521557929 0.13358464376686111 0 -0.45984393420617242 0.1107507727799716 0 -0.47779321260778918 0.1213383055054733 0 -0.45558642521557929 0.13358464376686111 0 -0.43396097792956001 0.070496826338702342 0 -0.43580811176995238 0.085168986724538515 0 -0.44585203590750527 0.066354017604895774 0 -0.43580811176995238 0.085168986724538515 0 -0.44585203590750527 0.066354017604895774 0 -0.45720540784663449 0.07784324553777025 0 -0.43580811176995238 0.085168986724538515 0 -0.45720540784663449 0.07784324553777025 0 -0.43580811176995238 0.085168986724538515 0 -0.45398093457087912 0.094444359895851121 0 -0.45720540784663449 0.07784324553777025 0 -0.45398093457087912 0.094444359895851121 0 -0.45720540784663449 0.07784324553777025 0 -0.47533408813277439 0.095882288213258254 0 -0.45720540784663449 0.07784324553777025 0 -0.47860270392331672 0.070517504351001958 0 -0.44585203590750527 0.066354017604895774 0 -0.46449578161884197 0.06422536128450991 0 -0.45720540784663449 0.07784324553777025 0 -0.46449578161884197 0.06422536128450991 0 -0.45720540784663449 0.07784324553777025 0 -0.47860270392331672 0.070517504351001958 0 -0.45720540784663449 0.07784324553777025 0 -0.47860270392331672 0.070517504351001958 0 -0.47533408813277439 0.095882288213258254 0 -0.47860270392331672 0.070517504351001958 0 -0.5 0.086141865204159895 0 -0.47533408813277439 0.095882288213258254 0 -0.47860270392331672 0.070517504351001958 0 -0.5 0.086141865204159895 0 -0.499999999999999 0.063191763164234013 0 -0.47860270392331672 0.070517504351001958 0 -0.499999999999999 0.063191763164234013 0 -0.45984393420617242 0.1107507727799716 0 -0.47779321260778918 0.1213383055054733 0 -0.47533408813277439 0.095882288213258254 0 -0.5 0.086141865204159895 0 -0.47533408813277439 0.095882288213258254 0 -0.49999999999999922 0.1090919672440859 0 -0.47779321260778918 0.1213383055054733 0 -0.47533408813277439 0.095882288213258254 0 -0.49999999999999922 0.1090919672440859 0 -0.47779321260778918 0.1213383055054733 0 -0.49999999999999922 0.1090919672440859 0 -0.5 0.13260836719457109 0 -0.47779321260778918 0.1213383055054733 0 -0.49999999999999922 0.1090919672440859 0 -0.47779321260778918 0.1213383055054733 0 -0.5 0.13260836719457109 0 -0.47878845118645602 0.14292426306835079 0 -0.47779321260778918 0.1213383055054733 0 -0.47878845118645602 0.14292426306835079 0 -0.45558642521557929 0.13358464376686111 0 -0.47878845118645602 0.14292426306835079 0 -0.49999999999999928 0.15612476714505641 0 -0.47230180444900433 0.16420376923967059 0 -0.47878845118645602 0.14292426306835079 0 -0.47230180444900433 0.16420376923967059 0 -0.46704926484636389 0.14968572555847209 0 -0.5 0.13260836719457109 0 -0.47878845118645602 0.14292426306835079 0 -0.49999999999999928 0.15612476714505641 0 -0.49999999999999928 0.15612476714505641 0 -0.48502913296913841 0.1740238559686858 0 -0.47230180444900433 0.16420376923967059 0 -0.49999999999999928 0.15612476714505641 0 -0.47230180444900433 0.16420376923967059 0 -0.49999999999999928 0.15612476714505641 0 -0.5 0.17248311039601449 0 -0.48502913296913841 0.1740238559686858 0 -0.47478737470630172 0.186135197829947 0 -0.50000000000000089 0.18884145364697261 0 -0.5 0.17248311039601449 0 -0.48502913296913841 0.1740238559686858 0 -0.50000000000000089 0.18884145364697261 0 -0.48502913296913841 0.1740238559686858 0 -0.47478737470630172 0.186135197829947 0 -0.50000000000000089 0.18884145364697261 0 -0.48502913296913841 0.1740238559686858 0 -0.47478737470630172 0.186135197829947 0 -0.46308561865952441 0.1763548375544538 0 -0.48502913296913841 0.1740238559686858 0 -0.47230180444900433 0.16420376923967059 0 -0.46308561865952441 0.1763548375544538 0 -0.47230180444900433 0.16420376923967059 0 -0.46308561865952441 0.1763548375544538 0 -0.44460360889800932 0.17228277133428491 0 -0.47230180444900433 0.16420376923967059 0 -0.44460360889800932 0.17228277133428491 0 -0.47230180444900433 0.16420376923967059 0 -0.44460360889800932 0.17228277133428491 0 -0.45087240750526902 0.160521224748777 0 -0.47230180444900433 0.16420376923967059 0 -0.45087240750526902 0.160521224748777 0 -0.45670307251738229 0.152218480617452 0 -0.47478737470630172 0.186135197829947 0 -0.44957474941260239 0.18342894201292151 0 -0.47478737470630172 0.186135197829947 0 -0.46308561865952441 0.1763548375544538 0 -0.44957474941260239 0.18342894201292151 0 -0.46308561865952441 0.1763548375544538 0 -0.44957474941260239 0.18342894201292151 0 -0.44460360889800932 0.17228277133428491 0 -0.44957474941260239 0.18342894201292151 0 -0.44460360889800932 0.17228277133428491 0 -0.4336275960524052 0.17188749220307881 0 -0.44460360889800932 0.17228277133428491 0 -0.45087240750526902 0.160521224748777 0 -0.43698892854647042 0.16232458610693021 0 -0.44460360889800932 0.17228277133428491 0 -0.43698892854647042 0.16232458610693021 0 -0.4336275960524052 0.17188749220307881 0 -0.45087240750526902 0.160521224748777 0 -0.44376462311547921 0.15157651644554751 0 -0.43698892854647042 0.16232458610693021 0 -0.44376462311547921 0.15157651644554751 0 -0.45558642521557929 0.13358464376686111 0 -0.43337963782336958 0.1458309820282489 0 -0.44376462311547921 0.15157651644554751 0 -0.43268174743278809 0.1546738231634853 0 -0.43698892854647042 0.16232458610693021 0 -0.44376462311547921 0.15157651644554751 0 -0.45558642521557929 0.13358464376686111 0 -0.45670307251738229 0.152218480617452 0 -0.45087240750526902 0.160521224748777 0 -0.44376462311547921 0.15157651644554751 0 -0.45670307251738229 0.152218480617452 0 -0.45558642521557929 0.13358464376686111 0 -0.43337963782336958 0.1458309820282489 0 -0.43812152236168611 0.1311172872658766 0 -0.45558642521557929 0.13358464376686111 0 -0.43337963782336958 0.1458309820282489 0 -0.44615313573504017 0.11962413569049619 0 -0.43812152236168611 0.1311172872658766 0 -0.45558642521557929 0.13358464376686111 0 -0.47779321260778918 0.1213383055054733 0 -0.45558642521557929 0.13358464376686111 0 -0.45558642521557929 0.13358464376686111 0 -0.46704926484636389 0.14968572555847209 0 -0.45670307251738229 0.152218480617452 0 -0.47878845118645602 0.14292426306835079 0 -0.45558642521557929 0.13358464376686111 0 -0.46704926484636389 0.14968572555847209 0 -0.47230180444900433 0.16420376923967059 0 -0.46704926484636389 0.14968572555847209 0 -0.45670307251738229 0.152218480617452 0 -0.472880345570939 0.24524866704034401 0 -0.48320416909979441 0.23239650026233971 0 -0.48658351563551783 0.25254906795895038 0 -0.472880345570939 0.24524866704034401 0 -0.48320416909979441 0.23239650026233971 0 -0.46082816995706988 0.23327641175581951 0 -0.5 0.23922595386659909 0 -0.48320416909979441 0.23239650026233971 0 -0.48658351563551783 0.25254906795895038 0 -0.5 0.23922595386659909 0 -0.5 0.21403370375678579 0 -0.49678075587984483 0.21780263598196009 0 -0.5 0.23922595386659909 0 -0.48320416909979441 0.23239650026233971 0 -0.49678075587984483 0.21780263598196009 0 -0.48320416909979441 0.23239650026233971 0 -0.49678075587984483 0.21780263598196009 0 -0.46772009459012631 0.21776539334219011 0 -0.48320416909979441 0.23239650026233971 0 -0.46772009459012631 0.21776539334219011 0 -0.46082816995706988 0.23327641175581951 0 -0.49678075587984483 0.21780263598196009 0 -0.48727451745403189 0.21013896405867771 0 -0.46772009459012631 0.21776539334219011 0 -0.48727451745403189 0.21013896405867771 0 -0.47769237956255928 0.20238709814307199 0 -0.46772009459012631 0.21776539334219011 0 -0.49678075587984483 0.21780263598196009 0 -0.46772009459012631 0.21776539334219011 0 -0.5 0.21403370375678579 0 -0.49678075587984483 0.21780263598196009 0 -0.48727451745403189 0.21013896405867771 0 -0.5 0.21403370375678579 0 -0.48727451745403189 0.21013896405867771 0 -0.48973042659973592 0.19984977079631661 0 -0.48727451745403189 0.21013896405867771 0 -0.48973042659973592 0.19984977079631661 0 -0.47769237956255928 0.20238709814307199 0 -0.47478737470630172 0.186135197829947 0 -0.50000000000000089 0.18884145364697261 0 -0.48973042659973592 0.19984977079631661 0 -0.5 0.21403370375678579 0 -0.50000000000000089 0.18884145364697261 0 -0.48973042659973592 0.19984977079631661 0 -0.47478737470630172 0.186135197829947 0 -0.47769237956255928 0.20238709814307199 0 -0.45944269940407878 0.200604768254421 0 -0.47478737470630172 0.186135197829947 0 -0.48973042659973592 0.19984977079631661 0 -0.47769237956255928 0.20238709814307199 0 -0.47478737470630172 0.186135197829947 0 -0.44957474941260239 0.18342894201292151 0 -0.45944269940407878 0.200604768254421 0 -0.44957474941260239 0.18342894201292151 0 -0.44594111737314018 0.19939690624750819 0 -0.43608758737547199 0.19582576402027019 0 -0.44957474941260239 0.18342894201292151 0 -0.45944269940407878 0.200604768254421 0 -0.44594111737314018 0.19939690624750819 0 -0.45944269940407878 0.200604768254421 0 -0.44594111737314018 0.19939690624750819 0 -0.4386594333004078 0.2177281507024201 0 -0.44594111737314018 0.19939690624750819 0 -0.4386594333004078 0.2177281507024201 0 -0.43608758737547199 0.19582576402027019 0 -0.45944269940407878 0.200604768254421 0 -0.4386594333004078 0.2177281507024201 0 -0.46772009459012631 0.21776539334219011 0 -0.47769237956255928 0.20238709814307199 0 -0.45944269940407878 0.200604768254421 0 -0.46772009459012631 0.21776539334219011 0 -0.4386594333004078 0.2177281507024201 0 -0.46772009459012631 0.21776539334219011 0 -0.4386594333004078 0.2177281507024201 0 -0.46772009459012631 0.21776539334219011 0 -0.46082816995706988 0.23327641175581951 0 -0.4386594333004078 0.2177281507024201 0 -0.46082816995706988 0.23327641175581951 0 -0.44957415908460452 0.24838930720326599 0 -0.4386594333004078 0.2177281507024201 0 -0.44957415908460452 0.24838930720326599 0 -0.42515173153525959 0.23337285483255621 0 -0.472880345570939 0.24524866704034401 0 -0.46082816995706988 0.23327641175581951 0 -0.44957415908460452 0.24838930720326599 0 -0.41386733665031761 0.24965646178733661 0 -0.40803162502707518 0.23445726299366251 0 -0.39693268291147238 0.24835218326078609 0 -0.41386733665031761 0.24965646178733661 0 -0.40803162502707518 0.23445726299366251 0 -0.42515173153525959 0.23337285483255621 0 -0.44957415908460452 0.24838930720326599 0 -0.42515173153525959 0.23337285483255621 0 -0.4307475121595058 0.25135428422187611 0 -0.41386733665031761 0.24965646178733661 0 -0.42515173153525959 0.23337285483255621 0 -0.4307475121595058 0.25135428422187611 0 -0.4386594333004078 0.2177281507024201 0 -0.42515173153525959 0.23337285483255621 0 -0.40959877201068939 0.21769090806265001 0 -0.40803162502707518 0.23445726299366251 0 -0.42515173153525959 0.23337285483255621 0 -0.40959877201068939 0.21769090806265001 0 -0.40959877201068939 0.21769090806265001 0 -0.41961946519297172 0.20106521369413791 0 -0.39929536496220258 0.20661836058536939 0 -0.4386594333004078 0.2177281507024201 0 -0.40959877201068939 0.21769090806265001 0 -0.41961946519297172 0.20106521369413791 0 -0.4386594333004078 0.2177281507024201 0 -0.43608758737547199 0.19582576402027019 0 -0.41961946519297172 0.20106521369413791 0 -0.4386594333004078 0.2177281507024201 0 -0.40959877201068939 0.21769090806265001 0 -0.43608758737547199 0.19582576402027019 0 -0.41961946519297172 0.20106521369413791 0 -0.42436212411890328 0.18072268619589599 0 -0.41961946519297172 0.20106521369413791 0 -0.40381634686967399 0.19100123798644031 0 -0.42436212411890328 0.18072268619589599 0 -0.41961946519297172 0.20106521369413791 0 -0.40381634686967399 0.19100123798644031 0 -0.39929536496220258 0.20661836058536939 0 -0.40381634686967399 0.19100123798644031 0 -0.38765292103973142 0.19488010192992891 0 -0.39356435250371491 0.18292518504313501 0 -0.40381634686967399 0.19100123798644031 0 -0.38765292103973142 0.19488010192992891 0 -0.39929536496220258 0.20661836058536939 0 -0.38765292103973142 0.19488010192992891 0 -0.37776454642866841 0.1833195063122319 0 -0.37165692807335649 0.19727665099600239 0 -0.38765292103973142 0.19488010192992891 0 -0.38301144928864872 0.21038777969403949 0 -0.37165692807335649 0.19727665099600239 0 -0.38301144928864872 0.21038777969403949 0 -0.3795496173440735 0.2244112676826506 0 -0.36711189043514753 0.21678092041343019 0 -0.38765292103973142 0.19488010192992891 0 -0.38301144928864872 0.21038777969403949 0 -0.39929536496220258 0.20661836058536939 0 -0.40959877201068939 0.21769090806265001 0 -0.39929536496220258 0.20661836058536939 0 -0.3936727225745939 0.22380956682664879 0 -0.38301144928864872 0.21038777969403949 0 -0.39929536496220258 0.20661836058536939 0 -0.3936727225745939 0.22380956682664879 0 -0.40803162502707518 0.23445726299366251 0 -0.40959877201068939 0.21769090806265001 0 -0.3936727225745939 0.22380956682664879 0 -0.40803162502707518 0.23445726299366251 0 -0.3936727225745939 0.22380956682664879 0 -0.38250496981076271 0.23795524044095651 0 -0.38301144928864872 0.21038777969403949 0 -0.3936727225745939 0.22380956682664879 0 -0.3795496173440735 0.2244112676826506 0 -0.3795496173440735 0.2244112676826506 0 -0.38250496981076271 0.23795524044095651 0 -0.36903940294710957 0.23077544652195539 0 -0.3936727225745939 0.22380956682664879 0 -0.3795496173440735 0.2244112676826506 0 -0.38250496981076271 0.23795524044095651 0 -0.38250496981076271 0.23795524044095651 0 -0.3679917955013326 0.24979526710046879 0 -0.37936108761735138 0.25764547369175989 0 -0.38250496981076271 0.23795524044095651 0 -0.39693268291147238 0.24835218326078609 0 -0.37936108761735138 0.25764547369175989 0 -0.40803162502707518 0.23445726299366251 0 -0.38250496981076271 0.23795524044095651 0 -0.40803162502707518 0.23445726299366251 0 -0.38250496981076271 0.23795524044095651 0 -0.39693268291147238 0.24835218326078609 0 -0.41233717288153521 0.1421084540231484 0 -0.42574217336614129 0.14246894042902619 0 -0.39926966682221771 0.15405109880459519 0 -0.42574217336614129 0.14246894042902619 0 -0.42496810553043007 0.1532281058122662 0 -0.41218621877972461 0.1595699449957462 0 -0.42574217336614129 0.14246894042902619 0 -0.39926966682221771 0.15405109880459519 0 -0.42574217336614129 0.14246894042902619 0 -0.41218621877972461 0.1595699449957462 0 -0.39926966682221771 0.15405109880459519 0 -0.41233717288153521 0.1421084540231484 0 -0.42367693236875181 0.1352142756507253 0 -0.4006599189690298 0.13669950120824681 0 -0.41392291895617411 0.12953603469397221 0 -0.42367693236875181 0.1352142756507253 0 -0.4006599189690298 0.13669950120824681 0 -0.42367693236875181 0.1352142756507253 0 -0.4006599189690298 0.13669950120824681 0 -0.40982091998377662 0.1224656789345407 0 -0.41392291895617411 0.12953603469397221 0 -0.4006599189690298 0.13669950120824681 0 -0.42153390450313782 0.1237646829823759 0 -0.41392291895617411 0.12953603469397221 0 -0.42367693236875181 0.1352142756507253 0 -0.40982091998377662 0.1224656789345407 0 -0.42153390450313782 0.1237646829823759 0 -0.41392291895617411 0.12953603469397221 0 -0.41233717288153521 0.1421084540231484 0 -0.42367693236875181 0.1352142756507253 0 -0.42574217336614129 0.14246894042902619 0 -0.42367693236875181 0.1352142756507253 0 -0.42911809280136171 0.12899504293780781 0 -0.43000767174426208 0.13672530566233701 0 -0.42367693236875181 0.1352142756507253 0 -0.43000767174426208 0.13672530566233701 0 -0.42574217336614129 0.14246894042902619 0 -0.42153390450313782 0.1237646829823759 0 -0.42367693236875181 0.1352142756507253 0 -0.42911809280136171 0.12899504293780781 0 -0.43237086287688747 0.11871624964908439 0 -0.43812152236168611 0.1311172872658766 0 -0.42911809280136171 0.12899504293780781 0 -0.43812152236168611 0.1311172872658766 0 -0.42911809280136171 0.12899504293780781 0 -0.43000767174426208 0.13672530566233701 0 -0.43812152236168611 0.1311172872658766 0 -0.43000767174426208 0.13672530566233701 0 -0.43337963782336958 0.1458309820282489 0 -0.43000767174426208 0.13672530566233701 0 -0.43337963782336958 0.1458309820282489 0 -0.42574217336614129 0.14246894042902619 0 -0.43337963782336958 0.1458309820282489 0 -0.42574217336614129 0.14246894042902619 0 -0.42496810553043007 0.1532281058122662 0 -0.44376462311547921 0.15157651644554751 0 -0.43337963782336958 0.1458309820282489 0 -0.43268174743278809 0.1546738231634853 0 -0.43337963782336958 0.1458309820282489 0 -0.42496810553043007 0.1532281058122662 0 -0.43268174743278809 0.1546738231634853 0 -0.43268174743278809 0.1546738231634853 0 -0.43698892854647042 0.16232458610693021 0 -0.42294993157596522 0.16312180125988679 0 -0.43698892854647042 0.16232458610693021 0 -0.42294993157596522 0.16312180125988679 0 -0.4336275960524052 0.17188749220307881 0 -0.42496810553043007 0.1532281058122662 0 -0.43268174743278809 0.1546738231634853 0 -0.42294993157596522 0.16312180125988679 0 -0.44957474941260239 0.18342894201292151 0 -0.42436212411890328 0.18072268619589599 0 -0.4336275960524052 0.17188749220307881 0 -0.42294993157596522 0.16312180125988679 0 -0.42436212411890328 0.18072268619589599 0 -0.4336275960524052 0.17188749220307881 0 -0.44957474941260239 0.18342894201292151 0 -0.42436212411890328 0.18072268619589599 0 -0.44957474941260239 0.18342894201292151 0 -0.43608758737547199 0.19582576402027019 0 -0.42436212411890328 0.18072268619589599 0 -0.42294993157596522 0.16312180125988679 0 -0.42436212411890328 0.18072268619589599 0 -0.40707341404372832 0.174383118830746 0 -0.40381634686967399 0.19100123798644031 0 -0.42436212411890328 0.18072268619589599 0 -0.40707341404372832 0.174383118830746 0 -0.42294993157596522 0.16312180125988679 0 -0.40707341404372832 0.174383118830746 0 -0.41218621877972461 0.1595699449957462 0 -0.42496810553043007 0.1532281058122662 0 -0.42294993157596522 0.16312180125988679 0 -0.41218621877972461 0.1595699449957462 0 -0.40707341404372832 0.174383118830746 0 -0.41218621877972461 0.1595699449957462 0 -0.39311402133986562 0.17016660483795701 0 -0.41218621877972461 0.1595699449957462 0 -0.39311402133986562 0.17016660483795701 0 -0.39926966682221771 0.15405109880459519 0 -0.40381634686967399 0.19100123798644031 0 -0.40707341404372832 0.174383118830746 0 -0.39356435250371491 0.18292518504313501 0 -0.40707341404372832 0.174383118830746 0 -0.39311402133986562 0.17016660483795701 0 -0.39356435250371491 0.18292518504313501 0 -0.39311402133986562 0.17016660483795701 0 -0.39356435250371491 0.18292518504313501 0 -0.37776454642866841 0.1833195063122319 0 -0.39311402133986562 0.17016660483795701 0 -0.37776454642866841 0.1833195063122319 0 -0.37279716027829479 0.165633257180166 0 -0.37776454642866841 0.1833195063122319 0 -0.37279716027829479 0.165633257180166 0 -0.38765292103973142 0.19488010192992891 0 -0.39356435250371491 0.18292518504313501 0 -0.37776454642866841 0.1833195063122319 0 -0.39311402133986562 0.17016660483795701 0 -0.39926966682221771 0.15405109880459519 0 -0.37279716027829479 0.165633257180166 0 -0.38387951395012598 0.1493563104969006 0 -0.39926966682221771 0.15405109880459519 0 -0.37279716027829479 0.165633257180166 0 -0.39926966682221771 0.15405109880459519 0 -0.37279716027829479 0.165633257180166 0 -0.38387951395012598 0.1493563104969006 0 -0.4006599189690298 0.13669950120824681 0 -0.37764290556930769 0.13818472676576821 0 -0.38387951395012598 0.1493563104969006 0 -0.36902791811177982 0.15221296852572661 0 -0.37279716027829479 0.165633257180166 0 -0.38387951395012598 0.1493563104969006 0 -0.37764290556930769 0.13818472676576821 0 -0.36902791811177982 0.15221296852572661 0 -0.41233717288153521 0.1421084540231484 0 -0.39926966682221771 0.15405109880459519 0 -0.4006599189690298 0.13669950120824681 0 -0.38387951395012598 0.1493563104969006 0 -0.39926966682221771 0.15405109880459519 0 -0.4006599189690298 0.13669950120824681 0 -0.39767957462087711 0.1237261347518519 0 -0.40982091998377662 0.1224656789345407 0 -0.4006599189690298 0.13669950120824681 0 -0.39767957462087711 0.1237261347518519 0 -0.38596012170000321 0.124641361876796 0 -0.4006599189690298 0.13669950120824681 0 -0.38596012170000321 0.124641361876796 0 -0.4006599189690298 0.13669950120824681 0 -0.37764290556930769 0.13818472676576821 0 -0.4006599189690298 0.13669950120824681 0 -0.37764290556930769 0.13818472676576821 0 -0.38596012170000321 0.124641361876796 0 -0.37764290556930769 0.13818472676576821 0 -0.38596012170000321 0.124641361876796 0 -0.37764290556930769 0.13818472676576821 0 -0.3729849361723272 0.12668834954876429 0 -0.3729849361723272 0.12668834954876429 0 -0.36531141184471871 0.13898044466905021 0 -0.35924771522150428 0.117390810625528 0 -0.36531141184471871 0.13898044466905021 0 -0.35448825958936708 0.13037390482321901 0 -0.35924771522150428 0.117390810625528 0 -0.36531141184471871 0.13898044466905021 0 -0.35924771522150428 0.117390810625528 0 -0.37764290556930769 0.13818472676576821 0 -0.3729849361723272 0.12668834954876429 0 -0.36531141184471871 0.13898044466905021 0 -0.37764290556930769 0.13818472676576821 0 -0.36531141184471871 0.13898044466905021 0 -0.36531141184471871 0.13898044466905021 0 -0.34431119078697442 0.1403355320770836 0 -0.35448825958936708 0.13037390482321901 0 -0.34431119078697442 0.1403355320770836 0 -0.35448825958936708 0.13037390482321901 0 -0.34550758382051883 0.11985912400785161 0 -0.36531141184471871 0.13898044466905021 0 -0.34431119078697442 0.1403355320770836 0 -0.36531141184471871 0.13898044466905021 0 -0.34431119078697442 0.1403355320770836 0 -0.3565742332442326 0.14768107698613309 0 -0.34431119078697442 0.1403355320770836 0 -0.3565742332442326 0.14768107698613309 0 -0.34756804643208328 0.15779100736723639 0 -0.34431119078697442 0.1403355320770836 0 -0.34756804643208328 0.15779100736723639 0 -0.3565742332442326 0.14768107698613309 0 -0.36902791811177982 0.15221296852572661 0 -0.34756804643208328 0.15779100736723639 0 -0.36531141184471871 0.13898044466905021 0 -0.36902791811177982 0.15221296852572661 0 -0.36531141184471871 0.13898044466905021 0 -0.3565742332442326 0.14768107698613309 0 -0.36902791811177982 0.15221296852572661 0 -0.37764290556930769 0.13818472676576821 0 -0.36531141184471871 0.13898044466905021 0 -0.36902791811177982 0.15221296852572661 0 -0.37764290556930769 0.13818472676576821 0 -0.36902791811177982 0.15221296852572661 0 -0.36902791811177982 0.15221296852572661 0 -0.37279716027829479 0.165633257180166 0 -0.35637345826367278 0.1728188977817017 0 -0.37279716027829479 0.165633257180166 0 -0.35637345826367278 0.1728188977817017 0 -0.36902791811177982 0.15221296852572661 0 -0.37279716027829479 0.165633257180166 0 -0.36902791811177982 0.15221296852572661 0 -0.35637345826367278 0.1728188977817017 0 -0.37279716027829479 0.165633257180166 0 -0.36598186339341282 0.18028384371448891 0 -0.35637345826367278 0.1728188977817017 0 -0.37776454642866841 0.1833195063122319 0 -0.37279716027829479 0.165633257180166 0 -0.36598186339341282 0.18028384371448891 0 -0.37776454642866841 0.1833195063122319 0 -0.36598186339341282 0.18028384371448891 0 -0.37165692807335649 0.19727665099600239 0 -0.3508249020771923 0.1752464826573891 0 -0.3463117643189384 0.1772210548876437 0 -0.35607840638543481 0.20340321560224339 0 -0.36598186339341282 0.18028384371448891 0 -0.35497833885092561 0.17509064483908371 0 -0.35607840638543481 0.20340321560224339 0 -0.35497833885092561 0.17509064483908371 0 -0.3508249020771923 0.1752464826573891 0 -0.35607840638543481 0.20340321560224339 0 -0.36598186339341282 0.18028384371448891 0 -0.35637345826367278 0.1728188977817017 0 -0.35497833885092561 0.17509064483908371 0 -0.35637345826367278 0.1728188977817017 0 -0.35497833885092561 0.17509064483908371 0 -0.35637345826367278 0.1728188977817017 0 -0.3508249020771923 0.1752464826573891 0 -0.35637345826367278 0.1728188977817017 0 -0.35497833885092561 0.17509064483908371 0 -0.3508249020771923 0.1752464826573891 0 -0.3508249020771923 0.1752464826573891 0 -0.3463117643189384 0.1772210548876437 0 -0.33912538424331778 0.16594573905135551 0 -0.3508249020771923 0.1752464826573891 0 -0.3463117643189384 0.1772210548876437 0 -0.35637345826367278 0.1728188977817017 0 -0.3508249020771923 0.1752464826573891 0 -0.34756804643208328 0.15779100736723639 0 -0.3508249020771923 0.1752464826573891 0 -0.34756804643208328 0.15779100736723639 0 -0.36902791811177982 0.15221296852572661 0 -0.35637345826367278 0.1728188977817017 0 -0.34756804643208328 0.15779100736723639 0 -0.3508249020771923 0.1752464826573891 0 -0.34756804643208328 0.15779100736723639 0 -0.33912538424331778 0.16594573905135551 0 -0.34756804643208328 0.15779100736723639 0 -0.33912538424331778 0.16594573905135551 0 -0.33612130475698049 0.15205278957523349 0 -0.33912538424331778 0.16594573905135551 0 -0.32829424927107748 0.1689921693888003 0 -0.33678595862369282 0.17475060264468489 0 -0.33912538424331778 0.16594573905135551 0 -0.32574687663835489 0.1570383544987311 0 -0.33612130475698049 0.15205278957523349 0 -0.33912538424331778 0.16594573905135551 0 -0.32829424927107748 0.1689921693888003 0 -0.32574687663835489 0.1570383544987311 0 -0.3463117643189384 0.1772210548876437 0 -0.33748567446118632 0.18202857004469761 0 -0.33957505392791493 0.19162576699239661 0 -0.33748567446118632 0.18202857004469761 0 -0.33364778994521832 0.18638230393453989 0 -0.33957505392791493 0.19162576699239661 0 -0.3463117643189384 0.1772210548876437 0 -0.33748567446118632 0.18202857004469761 0 -0.33678595862369282 0.17475060264468489 0 -0.3463117643189384 0.1772210548876437 0 -0.33912538424331778 0.16594573905135551 0 -0.33678595862369282 0.17475060264468489 0 -0.33748567446118632 0.18202857004469761 0 -0.33678595862369282 0.17475060264468489 0 -0.32938551498402108 0.17959803713717301 0 -0.32829424927107748 0.1689921693888003 0 -0.33678595862369282 0.17475060264468489 0 -0.32938551498402108 0.17959803713717301 0 -0.32938551498402108 0.17959803713717301 0 -0.33364778994521832 0.18638230393453989 0 -0.32870664570337998 0.19064146855506331 0 -0.33748567446118632 0.18202857004469761 0 -0.32938551498402108 0.17959803713717301 0 -0.33364778994521832 0.18638230393453989 0 -0.32938551498402108 0.17959803713717301 0 -0.31625197510267677 0.17204637203194501 0 -0.31719415186781769 0.1880092307979091 0 -0.31625197510267677 0.17204637203194501 0 -0.31719415186781769 0.1880092307979091 0 -0.30649652068166128 0.18266991608161939 0 -0.32938551498402108 0.17959803713717301 0 -0.32870664570337998 0.19064146855506331 0 -0.31719415186781769 0.1880092307979091 0 -0.32829424927107748 0.1689921693888003 0 -0.32938551498402108 0.17959803713717301 0 -0.31625197510267677 0.17204637203194501 0 -0.31625197510267677 0.17204637203194501 0 -0.32574687663835489 0.1570383544987311 0 -0.30665760380050439 0.1585141204584542 0 -0.32829424927107748 0.1689921693888003 0 -0.31625197510267677 0.17204637203194501 0 -0.32574687663835489 0.1570383544987311 0 -0.32574687663835489 0.1570383544987311 0 -0.32232311384044099 0.14175436315106379 0 -0.30665760380050439 0.1585141204584542 0 -0.32574687663835489 0.1570383544987311 0 -0.32232311384044099 0.14175436315106379 0 -0.33612130475698049 0.15205278957523349 0 -0.32232311384044099 0.14175436315106379 0 -0.32274363758454849 0.12887807440848131 0 -0.31178257419382521 0.12822894916543109 0 -0.32274363758454849 0.12887807440848131 0 -0.31178257419382521 0.12822894916543109 0 -0.3187967067770483 0.119579146290635 0 -0.32232311384044099 0.14175436315106379 0 -0.32274363758454849 0.12887807440848131 0 -0.33569401976404128 0.13021596786022041 0 -0.34431119078697442 0.1403355320770836 0 -0.34550758382051883 0.11985912400785161 0 -0.34008221148080359 0.1176698533288347 0 -0.34431119078697442 0.1403355320770836 0 -0.34008221148080359 0.1176698533288347 0 -0.34431119078697442 0.1403355320770836 0 -0.33569401976404128 0.13021596786022041 0 -0.34008221148080359 0.1176698533288347 0 -0.34431119078697442 0.1403355320770836 0 -0.32232311384044099 0.14175436315106379 0 -0.33569401976404128 0.13021596786022041 0 -0.32274363758454849 0.12887807440848131 0 -0.33569401976404128 0.13021596786022041 0 -0.32783369974454901 0.1217541516104617 0 -0.34431119078697442 0.1403355320770836 0 -0.32232311384044099 0.14175436315106379 0 -0.33612130475698049 0.15205278957523349 0 -0.34431119078697442 0.1403355320770836 0 -0.34756804643208328 0.15779100736723639 0 -0.33612130475698049 0.15205278957523349 0 -0.34431119078697442 0.1403355320770836 0 -0.32232311384044099 0.14175436315106379 0 -0.35136143577237472 0.2471586234940743 0 -0.35697831459445017 0.24145321788825061 0 -0.33317488599613138 0.24471505754956169 0 -0.35697831459445017 0.24145321788825061 0 -0.33317488599613138 0.24471505754956169 0 -0.34816046967206199 0.23611332698428639 0 -0.35697831459445017 0.24145321788825061 0 -0.33945226786097982 0.2400960544964339 0 -0.35136143577237472 0.2471586234940743 0 -0.34118257168509591 0.24752953772083919 0 -0.35403492744565779 0.25093495054987591 0 -0.34118257168509591 0.24752953772083919 0 -0.35403492744565779 0.25093495054987591 0 -0.34417843397873799 0.2496391829447597 0 -0.34118257168509591 0.24752953772083919 0 -0.35403492744565779 0.25093495054987591 0 -0.34816046967206199 0.23611332698428639 0 -0.35697831459445017 0.24145321788825061 0 -0.3578483967190616 0.23210289392637731 0 -0.35136143577237472 0.2471586234940743 0 -0.35697831459445017 0.24145321788825061 0 -0.36013505040930011 0.24772455998039661 0 -0.35136143577237472 0.2471586234940743 0 -0.36013505040930011 0.24772455998039661 0 -0.35403492744565779 0.25093495054987591 0 -0.36013505040930011 0.24772455998039661 0 -0.3679917955013326 0.24979526710046879 0 -0.35403492744565779 0.25093495054987591 0 -0.35697831459445017 0.24145321788825061 0 -0.36013505040930011 0.24772455998039661 0 -0.3679917955013326 0.24979526710046879 0 -0.38250496981076271 0.23795524044095651 0 -0.35697831459445017 0.24145321788825061 0 -0.3679917955013326 0.24979526710046879 0 -0.38250496981076271 0.23795524044095651 0 -0.35697831459445017 0.24145321788825061 0 -0.36903940294710957 0.23077544652195539 0 -0.38250496981076271 0.23795524044095651 0 -0.35697831459445017 0.24145321788825061 0 -0.35697831459445017 0.24145321788825061 0 -0.36903940294710957 0.23077544652195539 0 -0.3578483967190616 0.23210289392637731 0 -0.3795496173440735 0.2244112676826506 0 -0.36903940294710957 0.23077544652195539 0 -0.36711189043514753 0.21678092041343019 0 -0.36903940294710957 0.23077544652195539 0 -0.3578483967190616 0.23210289392637731 0 -0.36711189043514753 0.21678092041343019 0 -0.3578483967190616 0.23210289392637731 0 -0.33836289951375659 0.2308011416260837 0 -0.34816046967206199 0.23611332698428639 0 -0.3578483967190616 0.23210289392637731 0 -0.33836289951375659 0.2308011416260837 0 -0.3578483967190616 0.23210289392637731 0 -0.34702786782178913 0.22547831160429349 0 -0.33836289951375659 0.2308011416260837 0 -0.3578483967190616 0.23210289392637731 0 -0.35295804254945312 0.21800007658238019 0 -0.36711189043514753 0.21678092041343019 0 -0.3578483967190616 0.23210289392637731 0 -0.34702786782178913 0.22547831160429349 0 -0.35295804254945312 0.21800007658238019 0 -0.34702786782178913 0.22547831160429349 0 -0.34414070447014561 0.22004373041488179 0 -0.34061833408415088 0.22639868455833151 0 -0.34702786782178913 0.22547831160429349 0 -0.34414070447014561 0.22004373041488179 0 -0.35295804254945312 0.21800007658238019 0 -0.35607840638543481 0.20340321560224339 0 -0.3423816441839897 0.20116142901886311 0 -0.34043200544601648 0.21001200109756671 0 -0.35607840638543481 0.20340321560224339 0 -0.35295804254945312 0.21800007658238019 0 -0.34043200544601648 0.21001200109756671 0 -0.34414070447014561 0.22004373041488179 0 -0.35295804254945312 0.21800007658238019 0 -0.34043200544601648 0.21001200109756671 0 -0.35607840638543481 0.20340321560224339 0 -0.35295804254945312 0.21800007658238019 0 -0.36711189043514753 0.21678092041343019 0 -0.38301144928864872 0.21038777969403949 0 -0.36711189043514753 0.21678092041343019 0 -0.37165692807335649 0.19727665099600239 0 -0.35607840638543481 0.20340321560224339 0 -0.36711189043514753 0.21678092041343019 0 -0.37165692807335649 0.19727665099600239 0 -0.36598186339341282 0.18028384371448891 0 -0.35607840638543481 0.20340321560224339 0 -0.37165692807335649 0.19727665099600239 0 -0.3463117643189384 0.1772210548876437 0 -0.35607840638543481 0.20340321560224339 0 -0.33957505392791493 0.19162576699239661 0 -0.35607840638543481 0.20340321560224339 0 -0.33957505392791493 0.19162576699239661 0 -0.3423816441839897 0.20116142901886311 0 -0.3508249020771923 0.1752464826573891 0 -0.35607840638543481 0.20340321560224339 0 -0.33957505392791493 0.19162576699239661 0 -0.3423816441839897 0.20116142901886311 0 -0.33344111097659263 0.19960473238324589 0 -0.33344111097659263 0.19960473238324589 0 -0.32870664570337998 0.19064146855506331 0 -0.32293317347927919 0.1988158383721578 0 -0.33344111097659263 0.19960473238324589 0 -0.32293317347927919 0.1988158383721578 0 -0.32919258046786731 0.20671126864693529 0 -0.33364778994521832 0.18638230393453989 0 -0.33957505392791493 0.19162576699239661 0 -0.32870664570337998 0.19064146855506331 0 -0.33957505392791493 0.19162576699239661 0 -0.33344111097659263 0.19960473238324589 0 -0.32870664570337998 0.19064146855506331 0 -0.32870664570337998 0.19064146855506331 0 -0.31719415186781769 0.1880092307979091 0 -0.32293317347927919 0.1988158383721578 0 -0.31719415186781769 0.1880092307979091 0 -0.31255968566153908 0.2007180843456671 0 -0.32293317347927919 0.1988158383721578 0 -0.31959905392326748 0.21005282021342039 0 -0.32955755851418023 0.21507095116828551 0 -0.32919258046786731 0.20671126864693529 0 -0.32293317347927919 0.1988158383721578 0 -0.31959905392326748 0.21005282021342039 0 -0.32919258046786731 0.20671126864693529 0 -0.31255968566153908 0.2007180843456671 0 -0.31959905392326748 0.21005282021342039 0 -0.30936622043687989 0.2109132046231437 0 -0.31255968566153908 0.2007180843456671 0 -0.32293317347927919 0.1988158383721578 0 -0.31959905392326748 0.21005282021342039 0 -0.31959905392326748 0.21005282021342039 0 -0.31261048283512599 0.21809305543227389 0 -0.32195135210887582 0.21990929861903999 0 -0.31959905392326748 0.21005282021342039 0 -0.31261048283512599 0.21809305543227389 0 -0.30936622043687989 0.2109132046231437 0 -0.31959905392326748 0.21005282021342039 0 -0.32955755851418023 0.21507095116828551 0 -0.32195135210887582 0.21990929861903999 0 -0.32955755851418023 0.21507095116828551 0 -0.34043200544601648 0.21001200109756671 0 -0.3372453489045627 0.2202395164050113 0 -0.33344111097659263 0.19960473238324589 0 -0.32919258046786731 0.20671126864693529 0 -0.34043200544601648 0.21001200109756671 0 -0.32955755851418023 0.21507095116828551 0 -0.32919258046786731 0.20671126864693529 0 -0.34043200544601648 0.21001200109756671 0 -0.3423816441839897 0.20116142901886311 0 -0.33344111097659263 0.19960473238324589 0 -0.34043200544601648 0.21001200109756671 0 -0.34414070447014561 0.22004373041488179 0 -0.34043200544601648 0.21001200109756671 0 -0.3372453489045627 0.2202395164050113 0 -0.33685059707843562 0.22543780994877641 0 -0.3372453489045627 0.2202395164050113 0 -0.34061833408415088 0.22639868455833151 0 -0.34414070447014561 0.22004373041488179 0 -0.3372453489045627 0.2202395164050113 0 -0.34061833408415088 0.22639868455833151 0 -0.34702786782178913 0.22547831160429349 0 -0.34061833408415088 0.22639868455833151 0 -0.33836289951375659 0.2308011416260837 0 -0.33685059707843562 0.22543780994877641 0 -0.34061833408415088 0.22639868455833151 0 -0.33836289951375659 0.2308011416260837 0 -0.34061833408415088 0.22639868455833151 0 -0.33836289951375659 0.2308011416260837 0 -0.33685059707843562 0.22543780994877641 0 -0.33836289951375659 0.2308011416260837 0 -0.33117580581127221 0.22431189720567909 0 -0.32955755851418023 0.21507095116828551 0 -0.3372453489045627 0.2202395164050113 0 -0.33117580581127221 0.22431189720567909 0 -0.33685059707843562 0.22543780994877641 0 -0.3372453489045627 0.2202395164050113 0 -0.33117580581127221 0.22431189720567909 0 -0.33836289951375659 0.2308011416260837 0 -0.30885464177404848 0.22882980663855021 0 -0.32955755851418023 0.21507095116828551 0 -0.33117580581127221 0.22431189720567909 0 -0.32195135210887582 0.21990929861903999 0 -0.33836289951375659 0.2308011416260837 0 -0.33117580581127221 0.22431189720567909 0 -0.30885464177404848 0.22882980663855021 0 -0.33836289951375659 0.2308011416260837 0 -0.3131288306262614 0.24009630357419259 0 -0.30885464177404848 0.22882980663855021 0 -0.33117580581127221 0.22431189720567909 0 -0.32195135210887582 0.21990929861903999 0 -0.30885464177404848 0.22882980663855021 0 -0.31261048283512599 0.21809305543227389 0 -0.32195135210887582 0.21990929861903999 0 -0.30885464177404848 0.22882980663855021 0 -0.33836289951375659 0.2308011416260837 0 -0.3131288306262614 0.24009630357419259 0 -0.33145165937813748 0.24495119533554419 0 -0.3131288306262614 0.24009630357419259 0 -0.31729104317254142 0.2468916577935994 0 -0.33145165937813748 0.24495119533554419 0 -0.3131288306262614 0.24009630357419259 0 -0.33145165937813748 0.24495119533554419 0 -0.3131288306262614 0.24009630357419259 0 -0.31729104317254142 0.2468916577935994 0 -0.30770579299091849 0.24809033297349109 0 -0.31729104317254142 0.2468916577935994 0 -0.33145165937813748 0.24495119533554419 0 -0.35136143577237472 0.2471586234940743 0 -0.33317488599613138 0.24471505754956169 0 -0.34118257168509591 0.24752953772083919 0 -0.33278105202406583 0.2472286791290022 0 -0.33145165937813748 0.24495119533554419 0 -0.33118720158250298 0.25096606311404268 0 -0.35697831459445017 0.24145321788825061 0 -0.33317488599613138 0.24471505754956169 0 -0.33945226786097982 0.2400960544964339 0 -0.33317488599613138 0.24471505754956169 0 -0.33145165937813748 0.24495119533554419 0 -0.33945226786097982 0.2400960544964339 0 -0.33278105202406583 0.2472286791290022 0 -0.33403282194815292 0.24897445497199189 0 -0.33118720158250298 0.25096606311404268 0 -0.33278105202406583 0.2472286791290022 0 -0.33487424230772489 0.24710436964416879 0 -0.33403282194815292 0.24897445497199189 0 -0.33278105202406583 0.2472286791290022 0 -0.33487424230772489 0.24710436964416879 0 -0.33317488599613138 0.24471505754956169 0 -0.33487424230772489 0.24710436964416879 0 -0.33317488599613138 0.24471505754956169 0 -0.33680846265774428 0.24718804965697661 0 -0.33487424230772489 0.24710436964416879 0 -0.33403282194815292 0.24897445497199189 0 -0.33616365928769221 0.2487911170393351 0 -0.33403282194815292 0.24897445497199189 0 -0.33616365928769221 0.2487911170393351 0 -0.33564174872293412 0.2502794645721701 0 -0.33278105202406583 0.2472286791290022 0 -0.33317488599613138 0.24471505754956169 0 -0.33145165937813748 0.24495119533554419 0 -0.33317488599613138 0.24471505754956169 0 -0.33145165937813748 0.24495119533554419 0 -0.33836289951375659 0.2308011416260837 0 -0.33145165937813748 0.24495119533554419 0 -0.33836289951375659 0.2308011416260837 0 -0.33145165937813748 0.24495119533554419 0 -0.33945226786097982 0.2400960544964339 0 -0.34816046967206199 0.23611332698428639 0 -0.33836289951375659 0.2308011416260837 0 -0.33945226786097982 0.2400960544964339 0 -0.33317488599613138 0.24471505754956169 0 -0.34118257168509591 0.24752953772083919 0 -0.33317488599613138 0.24471505754956169 0 -0.34118257168509591 0.24752953772083919 0 -0.33680846265774428 0.24718804965697661 0 -0.34417843397873799 0.2496391829447597 0 -0.34234687734083619 0.24983879911765 0 -0.34118257168509591 0.24752953772083919 0 -0.34234687734083619 0.24983879911765 0 -0.34118257168509591 0.24752953772083919 0 -0.33965833617985652 0.25051273318214767 0 -0.34118257168509591 0.24752953772083919 0 -0.33858477566773559 0.24844901328442179 0 -0.33680846265774428 0.24718804965697661 0 -0.33858477566773559 0.24844901328442179 0 -0.3376740125383319 0.25052400058846669 0 -0.33965833617985652 0.25051273318214767 0 -0.34118257168509591 0.24752953772083919 0 -0.33858477566773559 0.24844901328442179 0 -0.33965833617985652 0.25051273318214767 0 -0.33616365928769221 0.2487911170393351 0 -0.3376740125383319 0.25052400058846669 0 -0.33564174872293412 0.2502794645721701 0 -0.33858477566773559 0.24844901328442179 0 -0.33616365928769221 0.2487911170393351 0 -0.3376740125383319 0.25052400058846669 0 -0.33858477566773559 0.24844901328442179 0 -0.33616365928769221 0.2487911170393351 0 -0.33680846265774428 0.24718804965697661 0 -0.33487424230772489 0.24710436964416879 0 -0.33616365928769221 0.2487911170393351 0 -0.33680846265774428 0.24718804965697661 0 -0.28814489445425961 0.24432337797926859 0 -0.2816821281368096 0.23761466174041659 0 -0.27655449564171131 0.24465743411669599 0 -0.28814489445425961 0.24432337797926859 0 -0.27655449564171131 0.24465743411669599 0 -0.28438953059429339 0.2544273845365726 0 -0.28814489445425961 0.24432337797926859 0 -0.2816821281368096 0.23761466174041659 0 -0.29510361439644822 0.2353202684457886 0 -0.28814489445425961 0.24432337797926859 0 -0.29510361439644822 0.2353202684457886 0 -0.29706420800941918 0.24814217702216021 0 -0.28814489445425961 0.24432337797926859 0 -0.29706420800941918 0.24814217702216021 0 -0.28438953059429339 0.2544273845365726 0 -0.29510361439644822 0.2353202684457886 0 -0.29706420800941918 0.24814217702216021 0 -0.30770579299091849 0.24809033297349109 0 -0.3131288306262614 0.24009630357419259 0 -0.29510361439644822 0.2353202684457886 0 -0.30770579299091849 0.24809033297349109 0 -0.3131288306262614 0.24009630357419259 0 -0.29510361439644822 0.2353202684457886 0 -0.3131288306262614 0.24009630357419259 0 -0.29510361439644822 0.2353202684457886 0 -0.30885464177404848 0.22882980663855021 0 -0.31261048283512599 0.21809305543227389 0 -0.30885464177404848 0.22882980663855021 0 -0.3003263730730481 0.21666834389390699 0 -0.2816821281368096 0.23761466174041659 0 -0.29510361439644822 0.2353202684457886 0 -0.27934638403434042 0.2268584716510163 0 -0.30885464177404848 0.22882980663855021 0 -0.27934638403434042 0.2268584716510163 0 -0.29510361439644822 0.2353202684457886 0 -0.30885464177404848 0.22882980663855021 0 -0.27934638403434042 0.2268584716510163 0 -0.30885464177404848 0.22882980663855021 0 -0.3003263730730481 0.21666834389390699 0 -0.27934638403434042 0.2268584716510163 0 -0.28908285118424693 0.20975935131056889 0 -0.3003263730730481 0.21666834389390699 0 -0.27934638403434042 0.2268584716510163 0 -0.31261048283512599 0.21809305543227389 0 -0.3003263730730481 0.21666834389390699 0 -0.30936622043687989 0.2109132046231437 0 -0.31255968566153908 0.2007180843456671 0 -0.30936622043687989 0.2109132046231437 0 -0.30169013026330671 0.20378173598861879 0 -0.28908285118424693 0.20975935131056889 0 -0.3003263730730481 0.21666834389390699 0 -0.30169013026330671 0.20378173598861879 0 -0.3003263730730481 0.21666834389390699 0 -0.30936622043687989 0.2109132046231437 0 -0.30169013026330671 0.20378173598861879 0 -0.30169013026330671 0.20378173598861879 0 -0.30504524251809911 0.19300713994613611 0 -0.29376040870602732 0.19162429181228999 0 -0.31255968566153908 0.2007180843456671 0 -0.30169013026330671 0.20378173598861879 0 -0.30504524251809911 0.19300713994613611 0 -0.31719415186781769 0.1880092307979091 0 -0.30504524251809911 0.19300713994613611 0 -0.30649652068166128 0.18266991608161939 0 -0.31719415186781769 0.1880092307979091 0 -0.31255968566153908 0.2007180843456671 0 -0.30504524251809911 0.19300713994613611 0 -0.30504524251809911 0.19300713994613611 0 -0.29376040870602732 0.19162429181228999 0 -0.30649652068166128 0.18266991608161939 0 -0.28908285118424693 0.20975935131056889 0 -0.30169013026330671 0.20378173598861879 0 -0.29376040870602732 0.19162429181228999 0 -0.29376040870602732 0.19162429181228999 0 -0.27755793684337232 0.1975389226453528 0 -0.28022215656894051 0.17994041711657491 0 -0.28908285118424693 0.20975935131056889 0 -0.29376040870602732 0.19162429181228999 0 -0.27755793684337232 0.1975389226453528 0 -0.27755793684337232 0.1975389226453528 0 -0.28022215656894051 0.17994041711657491 0 -0.2626608517601417 0.18583392638741611 0 -0.27755793684337232 0.1975389226453528 0 -0.26456235225317898 0.2049294101503577 0 -0.2626608517601417 0.18583392638741611 0 -0.25596721109223541 0.19689462957559481 0 -0.26456235225317898 0.2049294101503577 0 -0.2626608517601417 0.18583392638741611 0 -0.25596721109223541 0.19689462957559481 0 -0.2626608517601417 0.18583392638741611 0 -0.2442574343745301 0.1933222857026127 0 -0.25596721109223541 0.19689462957559481 0 -0.26456235225317898 0.2049294101503577 0 -0.25193111579350458 0.20679586774225589 0 -0.25596721109223541 0.19689462957559481 0 -0.25193111579350458 0.20679586774225589 0 -0.2442574343745301 0.1933222857026127 0 -0.26456235225317898 0.2049294101503577 0 -0.25193111579350458 0.20679586774225589 0 -0.26030390646675128 0.2222670805481724 0 -0.25193111579350458 0.20679586774225589 0 -0.26030390646675128 0.2222670805481724 0 -0.23860333520943661 0.21604928608630641 0 -0.26456235225317898 0.2049294101503577 0 -0.27505900058769828 0.21314613909490959 0 -0.26030390646675128 0.2222670805481724 0 -0.28908285118424693 0.20975935131056889 0 -0.27505900058769828 0.21314613909490959 0 -0.27934638403434042 0.2268584716510163 0 -0.27755793684337232 0.1975389226453528 0 -0.26456235225317898 0.2049294101503577 0 -0.27505900058769828 0.21314613909490959 0 -0.28908285118424693 0.20975935131056889 0 -0.27755793684337232 0.1975389226453528 0 -0.27505900058769828 0.21314613909490959 0 -0.27505900058769828 0.21314613909490959 0 -0.27934638403434042 0.2268584716510163 0 -0.26030390646675128 0.2222670805481724 0 -0.27934638403434042 0.2268584716510163 0 -0.26030390646675128 0.2222670805481724 0 -0.26926125215728852 0.23691375650931359 0 -0.2816821281368096 0.23761466174041659 0 -0.27934638403434042 0.2268584716510163 0 -0.26926125215728852 0.23691375650931359 0 -0.26030390646675128 0.2222670805481724 0 -0.25352856868734108 0.2361842778412068 0 -0.26926125215728852 0.23691375650931359 0 -0.26030390646675128 0.2222670805481724 0 -0.25352856868734108 0.2361842778412068 0 -0.24414723244081521 0.2294953384228533 0 -0.25352856868734108 0.2361842778412068 0 -0.26926125215728852 0.23691375650931359 0 -0.25919022577934031 0.25017534986325912 0 -0.26926125215728852 0.23691375650931359 0 -0.27655449564171131 0.24465743411669599 0 -0.25919022577934031 0.25017534986325912 0 -0.27655449564171131 0.24465743411669599 0 -0.28438953059429339 0.2544273845365726 0 -0.25919022577934031 0.25017534986325912 0 -0.2816821281368096 0.23761466174041659 0 -0.26926125215728852 0.23691375650931359 0 -0.27655449564171131 0.24465743411669599 0 -0.28232256935708522 0.13798431007975931 0 -0.30033503689390761 0.14317319422504379 0 -0.28401825027001798 0.1598325801565999 0 -0.28232256935708522 0.13798431007975931 0 -0.27494650719957159 0.1172918977369443 0 -0.29073011687942207 0.1241283051916343 0 -0.28232256935708522 0.13798431007975931 0 -0.30033503689390761 0.14317319422504379 0 -0.29073011687942207 0.1241283051916343 0 -0.30033503689390761 0.14317319422504379 0 -0.29073011687942207 0.1241283051916343 0 -0.30169248513487668 0.12437336152735901 0 -0.32232311384044099 0.14175436315106379 0 -0.31178257419382521 0.12822894916543109 0 -0.30033503689390761 0.14317319422504379 0 -0.31178257419382521 0.12822894916543109 0 -0.30033503689390761 0.14317319422504379 0 -0.30169248513487668 0.12437336152735901 0 -0.32232311384044099 0.14175436315106379 0 -0.30033503689390761 0.14317319422504379 0 -0.30665760380050439 0.1585141204584542 0 -0.30033503689390761 0.14317319422504379 0 -0.30665760380050439 0.1585141204584542 0 -0.28401825027001798 0.1598325801565999 0 -0.32232311384044099 0.14175436315106379 0 -0.30033503689390761 0.14317319422504379 0 -0.31625197510267677 0.17204637203194501 0 -0.30665760380050439 0.1585141204584542 0 -0.29721705734137771 0.17375225914972031 0 -0.29376040870602732 0.19162429181228999 0 -0.29721705734137771 0.17375225914972031 0 -0.30649652068166128 0.18266991608161939 0 -0.31625197510267677 0.17204637203194501 0 -0.29721705734137771 0.17375225914972031 0 -0.30649652068166128 0.18266991608161939 0 -0.29376040870602732 0.19162429181228999 0 -0.29721705734137771 0.17375225914972031 0 -0.28022215656894051 0.17994041711657491 0 -0.30665760380050439 0.1585141204584542 0 -0.29721705734137771 0.17375225914972031 0 -0.28401825027001798 0.1598325801565999 0 -0.29721705734137771 0.17375225914972031 0 -0.28401825027001798 0.1598325801565999 0 -0.28022215656894051 0.17994041711657491 0 -0.28401825027001798 0.1598325801565999 0 -0.26728914328982772 0.16557539654485059 0 -0.27135643489552541 0.14938188535436869 0 -0.28401825027001798 0.1598325801565999 0 -0.26728914328982772 0.16557539654485059 0 -0.28022215656894051 0.17994041711657491 0 -0.26728914328982772 0.16557539654485059 0 -0.28022215656894051 0.17994041711657491 0 -0.2626608517601417 0.18583392638741611 0 -0.26728914328982772 0.16557539654485059 0 -0.2626608517601417 0.18583392638741611 0 -0.24991153353962359 0.17059528531891879 0 -0.2626608517601417 0.18583392638741611 0 -0.24991153353962359 0.17059528531891879 0 -0.2442574343745301 0.1933222857026127 0 -0.25556563270471711 0.14786828493522511 0 -0.24991153353962359 0.17059528531891879 0 -0.26728914328982772 0.16557539654485059 0 -0.25556563270471711 0.14786828493522511 0 -0.24991153353962359 0.17059528531891879 0 -0.26728914328982772 0.16557539654485059 0 -0.25556563270471711 0.14786828493522511 0 -0.27135643489552541 0.14938188535436869 0 -0.25556563270471711 0.14786828493522511 0 -0.27135643489552541 0.14938188535436869 0 -0.26626361076464439 0.13019662729774889 0 -0.28232256935708522 0.13798431007975931 0 -0.28401825027001798 0.1598325801565999 0 -0.27135643489552541 0.14938188535436869 0 -0.28232256935708522 0.13798431007975931 0 -0.27135643489552541 0.14938188535436869 0 -0.26626361076464439 0.13019662729774889 0 -0.28232256935708522 0.13798431007975931 0 -0.26626361076464439 0.13019662729774889 0 -0.27494650719957159 0.1172918977369443 0 -0.25556563270471711 0.14786828493522511 0 -0.26626361076464439 0.13019662729774889 0 -0.25201251588210177 0.1280123011904658 0 -0.25249197155940639 0.1117611665329582 0 -0.26336837819541498 0.1012873057043541 0 -0.27494650719957159 0.1172918977369443 0 -0.26626361076464439 0.13019662729774889 0 -0.25249197155940639 0.1117611665329582 0 -0.27494650719957159 0.1172918977369443 0 -0.26626361076464439 0.13019662729774889 0 -0.25201251588210177 0.1280123011904658 0 -0.25249197155940639 0.1117611665329582 0 -0.25249197155940639 0.1117611665329582 0 -0.26336837819541498 0.1012873057043541 0 -0.23951652745766219 0.085880967342263012 0 -0.28036813634238378 0.1056026282662812 0 -0.26875453625565959 0.086858363274460698 0 -0.26336837819541498 0.1012873057043541 0 -0.28036813634238378 0.1056026282662812 0 -0.27494650719957159 0.1172918977369443 0 -0.26336837819541498 0.1012873057043541 0 -0.28036813634238378 0.1056026282662812 0 -0.26875453625565959 0.086858363274460698 0 -0.28036813634238378 0.1056026282662812 0 -0.27654714775185318 0.097657699845986087 0 -0.26875453625565959 0.086858363274460698 0 -0.28036813634238378 0.1056026282662812 0 -0.27654714775185318 0.097657699845986087 0 -0.28664479611387372 0.099962471515326057 0 -0.28036813634238378 0.1056026282662812 0 -0.27494650719957159 0.1172918977369443 0 -0.28694097324394779 0.11276672605305769 0 -0.27494650719957159 0.1172918977369443 0 -0.29073011687942207 0.1241283051916343 0 -0.28694097324394779 0.11276672605305769 0 -0.29073011687942207 0.1241283051916343 0 -0.30169248513487668 0.12437336152735901 0 -0.2969898067369055 0.1124201067693463 0 -0.29073011687942207 0.1241283051916343 0 -0.28694097324394779 0.11276672605305769 0 -0.2969898067369055 0.1124201067693463 0 -0.28694097324394779 0.11276672605305769 0 -0.29090608689906439 0.1053491869322191 0 -0.2969898067369055 0.1124201067693463 0 -0.28036813634238378 0.1056026282662812 0 -0.28694097324394779 0.11276672605305769 0 -0.29090608689906439 0.1053491869322191 0 -0.28036813634238378 0.1056026282662812 0 -0.28664479611387372 0.099962471515326057 0 -0.29090608689906439 0.1053491869322191 0 -0.27654714775185318 0.097657699845986087 0 -0.29096643889372181 0.09287030273162071 0 -0.27654714775185318 0.097657699845986087 0 -0.28664479611387372 0.099962471515326057 0 -0.29096643889372181 0.09287030273162071 0 -0.2942997810810184 0.098539080032984006 0 -0.2994099422122809 0.094192893770984665 0 -0.29096643889372181 0.09287030273162071 0 -0.28664479611387372 0.099962471515326057 0 -0.2942997810810184 0.098539080032984006 0 -0.29096643889372181 0.09287030273162071 0 -0.28664479611387372 0.099962471515326057 0 -0.2942997810810184 0.098539080032984006 0 -0.29090608689906439 0.1053491869322191 0 -0.2942997810810184 0.098539080032984006 0 -0.29090608689906439 0.1053491869322191 0 -0.30163381783049981 0.1032550688375741 0 -0.29090608689906439 0.1053491869322191 0 -0.30163381783049981 0.1032550688375741 0 -0.2969898067369055 0.1124201067693463 0 -0.2942997810810184 0.098539080032984006 0 -0.30163381783049981 0.1032550688375741 0 -0.2994099422122809 0.094192893770984665 0 -0.30163381783049981 0.1032550688375741 0 -0.2994099422122809 0.094192893770984665 0 -0.3069516453810891 0.096543912273732643 0 -0.2994099422122809 0.094192893770984665 0 -0.3069516453810891 0.096543912273732643 0 -0.30491605188742382 0.092698680319136459 0 -0.30163381783049981 0.1032550688375741 0 -0.3069516453810891 0.096543912273732643 0 -0.3135862959921345 0.10283237964573801 0 -0.3069516453810891 0.096543912273732643 0 -0.3135862959921345 0.10283237964573801 0 -0.31463180244337202 0.094345302216512328 0 -0.3069516453810891 0.096543912273732643 0 -0.30791688992073479 0.091975009614573444 0 -0.31463180244337202 0.094345302216512328 0 -0.30163381783049981 0.1032550688375741 0 -0.30862489097032347 0.11391625228533959 0 -0.3135862959921345 0.10283237964573801 0 -0.31178257419382521 0.12822894916543109 0 -0.30862489097032347 0.11391625228533959 0 -0.30169248513487668 0.12437336152735901 0 -0.30163381783049981 0.1032550688375741 0 -0.30862489097032347 0.11391625228533959 0 -0.2969898067369055 0.1124201067693463 0 -0.30862489097032347 0.11391625228533959 0 -0.30169248513487668 0.12437336152735901 0 -0.2969898067369055 0.1124201067693463 0 -0.30206210417507667 0.071296929412597299 0 -0.30783895281630558 0.078784560558128394 0 -0.29681774259196347 0.077953834608589345 0 -0.30206210417507667 0.071296929412597299 0 -0.30583969398445898 0.062854635105624349 0 -0.29608662180159911 0.063367970278860306 0 -0.30583969398445898 0.062854635105624349 0 -0.31472488857223258 0.061583970836415751 0 -0.31396076695045039 0.071156851834927176 0 -0.30206210417507667 0.071296929412597299 0 -0.30583969398445898 0.062854635105624349 0 -0.31396076695045039 0.071156851834927176 0 -0.30206210417507667 0.071296929412597299 0 -0.30783895281630558 0.078784560558128394 0 -0.31396076695045039 0.071156851834927176 0 -0.30783895281630558 0.078784560558128394 0 -0.30538573003559022 0.088082905617255083 0 -0.30103449805000271 0.082686225212732001 0 -0.3103093311873476 0.088247496433638606 0 -0.30791688992073479 0.091975009614573444 0 -0.31463180244337202 0.094345302216512328 0 -0.3103093311873476 0.088247496433638606 0 -0.30538573003559022 0.088082905617255083 0 -0.30791688992073479 0.091975009614573444 0 -0.3103093311873476 0.088247496433638606 0 -0.30538573003559022 0.088082905617255083 0 -0.3069516453810891 0.096543912273732643 0 -0.30791688992073479 0.091975009614573444 0 -0.30491605188742382 0.092698680319136459 0 -0.30538573003559022 0.088082905617255083 0 -0.30791688992073479 0.091975009614573444 0 -0.30491605188742382 0.092698680319136459 0 -0.30538573003559022 0.088082905617255083 0 -0.29096643889372181 0.09287030273162071 0 -0.2994099422122809 0.094192893770984665 0 -0.30538573003559022 0.088082905617255083 0 -0.29096643889372181 0.09287030273162071 0 -0.2994099422122809 0.094192893770984665 0 -0.30538573003559022 0.088082905617255083 0 -0.30491605188742382 0.092698680319136459 0 -0.30783895281630558 0.078784560558128394 0 -0.30103449805000271 0.082686225212732001 0 -0.29681774259196347 0.077953834608589345 0 -0.30538573003559022 0.088082905617255083 0 -0.30103449805000271 0.082686225212732001 0 -0.29552819582045242 0.082914918911952268 0 -0.30103449805000271 0.082686225212732001 0 -0.29552819582045242 0.082914918911952268 0 -0.29681774259196347 0.077953834608589345 0 -0.30538573003559022 0.088082905617255083 0 -0.28707013314562491 0.087470634445858425 0 -0.30538573003559022 0.088082905617255083 0 -0.29552819582045242 0.082914918911952268 0 -0.28707013314562491 0.087470634445858425 0 -0.30538573003559022 0.088082905617255083 0 -0.29096643889372181 0.09287030273162071 0 -0.28707013314562491 0.087470634445858425 0 -0.29552819582045242 0.082914918911952268 0 -0.28707013314562491 0.087470634445858425 0 -0.28733287527908069 0.078380994675326457 0 -0.29552819582045242 0.082914918911952268 0 -0.28733287527908069 0.078380994675326457 0 -0.29681774259196347 0.077953834608589345 0 -0.27654714775185318 0.097657699845986087 0 -0.29096643889372181 0.09287030273162071 0 -0.28707013314562491 0.087470634445858425 0 -0.28707013314562491 0.087470634445858425 0 -0.28733287527908069 0.078380994675326457 0 -0.27533784439081888 0.077655600887817283 0 -0.28733287527908069 0.078380994675326457 0 -0.29087118477208251 0.06937123656541147 0 -0.27738432764720061 0.067710273998914258 0 -0.28733287527908069 0.078380994675326457 0 -0.29681774259196347 0.077953834608589345 0 -0.29087118477208251 0.06937123656541147 0 -0.30206210417507667 0.071296929412597299 0 -0.29681774259196347 0.077953834608589345 0 -0.29087118477208251 0.06937123656541147 0 -0.30206210417507667 0.071296929412597299 0 -0.29608662180159911 0.063367970278860306 0 -0.29087118477208251 0.06937123656541147 0 -0.29608662180159911 0.063367970278860306 0 -0.29087118477208251 0.06937123656541147 0 -0.28554343713757441 0.057517416418181193 0 -0.29087118477208251 0.06937123656541147 0 -0.27738432764720061 0.067710273998914258 0 -0.28554343713757441 0.057517416418181193 0 -0.27533784439081888 0.077655600887817283 0 -0.26875453625565959 0.086858363274460698 0 -0.25368918155760051 0.062542991766265349 0 -0.27738432764720061 0.067710273998914258 0 -0.27533784439081888 0.077655600887817283 0 -0.25368918155760051 0.062542991766265349 0 -0.27738432764720061 0.067710273998914258 0 -0.25368918155760051 0.062542991766265349 0 -0.27231870685579612 0.058296520774822162 0 -0.28733287527908069 0.078380994675326457 0 -0.27738432764720061 0.067710273998914258 0 -0.27533784439081888 0.077655600887817283 0 -0.27654714775185318 0.097657699845986087 0 -0.28707013314562491 0.087470634445858425 0 -0.26875453625565959 0.086858363274460698 0 -0.28707013314562491 0.087470634445858425 0 -0.27533784439081888 0.077655600887817283 0 -0.26875453625565959 0.086858363274460698 0 -0.28707013314562491 0.087470634445858425 0 -0.26875453625565959 0.086858363274460698 0 -0.26875453625565959 0.086858363274460698 0 -0.23951652745766219 0.085880967342263012 0 -0.26336837819541498 0.1012873057043541 0 -0.26875453625565959 0.086858363274460698 0 -0.23951652745766219 0.085880967342263012 0 -0.26875453625565959 0.086858363274460698 0 -0.25368918155760051 0.062542991766265349 0 -0.23951652745766219 0.085880967342263012 0 -0.26875453625565959 0.086858363274460698 0 -0.25368918155760051 0.062542991766265349 0 -0.25368918155760051 0.062542991766265349 0 -0.2581642947923683 0.031220422211486819 0 -0.23862382685953931 0.038227620258071249 0 -0.25368918155760051 0.062542991766265349 0 -0.27265788108080891 0.045415400915927877 0 -0.2581642947923683 0.031220422211486819 0 -0.27265788108080891 0.045415400915927877 0 -0.2581642947923683 0.031220422211486819 0 -0.27966604468346479 0.02507770399470147 0 -0.27265788108080891 0.045415400915927877 0 -0.27231870685579612 0.058296520774822162 0 -0.28554343713757441 0.057517416418181193 0 -0.25368918155760051 0.062542991766265349 0 -0.27265788108080891 0.045415400915927877 0 -0.27231870685579612 0.058296520774822162 0 -0.27738432764720061 0.067710273998914258 0 -0.27231870685579612 0.058296520774822162 0 -0.28554343713757441 0.057517416418181193 0 -0.26550398180889229 -0.0098114856531268026 0 -0.26381461016222019 0.0111946734875906 0 -0.2442909533675125 0.00031103310138003761 0 -0.26381461016222019 0.0111946734875906 0 -0.24569043146862371 0.018973199561681149 0 -0.2442909533675125 0.00031103310138003761 0 -0.26381461016222019 0.0111946734875906 0 -0.2581642947923683 0.031220422211486819 0 -0.24569043146862371 0.018973199561681149 0 -0.26381461016222019 0.0111946734875906 0 -0.2581642947923683 0.031220422211486819 0 -0.27966604468346479 0.02507770399470147 0 -0.26550398180889229 -0.0098114856531268026 0 -0.26381461016222019 0.0111946734875906 0 -0.28240901437822719 0.0024836699232438889 0 -0.26381461016222019 0.0111946734875906 0 -0.27966604468346479 0.02507770399470147 0 -0.28240901437822719 0.0024836699232438889 0 -0.30093296684982329 -0.0069527509089821991 0 -0.28240901437822719 0.0024836699232438889 0 -0.30053944731532528 0.017008825385751131 0 -0.27966604468346479 0.02507770399470147 0 -0.28240901437822719 0.0024836699232438889 0 -0.30053944731532528 0.017008825385751131 0 -0.27966604468346479 0.02507770399470147 0 -0.30053944731532528 0.017008825385751131 0 -0.29382718731183127 0.041540213575724162 0 -0.30093296684982329 -0.0069527509089821991 0 -0.30053944731532528 0.017008825385751131 0 -0.31917167620333581 0.003780572795301198 0 -0.29671908988297119 0.054841085496434759 0 -0.28554343713757441 0.057517416418181193 0 -0.29382718731183127 0.041540213575724162 0 -0.27265788108080891 0.045415400915927877 0 -0.28554343713757441 0.057517416418181193 0 -0.29382718731183127 0.041540213575724162 0 -0.29608662180159911 0.063367970278860306 0 -0.29671908988297119 0.054841085496434759 0 -0.28554343713757441 0.057517416418181193 0 -0.27265788108080891 0.045415400915927877 0 -0.27966604468346479 0.02507770399470147 0 -0.29382718731183127 0.041540213575724162 0 -0.30053944731532528 0.017008825385751131 0 -0.29382718731183127 0.041540213575724162 0 -0.31444288903425821 0.037714765893474361 0 -0.29382718731183127 0.041540213575724162 0 -0.3082546383789706 0.052418231727686733 0 -0.31444288903425821 0.037714765893474361 0 -0.29671908988297119 0.054841085496434759 0 -0.29382718731183127 0.041540213575724162 0 -0.3082546383789706 0.052418231727686733 0 -0.30583969398445898 0.062854635105624349 0 -0.29671908988297119 0.054841085496434759 0 -0.3082546383789706 0.052418231727686733 0 -0.30583969398445898 0.062854635105624349 0 -0.29608662180159911 0.063367970278860306 0 -0.29671908988297119 0.054841085496434759 0 -0.30583969398445898 0.062854635105624349 0 -0.3082546383789706 0.052418231727686733 0 -0.31472488857223258 0.061583970836415751 0 -0.3082546383789706 0.052418231727686733 0 -0.31472488857223258 0.061583970836415751 0 -0.32191889233237758 0.053822836892650168 0 -0.31472488857223258 0.061583970836415751 0 -0.32191889233237758 0.053822836892650168 0 -0.32365045121490538 0.067667298621190308 0 -0.3082546383789706 0.052418231727686733 0 -0.32191889233237758 0.053822836892650168 0 -0.31444288903425821 0.037714765893474361 0 -0.32191889233237758 0.053822836892650168 0 -0.32365045121490538 0.067667298621190308 0 -0.33336056011278092 0.063067467986136772 0 -0.32191889233237758 0.053822836892650168 0 -0.31444288903425821 0.037714765893474361 0 -0.33591124854918958 0.038145335263649292 0 -0.31444288903425821 0.037714765893474361 0 -0.33591124854918958 0.038145335263649292 0 -0.32422079369991907 0.02068385321765287 0 -0.33591124854918958 0.038145335263649292 0 -0.33494231203142399 0.051363470710776231 0 -0.35426065268768508 0.048385914231053262 0 -0.32191889233237758 0.053822836892650168 0 -0.33591124854918958 0.038145335263649292 0 -0.33494231203142399 0.051363470710776231 0 -0.33494231203142399 0.051363470710776231 0 -0.34575046165578083 0.057329252477631661 0 -0.33336056011278092 0.063067467986136772 0 -0.32191889233237758 0.053822836892650168 0 -0.33494231203142399 0.051363470710776231 0 -0.33336056011278092 0.063067467986136772 0 -0.30053944731532528 0.017008825385751131 0 -0.31917167620333581 0.003780572795301198 0 -0.32422079369991907 0.02068385321765287 0 -0.30053944731532528 0.017008825385751131 0 -0.31444288903425821 0.037714765893474361 0 -0.32422079369991907 0.02068385321765287 0 -0.32422079369991907 0.02068385321765287 0 -0.34000363262795508 0.022061800586583909 0 -0.34260016405189148 0.0055051996388869604 0 -0.33591124854918958 0.038145335263649292 0 -0.32422079369991907 0.02068385321765287 0 -0.34000363262795508 0.022061800586583909 0 -0.31917167620333581 0.003780572795301198 0 -0.32422079369991907 0.02068385321765287 0 -0.34260016405189148 0.0055051996388869604 0 -0.34260016405189148 0.0055051996388869604 0 -0.3572823242108204 0.02391281422614653 0 -0.37492315947775567 0.00068643500448066594 0 -0.34000363262795508 0.022061800586583909 0 -0.34260016405189148 0.0055051996388869604 0 -0.3572823242108204 0.02391281422614653 0 -0.33591124854918958 0.038145335263649292 0 -0.34000363262795508 0.022061800586583909 0 -0.3572823242108204 0.02391281422614653 0 -0.37551365215633642 0.044298726592434078 0 -0.38496521190278798 0.025109553659444232 0 -0.3572823242108204 0.02391281422614653 0 -0.38496521190278798 0.025109553659444232 0 -0.3572823242108204 0.02391281422614653 0 -0.37492315947775567 0.00068643500448066594 0 -0.35426065268768508 0.048385914231053262 0 -0.3512389811645506 0.072859014235960085 0 -0.35426065268768508 0.048385914231053262 0 -0.36096125374670718 0.063635483982534741 0 -0.3512389811645506 0.072859014235960085 0 -0.35426065268768508 0.048385914231053262 0 -0.34575046165578083 0.057329252477631661 0 -0.3512389811645506 0.072859014235960085 0 -0.33494231203142399 0.051363470710776231 0 -0.35426065268768508 0.048385914231053262 0 -0.34575046165578083 0.057329252477631661 0 -0.3572823242108204 0.02391281422614653 0 -0.35426065268768508 0.048385914231053262 0 -0.33591124854918958 0.038145335263649292 0 -0.3572823242108204 0.02391281422614653 0 -0.35426065268768508 0.048385914231053262 0 -0.37551365215633642 0.044298726592434078 0 -0.3572823242108204 0.02391281422614653 0 -0.35426065268768508 0.048385914231053262 0 -0.37551365215633642 0.044298726592434078 0 -0.37387850990431448 0.062946018274287127 0 -0.36096125374670718 0.063635483982534741 0 -0.37551365215633642 0.044298726592434078 0 -0.35426065268768508 0.048385914231053262 0 -0.36096125374670718 0.063635483982534741 0 -0.37387850990431448 0.062946018274287127 0 -0.37259314556063949 0.073287357160551736 0 -0.36575488925409522 0.070001479746889597 0 -0.37259314556063949 0.073287357160551736 0 -0.365658120530713 0.076742286818328856 0 -0.3694601844885253 0.082992512071272215 0 -0.37259314556063949 0.073287357160551736 0 -0.365658120530713 0.076742286818328856 0 -0.36575488925409522 0.070001479746889597 0 -0.365658120530713 0.076742286818328856 0 -0.36125800296523197 0.074289978304608456 0 -0.36575488925409522 0.070001479746889597 0 -0.35974599725029821 0.070789017578130844 0 -0.36125800296523197 0.074289978304608456 0 -0.36575488925409522 0.070001479746889597 0 -0.365658120530713 0.076742286818328856 0 -0.36125800296523197 0.074289978304608456 0 -0.36176721523706951 0.0781568442888671 0 -0.36125800296523197 0.074289978304608456 0 -0.35803034713909587 0.077749634500658346 0 -0.36176721523706951 0.0781568442888671 0 -0.37387850990431448 0.062946018274287127 0 -0.36575488925409522 0.070001479746889597 0 -0.36096125374670718 0.063635483982534741 0 -0.35974599725029821 0.070789017578130844 0 -0.36575488925409522 0.070001479746889597 0 -0.36096125374670718 0.063635483982534741 0 -0.35974599725029821 0.070789017578130844 0 -0.36096125374670718 0.063635483982534741 0 -0.35379334732863421 0.072010930576186086 0 -0.36096125374670718 0.063635483982534741 0 -0.35379334732863421 0.072010930576186086 0 -0.3512389811645506 0.072859014235960085 0 -0.35373798924322242 0.07723257818815199 0 -0.3512389811645506 0.072859014235960085 0 -0.3498652791894109 0.083984891273597484 0 -0.35974599725029821 0.070789017578130844 0 -0.36125800296523197 0.074289978304608456 0 -0.35696249295682242 0.074007215280435329 0 -0.35974599725029821 0.070789017578130844 0 -0.35696249295682242 0.074007215280435329 0 -0.35379334732863421 0.072010930576186086 0 -0.36125800296523197 0.074289978304608456 0 -0.35696249295682242 0.074007215280435329 0 -0.35803034713909587 0.077749634500658346 0 -0.35696249295682242 0.074007215280435329 0 -0.35600644253179747 0.076926138405105399 0 -0.35373798924322242 0.07723257818815199 0 -0.35803034713909587 0.077749634500658346 0 -0.35600644253179747 0.076926138405105399 0 -0.35529494078804918 0.078715125651175971 0 -0.35696249295682242 0.074007215280435329 0 -0.35803034713909587 0.077749634500658346 0 -0.35600644253179747 0.076926138405105399 0 -0.35696249295682242 0.074007215280435329 0 -0.35373798924322242 0.07723257818815199 0 -0.35379334732863421 0.072010930576186086 0 -0.35600644253179747 0.076926138405105399 0 -0.35373798924322242 0.07723257818815199 0 -0.35529494078804918 0.078715125651175971 0 -0.35373798924322242 0.07723257818815199 0 -0.35379334732863421 0.072010930576186086 0 -0.3512389811645506 0.072859014235960085 0 -0.35379334732863421 0.072010930576186086 0 -0.3512389811645506 0.072859014235960085 0 -0.34575046165578083 0.057329252477631661 0 -0.3512389811645506 0.072859014235960085 0 -0.33966558963329568 0.06843167365658423 0 -0.3498652791894109 0.083984891273597484 0 -0.35455649720545801 0.1006878509495626 0 -0.3498652791894109 0.083984891273597484 0 -0.34761053864274888 0.1022464694964688 0 -0.34498492588818852 0.089799900847982353 0 -0.3498652791894109 0.083984891273597484 0 -0.34761053864274888 0.1022464694964688 0 -0.3498652791894109 0.083984891273597484 0 -0.3559505419620938 0.089579014103913793 0 -0.35455649720545801 0.1006878509495626 0 -0.3512389811645506 0.072859014235960085 0 -0.34537203274541861 0.083548847667949497 0 -0.34910119338172452 0.081264383637601731 0 -0.34498492588818852 0.089799900847982353 0 -0.34537203274541861 0.083548847667949497 0 -0.3498652791894109 0.083984891273597484 0 -0.3512389811645506 0.072859014235960085 0 -0.34910119338172452 0.081264383637601731 0 -0.3498652791894109 0.083984891273597484 0 -0.3512389811645506 0.072859014235960085 0 -0.3498652791894109 0.083984891273597484 0 -0.3512389811645506 0.072859014235960085 0 -0.34537203274541861 0.083548847667949497 0 -0.33963244710754498 0.085391344707528904 0 -0.34537203274541861 0.083548847667949497 0 -0.34910119338172452 0.081264383637601731 0 -0.3498652791894109 0.083984891273597484 0 -0.34910119338172452 0.081264383637601731 0 -0.3498652791894109 0.083984891273597484 0 -0.3498652791894109 0.083984891273597484 0 -0.35368396785173128 0.084702518029119156 0 -0.35389552090776938 0.081901658536449803 0 -0.35368396785173128 0.084702518029119156 0 -0.35389552090776938 0.081901658536449803 0 -0.35599129639101129 0.084460302925176658 0 -0.35389552090776938 0.081901658536449803 0 -0.35625814863510857 0.081027686992013931 0 -0.35599129639101129 0.084460302925176658 0 -0.35373798924322242 0.07723257818815199 0 -0.35389552090776938 0.081901658536449803 0 -0.35529494078804918 0.078715125651175971 0 -0.35373798924322242 0.07723257818815199 0 -0.3498652791894109 0.083984891273597484 0 -0.35389552090776938 0.081901658536449803 0 -0.35389552090776938 0.081901658536449803 0 -0.35529494078804918 0.078715125651175971 0 -0.35625814863510857 0.081027686992013931 0 -0.35803034713909587 0.077749634500658346 0 -0.35529494078804918 0.078715125651175971 0 -0.35625814863510857 0.081027686992013931 0 -0.35803034713909587 0.077749634500658346 0 -0.35625814863510857 0.081027686992013931 0 -0.35905777580777648 0.081532333446548824 0 -0.35905777580777648 0.081532333446548824 0 -0.35599129639101129 0.084460302925176658 0 -0.36059897125443308 0.086385865216515104 0 -0.35625814863510857 0.081027686992013931 0 -0.35905777580777648 0.081532333446548824 0 -0.35599129639101129 0.084460302925176658 0 -0.35599129639101129 0.084460302925176658 0 -0.3559505419620938 0.089579014103913793 0 -0.36059897125443308 0.086385865216515104 0 -0.3559505419620938 0.089579014103913793 0 -0.35908669158503292 0.0905548059013698 0 -0.36059897125443308 0.086385865216515104 0 -0.35368396785173128 0.084702518029119156 0 -0.35599129639101129 0.084460302925176658 0 -0.3559505419620938 0.089579014103913793 0 -0.3498652791894109 0.083984891273597484 0 -0.35368396785173128 0.084702518029119156 0 -0.3559505419620938 0.089579014103913793 0 -0.3559505419620938 0.089579014103913793 0 -0.35908669158503292 0.0905548059013698 0 -0.35828911671726232 0.095456446616951074 0 -0.35908669158503292 0.0905548059013698 0 -0.36238514277382983 0.091304187995918107 0 -0.35828911671726232 0.095456446616951074 0 -0.35908669158503292 0.0905548059013698 0 -0.36238514277382983 0.091304187995918107 0 -0.36059897125443308 0.086385865216515104 0 -0.36238514277382983 0.091304187995918107 0 -0.36059897125443308 0.086385865216515104 0 -0.36497000178894579 0.086186469838360341 0 -0.36238514277382983 0.091304187995918107 0 -0.36497000178894579 0.086186469838360341 0 -0.36867220096865633 0.09041879180092946 0 -0.36238514277382983 0.091304187995918107 0 -0.36867220096865633 0.09041879180092946 0 -0.36311190078833172 0.098002330786278194 0 -0.35905777580777648 0.081532333446548824 0 -0.36311528567871659 0.081725549337784142 0 -0.36176721523706951 0.0781568442888671 0 -0.35803034713909587 0.077749634500658346 0 -0.35905777580777648 0.081532333446548824 0 -0.36176721523706951 0.0781568442888671 0 -0.36059897125443308 0.086385865216515104 0 -0.36497000178894579 0.086186469838360341 0 -0.36311528567871659 0.081725549337784142 0 -0.35905777580777648 0.081532333446548824 0 -0.36059897125443308 0.086385865216515104 0 -0.36311528567871659 0.081725549337784142 0 -0.36497000178894579 0.086186469838360341 0 -0.36311528567871659 0.081725549337784142 0 -0.3694601844885253 0.082992512071272215 0 -0.365658120530713 0.076742286818328856 0 -0.36311528567871659 0.081725549337784142 0 -0.36176721523706951 0.0781568442888671 0 -0.365658120530713 0.076742286818328856 0 -0.36311528567871659 0.081725549337784142 0 -0.3694601844885253 0.082992512071272215 0 -0.37555297397874032 0.085780478295353665 0 -0.37772743409545789 0.079304346604285147 0 -0.3694601844885253 0.082992512071272215 0 -0.37772743409545789 0.079304346604285147 0 -0.37259314556063949 0.073287357160551736 0 -0.3694601844885253 0.082992512071272215 0 -0.37658788622561168 0.092711792275154942 0 -0.37555297397874032 0.085780478295353665 0 -0.36867220096865633 0.09041879180092946 0 -0.36497000178894579 0.086186469838360341 0 -0.3694601844885253 0.082992512071272215 0 -0.36867220096865633 0.09041879180092946 0 -0.37555297397874032 0.085780478295353665 0 -0.3694601844885253 0.082992512071272215 0 -0.36867220096865633 0.09041879180092946 0 -0.37658788622561168 0.092711792275154942 0 -0.36867220096865633 0.09041879180092946 0 -0.37253186122469822 0.098415657789440364 0 -0.36867220096865633 0.09041879180092946 0 -0.37253186122469822 0.098415657789440364 0 -0.36311190078833172 0.098002330786278194 0 -0.37253186122469822 0.098415657789440364 0 -0.3699607910721916 0.10471113436441901 0 -0.36311190078833172 0.098002330786278194 0 -0.37676252652610281 0.114244403806679 0 -0.3699607910721916 0.10471113436441901 0 -0.36147412041034721 0.1077552281023892 0 -0.37676252652610281 0.114244403806679 0 -0.37582211223743478 0.1049757750267844 0 -0.3699607910721916 0.10471113436441901 0 -0.37582211223743478 0.1049757750267844 0 -0.37253186122469822 0.098415657789440364 0 -0.3699607910721916 0.10471113436441901 0 -0.36147412041034721 0.1077552281023892 0 -0.36311190078833172 0.098002330786278194 0 -0.35455649720545801 0.1006878509495626 0 -0.3699607910721916 0.10471113436441901 0 -0.36147412041034721 0.1077552281023892 0 -0.36311190078833172 0.098002330786278194 0 -0.36238514277382983 0.091304187995918107 0 -0.36311190078833172 0.098002330786278194 0 -0.35828911671726232 0.095456446616951074 0 -0.37676252652610281 0.114244403806679 0 -0.35924771522150428 0.117390810625528 0 -0.37676252652610281 0.114244403806679 0 -0.3729849361723272 0.12668834954876429 0 -0.35924771522150428 0.117390810625528 0 -0.37676252652610281 0.114244403806679 0 -0.36147412041034721 0.1077552281023892 0 -0.35924771522150428 0.117390810625528 0 -0.35924771522150428 0.117390810625528 0 -0.34706374722738448 0.1101608946106654 0 -0.35455649720545801 0.1006878509495626 0 -0.35448825958936708 0.13037390482321901 0 -0.35924771522150428 0.117390810625528 0 -0.34550758382051883 0.11985912400785161 0 -0.35924771522150428 0.117390810625528 0 -0.34550758382051883 0.11985912400785161 0 -0.34706374722738448 0.1101608946106654 0 -0.34550758382051883 0.11985912400785161 0 -0.34008221148080359 0.1176698533288347 0 -0.35924771522150428 0.117390810625528 0 -0.34706374722738448 0.1101608946106654 0 -0.34550758382051883 0.11985912400785161 0 -0.36147412041034721 0.1077552281023892 0 -0.35924771522150428 0.117390810625528 0 -0.35455649720545801 0.1006878509495626 0 -0.35924771522150428 0.117390810625528 0 -0.35455649720545801 0.1006878509495626 0 -0.3498652791894109 0.083984891273597484 0 -0.35455649720545801 0.1006878509495626 0 -0.34761053864274888 0.1022464694964688 0 -0.36311190078833172 0.098002330786278194 0 -0.35455649720545801 0.1006878509495626 0 -0.35828911671726232 0.095456446616951074 0 -0.3559505419620938 0.089579014103913793 0 -0.35455649720545801 0.1006878509495626 0 -0.35828911671726232 0.095456446616951074 0 -0.34706374722738448 0.1101608946106654 0 -0.35455649720545801 0.1006878509495626 0 -0.34761053864274888 0.1022464694964688 0 -0.34706374722738448 0.1101608946106654 0 -0.34761053864274888 0.1022464694964688 0 -0.34261081225627771 0.1037818686221844 0 -0.34498492588818852 0.089799900847982353 0 -0.34761053864274888 0.1022464694964688 0 -0.34244433175581901 0.093827951094367118 0 -0.34761053864274888 0.1022464694964688 0 -0.34244433175581901 0.093827951094367118 0 -0.34261081225627771 0.1037818686221844 0 -0.34244433175581901 0.093827951094367118 0 -0.34261081225627771 0.1037818686221844 0 -0.33585323217463209 0.095004174580585882 0 -0.33585323217463209 0.095004174580585882 0 -0.34008221148080359 0.1176698533288347 0 -0.33134248421884721 0.107573155746782 0 -0.33585323217463209 0.095004174580585882 0 -0.34008221148080359 0.1176698533288347 0 -0.34261081225627771 0.1037818686221844 0 -0.33585323217463209 0.095004174580585882 0 -0.34008221148080359 0.1176698533288347 0 -0.33134248421884721 0.107573155746782 0 -0.33585323217463209 0.095004174580585882 0 -0.3239285925376893 0.1042409502186475 0 -0.33569401976404128 0.13021596786022041 0 -0.34008221148080359 0.1176698533288347 0 -0.3338542582180386 0.1215240201136757 0 -0.34706374722738448 0.1101608946106654 0 -0.34261081225627771 0.1037818686221844 0 -0.34008221148080359 0.1176698533288347 0 -0.33134248421884721 0.107573155746782 0 -0.34008221148080359 0.1176698533288347 0 -0.33180710188276069 0.1164561076551861 0 -0.33134248421884721 0.107573155746782 0 -0.33180710188276069 0.1164561076551861 0 -0.3252286475835206 0.1133787929464183 0 -0.33180710188276069 0.1164561076551861 0 -0.32783369974454901 0.1217541516104617 0 -0.3252286475835206 0.1133787929464183 0 -0.34008221148080359 0.1176698533288347 0 -0.33180710188276069 0.1164561076551861 0 -0.3338542582180386 0.1215240201136757 0 -0.33569401976404128 0.13021596786022041 0 -0.3338542582180386 0.1215240201136757 0 -0.32783369974454901 0.1217541516104617 0 -0.33180710188276069 0.1164561076551861 0 -0.3338542582180386 0.1215240201136757 0 -0.32783369974454901 0.1217541516104617 0 -0.32783369974454901 0.1217541516104617 0 -0.3252286475835206 0.1133787929464183 0 -0.3187967067770483 0.119579146290635 0 -0.32274363758454849 0.12887807440848131 0 -0.32783369974454901 0.1217541516104617 0 -0.3187967067770483 0.119579146290635 0 -0.3252286475835206 0.1133787929464183 0 -0.31766330034022922 0.1106692461567976 0 -0.3239285925376893 0.1042409502186475 0 -0.3252286475835206 0.1133787929464183 0 -0.31766330034022922 0.1106692461567976 0 -0.3187967067770483 0.119579146290635 0 -0.30862489097032347 0.11391625228533959 0 -0.31766330034022922 0.1106692461567976 0 -0.3187967067770483 0.119579146290635 0 -0.31178257419382521 0.12822894916543109 0 -0.30862489097032347 0.11391625228533959 0 -0.3187967067770483 0.119579146290635 0 -0.33585323217463209 0.095004174580585882 0 -0.32326245574957968 0.095378753317618428 0 -0.3239285925376893 0.1042409502186475 0 -0.33134248421884721 0.107573155746782 0 -0.3252286475835206 0.1133787929464183 0 -0.3239285925376893 0.1042409502186475 0 -0.30862489097032347 0.11391625228533959 0 -0.31766330034022922 0.1106692461567976 0 -0.3135862959921345 0.10283237964573801 0 -0.31766330034022922 0.1106692461567976 0 -0.3239285925376893 0.1042409502186475 0 -0.3135862959921345 0.10283237964573801 0 -0.32326245574957968 0.095378753317618428 0 -0.3239285925376893 0.1042409502186475 0 -0.3135862959921345 0.10283237964573801 0 -0.32326245574957968 0.095378753317618428 0 -0.3135862959921345 0.10283237964573801 0 -0.31463180244337202 0.094345302216512328 0 -0.3103093311873476 0.088247496433638606 0 -0.30538573003559022 0.088082905617255083 0 -0.32831235560007083 0.080470959926608437 0 -0.3103093311873476 0.088247496433638606 0 -0.31463180244337202 0.094345302216512328 0 -0.32831235560007083 0.080470959926608437 0 -0.30538573003559022 0.088082905617255083 0 -0.32831235560007083 0.080470959926608437 0 -0.30783895281630558 0.078784560558128394 0 -0.30538573003559022 0.088082905617255083 0 -0.32831235560007083 0.080470959926608437 0 -0.32326245574957968 0.095378753317618428 0 -0.31463180244337202 0.094345302216512328 0 -0.32831235560007083 0.080470959926608437 0 -0.30783895281630558 0.078784560558128394 0 -0.31396076695045039 0.071156851834927176 0 -0.32831235560007083 0.080470959926608437 0 -0.31472488857223258 0.061583970836415751 0 -0.31396076695045039 0.071156851834927176 0 -0.32365045121490538 0.067667298621190308 0 -0.31396076695045039 0.071156851834927176 0 -0.32365045121490538 0.067667298621190308 0 -0.32831235560007083 0.080470959926608437 0 -0.3512389811645506 0.072859014235960085 0 -0.32831235560007083 0.080470959926608437 0 -0.32365045121490538 0.067667298621190308 0 -0.33336056011278092 0.063067467986136772 0 -0.32831235560007083 0.080470959926608437 0 -0.3512389811645506 0.072859014235960085 0 -0.33966558963329568 0.06843167365658423 0 -0.32831235560007083 0.080470959926608437 0 -0.33336056011278092 0.063067467986136772 0 -0.33966558963329568 0.06843167365658423 0 -0.32831235560007083 0.080470959926608437 0 -0.34575046165578083 0.057329252477631661 0 -0.33336056011278092 0.063067467986136772 0 -0.33966558963329568 0.06843167365658423 0 -0.3512389811645506 0.072859014235960085 0 -0.33963244710754498 0.085391344707528904 0 -0.32831235560007083 0.080470959926608437 0 -0.34498492588818852 0.089799900847982353 0 -0.34537203274541861 0.083548847667949497 0 -0.33963244710754498 0.085391344707528904 0 -0.34244433175581901 0.093827951094367118 0 -0.33585323217463209 0.095004174580585882 0 -0.33963244710754498 0.085391344707528904 0 -0.34498492588818852 0.089799900847982353 0 -0.34244433175581901 0.093827951094367118 0 -0.33963244710754498 0.085391344707528904 0 -0.33585323217463209 0.095004174580585882 0 -0.33963244710754498 0.085391344707528904 0 -0.32831235560007083 0.080470959926608437 0 -0.33585323217463209 0.095004174580585882 0 -0.32326245574957968 0.095378753317618428 0 -0.32831235560007083 0.080470959926608437 0 -0.40379939163661022 0.46888752111738402 0 -0.37869249069491828 0.46473094354446459 0 -0.3656727732991879 0.5 0 -0.40379939163661022 0.46888752111738402 0 -0.4227299170557135 0.5 0 -0.3656727732991879 0.5 0 -0.40379939163661022 0.46888752111738402 0 -0.37869249069491828 0.46473094354446459 0 -0.38897079777919052 0.449399366697258 0 -0.37869249069491828 0.46473094354446459 0 -0.38897079777919052 0.449399366697258 0 -0.37369785120572419 0.44000947876684038 0 -0.38897079777919052 0.449399366697258 0 -0.39011886158624542 0.42710621468202958 0 -0.37369785120572419 0.44000947876684038 0 -0.40379939163661022 0.46888752111738402 0 -0.38897079777919052 0.449399366697258 0 -0.40468641675022382 0.44076648182546058 0 -0.38897079777919052 0.449399366697258 0 -0.40468641675022382 0.44076648182546058 0 -0.39011886158624542 0.42710621468202958 0 -0.40379939163661022 0.46888752111738402 0 -0.42119277060957161 0.4495587768624606 0 -0.44450051746339098 0.47621219039815532 0 -0.40468641675022382 0.44076648182546058 0 -0.42119277060957161 0.4495587768624606 0 -0.41876876351998388 0.42867546179023802 0 -0.40379939163661022 0.46888752111738402 0 -0.40468641675022382 0.44076648182546058 0 -0.42119277060957161 0.4495587768624606 0 -0.42119277060957161 0.4495587768624606 0 -0.44219296944892089 0.44794895958089292 0 -0.43197637438701242 0.43431967442836872 0 -0.42119277060957161 0.4495587768624606 0 -0.43197637438701242 0.43431967442836872 0 -0.41876876351998388 0.42867546179023802 0 -0.42119277060957161 0.4495587768624606 0 -0.44450051746339098 0.47621219039815532 0 -0.44219296944892089 0.44794895958089292 0 -0.40379939163661022 0.46888752111738402 0 -0.4227299170557135 0.5 0 -0.44450051746339098 0.47621219039815532 0 -0.4227299170557135 0.5 0 -0.44450051746339098 0.47621219039815532 0 -0.5 0.5 0 -0.44450051746339098 0.47621219039815532 0 -0.5 0.5 0 -0.47645394581090039 0.46626303427317262 0 -0.5 0.5 0 -0.5 0.45238757738249458 0 -0.47645394581090039 0.46626303427317262 0 -0.5 0.45238757738249458 0 -0.47626728768807358 0.44686970889053512 0 -0.48212697209235478 0.42735302362825689 0 -0.47645394581090039 0.46626303427317262 0 -0.47626728768807358 0.44686970889053512 0 -0.45850157635240418 0.45177388299383531 0 -0.5 0.45238757738249458 0 -0.47645394581090039 0.46626303427317262 0 -0.47626728768807358 0.44686970889053512 0 -0.47626728768807358 0.44686970889053512 0 -0.45850157635240418 0.45177388299383531 0 -0.46425394418470939 0.43657102617491661 0 -0.44450051746339098 0.47621219039815532 0 -0.47645394581090039 0.46626303427317262 0 -0.45850157635240418 0.45177388299383531 0 -0.44219296944892089 0.44794895958089292 0 -0.46425394418470939 0.43657102617491661 0 -0.45850157635240418 0.45177388299383531 0 -0.46425394418470939 0.43657102617491661 0 -0.45850157635240418 0.45177388299383531 0 -0.44219296944892089 0.44794895958089292 0 -0.46425394418470939 0.43657102617491661 0 -0.44450051746339098 0.47621219039815532 0 -0.45850157635240418 0.45177388299383531 0 -0.44219296944892089 0.44794895958089292 0 -0.44219296944892089 0.44794895958089292 0 -0.4443115224163221 0.42498040855963187 0 -0.46425394418470939 0.43657102617491661 0 -0.44219296944892089 0.44794895958089292 0 -0.4443115224163221 0.42498040855963187 0 -0.43197637438701242 0.43431967442836872 0 -0.4443115224163221 0.42498040855963187 0 -0.45803429963320669 0.4235883923642233 0 -0.45575783770622302 0.4048528357072525 0 -0.4443115224163221 0.42498040855963187 0 -0.45575783770622302 0.4048528357072525 0 -0.43574853948746428 0.40356270732789312 0 -0.45803429963320669 0.4235883923642233 0 -0.47001054005484511 0.42135699513076358 0 -0.45575783770622302 0.4048528357072525 0 -0.47001054005484511 0.42135699513076358 0 -0.47576713592498171 0.4061429640866111 0 -0.45575783770622302 0.4048528357072525 0 -0.4443115224163221 0.42498040855963187 0 -0.45803429963320669 0.4235883923642233 0 -0.46425394418470939 0.43657102617491661 0 -0.45803429963320669 0.4235883923642233 0 -0.46425394418470939 0.43657102617491661 0 -0.47001054005484511 0.42135699513076358 0 -0.46425394418470939 0.43657102617491661 0 -0.47001054005484511 0.42135699513076358 0 -0.5 0.45238757738249458 0 -0.48212697209235478 0.42735302362825689 0 -0.49999999999999961 0.4181350210815965 0 -0.47626728768807358 0.44686970889053512 0 -0.46425394418470939 0.43657102617491661 0 -0.48212697209235478 0.42735302362825689 0 -0.46425394418470939 0.43657102617491661 0 -0.48212697209235478 0.42735302362825689 0 -0.47001054005484511 0.42135699513076358 0 -0.46425394418470939 0.43657102617491661 0 -0.48212697209235478 0.42735302362825689 0 -0.48212697209235478 0.42735302362825689 0 -0.47001054005484511 0.42135699513076358 0 -0.47893351119110927 0.41771461354929662 0 -0.47001054005484511 0.42135699513076358 0 -0.47893351119110927 0.41771461354929662 0 -0.47576713592498171 0.4061429640866111 0 -0.47001054005484511 0.42135699513076358 0 -0.47576713592498171 0.4061429640866111 0 -0.47893351119110927 0.41771461354929662 0 -0.48741706526952988 0.41547634753961532 0 -0.47576713592498171 0.4061429640866111 0 -0.48212697209235478 0.42735302362825689 0 -0.47893351119110927 0.41771461354929662 0 -0.48741706526952988 0.41547634753961532 0 -0.48212697209235478 0.42735302362825689 0 -0.48741706526952988 0.41547634753961532 0 -0.49999999999999961 0.4181350210815965 0 -0.48741706526952988 0.41547634753961532 0 -0.50000000000000167 0.4077054129698533 0 -0.47576713592498171 0.4061429640866111 0 -0.50000000000000167 0.4077054129698533 0 -0.47576713592498171 0.4061429640866111 0 -0.48741706526952988 0.41547634753961532 0 -0.50000000000000167 0.4077054129698533 0 -0.49999999999999961 0.4181350210815965 0 -0.48212697209235478 0.42735302362825689 0 -0.49999999999999961 0.4181350210815965 0 -0.48647579615222691 0.37784118768716179 0 -0.5 0.37818167324894642 0 -0.48866236798261331 0.39484535815389432 0 -0.50000000000000167 0.4077054129698533 0 -0.5 0.37818167324894642 0 -0.48866236798261331 0.39484535815389432 0 -0.50000000000000167 0.4077054129698533 0 -0.48866236798261331 0.39484535815389432 0 -0.47576713592498171 0.4061429640866111 0 -0.48647579615222691 0.37784118768716179 0 -0.47576713592498171 0.4061429640866111 0 -0.48647579615222691 0.37784118768716179 0 -0.48866236798261331 0.39484535815389432 0 -0.47576713592498171 0.4061429640866111 0 -0.48647579615222691 0.37784118768716179 0 -0.47576713592498171 0.4061429640866111 0 -0.4669783332678854 0.38664068022702269 0 -0.48647579615222691 0.37784118768716179 0 -0.4669783332678854 0.38664068022702269 0 -0.47267196316565441 0.37328908134918781 0 -0.4669783332678854 0.38664068022702269 0 -0.46067515703112227 0.3749899550046038 0 -0.47267196316565441 0.37328908134918781 0 -0.4669783332678854 0.38664068022702269 0 -0.44708059766430353 0.38694424725518489 0 -0.46067515703112227 0.3749899550046038 0 -0.47576713592498171 0.4061429640866111 0 -0.45575783770622302 0.4048528357072525 0 -0.47576713592498171 0.4061429640866111 0 -0.4669783332678854 0.38664068022702269 0 -0.45575783770622302 0.4048528357072525 0 -0.4669783332678854 0.38664068022702269 0 -0.45575783770622302 0.4048528357072525 0 -0.44708059766430353 0.38694424725518489 0 -0.45575783770622302 0.4048528357072525 0 -0.44708059766430353 0.38694424725518489 0 -0.43574853948746428 0.40356270732789312 0 -0.45575783770622302 0.4048528357072525 0 -0.43574853948746428 0.40356270732789312 0 -0.44708059766430353 0.38694424725518489 0 -0.44991038052492388 0.36550535293921038 0 -0.46067515703112227 0.3749899550046038 0 -0.44708059766430353 0.38694424725518489 0 -0.43586072099703771 0.37625634823308618 0 -0.44991038052492388 0.36550535293921038 0 -0.44708059766430353 0.38694424725518489 0 -0.43586072099703771 0.37625634823308618 0 -0.42568080726840068 0.39060594258312231 0 -0.43586072099703771 0.37625634823308618 0 -0.42568080726840068 0.39060594258312231 0 -0.42298313759802009 0.37767641533356722 0 -0.42568080726840068 0.39060594258312231 0 -0.42298313759802009 0.37767641533356722 0 -0.40754667711716502 0.38538579682255242 0 -0.42298313759802009 0.37767641533356722 0 -0.40754667711716502 0.38538579682255242 0 -0.41122458977282977 0.36805584490527049 0 -0.42568080726840068 0.39060594258312231 0 -0.40754667711716502 0.38538579682255242 0 -0.41374417219915788 0.4075930218792535 0 -0.44708059766430353 0.38694424725518489 0 -0.42568080726840068 0.39060594258312231 0 -0.43574853948746428 0.40356270732789312 0 -0.42568080726840068 0.39060594258312231 0 -0.43574853948746428 0.40356270732789312 0 -0.41374417219915788 0.4075930218792535 0 -0.43574853948746428 0.40356270732789312 0 -0.4300830570265568 0.4186525121684454 0 -0.41374417219915788 0.4075930218792535 0 -0.4443115224163221 0.42498040855963187 0 -0.43574853948746428 0.40356270732789312 0 -0.4300830570265568 0.4186525121684454 0 -0.4300830570265568 0.4186525121684454 0 -0.43197637438701242 0.43431967442836872 0 -0.41876876351998388 0.42867546179023802 0 -0.4443115224163221 0.42498040855963187 0 -0.4300830570265568 0.4186525121684454 0 -0.43197637438701242 0.43431967442836872 0 -0.40468641675022382 0.44076648182546058 0 -0.41876876351998388 0.42867546179023802 0 -0.40437966494379007 0.42338878199848418 0 -0.41876876351998388 0.42867546179023802 0 -0.41374417219915788 0.4075930218792535 0 -0.40437966494379007 0.42338878199848418 0 -0.4300830570265568 0.4186525121684454 0 -0.41876876351998388 0.42867546179023802 0 -0.41374417219915788 0.4075930218792535 0 -0.41374417219915788 0.4075930218792535 0 -0.39458011066333959 0.41280272981543908 0 -0.40437966494379007 0.42338878199848418 0 -0.39458011066333959 0.41280272981543908 0 -0.40437966494379007 0.42338878199848418 0 -0.39011886158624542 0.42710621468202958 0 -0.40468641675022382 0.44076648182546058 0 -0.40437966494379007 0.42338878199848418 0 -0.39011886158624542 0.42710621468202958 0 -0.39011886158624542 0.42710621468202958 0 -0.37369785120572419 0.44000947876684038 0 -0.39011886158624542 0.42710621468202958 0 -0.37634597317793012 0.41993415256536681 0 -0.37369785120572419 0.44000947876684038 0 -0.39458011066333959 0.41280272981543908 0 -0.39011886158624542 0.42710621468202958 0 -0.37634597317793012 0.41993415256536681 0 -0.39458011066333959 0.41280272981543908 0 -0.37634597317793012 0.41993415256536681 0 -0.38309189581102038 0.405381661271837 0 -0.37634597317793012 0.41993415256536681 0 -0.38309189581102038 0.405381661271837 0 -0.36765527205290821 0.40455180701134419 0 -0.38309189581102038 0.405381661271837 0 -0.38061947525772549 0.39172273309332661 0 -0.39625864790319848 0.39789688387370808 0 -0.38061947525772549 0.39172273309332661 0 -0.39420931546885291 0.38430134871132188 0 -0.39625864790319848 0.39789688387370808 0 -0.38309189581102038 0.405381661271837 0 -0.38061947525772549 0.39172273309332661 0 -0.36765527205290821 0.40455180701134419 0 -0.38061947525772549 0.39172273309332661 0 -0.38411530420526718 0.37979377005398818 0 -0.37292334628632812 0.37802942785786131 0 -0.38411530420526718 0.37979377005398818 0 -0.38307521430221653 0.36914422189712542 0 -0.37292334628632812 0.37802942785786131 0 -0.38061947525772549 0.39172273309332661 0 -0.38411530420526718 0.37979377005398818 0 -0.39420931546885291 0.38430134871132188 0 -0.38411530420526718 0.37979377005398818 0 -0.39420931546885291 0.38430134871132188 0 -0.3961178762742471 0.37121394732254148 0 -0.40754667711716502 0.38538579682255242 0 -0.39420931546885291 0.38430134871132188 0 -0.3961178762742471 0.37121394732254148 0 -0.40754667711716502 0.38538579682255242 0 -0.39420931546885291 0.38430134871132188 0 -0.39625864790319848 0.39789688387370808 0 -0.40754667711716502 0.38538579682255242 0 -0.41374417219915788 0.4075930218792535 0 -0.39625864790319848 0.39789688387370808 0 -0.41374417219915788 0.4075930218792535 0 -0.39458011066333959 0.41280272981543908 0 -0.39625864790319848 0.39789688387370808 0 -0.39458011066333959 0.41280272981543908 0 -0.38309189581102038 0.405381661271837 0 -0.39625864790319848 0.39789688387370808 0 -0.39716700019815582 0.35320293617289888 0 -0.40079659819757563 0.33628494313783608 0 -0.41430852485447839 0.35304229910324553 0 -0.39716700019815582 0.35320293617289888 0 -0.3961178762742471 0.37121394732254148 0 -0.41122458977282977 0.36805584490527049 0 -0.39716700019815582 0.35320293617289888 0 -0.3961178762742471 0.37121394732254148 0 -0.38629979567546252 0.35791299514197389 0 -0.40754667711716502 0.38538579682255242 0 -0.3961178762742471 0.37121394732254148 0 -0.41122458977282977 0.36805584490527049 0 -0.3961178762742471 0.37121394732254148 0 -0.38307521430221653 0.36914422189712542 0 -0.38629979567546252 0.35791299514197389 0 -0.38307521430221653 0.36914422189712542 0 -0.37242756129480259 0.35749312081901219 0 -0.37292334628632812 0.37802942785786131 0 -0.38411530420526718 0.37979377005398818 0 -0.3961178762742471 0.37121394732254148 0 -0.38307521430221653 0.36914422189712542 0 -0.38307521430221653 0.36914422189712542 0 -0.38629979567546252 0.35791299514197389 0 -0.37242756129480259 0.35749312081901219 0 -0.38629979567546252 0.35791299514197389 0 -0.38374822842303591 0.34113895593422189 0 -0.37242756129480259 0.35749312081901219 0 -0.38374822842303591 0.34113895593422189 0 -0.37072369372445341 0.33924286455047231 0 -0.37242756129480259 0.35749312081901219 0 -0.39716700019815582 0.35320293617289888 0 -0.38629979567546252 0.35791299514197389 0 -0.38374822842303591 0.34113895593422189 0 -0.38374822842303591 0.34113895593422189 0 -0.38693816217561322 0.31741147542154308 0 -0.3716794148075806 0.3264526508580195 0 -0.38374822842303591 0.34113895593422189 0 -0.38693816217561322 0.31741147542154308 0 -0.40079659819757563 0.33628494313783608 0 -0.38374822842303591 0.34113895593422189 0 -0.3716794148075806 0.3264526508580195 0 -0.37072369372445341 0.33924286455047231 0 -0.38693816217561322 0.31741147542154308 0 -0.40474825531511188 0.31994541286658768 0 -0.40151825373046451 0.30200225916290091 0 -0.38693816217561322 0.31741147542154308 0 -0.40474825531511188 0.31994541286658768 0 -0.40079659819757563 0.33628494313783608 0 -0.39716700019815582 0.35320293617289888 0 -0.38374822842303591 0.34113895593422189 0 -0.40079659819757563 0.33628494313783608 0 -0.40079659819757563 0.33628494313783608 0 -0.41786941821905871 0.33296857932851959 0 -0.41430852485447839 0.35304229910324553 0 -0.40474825531511188 0.31994541286658768 0 -0.40079659819757563 0.33628494313783608 0 -0.41786941821905871 0.33296857932851959 0 -0.41786941821905871 0.33296857932851959 0 -0.4267400969979861 0.34354403486792751 0 -0.41430852485447839 0.35304229910324553 0 -0.40474825531511188 0.31994541286658768 0 -0.41986799873218289 0.31804788146674778 0 -0.41770699249779608 0.30325588871561721 0 -0.40474825531511188 0.31994541286658768 0 -0.41786941821905871 0.33296857932851959 0 -0.41986799873218289 0.31804788146674778 0 -0.41786941821905871 0.33296857932851959 0 -0.41986799873218289 0.31804788146674778 0 -0.43399755952380697 0.32051707336712471 0 -0.41786941821905871 0.33296857932851959 0 -0.43399755952380697 0.32051707336712471 0 -0.41986799873218289 0.31804788146674778 0 -0.43399755952380697 0.32051707336712471 0 -0.43222457013098858 0.30697007712570551 0 -0.43399755952380697 0.32051707336712471 0 -0.4267400969979861 0.34354403486792751 0 -0.44173364590693259 0.34491058801999208 0 -0.41786941821905871 0.33296857932851959 0 -0.43399755952380697 0.32051707336712471 0 -0.4267400969979861 0.34354403486792751 0 -0.4267400969979861 0.34354403486792751 0 -0.42906826617121019 0.36186086613527008 0 -0.44173364590693259 0.34491058801999208 0 -0.4267400969979861 0.34354403486792751 0 -0.41430852485447839 0.35304229910324553 0 -0.42906826617121019 0.36186086613527008 0 -0.39716700019815582 0.35320293617289888 0 -0.41430852485447839 0.35304229910324553 0 -0.41122458977282977 0.36805584490527049 0 -0.42298313759802009 0.37767641533356722 0 -0.41122458977282977 0.36805584490527049 0 -0.42906826617121019 0.36186086613527008 0 -0.41430852485447839 0.35304229910324553 0 -0.41122458977282977 0.36805584490527049 0 -0.42906826617121019 0.36186086613527008 0 -0.43586072099703771 0.37625634823308618 0 -0.42298313759802009 0.37767641533356722 0 -0.42906826617121019 0.36186086613527008 0 -0.43586072099703771 0.37625634823308618 0 -0.42906826617121019 0.36186086613527008 0 -0.44991038052492388 0.36550535293921038 0 -0.42906826617121019 0.36186086613527008 0 -0.44991038052492388 0.36550535293921038 0 -0.44173364590693259 0.34491058801999208 0 -0.44991038052492388 0.36550535293921038 0 -0.44173364590693259 0.34491058801999208 0 -0.46046792584429092 0.34614174576646201 0 -0.44991038052492388 0.36550535293921038 0 -0.46046792584429092 0.34614174576646201 0 -0.46817916680511951 0.36215199137511711 0 -0.44991038052492388 0.36550535293921038 0 -0.46067515703112227 0.3749899550046038 0 -0.46817916680511951 0.36215199137511711 0 -0.46067515703112227 0.3749899550046038 0 -0.46817916680511951 0.36215199137511711 0 -0.47267196316565441 0.37328908134918781 0 -0.48647579615222691 0.37784118768716179 0 -0.47267196316565441 0.37328908134918781 0 -0.48105136257191761 0.36482159245203361 0 -0.46817916680511951 0.36215199137511711 0 -0.47267196316565441 0.37328908134918781 0 -0.48105136257191761 0.36482159245203361 0 -0.46817916680511951 0.36215199137511711 0 -0.48105136257191761 0.36482159245203361 0 -0.48071109760208358 0.3448798396102617 0 -0.46046792584429092 0.34614174576646201 0 -0.46817916680511951 0.36215199137511711 0 -0.48071109760208358 0.3448798396102617 0 -0.48105136257191761 0.36482159245203361 0 -0.48071109760208358 0.3448798396102617 0 -0.49600379598884797 0.36328697571252733 0 -0.48071109760208358 0.3448798396102617 0 -0.5 0.34865793352803948 0 -0.49600379598884797 0.36328697571252733 0 -0.48071109760208358 0.3448798396102617 0 -0.49600379598884797 0.36328697571252733 0 -0.5 0.37818167324894642 0 -0.5 0.34865793352803948 0 -0.49600379598884797 0.36328697571252733 0 -0.48647579615222691 0.37784118768716179 0 -0.5 0.37818167324894642 0 -0.49600379598884797 0.36328697571252733 0 -0.48647579615222691 0.37784118768716179 0 -0.48105136257191761 0.36482159245203361 0 -0.49600379598884797 0.36328697571252733 0 -0.5 0.31913419380713259 0 -0.48358599122713791 0.32693519461036669 0 -0.48690115488996111 0.30570918116484852 0 -0.48071109760208358 0.3448798396102617 0 -0.5 0.34865793352803948 0 -0.48358599122713791 0.32693519461036669 0 -0.5 0.34865793352803948 0 -0.5 0.31913419380713259 0 -0.48358599122713791 0.32693519461036669 0 -0.48071109760208358 0.3448798396102617 0 -0.48358599122713791 0.32693519461036669 0 -0.46541839921531919 0.32647270350799601 0 -0.46046792584429092 0.34614174576646201 0 -0.48071109760208358 0.3448798396102617 0 -0.46541839921531919 0.32647270350799601 0 -0.48071109760208358 0.3448798396102617 0 -0.46541839921531919 0.32647270350799601 0 -0.48358599122713791 0.32693519461036669 0 -0.46541839921531919 0.32647270350799601 0 -0.47160424229177939 0.3102469024607043 0 -0.48358599122713791 0.32693519461036669 0 -0.47160424229177939 0.3102469024607043 0 -0.48690115488996111 0.30570918116484852 0 -0.46541839921531919 0.32647270350799601 0 -0.44918166097380952 0.3295904151789999 0 -0.4501257008285553 0.30806556740572982 0 -0.46541839921531919 0.32647270350799601 0 -0.4501257008285553 0.30806556740572982 0 -0.47160424229177939 0.3102469024607043 0 -0.46541839921531919 0.32647270350799601 0 -0.4501257008285553 0.30806556740572982 0 -0.46046792584429092 0.34614174576646201 0 -0.46541839921531919 0.32647270350799601 0 -0.44918166097380952 0.3295904151789999 0 -0.44173364590693259 0.34491058801999208 0 -0.46046792584429092 0.34614174576646201 0 -0.44918166097380952 0.3295904151789999 0 -0.43399755952380697 0.32051707336712471 0 -0.44173364590693259 0.34491058801999208 0 -0.44918166097380952 0.3295904151789999 0 -0.43399755952380697 0.32051707336712471 0 -0.4501257008285553 0.30806556740572982 0 -0.43399755952380697 0.32051707336712471 0 -0.44918166097380952 0.3295904151789999 0 -0.4501257008285553 0.30806556740572982 0 -0.4501257008285553 0.30806556740572982 0 -0.43266000065355581 0.28704288637771652 0 -0.43399755952380697 0.32051707336712471 0 -0.4501257008285553 0.30806556740572982 0 -0.43222457013098858 0.30697007712570551 0 -0.4501257008285553 0.30806556740572982 0 -0.43266000065355581 0.28704288637771652 0 -0.43222457013098858 0.30697007712570551 0 -0.45088024604522148 0.2922905159333411 0 -0.45533956813243331 0.2777770431174072 0 -0.43266000065355581 0.28704288637771652 0 -0.4501257008285553 0.30806556740572982 0 -0.45088024604522148 0.2922905159333411 0 -0.43266000065355581 0.28704288637771652 0 -0.45088024604522148 0.2922905159333411 0 -0.46539571456634171 0.29627656683251102 0 -0.45533956813243331 0.2777770431174072 0 -0.46539571456634171 0.29627656683251102 0 -0.48066572830412679 0.28448756625929078 0 -0.45533956813243331 0.2777770431174072 0 -0.4501257008285553 0.30806556740572982 0 -0.45088024604522148 0.2922905159333411 0 -0.46539571456634171 0.29627656683251102 0 -0.4501257008285553 0.30806556740572982 0 -0.46539571456634171 0.29627656683251102 0 -0.47160424229177939 0.3102469024607043 0 -0.4501257008285553 0.30806556740572982 0 -0.46539571456634171 0.29627656683251102 0 -0.47160424229177939 0.3102469024607043 0 -0.4781984930233617 0.29802220124277379 0 -0.48690115488996111 0.30570918116484852 0 -0.4781984930233617 0.29802220124277379 0 -0.48620180710191913 0.29391047355407862 0 -0.48690115488996111 0.30570918116484852 0 -0.46539571456634171 0.29627656683251102 0 -0.47160424229177939 0.3102469024607043 0 -0.4781984930233617 0.29802220124277379 0 -0.46539571456634171 0.29627656683251102 0 -0.48066572830412679 0.28448756625929078 0 -0.46539571456634171 0.29627656683251102 0 -0.4781984930233617 0.29802220124277379 0 -0.48066572830412679 0.28448756625929078 0 -0.48066572830412679 0.28448756625929078 0 -0.48365024792854511 0.28218340961823002 0 -0.4781984930233617 0.29802220124277379 0 -0.48066572830412679 0.28448756625929078 0 -0.48620180710191913 0.29391047355407862 0 -0.48066572830412679 0.28448756625929078 0 -0.48620180710191913 0.29391047355407862 0 -0.50000000000000044 0.28961045408622571 0 -0.48066572830412679 0.28448756625929078 0 -0.48365024792854511 0.28218340961823002 0 -0.50000000000000044 0.28961045408622571 0 -0.48620180710191913 0.29391047355407862 0 -0.50000000000000044 0.28961045408622571 0 -0.48690115488996111 0.30570918116484852 0 -0.48066572830412679 0.28448756625929078 0 -0.50000000000000044 0.28961045408622571 0 -0.5 0.31913419380713259 0 -0.50000000000000044 0.28961045408622571 0 -0.48690115488996111 0.30570918116484852 0 -0.5 0.23922595386659909 0 -0.48658351563551783 0.25254906795895038 0 -0.5 0.26441820397641241 0 -0.48658351563551783 0.25254906795895038 0 -0.5 0.26441820397641241 0 -0.48593472952502498 0.26708627433525539 0 -0.48365024792854511 0.28218340961823002 0 -0.50000000000000044 0.28961045408622571 0 -0.5 0.26441820397641241 0 -0.48365024792854511 0.28218340961823002 0 -0.5 0.26441820397641241 0 -0.48593472952502498 0.26708627433525539 0 -0.48365024792854511 0.28218340961823002 0 -0.48593472952502498 0.26708627433525539 0 -0.47118487512128537 0.26912227409249878 0 -0.48066572830412679 0.28448756625929078 0 -0.47118487512128537 0.26912227409249878 0 -0.45533956813243331 0.2777770431174072 0 -0.48066572830412679 0.28448756625929078 0 -0.48365024792854511 0.28218340961823002 0 -0.47118487512128537 0.26912227409249878 0 -0.472880345570939 0.24524866704034401 0 -0.48658351563551783 0.25254906795895038 0 -0.47118487512128537 0.26912227409249878 0 -0.48658351563551783 0.25254906795895038 0 -0.48593472952502498 0.26708627433525539 0 -0.47118487512128537 0.26912227409249878 0 -0.472880345570939 0.24524866704034401 0 -0.44957415908460452 0.24838930720326599 0 -0.47118487512128537 0.26912227409249878 0 -0.44957415908460452 0.24838930720326599 0 -0.47118487512128537 0.26912227409249878 0 -0.44530926694681888 0.26448542059305691 0 -0.47118487512128537 0.26912227409249878 0 -0.45533956813243331 0.2777770431174072 0 -0.44530926694681888 0.26448542059305691 0 -0.48066572830412679 0.28448756625929078 0 -0.45533956813243331 0.2777770431174072 0 -0.45533956813243331 0.2777770431174072 0 -0.43001340796073939 0.27106651997552478 0 -0.43266000065355581 0.28704288637771652 0 -0.45533956813243331 0.2777770431174072 0 -0.43001340796073939 0.27106651997552478 0 -0.45533956813243331 0.2777770431174072 0 -0.44530926694681888 0.26448542059305691 0 -0.43001340796073939 0.27106651997552478 0 -0.44957415908460452 0.24838930720326599 0 -0.44530926694681888 0.26448542059305691 0 -0.4307475121595058 0.25135428422187611 0 -0.41386733665031761 0.24965646178733661 0 -0.4307475121595058 0.25135428422187611 0 -0.43001340796073939 0.27106651997552478 0 -0.44530926694681888 0.26448542059305691 0 -0.4307475121595058 0.25135428422187611 0 -0.43001340796073939 0.27106651997552478 0 -0.41386733665031761 0.24965646178733661 0 -0.43001340796073939 0.27106651997552478 0 -0.40468724778904552 0.26435599683364241 0 -0.43001340796073939 0.27106651997552478 0 -0.40468724778904552 0.26435599683364241 0 -0.43001340796073939 0.27106651997552478 0 -0.41366960790638962 0.28554542637436858 0 -0.40468724778904552 0.26435599683364241 0 -0.43001340796073939 0.27106651997552478 0 -0.43266000065355581 0.28704288637771652 0 -0.41366960790638962 0.28554542637436858 0 -0.43266000065355581 0.28704288637771652 0 -0.43222457013098858 0.30697007712570551 0 -0.41770699249779608 0.30325588871561721 0 -0.41986799873218289 0.31804788146674778 0 -0.43222457013098858 0.30697007712570551 0 -0.41770699249779608 0.30325588871561721 0 -0.41770699249779608 0.30325588871561721 0 -0.41366960790638962 0.28554542637436858 0 -0.40151825373046451 0.30200225916290091 0 -0.40474825531511188 0.31994541286658768 0 -0.41770699249779608 0.30325588871561721 0 -0.40151825373046451 0.30200225916290091 0 -0.43266000065355581 0.28704288637771652 0 -0.41770699249779608 0.30325588871561721 0 -0.41366960790638962 0.28554542637436858 0 -0.39543174480673671 0.28554900718080989 0 -0.40151825373046451 0.30200225916290091 0 -0.38867816070455768 0.29832049988673831 0 -0.41366960790638962 0.28554542637436858 0 -0.39543174480673671 0.28554900718080989 0 -0.40151825373046451 0.30200225916290091 0 -0.38693816217561322 0.31741147542154308 0 -0.40151825373046451 0.30200225916290091 0 -0.38867816070455768 0.29832049988673831 0 -0.38693816217561322 0.31741147542154308 0 -0.37761745065899233 0.30316769968523638 0 -0.36591564217638489 0.31091681636183038 0 -0.38693816217561322 0.31741147542154308 0 -0.38867816070455768 0.29832049988673831 0 -0.37761745065899233 0.30316769968523638 0 -0.38867816070455768 0.29832049988673831 0 -0.37761745065899233 0.30316769968523638 0 -0.37897459490730923 0.29016305065617209 0 -0.39543174480673671 0.28554900718080989 0 -0.37897459490730923 0.29016305065617209 0 -0.38284762988966992 0.27476885692080821 0 -0.39543174480673671 0.28554900718080989 0 -0.38867816070455768 0.29832049988673831 0 -0.37897459490730923 0.29016305065617209 0 -0.37897459490730923 0.29016305065617209 0 -0.38284762988966992 0.27476885692080821 0 -0.36798236395750622 0.28121923978835811 0 -0.38284762988966992 0.27476885692080821 0 -0.37936108761735138 0.25764547369175989 0 -0.37027481760649361 0.26988120736672511 0 -0.38284762988966992 0.27476885692080821 0 -0.37936108761735138 0.25764547369175989 0 -0.40468724778904552 0.26435599683364241 0 -0.39693268291147238 0.24835218326078609 0 -0.37936108761735138 0.25764547369175989 0 -0.40468724778904552 0.26435599683364241 0 -0.41386733665031761 0.24965646178733661 0 -0.39693268291147238 0.24835218326078609 0 -0.40468724778904552 0.26435599683364241 0 -0.37936108761735138 0.25764547369175989 0 -0.40468724778904552 0.26435599683364241 0 -0.41366960790638962 0.28554542637436858 0 -0.39543174480673671 0.28554900718080989 0 -0.40468724778904552 0.26435599683364241 0 -0.39543174480673671 0.28554900718080989 0 -0.38284762988966992 0.27476885692080821 0 -0.40468724778904552 0.26435599683364241 0 -0.3523514180402435 0.26904716714539467 0 -0.36177350869835301 0.2636018564403495 0 -0.35940949786958748 0.27217060999234971 0 -0.3523514180402435 0.26904716714539467 0 -0.35940949786958748 0.27217060999234971 0 -0.35178598145031931 0.28159362522850673 0 -0.3523514180402435 0.26904716714539467 0 -0.35178598145031931 0.28159362522850673 0 -0.3376164585680127 0.27054156826977982 0 -0.3523514180402435 0.26904716714539467 0 -0.35264668273916461 0.26205331755029021 0 -0.3376164585680127 0.27054156826977982 0 -0.35403492744565779 0.25093495054987591 0 -0.3376164585680127 0.27054156826977982 0 -0.35403492744565779 0.25093495054987591 0 -0.35264668273916461 0.26205331755029021 0 -0.3376164585680127 0.27054156826977982 0 -0.34736371665107513 0.2550305802071568 0 -0.35403492744565779 0.25093495054987591 0 -0.3376164585680127 0.27054156826977982 0 -0.34417843397873799 0.2496391829447597 0 -0.34796188777013087 0.25059724200426298 0 -0.35403492744565779 0.25093495054987591 0 -0.3465359174445235 0.24978229115209791 0 -0.34417843397873799 0.2496391829447597 0 -0.34796188777013087 0.25059724200426298 0 -0.3465359174445235 0.24978229115209791 0 -0.34741263835907299 0.25258910941310181 0 -0.34796188777013087 0.25059724200426298 0 -0.3465359174445235 0.24978229115209791 0 -0.34436528133181038 0.25235009328105218 0 -0.34741263835907299 0.25258910941310181 0 -0.3465359174445235 0.24978229115209791 0 -0.34417843397873799 0.2496391829447597 0 -0.34436528133181038 0.25235009328105218 0 -0.34436528133181038 0.25235009328105218 0 -0.34741263835907299 0.25258910941310181 0 -0.34369642099308401 0.25591546289303652 0 -0.34741263835907299 0.25258910941310181 0 -0.34736371665107513 0.2550305802071568 0 -0.34369642099308401 0.25591546289303652 0 -0.34736371665107513 0.2550305802071568 0 -0.35093882071569998 0.25119598747814231 0 -0.35403492744565779 0.25093495054987591 0 -0.35093882071569998 0.25119598747814231 0 -0.34796188777013087 0.25059724200426298 0 -0.35403492744565779 0.25093495054987591 0 -0.34741263835907299 0.25258910941310181 0 -0.34736371665107513 0.2550305802071568 0 -0.35093882071569998 0.25119598747814231 0 -0.34741263835907299 0.25258910941310181 0 -0.35093882071569998 0.25119598747814231 0 -0.34796188777013087 0.25059724200426298 0 -0.35403492744565779 0.25093495054987591 0 -0.35264668273916461 0.26205331755029021 0 -0.36195405162513172 0.25855889955806888 0 -0.3523514180402435 0.26904716714539467 0 -0.35264668273916461 0.26205331755029021 0 -0.36177350869835301 0.2636018564403495 0 -0.35264668273916461 0.26205331755029021 0 -0.36195405162513172 0.25855889955806888 0 -0.36177350869835301 0.2636018564403495 0 -0.3679917955013326 0.24979526710046879 0 -0.37936108761735138 0.25764547369175989 0 -0.35403492744565779 0.25093495054987591 0 -0.37936108761735138 0.25764547369175989 0 -0.35403492744565779 0.25093495054987591 0 -0.36195405162513172 0.25855889955806888 0 -0.37936108761735138 0.25764547369175989 0 -0.36177350869835301 0.2636018564403495 0 -0.37027481760649361 0.26988120736672511 0 -0.37936108761735138 0.25764547369175989 0 -0.36195405162513172 0.25855889955806888 0 -0.36177350869835301 0.2636018564403495 0 -0.37936108761735138 0.25764547369175989 0 -0.35403492744565779 0.25093495054987591 0 -0.35940949786958748 0.27217060999234971 0 -0.36798236395750622 0.28121923978835811 0 -0.35178598145031931 0.28159362522850673 0 -0.36177350869835301 0.2636018564403495 0 -0.37027481760649361 0.26988120736672511 0 -0.35940949786958748 0.27217060999234971 0 -0.37027481760649361 0.26988120736672511 0 -0.35940949786958748 0.27217060999234971 0 -0.36798236395750622 0.28121923978835811 0 -0.38284762988966992 0.27476885692080821 0 -0.37027481760649361 0.26988120736672511 0 -0.36798236395750622 0.28121923978835811 0 -0.37761745065899233 0.30316769968523638 0 -0.37897459490730923 0.29016305065617209 0 -0.36311802979536367 0.2953450415084577 0 -0.37897459490730923 0.29016305065617209 0 -0.36798236395750622 0.28121923978835811 0 -0.36311802979536367 0.2953450415084577 0 -0.36798236395750622 0.28121923978835811 0 -0.36311802979536367 0.2953450415084577 0 -0.35178598145031931 0.28159362522850673 0 -0.37761745065899233 0.30316769968523638 0 -0.36311802979536367 0.2953450415084577 0 -0.36591564217638489 0.31091681636183038 0 -0.36311802979536367 0.2953450415084577 0 -0.36591564217638489 0.31091681636183038 0 -0.35420328984438493 0.30239641536115958 0 -0.36591564217638489 0.31091681636183038 0 -0.35420328984438493 0.30239641536115958 0 -0.34866600974098111 0.31255704616919833 0 -0.36311802979536367 0.2953450415084577 0 -0.35420328984438493 0.30239641536115958 0 -0.34634523171563719 0.29452866723469562 0 -0.35420328984438493 0.30239641536115958 0 -0.34634523171563719 0.29452866723469562 0 -0.3412489512372337 0.30268012692996682 0 -0.35420328984438493 0.30239641536115958 0 -0.3412489512372337 0.30268012692996682 0 -0.34866600974098111 0.31255704616919833 0 -0.36311802979536367 0.2953450415084577 0 -0.35178598145031931 0.28159362522850673 0 -0.34634523171563719 0.29452866723469562 0 -0.35178598145031931 0.28159362522850673 0 -0.34634523171563719 0.29452866723469562 0 -0.33708832246999948 0.28678288130884322 0 -0.33708832246999948 0.28678288130884322 0 -0.32119798969036822 0.29014818598968423 0 -0.3376164585680127 0.27054156826977982 0 -0.33708832246999948 0.28678288130884322 0 -0.33275415848613932 0.29817936410638562 0 -0.32119798969036822 0.29014818598968423 0 -0.34634523171563719 0.29452866723469562 0 -0.33708832246999948 0.28678288130884322 0 -0.33275415848613932 0.29817936410638562 0 -0.3412489512372337 0.30268012692996682 0 -0.33482245780542941 0.31024779451776252 0 -0.34866600974098111 0.31255704616919833 0 -0.34634523171563719 0.29452866723469562 0 -0.3412489512372337 0.30268012692996682 0 -0.33275415848613932 0.29817936410638562 0 -0.3412489512372337 0.30268012692996682 0 -0.33275415848613932 0.29817936410638562 0 -0.33482245780542941 0.31024779451776252 0 -0.33275415848613932 0.29817936410638562 0 -0.33482245780542941 0.31024779451776252 0 -0.3225233044829971 0.30860698533855119 0 -0.3225233044829971 0.30860698533855119 0 -0.32031374336805668 0.30167233478605199 0 -0.3047795208127223 0.3097548037095873 0 -0.32119798969036822 0.29014818598968423 0 -0.3047795208127223 0.3097548037095873 0 -0.3225233044829971 0.30860698533855119 0 -0.3047795208127223 0.3097548037095873 0 -0.31478734035169398 0.31692184310589028 0 -0.32031374336805668 0.30167233478605199 0 -0.32119798969036822 0.29014818598968423 0 -0.3047795208127223 0.3097548037095873 0 -0.33275415848613932 0.29817936410638562 0 -0.3225233044829971 0.30860698533855119 0 -0.32031374336805668 0.30167233478605199 0 -0.32119798969036822 0.29014818598968423 0 -0.31419974390774091 0.28074156216158203 0 -0.3275125029705106 0.27985448836905469 0 -0.33275415848613932 0.29817936410638562 0 -0.32031374336805668 0.30167233478605199 0 -0.32119798969036822 0.29014818598968423 0 -0.32119798969036822 0.29014818598968423 0 -0.31419974390774091 0.28074156216158203 0 -0.30948963236023069 0.29524818293558441 0 -0.31583177329103129 0.27478038943297828 0 -0.31419974390774091 0.28074156216158203 0 -0.3275125029705106 0.27985448836905469 0 -0.31583177329103129 0.27478038943297828 0 -0.32345994981821719 0.25989070027640432 0 -0.31583177329103129 0.27478038943297828 0 -0.32754079141500331 0.26941597400991629 0 -0.32345994981821719 0.25989070027640432 0 -0.31583177329103129 0.27478038943297828 0 -0.3275125029705106 0.27985448836905469 0 -0.31583177329103129 0.27478038943297828 0 -0.32754079141500331 0.26941597400991629 0 -0.3275125029705106 0.27985448836905469 0 -0.32119798969036822 0.29014818598968423 0 -0.3275125029705106 0.27985448836905469 0 -0.3376164585680127 0.27054156826977982 0 -0.32119798969036822 0.29014818598968423 0 -0.3376164585680127 0.27054156826977982 0 -0.35178598145031931 0.28159362522850673 0 -0.33708832246999948 0.28678288130884322 0 -0.3376164585680127 0.27054156826977982 0 -0.32754079141500331 0.26941597400991629 0 -0.3376164585680127 0.27054156826977982 0 -0.33328327242724448 0.26201272370136491 0 -0.32754079141500331 0.26941597400991629 0 -0.3275125029705106 0.27985448836905469 0 -0.3376164585680127 0.27054156826977982 0 -0.33620057720625041 0.25568826252923788 0 -0.33902974407893383 0.25308867941146679 0 -0.33895067419212221 0.25803986739812929 0 -0.33620057720625041 0.25568826252923788 0 -0.33902974407893383 0.25308867941146679 0 -0.33573075330778662 0.25245403657479271 0 -0.3376740125383319 0.25052400058846669 0 -0.33902974407893383 0.25308867941146679 0 -0.33573075330778662 0.25245403657479271 0 -0.3376740125383319 0.25052400058846669 0 -0.33564174872293412 0.2502794645721701 0 -0.33573075330778662 0.25245403657479271 0 -0.3376740125383319 0.25052400058846669 0 -0.33965833617985652 0.25051273318214767 0 -0.33902974407893383 0.25308867941146679 0 -0.33902974407893383 0.25308867941146679 0 -0.34136207820256742 0.25141881554561368 0 -0.34183069802388327 0.25356681009498527 0 -0.33965833617985652 0.25051273318214767 0 -0.33902974407893383 0.25308867941146679 0 -0.34136207820256742 0.25141881554561368 0 -0.34234687734083619 0.24983879911765 0 -0.33965833617985652 0.25051273318214767 0 -0.34136207820256742 0.25141881554561368 0 -0.34417843397873799 0.2496391829447597 0 -0.34234687734083619 0.24983879911765 0 -0.34436528133181038 0.25235009328105218 0 -0.34234687734083619 0.24983879911765 0 -0.34436528133181038 0.25235009328105218 0 -0.34183069802388327 0.25356681009498527 0 -0.34234687734083619 0.24983879911765 0 -0.34136207820256742 0.25141881554561368 0 -0.34183069802388327 0.25356681009498527 0 -0.34183069802388327 0.25356681009498527 0 -0.34369642099308401 0.25591546289303652 0 -0.33895067419212221 0.25803986739812929 0 -0.34436528133181038 0.25235009328105218 0 -0.34183069802388327 0.25356681009498527 0 -0.34369642099308401 0.25591546289303652 0 -0.33902974407893383 0.25308867941146679 0 -0.34183069802388327 0.25356681009498527 0 -0.33895067419212221 0.25803986739812929 0 -0.3376164585680127 0.27054156826977982 0 -0.33895067419212221 0.25803986739812929 0 -0.33328327242724448 0.26201272370136491 0 -0.3376164585680127 0.27054156826977982 0 -0.34369642099308401 0.25591546289303652 0 -0.33895067419212221 0.25803986739812929 0 -0.34736371665107513 0.2550305802071568 0 -0.3376164585680127 0.27054156826977982 0 -0.34369642099308401 0.25591546289303652 0 -0.33620057720625041 0.25568826252923788 0 -0.33895067419212221 0.25803986739812929 0 -0.33328327242724448 0.26201272370136491 0 -0.33328327242724448 0.26201272370136491 0 -0.3325109696741666 0.25430656626431908 0 -0.32345994981821719 0.25989070027640432 0 -0.3325109696741666 0.25430656626431908 0 -0.33118720158250298 0.25096606311404268 0 -0.32345994981821719 0.25989070027640432 0 -0.33145165937813748 0.24495119533554419 0 -0.33118720158250298 0.25096606311404268 0 -0.32345994981821719 0.25989070027640432 0 -0.33620057720625041 0.25568826252923788 0 -0.33328327242724448 0.26201272370136491 0 -0.3325109696741666 0.25430656626431908 0 -0.33620057720625041 0.25568826252923788 0 -0.3325109696741666 0.25430656626431908 0 -0.33573075330778662 0.25245403657479271 0 -0.33564174872293412 0.2502794645721701 0 -0.33573075330778662 0.25245403657479271 0 -0.33367977578396413 0.25123643966621528 0 -0.33403282194815292 0.24897445497199189 0 -0.33564174872293412 0.2502794645721701 0 -0.33367977578396413 0.25123643966621528 0 -0.3325109696741666 0.25430656626431908 0 -0.33573075330778662 0.25245403657479271 0 -0.33367977578396413 0.25123643966621528 0 -0.3325109696741666 0.25430656626431908 0 -0.33367977578396413 0.25123643966621528 0 -0.33118720158250298 0.25096606311404268 0 -0.33403282194815292 0.24897445497199189 0 -0.33367977578396413 0.25123643966621528 0 -0.33118720158250298 0.25096606311404268 0 -0.33145165937813748 0.24495119533554419 0 -0.32345994981821719 0.25989070027640432 0 -0.31729104317254142 0.2468916577935994 0 -0.33145165937813748 0.24495119533554419 0 -0.32345994981821719 0.25989070027640432 0 -0.31583177329103129 0.27478038943297828 0 -0.32345994981821719 0.25989070027640432 0 -0.30958883540924659 0.25867941920988607 0 -0.32754079141500331 0.26941597400991629 0 -0.33328327242724448 0.26201272370136491 0 -0.32345994981821719 0.25989070027640432 0 -0.31729104317254142 0.2468916577935994 0 -0.32345994981821719 0.25989070027640432 0 -0.30958883540924659 0.25867941920988607 0 -0.30958883540924659 0.25867941920988607 0 -0.29695125745380091 0.26657870957640528 0 -0.28438953059429339 0.2544273845365726 0 -0.30958883540924659 0.25867941920988607 0 -0.28438953059429339 0.2544273845365726 0 -0.31729104317254142 0.2468916577935994 0 -0.30770579299091849 0.24809033297349109 0 -0.30958883540924659 0.25867941920988607 0 -0.29706420800941918 0.24814217702216021 0 -0.30958883540924659 0.25867941920988607 0 -0.28438953059429339 0.2544273845365726 0 -0.29706420800941918 0.24814217702216021 0 -0.30770579299091849 0.24809033297349109 0 -0.30958883540924659 0.25867941920988607 0 -0.31583177329103129 0.27478038943297828 0 -0.29695125745380091 0.26657870957640528 0 -0.3008091876904303 0.27934091738979933 0 -0.31583177329103129 0.27478038943297828 0 -0.30958883540924659 0.25867941920988607 0 -0.29695125745380091 0.26657870957640528 0 -0.31583177329103129 0.27478038943297828 0 -0.29695125745380091 0.26657870957640528 0 -0.31583177329103129 0.27478038943297828 0 -0.3008091876904303 0.27934091738979933 0 -0.30411518537356302 0.28578442895944228 0 -0.29695125745380091 0.26657870957640528 0 -0.3008091876904303 0.27934091738979933 0 -0.28949853845637702 0.28026744313440188 0 -0.29695125745380091 0.26657870957640528 0 -0.28949853845637702 0.28026744313440188 0 -0.28379158532889182 0.27068258879346713 0 -0.28949853845637702 0.28026744313440188 0 -0.28379158532889182 0.27068258879346713 0 -0.27801229579012121 0.27808131985446238 0 -0.29695125745380091 0.26657870957640528 0 -0.28379158532889182 0.27068258879346713 0 -0.27807074161657058 0.25837702971983217 0 -0.29695125745380091 0.26657870957640528 0 -0.27807074161657058 0.25837702971983217 0 -0.29695125745380091 0.26657870957640528 0 -0.28438953059429339 0.2544273845365726 0 -0.27807074161657058 0.25837702971983217 0 -0.28438953059429339 0.2544273845365726 0 -0.25919022577934031 0.25017534986325912 0 -0.28438953059429339 0.2544273845365726 0 -0.27807074161657058 0.25837702971983217 0 -0.25919022577934031 0.25017534986325912 0 -0.27807074161657058 0.25837702971983217 0 -0.25919022577934031 0.25017534986325912 0 -0.26544838498941292 0.26351509293506092 0 -0.27807074161657058 0.25837702971983217 0 -0.25919022577934031 0.25017534986325912 0 -0.27807074161657058 0.25837702971983217 0 -0.27526072401058932 0.268076903304587 0 -0.26544838498941292 0.26351509293506092 0 -0.28379158532889182 0.27068258879346713 0 -0.27526072401058932 0.268076903304587 0 -0.27801229579012121 0.27808131985446238 0 -0.28379158532889182 0.27068258879346713 0 -0.27807074161657058 0.25837702971983217 0 -0.27526072401058932 0.268076903304587 0 -0.27526072401058932 0.268076903304587 0 -0.27801229579012121 0.27808131985446238 0 -0.2695797115044945 0.27380102424334268 0 -0.2695797115044945 0.27380102424334268 0 -0.25879550256013317 0.27577684635089378 0 -0.26960390594365252 0.28644553942458811 0 -0.27801229579012121 0.27808131985446238 0 -0.2695797115044945 0.27380102424334268 0 -0.26960390594365252 0.28644553942458811 0 -0.27526072401058932 0.268076903304587 0 -0.2695797115044945 0.27380102424334268 0 -0.26544838498941292 0.26351509293506092 0 -0.25879550256013317 0.27577684635089378 0 -0.25162135286180037 0.26644704218825149 0 -0.26544838498941292 0.26351509293506092 0 -0.2695797115044945 0.27380102424334268 0 -0.25879550256013317 0.27577684635089378 0 -0.26544838498941292 0.26351509293506092 0 -0.25879550256013317 0.27577684635089378 0 -0.25162135286180037 0.26644704218825149 0 -0.24880267460358879 0.28021218768035561 0 -0.25879550256013317 0.27577684635089378 0 -0.25714519159614557 0.28687309016154172 0 -0.24880267460358879 0.28021218768035561 0 -0.25162135286180037 0.26644704218825149 0 -0.25919022577934031 0.25017534986325912 0 -0.24136292575450871 0.25884568007201769 0 -0.25162135286180037 0.26644704218825149 0 -0.25919022577934031 0.25017534986325912 0 -0.26544838498941292 0.26351509293506092 0 -0.25927958562708259 0.29696208620724962 0 -0.26939954769714769 0.29740648604247322 0 -0.26711118903388159 0.30794555448521899 0 -0.25927958562708259 0.29696208620724962 0 -0.25545362836846242 0.30692479697051939 0 -0.26711118903388159 0.30794555448521899 0 -0.25545362836846242 0.30692479697051939 0 -0.26711118903388159 0.30794555448521899 0 -0.25921666945093791 0.3184737271004377 0 -0.25927958562708259 0.29696208620724962 0 -0.25545362836846242 0.30692479697051939 0 -0.24841219216506441 0.29577418845162839 0 -0.25927958562708259 0.29696208620724962 0 -0.25714519159614557 0.28687309016154172 0 -0.24841219216506441 0.29577418845162839 0 -0.25714519159614557 0.28687309016154172 0 -0.24841219216506441 0.29577418845162839 0 -0.24880267460358879 0.28021218768035561 0 -0.25879550256013317 0.27577684635089378 0 -0.25714519159614557 0.28687309016154172 0 -0.26960390594365252 0.28644553942458811 0 -0.25927958562708259 0.29696208620724962 0 -0.25714519159614557 0.28687309016154172 0 -0.26960390594365252 0.28644553942458811 0 -0.25927958562708259 0.29696208620724962 0 -0.26960390594365252 0.28644553942458811 0 -0.26939954769714769 0.29740648604247322 0 -0.26960390594365252 0.28644553942458811 0 -0.27979196938224832 0.2983426924585848 0 -0.26939954769714769 0.29740648604247322 0 -0.27801229579012121 0.27808131985446238 0 -0.26960390594365252 0.28644553942458811 0 -0.28188914159632528 0.28651598614034762 0 -0.26960390594365252 0.28644553942458811 0 -0.27979196938224832 0.2983426924585848 0 -0.28188914159632528 0.28651598614034762 0 -0.27979196938224832 0.2983426924585848 0 -0.28645614044092832 0.30827563945781861 0 -0.27733955509167962 0.3155368958880157 0 -0.27979196938224832 0.2983426924585848 0 -0.26711118903388159 0.30794555448521899 0 -0.27733955509167962 0.3155368958880157 0 -0.27979196938224832 0.2983426924585848 0 -0.26939954769714769 0.29740648604247322 0 -0.26711118903388159 0.30794555448521899 0 -0.27979196938224832 0.2983426924585848 0 -0.28645614044092832 0.30827563945781861 0 -0.29131914823085031 0.29846954402633441 0 -0.28645614044092832 0.30827563945781861 0 -0.29131914823085031 0.29846954402633441 0 -0.29311756146917223 0.30553806189480559 0 -0.29131914823085031 0.29846954402633441 0 -0.29311756146917223 0.30553806189480559 0 -0.29745417783339478 0.29873541578647023 0 -0.28645614044092832 0.30827563945781861 0 -0.29311756146917223 0.30553806189480559 0 -0.29620489945322959 0.31309073129758608 0 -0.29311756146917223 0.30553806189480559 0 -0.29745417783339478 0.29873541578647023 0 -0.29620489945322959 0.31309073129758608 0 -0.28949853845637702 0.28026744313440188 0 -0.27801229579012121 0.27808131985446238 0 -0.28188914159632528 0.28651598614034762 0 -0.28949853845637702 0.28026744313440188 0 -0.28188914159632528 0.28651598614034762 0 -0.28850889380206018 0.29099088546002172 0 -0.27979196938224832 0.2983426924585848 0 -0.28188914159632528 0.28651598614034762 0 -0.28850889380206018 0.29099088546002172 0 -0.27979196938224832 0.2983426924585848 0 -0.29131914823085031 0.29846954402633441 0 -0.28850889380206018 0.29099088546002172 0 -0.29131914823085031 0.29846954402633441 0 -0.28850889380206018 0.29099088546002172 0 -0.29655047350571789 0.28905077375217653 0 -0.29131914823085031 0.29846954402633441 0 -0.29655047350571789 0.28905077375217653 0 -0.29745417783339478 0.29873541578647023 0 -0.3008091876904303 0.27934091738979933 0 -0.28949853845637702 0.28026744313440188 0 -0.29655047350571789 0.28905077375217653 0 -0.28949853845637702 0.28026744313440188 0 -0.28850889380206018 0.29099088546002172 0 -0.29655047350571789 0.28905077375217653 0 -0.31583177329103129 0.27478038943297828 0 -0.30411518537356302 0.28578442895944228 0 -0.30601833637212972 0.29393556036528179 0 -0.31583177329103129 0.27478038943297828 0 -0.30601833637212972 0.29393556036528179 0 -0.31583177329103129 0.27478038943297828 0 -0.31419974390774091 0.28074156216158203 0 -0.30601833637212972 0.29393556036528179 0 -0.3008091876904303 0.27934091738979933 0 -0.29655047350571789 0.28905077375217653 0 -0.30411518537356302 0.28578442895944228 0 -0.29655047350571789 0.28905077375217653 0 -0.30411518537356302 0.28578442895944228 0 -0.30103454327120138 0.29187654471584268 0 -0.30103454327120138 0.29187654471584268 0 -0.30601833637212972 0.29393556036528179 0 -0.29745417783339478 0.29873541578647023 0 -0.29655047350571789 0.28905077375217653 0 -0.30103454327120138 0.29187654471584268 0 -0.29745417783339478 0.29873541578647023 0 -0.30411518537356302 0.28578442895944228 0 -0.30103454327120138 0.29187654471584268 0 -0.30601833637212972 0.29393556036528179 0 -0.31419974390774091 0.28074156216158203 0 -0.30601833637212972 0.29393556036528179 0 -0.30948963236023069 0.29524818293558441 0 -0.31419974390774091 0.28074156216158203 0 -0.30948963236023069 0.29524818293558441 0 -0.30601833637212972 0.29393556036528179 0 -0.29745417783339478 0.29873541578647023 0 -0.29620489945322959 0.31309073129758608 0 -0.30601833637212972 0.29393556036528179 0 -0.29620489945322959 0.31309073129758608 0 -0.30601833637212972 0.29393556036528179 0 -0.30948963236023069 0.29524818293558441 0 -0.3047795208127223 0.3097548037095873 0 -0.30601833637212972 0.29393556036528179 0 -0.3047795208127223 0.3097548037095873 0 -0.29620489945322959 0.31309073129758608 0 -0.32119798969036822 0.29014818598968423 0 -0.30948963236023069 0.29524818293558441 0 -0.3047795208127223 0.3097548037095873 0 -0.30948963236023069 0.29524818293558441 0 -0.3047795208127223 0.3097548037095873 0 -0.3047795208127223 0.3097548037095873 0 -0.30817676942971839 0.32359771514056018 0 -0.29731858842944142 0.33273364733419691 0 -0.3047795208127223 0.3097548037095873 0 -0.29731858842944142 0.33273364733419691 0 -0.3047795208127223 0.3097548037095873 0 -0.30817676942971839 0.32359771514056018 0 -0.31478734035169398 0.31692184310589028 0 -0.3047795208127223 0.3097548037095873 0 -0.29731858842944142 0.33273364733419691 0 -0.29416542975987142 0.32242994578698958 0 -0.30817676942971839 0.32359771514056018 0 -0.30834124710782962 0.33336366852878457 0 -0.31565715044690512 0.32521461302434168 0 -0.3047795208127223 0.3097548037095873 0 -0.29620489945322959 0.31309073129758608 0 -0.29416542975987142 0.32242994578698958 0 -0.3047795208127223 0.3097548037095873 0 -0.29416542975987142 0.32242994578698958 0 -0.31078597814546433 0.34114685455136051 0 -0.30834124710782962 0.33336366852878457 0 -0.31735945601661458 0.33501185930786498 0 -0.31078597814546433 0.34114685455136051 0 -0.30834124710782962 0.33336366852878457 0 -0.30332039089522711 0.34458315827895231 0 -0.30817676942971839 0.32359771514056018 0 -0.30834124710782962 0.33336366852878457 0 -0.29731858842944142 0.33273364733419691 0 -0.30834124710782962 0.33336366852878457 0 -0.29731858842944142 0.33273364733419691 0 -0.30332039089522711 0.34458315827895231 0 -0.29731858842944142 0.33273364733419691 0 -0.28355133870701921 0.33510508786439058 0 -0.29416542975987142 0.32242994578698958 0 -0.28355133870701921 0.33510508786439058 0 -0.29416542975987142 0.32242994578698958 0 -0.29731858842944142 0.33273364733419691 0 -0.28355133870701921 0.33510508786439058 0 -0.28256607321345018 0.34559756064689912 0 -0.28355133870701921 0.33510508786439058 0 -0.29416542975987142 0.32242994578698958 0 -0.28754347269054559 0.31888766005896008 0 -0.28355133870701921 0.33510508786439058 0 -0.28754347269054559 0.31888766005896008 0 -0.27733955509167962 0.3155368958880157 0 -0.28645614044092832 0.30827563945781861 0 -0.29620489945322959 0.31309073129758608 0 -0.28754347269054559 0.31888766005896008 0 -0.29620489945322959 0.31309073129758608 0 -0.29416542975987142 0.32242994578698958 0 -0.28754347269054559 0.31888766005896008 0 -0.28645614044092832 0.30827563945781861 0 -0.28754347269054559 0.31888766005896008 0 -0.27733955509167962 0.3155368958880157 0 -0.27733955509167962 0.3155368958880157 0 -0.26600323616545279 0.33009448848436462 0 -0.25921666945093791 0.3184737271004377 0 -0.26711118903388159 0.30794555448521899 0 -0.27733955509167962 0.3155368958880157 0 -0.25921666945093791 0.3184737271004377 0 -0.27733955509167962 0.3155368958880157 0 -0.26600323616545279 0.33009448848436462 0 -0.27190050176234037 0.34502097631446271 0 -0.27733955509167962 0.3155368958880157 0 -0.27190050176234037 0.34502097631446271 0 -0.28355133870701921 0.33510508786439058 0 -0.27733955509167962 0.3155368958880157 0 -0.27190050176234037 0.34502097631446271 0 -0.28355133870701921 0.33510508786439058 0 -0.27190050176234037 0.34502097631446271 0 -0.28256607321345018 0.34559756064689912 0 -0.26600323616545279 0.33009448848436462 0 -0.26336022576724383 0.33978018310272362 0 -0.27190050176234037 0.34502097631446271 0 -0.26600323616545279 0.33009448848436462 0 -0.26336022576724383 0.33978018310272362 0 -0.25669155636720781 0.33133807859244729 0 -0.26336022576724383 0.33978018310272362 0 -0.25569943549714907 0.3401798344539082 0 -0.25669155636720781 0.33133807859244729 0 -0.26336022576724383 0.33978018310272362 0 -0.25569943549714907 0.3401798344539082 0 -0.26130335441517449 0.34881926999597818 0 -0.25569943549714907 0.3401798344539082 0 -0.2481504662485389 0.3351734803797673 0 -0.24859619045395809 0.34285830564594633 0 -0.25569943549714907 0.3401798344539082 0 -0.25669155636720781 0.33133807859244729 0 -0.2481504662485389 0.3351734803797673 0 -0.25669155636720781 0.33133807859244729 0 -0.24770440204924679 0.32485832541545689 0 -0.2481504662485389 0.3351734803797673 0 -0.25545362836846242 0.30692479697051939 0 -0.25921666945093791 0.3184737271004377 0 -0.2434464850075419 0.31288425184447149 0 -0.25921666945093791 0.3184737271004377 0 -0.2434464850075419 0.31288425184447149 0 -0.24770440204924679 0.32485832541545689 0 -0.25669155636720781 0.33133807859244729 0 -0.25921666945093791 0.3184737271004377 0 -0.24770440204924679 0.32485832541545689 0 -0.26600323616545279 0.33009448848436462 0 -0.25669155636720781 0.33133807859244729 0 -0.25921666945093791 0.3184737271004377 0 -0.2575908612181208 0.36753926996310438 0 -0.26233573372880031 0.35858500631680312 0 -0.26646144843300118 0.37450505674090961 0 -0.2575908612181208 0.36753926996310438 0 -0.2544225028153646 0.35704045856956051 0 -0.26233573372880031 0.35858500631680312 0 -0.2575908612181208 0.36753926996310438 0 -0.26646144843300118 0.37450505674090961 0 -0.25564315721509451 0.37732243195488668 0 -0.2575908612181208 0.36753926996310438 0 -0.25564315721509451 0.37732243195488668 0 -0.2497436284699463 0.37314749472761388 0 -0.2575908612181208 0.36753926996310438 0 -0.25022691897323251 0.36464838694454038 0 -0.2497436284699463 0.37314749472761388 0 -0.2575908612181208 0.36753926996310438 0 -0.25022691897323251 0.36464838694454038 0 -0.2544225028153646 0.35704045856956051 0 -0.2544225028153646 0.35704045856956051 0 -0.25391328726094559 0.34890931164713751 0 -0.26130335441517449 0.34881926999597818 0 -0.2544225028153646 0.35704045856956051 0 -0.25391328726094559 0.34890931164713751 0 -0.24657712319585259 0.34987625391855598 0 -0.25569943549714907 0.3401798344539082 0 -0.25391328726094559 0.34890931164713751 0 -0.26130335441517449 0.34881926999597818 0 -0.25569943549714907 0.3401798344539082 0 -0.25391328726094559 0.34890931164713751 0 -0.24859619045395809 0.34285830564594633 0 -0.26336022576724383 0.33978018310272362 0 -0.26130335441517449 0.34881926999597818 0 -0.27190050176234037 0.34502097631446271 0 -0.26130335441517449 0.34881926999597818 0 -0.26233573372880031 0.35858500631680312 0 -0.27190050176234037 0.34502097631446271 0 -0.2544225028153646 0.35704045856956051 0 -0.26130335441517449 0.34881926999597818 0 -0.26233573372880031 0.35858500631680312 0 -0.27190050176234037 0.34502097631446271 0 -0.27477105137589231 0.35202084301971531 0 -0.26646144843300118 0.37450505674090961 0 -0.26233573372880031 0.35858500631680312 0 -0.27190050176234037 0.34502097631446271 0 -0.26646144843300118 0.37450505674090961 0 -0.27190050176234037 0.34502097631446271 0 -0.27477105137589231 0.35202084301971531 0 -0.28256607321345018 0.34559756064689912 0 -0.27477105137589231 0.35202084301971531 0 -0.28256607321345018 0.34559756064689912 0 -0.28175559109179632 0.35525056098827501 0 -0.27477105137589231 0.35202084301971531 0 -0.2801046844497504 0.36308448798477189 0 -0.28175559109179632 0.35525056098827501 0 -0.27477105137589231 0.35202084301971531 0 -0.27485342132774548 0.37684551061387078 0 -0.27477105137589231 0.35202084301971531 0 -0.2801046844497504 0.36308448798477189 0 -0.27485342132774548 0.37684551061387078 0 -0.27190050176234037 0.34502097631446271 0 -0.26646144843300118 0.37450505674090961 0 -0.27477105137589231 0.35202084301971531 0 -0.26646144843300118 0.37450505674090961 0 -0.27485342132774548 0.37684551061387078 0 -0.2801046844497504 0.36308448798477189 0 -0.28180312137163521 0.36858345603521669 0 -0.27485342132774548 0.37684551061387078 0 -0.28180312137163521 0.36858345603521669 0 -0.28239672366288282 0.37869133458341708 0 -0.27485342132774548 0.37684551061387078 0 -0.29595179568640673 0.3650778991190991 0 -0.28985765604616209 0.35571249095880703 0 -0.28239672366288282 0.37869133458341708 0 -0.28180312137163521 0.36858345603521669 0 -0.28985765604616209 0.35571249095880703 0 -0.28239672366288282 0.37869133458341708 0 -0.28985765604616209 0.35571249095880703 0 -0.28239672366288282 0.37869133458341708 0 -0.2801046844497504 0.36308448798477189 0 -0.28180312137163521 0.36858345603521669 0 -0.28985765604616209 0.35571249095880703 0 -0.29595179568640673 0.3650778991190991 0 -0.29785448522409952 0.37342328065930119 0 -0.28239672366288282 0.37869133458341708 0 -0.29731858842944142 0.33273364733419691 0 -0.28256607321345018 0.34559756064689912 0 -0.28985765604616209 0.35571249095880703 0 -0.29731858842944142 0.33273364733419691 0 -0.28985765604616209 0.35571249095880703 0 -0.30332039089522711 0.34458315827895231 0 -0.29731858842944142 0.33273364733419691 0 -0.28985765604616209 0.35571249095880703 0 -0.28256607321345018 0.34559756064689912 0 -0.28175559109179632 0.35525056098827501 0 -0.28985765604616209 0.35571249095880703 0 -0.2801046844497504 0.36308448798477189 0 -0.28175559109179632 0.35525056098827501 0 -0.28985765604616209 0.35571249095880703 0 -0.29595179568640673 0.3650778991190991 0 -0.28985765604616209 0.35571249095880703 0 -0.30333640249294291 0.35604946831960571 0 -0.28985765604616209 0.35571249095880703 0 -0.30332039089522711 0.34458315827895231 0 -0.30333640249294291 0.35604946831960571 0 -0.30333640249294291 0.35604946831960571 0 -0.31203835927654022 0.34966125996378011 0 -0.313938952824803 0.35833644131539483 0 -0.30332039089522711 0.34458315827895231 0 -0.30333640249294291 0.35604946831960571 0 -0.31203835927654022 0.34966125996378011 0 -0.31078597814546433 0.34114685455136051 0 -0.30332039089522711 0.34458315827895231 0 -0.31203835927654022 0.34966125996378011 0 -0.29595179568640673 0.3650778991190991 0 -0.29785448522409952 0.37342328065930119 0 -0.30554809606446898 0.3653295131587222 0 -0.29785448522409952 0.37342328065930119 0 -0.30554809606446898 0.3653295131587222 0 -0.3073797511414495 0.37462199405470931 0 -0.29595179568640673 0.3650778991190991 0 -0.30333640249294291 0.35604946831960571 0 -0.30554809606446898 0.3653295131587222 0 -0.30333640249294291 0.35604946831960571 0 -0.30554809606446898 0.3653295131587222 0 -0.313938952824803 0.35833644131539483 0 -0.30554809606446898 0.3653295131587222 0 -0.31403695787483971 0.36721474608028631 0 -0.313938952824803 0.35833644131539483 0 -0.30554809606446898 0.3653295131587222 0 -0.3073797511414495 0.37462199405470931 0 -0.31403695787483971 0.36721474608028631 0 -0.3073797511414495 0.37462199405470931 0 -0.31539874153819009 0.37466452191496691 0 -0.31403695787483971 0.36721474608028631 0 -0.31403695787483971 0.36721474608028631 0 -0.32441299838066912 0.36362450867319762 0 -0.32116008780366068 0.37121272222708329 0 -0.31539874153819009 0.37466452191496691 0 -0.31403695787483971 0.36721474608028631 0 -0.32116008780366068 0.37121272222708329 0 -0.31539874153819009 0.37466452191496691 0 -0.32116008780366068 0.37121272222708329 0 -0.32292173827300791 0.37754697958723138 0 -0.31403695787483971 0.36721474608028631 0 -0.32441299838066912 0.36362450867319762 0 -0.313938952824803 0.35833644131539483 0 -0.32441299838066912 0.36362450867319762 0 -0.32116008780366068 0.37121272222708329 0 -0.32903000295159679 0.37301285487973429 0 -0.32116008780366068 0.37121272222708329 0 -0.32903000295159679 0.37301285487973429 0 -0.32292173827300791 0.37754697958723138 0 -0.32441299838066912 0.36362450867319762 0 -0.32903000295159679 0.37301285487973429 0 -0.33185234584724882 0.36690399804930501 0 -0.32903000295159679 0.37301285487973429 0 -0.33185234584724882 0.36690399804930501 0 -0.33807746642524311 0.37009720733328139 0 -0.32903000295159679 0.37301285487973429 0 -0.33807746642524311 0.37009720733328139 0 -0.33485677861988822 0.37622302360188892 0 -0.32441299838066912 0.36362450867319762 0 -0.33185234584724882 0.36690399804930501 0 -0.33588891563148637 0.36088142131100681 0 -0.33185234584724882 0.36690399804930501 0 -0.33588891563148637 0.36088142131100681 0 -0.33807746642524311 0.37009720733328139 0 -0.33588891563148637 0.36088142131100681 0 -0.33807746642524311 0.37009720733328139 0 -0.34452275896940598 0.3633198905685478 0 -0.33807746642524311 0.37009720733328139 0 -0.34850960039310153 0.37334833396650929 0 -0.34452275896940598 0.3633198905685478 0 -0.33807746642524311 0.37009720733328139 0 -0.34850960039310153 0.37334833396650929 0 -0.34056019173994601 0.37875106809770909 0 -0.34292367297504261 0.3534916950318262 0 -0.33233336400994978 0.35031763371536401 0 -0.33886896949422202 0.34152459601733148 0 -0.33588891563148637 0.36088142131100681 0 -0.34292367297504261 0.3534916950318262 0 -0.33233336400994978 0.35031763371536401 0 -0.33588891563148637 0.36088142131100681 0 -0.34292367297504261 0.3534916950318262 0 -0.34452275896940598 0.3633198905685478 0 -0.32441299838066912 0.36362450867319762 0 -0.33588891563148637 0.36088142131100681 0 -0.33233336400994978 0.35031763371536401 0 -0.33233336400994978 0.35031763371536401 0 -0.32022312811351772 0.34458935834830728 0 -0.32773473781832002 0.3386556208127372 0 -0.33233336400994978 0.35031763371536401 0 -0.32283474202848689 0.35275891489721528 0 -0.32022312811351772 0.34458935834830728 0 -0.32441299838066912 0.36362450867319762 0 -0.32283474202848689 0.35275891489721528 0 -0.313938952824803 0.35833644131539483 0 -0.32441299838066912 0.36362450867319762 0 -0.33233336400994978 0.35031763371536401 0 -0.32283474202848689 0.35275891489721528 0 -0.31203835927654022 0.34966125996378011 0 -0.32283474202848689 0.35275891489721528 0 -0.313938952824803 0.35833644131539483 0 -0.31203835927654022 0.34966125996378011 0 -0.32283474202848689 0.35275891489721528 0 -0.32022312811351772 0.34458935834830728 0 -0.31078597814546433 0.34114685455136051 0 -0.31203835927654022 0.34966125996378011 0 -0.32022312811351772 0.34458935834830728 0 -0.31078597814546433 0.34114685455136051 0 -0.32022312811351772 0.34458935834830728 0 -0.31735945601661458 0.33501185930786498 0 -0.31735945601661458 0.33501185930786498 0 -0.326179564466962 0.32840123494692269 0 -0.31565715044690512 0.32521461302434168 0 -0.30834124710782962 0.33336366852878457 0 -0.31735945601661458 0.33501185930786498 0 -0.31565715044690512 0.32521461302434168 0 -0.31735945601661458 0.33501185930786498 0 -0.326179564466962 0.32840123494692269 0 -0.32773473781832002 0.3386556208127372 0 -0.32022312811351772 0.34458935834830728 0 -0.31735945601661458 0.33501185930786498 0 -0.32773473781832002 0.3386556208127372 0 -0.31478734035169398 0.31692184310589028 0 -0.31565715044690512 0.32521461302434168 0 -0.32462565593317722 0.31870838784307631 0 -0.30817676942971839 0.32359771514056018 0 -0.31478734035169398 0.31692184310589028 0 -0.31565715044690512 0.32521461302434168 0 -0.326179564466962 0.32840123494692269 0 -0.31565715044690512 0.32521461302434168 0 -0.32462565593317722 0.31870838784307631 0 -0.33482245780542941 0.31024779451776252 0 -0.3225233044829971 0.30860698533855119 0 -0.32462565593317722 0.31870838784307631 0 -0.3225233044829971 0.30860698533855119 0 -0.31478734035169398 0.31692184310589028 0 -0.32462565593317722 0.31870838784307631 0 -0.33482245780542941 0.31024779451776252 0 -0.32462565593317722 0.31870838784307631 0 -0.33561310031920139 0.32144750108648129 0 -0.326179564466962 0.32840123494692269 0 -0.32462565593317722 0.31870838784307631 0 -0.33561310031920139 0.32144750108648129 0 -0.326179564466962 0.32840123494692269 0 -0.33561310031920139 0.32144750108648129 0 -0.33691455536465609 0.33159515579544879 0 -0.33561310031920139 0.32144750108648129 0 -0.33691455536465609 0.33159515579544879 0 -0.34797955641731598 0.32468656907582177 0 -0.33482245780542941 0.31024779451776252 0 -0.33561310031920139 0.32144750108648129 0 -0.34866600974098111 0.31255704616919833 0 -0.32773473781832002 0.3386556208127372 0 -0.33691455536465609 0.33159515579544879 0 -0.33886896949422202 0.34152459601733148 0 -0.33233336400994978 0.35031763371536401 0 -0.32773473781832002 0.3386556208127372 0 -0.33886896949422202 0.34152459601733148 0 -0.326179564466962 0.32840123494692269 0 -0.32773473781832002 0.3386556208127372 0 -0.33691455536465609 0.33159515579544879 0 -0.33691455536465609 0.33159515579544879 0 -0.33886896949422202 0.34152459601733148 0 -0.34670970372457027 0.33508227669617341 0 -0.33886896949422202 0.34152459601733148 0 -0.34670970372457027 0.33508227669617341 0 -0.35124882494316018 0.3459820323626992 0 -0.34670970372457027 0.33508227669617341 0 -0.35805922822325931 0.33419260247639848 0 -0.34797955641731598 0.32468656907582177 0 -0.33691455536465609 0.33159515579544879 0 -0.34670970372457027 0.33508227669617341 0 -0.34797955641731598 0.32468656907582177 0 -0.35805922822325931 0.33419260247639848 0 -0.36156842755888768 0.34693766995262648 0 -0.35124882494316018 0.3459820323626992 0 -0.34670970372457027 0.33508227669617341 0 -0.35805922822325931 0.33419260247639848 0 -0.35124882494316018 0.3459820323626992 0 -0.36591564217638489 0.31091681636183038 0 -0.34866600974098111 0.31255704616919833 0 -0.35845997027310439 0.3217611369882537 0 -0.33561310031920139 0.32144750108648129 0 -0.34866600974098111 0.31255704616919833 0 -0.34797955641731598 0.32468656907582177 0 -0.35805922822325931 0.33419260247639848 0 -0.34797955641731598 0.32468656907582177 0 -0.35845997027310439 0.3217611369882537 0 -0.34866600974098111 0.31255704616919833 0 -0.34797955641731598 0.32468656907582177 0 -0.35845997027310439 0.3217611369882537 0 -0.38693816217561322 0.31741147542154308 0 -0.36591564217638489 0.31091681636183038 0 -0.3716794148075806 0.3264526508580195 0 -0.36591564217638489 0.31091681636183038 0 -0.35845997027310439 0.3217611369882537 0 -0.3716794148075806 0.3264526508580195 0 -0.35805922822325931 0.33419260247639848 0 -0.35845997027310439 0.3217611369882537 0 -0.3716794148075806 0.3264526508580195 0 -0.35805922822325931 0.33419260247639848 0 -0.37072369372445341 0.33924286455047231 0 -0.36156842755888768 0.34693766995262648 0 -0.35805922822325931 0.33419260247639848 0 -0.3716794148075806 0.3264526508580195 0 -0.37072369372445341 0.33924286455047231 0 -0.37072369372445341 0.33924286455047231 0 -0.36156842755888768 0.34693766995262648 0 -0.37242756129480259 0.35749312081901219 0 -0.36156842755888768 0.34693766995262648 0 -0.37242756129480259 0.35749312081901219 0 -0.3546792048020313 0.35892459621600842 0 -0.37242756129480259 0.35749312081901219 0 -0.36153279417624218 0.36977790726668808 0 -0.3546792048020313 0.35892459621600842 0 -0.37242756129480259 0.35749312081901219 0 -0.36153279417624218 0.36977790726668808 0 -0.37292334628632812 0.37802942785786131 0 -0.34850960039310153 0.37334833396650929 0 -0.3546792048020313 0.35892459621600842 0 -0.36153279417624218 0.36977790726668808 0 -0.34850960039310153 0.37334833396650929 0 -0.3591242581049473 0.3810940574740494 0 -0.36153279417624218 0.36977790726668808 0 -0.34850960039310153 0.37334833396650929 0 -0.3546792048020313 0.35892459621600842 0 -0.34850960039310153 0.37334833396650929 0 -0.34452275896940598 0.3633198905685478 0 -0.3546792048020313 0.35892459621600842 0 -0.34292367297504261 0.3534916950318262 0 -0.34452275896940598 0.3633198905685478 0 -0.3546792048020313 0.35892459621600842 0 -0.34292367297504261 0.3534916950318262 0 -0.35124882494316018 0.3459820323626992 0 -0.3546792048020313 0.35892459621600842 0 -0.34292367297504261 0.3534916950318262 0 -0.33886896949422202 0.34152459601733148 0 -0.35124882494316018 0.3459820323626992 0 -0.36156842755888768 0.34693766995262648 0 -0.35124882494316018 0.3459820323626992 0 -0.3546792048020313 0.35892459621600842 0 -0.35248176734501468 0.39527741752946871 0 -0.35556934006072671 0.40231142461791092 0 -0.36055791956303518 0.39692198356237529 0 -0.35248176734501468 0.39527741752946871 0 -0.35434301598596618 0.3887059237524953 0 -0.36055791956303518 0.39692198356237529 0 -0.35248176734501468 0.39527741752946871 0 -0.34796609605512657 0.39106188670779413 0 -0.35434301598596618 0.3887059237524953 0 -0.35248176734501468 0.39527741752946871 0 -0.35556934006072671 0.40231142461791092 0 -0.34881006019336003 0.39994588437073703 0 -0.34881006019336003 0.39994588437073703 0 -0.34959030271487168 0.40595448752762209 0 -0.34464094205295748 0.40450310483736168 0 -0.35556934006072671 0.40231142461791092 0 -0.34881006019336003 0.39994588437073703 0 -0.34959030271487168 0.40595448752762209 0 -0.34881006019336003 0.39994588437073703 0 -0.34464094205295748 0.40450310483736168 0 -0.34498396211376209 0.39881747422267599 0 -0.34498396211376209 0.39881747422267599 0 -0.34749328923731598 0.39513782141980341 0 -0.34350218754700401 0.39342230004435508 0 -0.34881006019336003 0.39994588437073703 0 -0.34498396211376209 0.39881747422267599 0 -0.34749328923731598 0.39513782141980341 0 -0.35248176734501468 0.39527741752946871 0 -0.34881006019336003 0.39994588437073703 0 -0.34749328923731598 0.39513782141980341 0 -0.35248176734501468 0.39527741752946871 0 -0.34749328923731598 0.39513782141980341 0 -0.34796609605512657 0.39106188670779413 0 -0.34749328923731598 0.39513782141980341 0 -0.34796609605512657 0.39106188670779413 0 -0.34350218754700401 0.39342230004435508 0 -0.34796609605512657 0.39106188670779413 0 -0.34487118959457441 0.3901971949075424 0 -0.34350218754700401 0.39342230004435508 0 -0.34487118959457441 0.3901971949075424 0 -0.34567647879199498 0.38853252116101011 0 -0.34233999598417209 0.38777207171701039 0 -0.34796609605512657 0.39106188670779413 0 -0.34567647879199498 0.38853252116101011 0 -0.34880872159498222 0.38703818621145131 0 -0.34567647879199498 0.38853252116101011 0 -0.34383141170566828 0.38565048571176103 0 -0.34880872159498222 0.38703818621145131 0 -0.34796609605512657 0.39106188670779413 0 -0.34487118959457441 0.3901971949075424 0 -0.34567647879199498 0.38853252116101011 0 -0.34567647879199498 0.38853252116101011 0 -0.34383141170566828 0.38565048571176103 0 -0.34233999598417209 0.38777207171701039 0 -0.34383141170566828 0.38565048571176103 0 -0.3509115653818568 0.38304440801946799 0 -0.34880872159498222 0.38703818621145131 0 -0.3509115653818568 0.38304440801946799 0 -0.34880872159498222 0.38703818621145131 0 -0.35434301598596618 0.3887059237524953 0 -0.34796609605512657 0.39106188670779413 0 -0.34880872159498222 0.38703818621145131 0 -0.35434301598596618 0.3887059237524953 0 -0.34850960039310153 0.37334833396650929 0 -0.34056019173994601 0.37875106809770909 0 -0.34233999598417209 0.38777207171701039 0 -0.34850960039310153 0.37334833396650929 0 -0.34233999598417209 0.38777207171701039 0 -0.34850960039310153 0.37334833396650929 0 -0.34383141170566828 0.38565048571176103 0 -0.3509115653818568 0.38304440801946799 0 -0.34850960039310153 0.37334833396650929 0 -0.34383141170566828 0.38565048571176103 0 -0.34233999598417209 0.38777207171701039 0 -0.34850960039310153 0.37334833396650929 0 -0.3509115653818568 0.38304440801946799 0 -0.3591242581049473 0.3810940574740494 0 -0.3509115653818568 0.38304440801946799 0 -0.3591242581049473 0.3810940574740494 0 -0.35434301598596618 0.3887059237524953 0 -0.3591242581049473 0.3810940574740494 0 -0.35434301598596618 0.3887059237524953 0 -0.36646161684231893 0.39147327851687741 0 -0.3591242581049473 0.3810940574740494 0 -0.37292334628632812 0.37802942785786131 0 -0.36646161684231893 0.39147327851687741 0 -0.36153279417624218 0.36977790726668808 0 -0.3591242581049473 0.3810940574740494 0 -0.37292334628632812 0.37802942785786131 0 -0.38061947525772549 0.39172273309332661 0 -0.37292334628632812 0.37802942785786131 0 -0.36646161684231893 0.39147327851687741 0 -0.38061947525772549 0.39172273309332661 0 -0.36646161684231893 0.39147327851687741 0 -0.36765527205290821 0.40455180701134419 0 -0.35434301598596618 0.3887059237524953 0 -0.36055791956303518 0.39692198356237529 0 -0.36646161684231893 0.39147327851687741 0 -0.36055791956303518 0.39692198356237529 0 -0.36646161684231893 0.39147327851687741 0 -0.36765527205290821 0.40455180701134419 0 -0.35556934006072671 0.40231142461791092 0 -0.36055791956303518 0.39692198356237529 0 -0.36765527205290821 0.40455180701134419 0 -0.35556934006072671 0.40231142461791092 0 -0.36765527205290821 0.40455180701134419 0 -0.35618911812929932 0.41085153747430808 0 -0.37634597317793012 0.41993415256536681 0 -0.36765527205290821 0.40455180701134419 0 -0.36268642403365342 0.41734851272720441 0 -0.36765527205290821 0.40455180701134419 0 -0.36268642403365342 0.41734851272720441 0 -0.35618911812929932 0.41085153747430808 0 -0.37634597317793012 0.41993415256536681 0 -0.36168224973301299 0.43015122569016567 0 -0.37369785120572419 0.44000947876684038 0 -0.36168224973301299 0.43015122569016567 0 -0.35373943720712597 0.44027787798249252 0 -0.37369785120572419 0.44000947876684038 0 -0.37634597317793012 0.41993415256536681 0 -0.36268642403365342 0.41734851272720441 0 -0.36168224973301299 0.43015122569016567 0 -0.36168224973301299 0.43015122569016567 0 -0.34886929155534568 0.43054894177509612 0 -0.35373943720712597 0.44027787798249252 0 -0.36268642403365342 0.41734851272720441 0 -0.36168224973301299 0.43015122569016567 0 -0.35218276380868713 0.42041933028152939 0 -0.36168224973301299 0.43015122569016567 0 -0.34886929155534568 0.43054894177509612 0 -0.35218276380868713 0.42041933028152939 0 -0.34886929155534568 0.43054894177509612 0 -0.35218276380868713 0.42041933028152939 0 -0.34166613395620599 0.42057585659474628 0 -0.34886929155534568 0.43054894177509612 0 -0.34052741598549102 0.43792438044517612 0 -0.35373943720712597 0.44027787798249252 0 -0.35556934006072671 0.40231142461791092 0 -0.34959030271487168 0.40595448752762209 0 -0.35618911812929932 0.41085153747430808 0 -0.36268642403365342 0.41734851272720441 0 -0.35618911812929932 0.41085153747430808 0 -0.35218276380868713 0.42041933028152939 0 -0.35618911812929932 0.41085153747430808 0 -0.35218276380868713 0.42041933028152939 0 -0.34505563327455901 0.41308835002644029 0 -0.35218276380868713 0.42041933028152939 0 -0.34505563327455901 0.41308835002644029 0 -0.34166613395620599 0.42057585659474628 0 -0.34959030271487168 0.40595448752762209 0 -0.35618911812929932 0.41085153747430808 0 -0.34505563327455901 0.41308835002644029 0 -0.34959030271487168 0.40595448752762209 0 -0.34464094205295748 0.40450310483736168 0 -0.34505563327455901 0.41308835002644029 0 -0.34464094205295748 0.40450310483736168 0 -0.34505563327455901 0.41308835002644029 0 -0.33928864757670413 0.40987233914545729 0 -0.33928864757670413 0.40987233914545729 0 -0.33065750147464518 0.41508423403866279 0 -0.34047333153817322 0.40107826044112238 0 -0.34505563327455901 0.41308835002644029 0 -0.33928864757670413 0.40987233914545729 0 -0.33758092679640278 0.4157340086890573 0 -0.34166613395620599 0.42057585659474628 0 -0.33758092679640278 0.4157340086890573 0 -0.33349065152995189 0.42616910214380349 0 -0.34505563327455901 0.41308835002644029 0 -0.34166613395620599 0.42057585659474628 0 -0.33758092679640278 0.4157340086890573 0 -0.33758092679640278 0.4157340086890573 0 -0.33065750147464518 0.41508423403866279 0 -0.33349065152995189 0.42616910214380349 0 -0.33928864757670413 0.40987233914545729 0 -0.33758092679640278 0.4157340086890573 0 -0.33065750147464518 0.41508423403866279 0 -0.33349065152995189 0.42616910214380349 0 -0.33244646256134719 0.43498007688643281 0 -0.31897500696511882 0.44239639636031541 0 -0.34886929155534568 0.43054894177509612 0 -0.33977651578677781 0.42867477217028421 0 -0.34052741598549102 0.43792438044517612 0 -0.33977651578677781 0.42867477217028421 0 -0.33244646256134719 0.43498007688643281 0 -0.34052741598549102 0.43792438044517612 0 -0.34166613395620599 0.42057585659474628 0 -0.33977651578677781 0.42867477217028421 0 -0.33349065152995189 0.42616910214380349 0 -0.34886929155534568 0.43054894177509612 0 -0.34166613395620599 0.42057585659474628 0 -0.33977651578677781 0.42867477217028421 0 -0.33977651578677781 0.42867477217028421 0 -0.33349065152995189 0.42616910214380349 0 -0.33244646256134719 0.43498007688643281 0 -0.33065750147464518 0.41508423403866279 0 -0.31078275602916339 0.43266324303020409 0 -0.31897500696511882 0.44239639636031541 0 -0.33065750147464518 0.41508423403866279 0 -0.33349065152995189 0.42616910214380349 0 -0.31897500696511882 0.44239639636031541 0 -0.33065750147464518 0.41508423403866279 0 -0.31897500696511882 0.44239639636031541 0 -0.32656137600666801 0.41021765737360738 0 -0.31194581895815149 0.4184170935094943 0 -0.31078275602916339 0.43266324303020409 0 -0.32656137600666801 0.41021765737360738 0 -0.31078275602916339 0.43266324303020409 0 -0.33065750147464518 0.41508423403866279 0 -0.32656137600666801 0.41021765737360738 0 -0.31078275602916339 0.43266324303020409 0 -0.32656137600666801 0.41021765737360738 0 -0.31731412355313482 0.40998662830042532 0 -0.32141479974295079 0.40345944831534319 0 -0.31731412355313482 0.40998662830042532 0 -0.31194581895815149 0.4184170935094943 0 -0.31110419895063979 0.41329878938702441 0 -0.32656137600666801 0.41021765737360738 0 -0.31731412355313482 0.40998662830042532 0 -0.31194581895815149 0.4184170935094943 0 -0.31731412355313482 0.40998662830042532 0 -0.31110419895063979 0.41329878938702441 0 -0.31220201742043041 0.40637055559921859 0 -0.31731412355313482 0.40998662830042532 0 -0.31648558187805009 0.40470539945233858 0 -0.31220201742043041 0.40637055559921859 0 -0.31461727568866182 0.3996455896484461 0 -0.31648558187805009 0.40470539945233858 0 -0.31220201742043041 0.40637055559921859 0 -0.31461727568866182 0.3996455896484461 0 -0.31940703356500572 0.39648326326734368 0 -0.32141479974295079 0.40345944831534319 0 -0.31461727568866182 0.3996455896484461 0 -0.31648558187805009 0.40470539945233858 0 -0.32141479974295079 0.40345944831534319 0 -0.31731412355313482 0.40998662830042532 0 -0.31648558187805009 0.40470539945233858 0 -0.32141479974295079 0.40345944831534319 0 -0.31940703356500572 0.39648326326734368 0 -0.31716657583908869 0.39086003950077802 0 -0.31161712988721951 0.39500256715364712 0 -0.31716657583908869 0.39086003950077802 0 -0.31185622108254102 0.38957141632043479 0 -0.31161712988721951 0.39500256715364712 0 -0.31461727568866182 0.3996455896484461 0 -0.31940703356500572 0.39648326326734368 0 -0.31161712988721951 0.39500256715364712 0 -0.31940703356500572 0.39648326326734368 0 -0.31716657583908869 0.39086003950077802 0 -0.3226968700108398 0.39147917954790001 0 -0.31940703356500572 0.39648326326734368 0 -0.3226968700108398 0.39147917954790001 0 -0.3239530989552149 0.39522696489481191 0 -0.31940703356500572 0.39648326326734368 0 -0.3239530989552149 0.39522696489481191 0 -0.32493045934164327 0.39887005410785759 0 -0.3269658353694283 0.3955585445626229 0 -0.32493045934164327 0.39887005410785759 0 -0.32999221941837398 0.39713165084497798 0 -0.3239530989552149 0.39522696489481191 0 -0.3269658353694283 0.3955585445626229 0 -0.32493045934164327 0.39887005410785759 0 -0.3226968700108398 0.39147917954790001 0 -0.32641208773465669 0.39279742723811689 0 -0.32685918213945131 0.38893148366080688 0 -0.3226968700108398 0.39147917954790001 0 -0.3239530989552149 0.39522696489481191 0 -0.32641208773465669 0.39279742723811689 0 -0.3239530989552149 0.39522696489481191 0 -0.3269658353694283 0.3955585445626229 0 -0.32641208773465669 0.39279742723811689 0 -0.3269658353694283 0.3955585445626229 0 -0.32641208773465669 0.39279742723811689 0 -0.32954131139725251 0.39376662572734999 0 -0.31940703356500572 0.39648326326734368 0 -0.32141479974295079 0.40345944831534319 0 -0.32493045934164327 0.39887005410785759 0 -0.32493045934164327 0.39887005410785759 0 -0.32768444571201327 0.40254514253857482 0 -0.32999221941837398 0.39713165084497798 0 -0.32141479974295079 0.40345944831534319 0 -0.32493045934164327 0.39887005410785759 0 -0.32768444571201327 0.40254514253857482 0 -0.32656137600666801 0.41021765737360738 0 -0.32141479974295079 0.40345944831534319 0 -0.32768444571201327 0.40254514253857482 0 -0.32656137600666801 0.41021765737360738 0 -0.33686926381700849 0.3914862108452542 0 -0.34233999598417209 0.38777207171701039 0 -0.33065750147464518 0.41508423403866279 0 -0.34047333153817322 0.40107826044112238 0 -0.34233999598417209 0.38777207171701039 0 -0.32656137600666801 0.41021765737360738 0 -0.34233999598417209 0.38777207171701039 0 -0.33065750147464518 0.41508423403866279 0 -0.32656137600666801 0.41021765737360738 0 -0.34233999598417209 0.38777207171701039 0 -0.33065750147464518 0.41508423403866279 0 -0.34233999598417209 0.38777207171701039 0 -0.32656137600666801 0.41021765737360738 0 -0.32768444571201327 0.40254514253857482 0 -0.33686926381700849 0.3914862108452542 0 -0.32768444571201327 0.40254514253857482 0 -0.32999221941837398 0.39713165084497798 0 -0.33686926381700849 0.3914862108452542 0 -0.3269658353694283 0.3955585445626229 0 -0.32999221941837398 0.39713165084497798 0 -0.32954131139725251 0.39376662572734999 0 -0.32999221941837398 0.39713165084497798 0 -0.32954131139725251 0.39376662572734999 0 -0.33242099662828678 0.39239216571161611 0 -0.32641208773465669 0.39279742723811689 0 -0.32954131139725251 0.39376662572734999 0 -0.33095661919528951 0.39009991243823972 0 -0.32954131139725251 0.39376662572734999 0 -0.33242099662828678 0.39239216571161611 0 -0.33095661919528951 0.39009991243823972 0 -0.33242099662828678 0.39239216571161611 0 -0.33686926381700849 0.3914862108452542 0 -0.33474556931350963 0.38947642870225863 0 -0.32999221941837398 0.39713165084497798 0 -0.33242099662828678 0.39239216571161611 0 -0.33686926381700849 0.3914862108452542 0 -0.33242099662828678 0.39239216571161611 0 -0.33474556931350963 0.38947642870225863 0 -0.33095661919528951 0.39009991243823972 0 -0.34350218754700401 0.39342230004435508 0 -0.34047333153817322 0.40107826044112238 0 -0.34233999598417209 0.38777207171701039 0 -0.34498396211376209 0.39881747422267599 0 -0.34350218754700401 0.39342230004435508 0 -0.34047333153817322 0.40107826044112238 0 -0.34464094205295748 0.40450310483736168 0 -0.34498396211376209 0.39881747422267599 0 -0.34047333153817322 0.40107826044112238 0 -0.34464094205295748 0.40450310483736168 0 -0.33928864757670413 0.40987233914545729 0 -0.34047333153817322 0.40107826044112238 0 -0.33807746642524311 0.37009720733328139 0 -0.34056019173994601 0.37875106809770909 0 -0.33485677861988822 0.37622302360188892 0 -0.34056019173994601 0.37875106809770909 0 -0.33761340346478452 0.3858631019561255 0 -0.3341572611105264 0.38198771683984012 0 -0.34056019173994601 0.37875106809770909 0 -0.3341572611105264 0.38198771683984012 0 -0.33485677861988822 0.37622302360188892 0 -0.34056019173994601 0.37875106809770909 0 -0.34233999598417209 0.38777207171701039 0 -0.33761340346478452 0.3858631019561255 0 -0.34383141170566828 0.38565048571176103 0 -0.34233999598417209 0.38777207171701039 0 -0.34487118959457441 0.3901971949075424 0 -0.34350218754700401 0.39342230004435508 0 -0.34233999598417209 0.38777207171701039 0 -0.33686926381700849 0.3914862108452542 0 -0.33761340346478452 0.3858631019561255 0 -0.33474556931350963 0.38947642870225863 0 -0.33686926381700849 0.3914862108452542 0 -0.34233999598417209 0.38777207171701039 0 -0.33761340346478452 0.3858631019561255 0 -0.33761340346478452 0.3858631019561255 0 -0.33410809145546161 0.38697432944574423 0 -0.3341572611105264 0.38198771683984012 0 -0.33410809145546161 0.38697432944574423 0 -0.33053988644101212 0.38613519990654799 0 -0.3341572611105264 0.38198771683984012 0 -0.33761340346478452 0.3858631019561255 0 -0.33474556931350963 0.38947642870225863 0 -0.33410809145546161 0.38697432944574423 0 -0.33474556931350963 0.38947642870225863 0 -0.33410809145546161 0.38697432944574423 0 -0.33095661919528951 0.39009991243823972 0 -0.33095661919528951 0.39009991243823972 0 -0.33053988644101212 0.38613519990654799 0 -0.32685918213945131 0.38893148366080688 0 -0.33410809145546161 0.38697432944574423 0 -0.33095661919528951 0.39009991243823972 0 -0.33053988644101212 0.38613519990654799 0 -0.33053988644101212 0.38613519990654799 0 -0.3341572611105264 0.38198771683984012 0 -0.32754084802878608 0.38236938426992201 0 -0.3341572611105264 0.38198771683984012 0 -0.32970132579676109 0.37822799183572342 0 -0.32754084802878608 0.38236938426992201 0 -0.3341572611105264 0.38198771683984012 0 -0.33485677861988822 0.37622302360188892 0 -0.32970132579676109 0.37822799183572342 0 -0.32903000295159679 0.37301285487973429 0 -0.33485677861988822 0.37622302360188892 0 -0.32970132579676109 0.37822799183572342 0 -0.32903000295159679 0.37301285487973429 0 -0.32970132579676109 0.37822799183572342 0 -0.32292173827300791 0.37754697958723138 0 -0.32970132579676109 0.37822799183572342 0 -0.32754084802878608 0.38236938426992201 0 -0.32292173827300791 0.37754697958723138 0 -0.32754084802878608 0.38236938426992201 0 -0.32292173827300791 0.37754697958723138 0 -0.32178521460306447 0.3830139130032289 0 -0.32292173827300791 0.37754697958723138 0 -0.32178521460306447 0.3830139130032289 0 -0.31655656269139643 0.38081636226435472 0 -0.32685918213945131 0.38893148366080688 0 -0.32515880654710688 0.38543839477640629 0 -0.32176140234049738 0.38757208374004759 0 -0.32641208773465669 0.39279742723811689 0 -0.33095661919528951 0.39009991243823972 0 -0.32685918213945131 0.38893148366080688 0 -0.33053988644101212 0.38613519990654799 0 -0.32685918213945131 0.38893148366080688 0 -0.32515880654710688 0.38543839477640629 0 -0.33053988644101212 0.38613519990654799 0 -0.32754084802878608 0.38236938426992201 0 -0.32515880654710688 0.38543839477640629 0 -0.32754084802878608 0.38236938426992201 0 -0.32515880654710688 0.38543839477640629 0 -0.32178521460306447 0.3830139130032289 0 -0.32515880654710688 0.38543839477640629 0 -0.32178521460306447 0.3830139130032289 0 -0.32176140234049738 0.38757208374004759 0 -0.31716657583908869 0.39086003950077802 0 -0.3226968700108398 0.39147917954790001 0 -0.32176140234049738 0.38757208374004759 0 -0.3226968700108398 0.39147917954790001 0 -0.32685918213945131 0.38893148366080688 0 -0.32176140234049738 0.38757208374004759 0 -0.31716657583908869 0.39086003950077802 0 -0.32176140234049738 0.38757208374004759 0 -0.31690176490343303 0.38570949195116611 0 -0.32178521460306447 0.3830139130032289 0 -0.31690176490343303 0.38570949195116611 0 -0.31655656269139643 0.38081636226435472 0 -0.32178521460306447 0.3830139130032289 0 -0.32176140234049738 0.38757208374004759 0 -0.31690176490343303 0.38570949195116611 0 -0.31690176490343303 0.38570949195116611 0 -0.31214727382922619 0.38366181639812452 0 -0.31185622108254102 0.38957141632043479 0 -0.31690176490343303 0.38570949195116611 0 -0.31655656269139643 0.38081636226435472 0 -0.31214727382922619 0.38366181639812452 0 -0.31716657583908869 0.39086003950077802 0 -0.31690176490343303 0.38570949195116611 0 -0.31185622108254102 0.38957141632043479 0 -0.31539874153819009 0.37466452191496691 0 -0.32292173827300791 0.37754697958723138 0 -0.31655656269139643 0.38081636226435472 0 -0.31655656269139643 0.38081636226435472 0 -0.31184063933742251 0.37893147712814113 0 -0.31214727382922619 0.38366181639812452 0 -0.31539874153819009 0.37466452191496691 0 -0.31655656269139643 0.38081636226435472 0 -0.31184063933742251 0.37893147712814113 0 -0.3073797511414495 0.37462199405470931 0 -0.30772086748685051 0.38089269100855011 0 -0.31184063933742251 0.37893147712814113 0 -0.3073797511414495 0.37462199405470931 0 -0.30772086748685051 0.38089269100855011 0 -0.29906986147028652 0.37949934390370471 0 -0.3073797511414495 0.37462199405470931 0 -0.31539874153819009 0.37466452191496691 0 -0.31184063933742251 0.37893147712814113 0 -0.30772086748685051 0.38089269100855011 0 -0.31184063933742251 0.37893147712814113 0 -0.31214727382922619 0.38366181639812452 0 -0.31214727382922619 0.38366181639812452 0 -0.31185622108254102 0.38957141632043479 0 -0.30711045939521348 0.38673327701511978 0 -0.30772086748685051 0.38089269100855011 0 -0.31214727382922619 0.38366181639812452 0 -0.30711045939521348 0.38673327701511978 0 -0.30711045939521348 0.38673327701511978 0 -0.30207425997474668 0.38962922337997491 0 -0.30648990664374209 0.39302187340919398 0 -0.31185622108254102 0.38957141632043479 0 -0.30711045939521348 0.38673327701511978 0 -0.30648990664374209 0.39302187340919398 0 -0.30772086748685051 0.38089269100855011 0 -0.30711045939521348 0.38673327701511978 0 -0.3028061305184569 0.38400869558454193 0 -0.3028061305184569 0.38400869558454193 0 -0.29906986147028652 0.37949934390370471 0 -0.29594528863406722 0.38913288584229161 0 -0.30711045939521348 0.38673327701511978 0 -0.3028061305184569 0.38400869558454193 0 -0.30207425997474668 0.38962922337997491 0 -0.3028061305184569 0.38400869558454193 0 -0.30207425997474668 0.38962922337997491 0 -0.29594528863406722 0.38913288584229161 0 -0.29785448522409952 0.37342328065930119 0 -0.3073797511414495 0.37462199405470931 0 -0.29906986147028652 0.37949934390370471 0 -0.30772086748685051 0.38089269100855011 0 -0.3028061305184569 0.38400869558454193 0 -0.29906986147028652 0.37949934390370471 0 -0.30700028758139009 0.40034440630539919 0 -0.31220201742043041 0.40637055559921859 0 -0.30665239340898892 0.4093020151248441 0 -0.31461727568866182 0.3996455896484461 0 -0.30700028758139009 0.40034440630539919 0 -0.31220201742043041 0.40637055559921859 0 -0.30700028758139009 0.40034440630539919 0 -0.31161712988721951 0.39500256715364712 0 -0.30648990664374209 0.39302187340919398 0 -0.31461727568866182 0.3996455896484461 0 -0.30700028758139009 0.40034440630539919 0 -0.31161712988721951 0.39500256715364712 0 -0.31185622108254102 0.38957141632043479 0 -0.31161712988721951 0.39500256715364712 0 -0.30648990664374209 0.39302187340919398 0 -0.30700028758139009 0.40034440630539919 0 -0.30648990664374209 0.39302187340919398 0 -0.29888332101081799 0.39602149306892881 0 -0.30207425997474668 0.38962922337997491 0 -0.30648990664374209 0.39302187340919398 0 -0.29888332101081799 0.39602149306892881 0 -0.30207425997474668 0.38962922337997491 0 -0.29888332101081799 0.39602149306892881 0 -0.29594528863406722 0.38913288584229161 0 -0.30700028758139009 0.40034440630539919 0 -0.30036430907179978 0.40680798445385657 0 -0.30665239340898892 0.4093020151248441 0 -0.30700028758139009 0.40034440630539919 0 -0.29888332101081799 0.39602149306892881 0 -0.30036430907179978 0.40680798445385657 0 -0.2908565789742904 0.4003939914184248 0 -0.28402606599662328 0.39173143812503891 0 -0.27493579127960133 0.40167017820802647 0 -0.2908565789742904 0.4003939914184248 0 -0.27493579127960133 0.40167017820802647 0 -0.28402868250837732 0.41232834041264199 0 -0.29888332101081799 0.39602149306892881 0 -0.2908565789742904 0.4003939914184248 0 -0.30036430907179978 0.40680798445385657 0 -0.29888332101081799 0.39602149306892881 0 -0.2908565789742904 0.4003939914184248 0 -0.29172187565690799 0.39281840832071602 0 -0.29888332101081799 0.39602149306892881 0 -0.29172187565690799 0.39281840832071602 0 -0.29594528863406722 0.38913288584229161 0 -0.2908565789742904 0.4003939914184248 0 -0.29172187565690799 0.39281840832071602 0 -0.28402606599662328 0.39173143812503891 0 -0.29785448522409952 0.37342328065930119 0 -0.29221205996340022 0.38106874134858371 0 -0.28239672366288282 0.37869133458341708 0 -0.29785448522409952 0.37342328065930119 0 -0.29906986147028652 0.37949934390370471 0 -0.29221205996340022 0.38106874134858371 0 -0.29221205996340022 0.38106874134858371 0 -0.29594528863406722 0.38913288584229161 0 -0.28889812366874112 0.38681223314889551 0 -0.29906986147028652 0.37949934390370471 0 -0.29221205996340022 0.38106874134858371 0 -0.29594528863406722 0.38913288584229161 0 -0.29172187565690799 0.39281840832071602 0 -0.29594528863406722 0.38913288584229161 0 -0.28889812366874112 0.38681223314889551 0 -0.28402606599662328 0.39173143812503891 0 -0.28889812366874112 0.38681223314889551 0 -0.28239672366288282 0.37869133458341708 0 -0.29172187565690799 0.39281840832071602 0 -0.28402606599662328 0.39173143812503891 0 -0.28889812366874112 0.38681223314889551 0 -0.29221205996340022 0.38106874134858371 0 -0.28889812366874112 0.38681223314889551 0 -0.28239672366288282 0.37869133458341708 0 -0.27485342132774548 0.37684551061387078 0 -0.27493579127960133 0.40167017820802647 0 -0.28239672366288282 0.37869133458341708 0 -0.27485342132774548 0.37684551061387078 0 -0.27493579127960133 0.40167017820802647 0 -0.28239672366288282 0.37869133458341708 0 -0.27493579127960133 0.40167017820802647 0 -0.26646144843300118 0.37450505674090961 0 -0.27485342132774548 0.37684551061387078 0 -0.27493579127960133 0.40167017820802647 0 -0.26646144843300118 0.37450505674090961 0 -0.27493579127960133 0.40167017820802647 0 -0.26102239510366199 0.4039891371673564 0 -0.28402606599662328 0.39173143812503891 0 -0.28239672366288282 0.37869133458341708 0 -0.27493579127960133 0.40167017820802647 0 -0.26102239510366199 0.4039891371673564 0 -0.25266398200240292 0.39713496233737761 0 -0.2479788610781079 0.41297138023459312 0 -0.26102239510366199 0.4039891371673564 0 -0.25266398200240292 0.39713496233737761 0 -0.25695201232577253 0.38799453356991642 0 -0.26646144843300118 0.37450505674090961 0 -0.26102239510366199 0.4039891371673564 0 -0.25695201232577253 0.38799453356991642 0 -0.25564315721509451 0.37732243195488668 0 -0.24764286624595139 0.38379630491891298 0 -0.25266398200240292 0.39713496233737761 0 -0.25695201232577253 0.38799453356991642 0 -0.24764286624595139 0.38379630491891298 0 -0.26646144843300118 0.37450505674090961 0 -0.26102239510366199 0.4039891371673564 0 -0.25695201232577253 0.38799453356991642 0 -0.25564315721509451 0.37732243195488668 0 -0.24764286624595139 0.38379630491891298 0 -0.2497436284699463 0.37314749472761388 0 -0.26646144843300118 0.37450505674090961 0 -0.25695201232577253 0.38799453356991642 0 -0.25564315721509451 0.37732243195488668 0 -0.26102239510366199 0.4039891371673564 0 -0.25558334177432279 0.43347321759380331 0 -0.26601602912609568 0.42914205560414498 0 -0.25558334177432279 0.43347321759380331 0 -0.26601602912609568 0.42914205560414498 0 -0.25192701380613292 0.44439355165291439 0 -0.26102239510366199 0.4039891371673564 0 -0.25145621825734288 0.42051377321214961 0 -0.2479788610781079 0.41297138023459312 0 -0.26102239510366199 0.4039891371673564 0 -0.25558334177432279 0.43347321759380331 0 -0.25145621825734288 0.42051377321214961 0 -0.26102239510366199 0.4039891371673564 0 -0.25558334177432279 0.43347321759380331 0 -0.27493579127960133 0.40167017820802647 0 -0.27501184364055159 0.42459084937423991 0 -0.26601602912609568 0.42914205560414498 0 -0.27493579127960133 0.40167017820802647 0 -0.26102239510366199 0.4039891371673564 0 -0.26601602912609568 0.42914205560414498 0 -0.27493579127960133 0.40167017820802647 0 -0.26601602912609568 0.42914205560414498 0 -0.27493579127960133 0.40167017820802647 0 -0.27501184364055159 0.42459084937423991 0 -0.27493579127960133 0.40167017820802647 0 -0.27501184364055159 0.42459084937423991 0 -0.28402868250837732 0.41232834041264199 0 -0.27501184364055159 0.42459084937423991 0 -0.27508789600150452 0.44751152054045329 0 -0.27501184364055159 0.42459084937423991 0 -0.28462174875136448 0.43315939566888012 0 -0.27508789600150452 0.44751152054045329 0 -0.27501184364055159 0.42459084937423991 0 -0.26601602912609568 0.42914205560414498 0 -0.27508789600150452 0.44751152054045329 0 -0.28462174875136448 0.43315939566888012 0 -0.2938442716049664 0.42443076370328631 0 -0.28589227962842861 0.42153301677629662 0 -0.27501184364055159 0.42459084937423991 0 -0.28462174875136448 0.43315939566888012 0 -0.28589227962842861 0.42153301677629662 0 -0.28462174875136448 0.43315939566888012 0 -0.2938442716049664 0.42443076370328631 0 -0.29573276794607067 0.43865695236764651 0 -0.28402868250837732 0.41232834041264199 0 -0.28589227962842861 0.42153301677629662 0 -0.29394914876186162 0.41375083753724617 0 -0.27501184364055159 0.42459084937423991 0 -0.28402868250837732 0.41232834041264199 0 -0.28589227962842861 0.42153301677629662 0 -0.2938442716049664 0.42443076370328631 0 -0.28589227962842861 0.42153301677629662 0 -0.29394914876186162 0.41375083753724617 0 -0.2908565789742904 0.4003939914184248 0 -0.28402868250837732 0.41232834041264199 0 -0.29394914876186162 0.41375083753724617 0 -0.2908565789742904 0.4003939914184248 0 -0.29394914876186162 0.41375083753724617 0 -0.30036430907179978 0.40680798445385657 0 -0.30036430907179978 0.40680798445385657 0 -0.30300730598102782 0.41700654905745538 0 -0.30665239340898892 0.4093020151248441 0 -0.29394914876186162 0.41375083753724617 0 -0.30036430907179978 0.40680798445385657 0 -0.30300730598102782 0.41700654905745538 0 -0.2938442716049664 0.42443076370328631 0 -0.29394914876186162 0.41375083753724617 0 -0.30300730598102782 0.41700654905745538 0 -0.30300730598102782 0.41700654905745538 0 -0.31194581895815149 0.4184170935094943 0 -0.31110419895063979 0.41329878938702441 0 -0.30300730598102782 0.41700654905745538 0 -0.31194581895815149 0.4184170935094943 0 -0.30306258410387599 0.42623492033361732 0 -0.30300730598102782 0.41700654905745538 0 -0.31110419895063979 0.41329878938702441 0 -0.30665239340898892 0.4093020151248441 0 -0.31110419895063979 0.41329878938702441 0 -0.31220201742043041 0.40637055559921859 0 -0.30665239340898892 0.4093020151248441 0 -0.30306258410387599 0.42623492033361732 0 -0.31078275602916339 0.43266324303020409 0 -0.29573276794607067 0.43865695236764651 0 -0.2938442716049664 0.42443076370328631 0 -0.30306258410387599 0.42623492033361732 0 -0.29573276794607067 0.43865695236764651 0 -0.2938442716049664 0.42443076370328631 0 -0.30300730598102782 0.41700654905745538 0 -0.30306258410387599 0.42623492033361732 0 -0.31194581895815149 0.4184170935094943 0 -0.30306258410387599 0.42623492033361732 0 -0.31078275602916339 0.43266324303020409 0 -0.31078275602916339 0.43266324303020409 0 -0.29500413605165893 0.4551088286868008 0 -0.31078275602916339 0.43266324303020409 0 -0.29500413605165893 0.4551088286868008 0 -0.29573276794607067 0.43865695236764651 0 -0.31078275602916339 0.43266324303020409 0 -0.29500413605165893 0.4551088286868008 0 -0.31897500696511882 0.44239639636031541 0 -0.29500413605165893 0.4551088286868008 0 -0.29428304563186802 0.47484813067894671 0 -0.30729251245559253 0.46970855868196792 0 -0.29500413605165893 0.4551088286868008 0 -0.30729251245559253 0.46970855868196792 0 -0.31897500696511882 0.44239639636031541 0 -0.29500413605165893 0.4551088286868008 0 -0.27922551607415441 0.47755441434339752 0 -0.29500413605165893 0.4551088286868008 0 -0.27508789600150452 0.44751152054045329 0 -0.27922551607415441 0.47755441434339752 0 -0.28462174875136448 0.43315939566888012 0 -0.29573276794607067 0.43865695236764651 0 -0.27508789600150452 0.44751152054045329 0 -0.29500413605165893 0.4551088286868008 0 -0.29573276794607067 0.43865695236764651 0 -0.27508789600150452 0.44751152054045329 0 -0.26601602912609568 0.42914205560414498 0 -0.27508789600150452 0.44751152054045329 0 -0.25709626697258792 0.45661393300026282 0 -0.27508789600150452 0.44751152054045329 0 -0.26214817441656552 0.47343822601921631 0 -0.27922551607415441 0.47755441434339752 0 -0.27508789600150452 0.44751152054045329 0 -0.25709626697258792 0.45661393300026282 0 -0.26214817441656552 0.47343822601921631 0 -0.26601602912609568 0.42914205560414498 0 -0.25709626697258792 0.45661393300026282 0 -0.25192701380613292 0.44439355165291439 0 -0.26601602912609568 0.42914205560414498 0 -0.25709626697258792 0.45661393300026282 0 -0.26344689609665178 0.49999999999999561 0 -0.26214817441656552 0.47343822601921631 0 -0.24817650481907999 0.4840858103963806 0 -0.25709626697258792 0.45661393300026282 0 -0.26214817441656552 0.47343822601921631 0 -0.24817650481907999 0.4840858103963806 0 -0.25709626697258792 0.45661393300026282 0 -0.24817650481907999 0.4840858103963806 0 -0.26344689609665178 0.49999999999999561 0 -0.26214817441656552 0.47343822601921631 0 -0.27922551607415441 0.47755441434339752 0 -0.26344689609665178 0.49999999999999561 0 -0.27922551607415441 0.47755441434339752 0 -0.2924323202181528 0.50000000000000011 0 -0.26344689609665178 0.49999999999999561 0 -0.27922551607415441 0.47755441434339752 0 -0.27922551607415441 0.47755441434339752 0 -0.29615875387107599 0.49786470850767017 0 -0.2924323202181528 0.50000000000000011 0 -0.29615875387107599 0.49786470850767017 0 -0.2924323202181528 0.50000000000000011 0 -0.27922551607415441 0.47755441434339752 0 -0.29615875387107599 0.49786470850767017 0 -0.29428304563186802 0.47484813067894671 0 -0.29500413605165893 0.4551088286868008 0 -0.27922551607415441 0.47755441434339752 0 -0.29428304563186802 0.47484813067894671 0 -0.29615875387107599 0.49786470850767017 0 -0.29428304563186802 0.47484813067894671 0 -0.30729251245559253 0.46970855868196792 0 -0.29615875387107599 0.49786470850767017 0 -0.30729251245559253 0.46970855868196792 0 -0.29615875387107599 0.49786470850767017 0 -0.30729251245559253 0.46970855868196792 0 -0.31665833270547622 0.48292614775217962 0 -0.29615875387107599 0.49786470850767017 0 -0.3106031223484802 0.48958791090584408 0 -0.31665833270547622 0.48292614775217962 0 -0.29615875387107599 0.49786470850767017 0 -0.31665833270547622 0.48292614775217962 0 -0.29615875387107599 0.49786470850767017 0 -0.3106031223484802 0.48958791090584408 0 -0.3656727732991879 0.5 0 -0.32517905490005539 0.47692096832485542 0 -0.34088434519279948 0.46585229550435892 0 -0.35809528950316522 0.47337817028961959 0 -0.3106031223484802 0.48958791090584408 0 -0.32517905490005539 0.47692096832485542 0 -0.3656727732991879 0.5 0 -0.29615875387107599 0.49786470850767017 0 -0.2924323202181528 0.50000000000000011 0 -0.3656727732991879 0.5 0 -0.32236413166038869 0.46901671117799387 0 -0.32517905490005539 0.47692096832485542 0 -0.34088434519279948 0.46585229550435892 0 -0.32517905490005539 0.47692096832485542 0 -0.34088434519279948 0.46585229550435892 0 -0.32236413166038869 0.46901671117799387 0 -0.32517905490005539 0.47692096832485542 0 -0.31665833270547622 0.48292614775217962 0 -0.32517905490005539 0.47692096832485542 0 -0.31665833270547622 0.48292614775217962 0 -0.3106031223484802 0.48958791090584408 0 -0.32517905490005539 0.47692096832485542 0 -0.3106031223484802 0.48958791090584408 0 -0.32517905490005539 0.47692096832485542 0 -0.31665833270547622 0.48292614775217962 0 -0.30729251245559253 0.46970855868196792 0 -0.32236413166038869 0.46901671117799387 0 -0.31665833270547622 0.48292614775217962 0 -0.30729251245559253 0.46970855868196792 0 -0.32462133628768658 0.45757984277346941 0 -0.31897500696511882 0.44239639636031541 0 -0.30729251245559253 0.46970855868196792 0 -0.32236413166038869 0.46901671117799387 0 -0.32462133628768658 0.45757984277346941 0 -0.30729251245559253 0.46970855868196792 0 -0.31897500696511882 0.44239639636031541 0 -0.32462133628768658 0.45757984277346941 0 -0.31897500696511882 0.44239639636031541 0 -0.33139063914752448 0.44460023896628392 0 -0.33244646256134719 0.43498007688643281 0 -0.31897500696511882 0.44239639636031541 0 -0.33139063914752448 0.44460023896628392 0 -0.32462133628768658 0.45757984277346941 0 -0.33139063914752448 0.44460023896628392 0 -0.34038297393797912 0.45012049836602608 0 -0.33244646256134719 0.43498007688643281 0 -0.33139063914752448 0.44460023896628392 0 -0.34052741598549102 0.43792438044517612 0 -0.33139063914752448 0.44460023896628392 0 -0.34038297393797912 0.45012049836602608 0 -0.34052741598549102 0.43792438044517612 0 -0.32236413166038869 0.46901671117799387 0 -0.32462133628768658 0.45757984277346941 0 -0.34088434519279948 0.46585229550435892 0 -0.32462133628768658 0.45757984277346941 0 -0.34038297393797912 0.45012049836602608 0 -0.34088434519279948 0.46585229550435892 0 -0.34088434519279948 0.46585229550435892 0 -0.35727684082520311 0.45291274285165112 0 -0.35809528950316522 0.47337817028961959 0 -0.34038297393797912 0.45012049836602608 0 -0.34088434519279948 0.46585229550435892 0 -0.35727684082520311 0.45291274285165112 0 -0.34088434519279948 0.46585229550435892 0 -0.35727684082520311 0.45291274285165112 0 -0.34038297393797912 0.45012049836602608 0 -0.35727684082520311 0.45291274285165112 0 -0.35373943720712597 0.44027787798249252 0 -0.34038297393797912 0.45012049836602608 0 -0.34052741598549102 0.43792438044517612 0 -0.35373943720712597 0.44027787798249252 0 -0.35727684082520311 0.45291274285165112 0 -0.37369785120572419 0.44000947876684038 0 -0.35727684082520311 0.45291274285165112 0 -0.35373943720712597 0.44027787798249252 0 -0.37369785120572419 0.44000947876684038 0 -0.37869249069491828 0.46473094354446459 0 -0.35727684082520311 0.45291274285165112 0 -0.37369785120572419 0.44000947876684038 0 -0.37869249069491828 0.46473094354446459 0 -0.35727684082520311 0.45291274285165112 0 -0.35809528950316522 0.47337817028961959 0 -0.37869249069491828 0.46473094354446459 0 -0.3656727732991879 0.5 0 -0.35809528950316522 0.47337817028961959 0 -0.32517905490005539 0.47692096832485542 0 -0.3656727732991879 0.5 0 -0.35809528950316522 0.47337817028961959 0 -0.14086873407513001 0.48299121119320121 0 -0.14867953178305021 0.47929355615607128 0 -0.14818106720341179 0.48986892776338548 0 -0.14086873407513001 0.48299121119320121 0 -0.14231852586050731 0.47348296059300798 0 -0.14867953178305021 0.47929355615607128 0 -0.14231852586050731 0.47348296059300798 0 -0.14832038420104871 0.47028884845336177 0 -0.1441148717216697 0.46392831220405029 0 -0.14231852586050731 0.47348296059300798 0 -0.14832038420104871 0.47028884845336177 0 -0.14867953178305021 0.47929355615607128 0 -0.14832038420104871 0.47028884845336177 0 -0.15432220235533881 0.47447023788523768 0 -0.14867953178305021 0.47929355615607128 0 -0.14832038420104871 0.47028884845336177 0 -0.15432220235533881 0.47447023788523768 0 -0.15225788565976631 0.46813456242918439 0 -0.15432220235533881 0.47447023788523768 0 -0.14867953178305021 0.47929355615607128 0 -0.15806627700286449 0.48465915104823359 0 -0.15193139610526341 0.5 0 -0.14818106720341179 0.48986892776338548 0 -0.15806627700286449 0.48465915104823359 0 -0.14867953178305021 0.47929355615607128 0 -0.14818106720341179 0.48986892776338548 0 -0.15806627700286449 0.48465915104823359 0 -0.15193139610526341 0.5 0 -0.14818106720341179 0.48986892776338548 0 -0.1240525211074163 0.49999999999999512 0 -0.13248926921757989 0.47466611745110782 0 -0.1240525211074163 0.49999999999999512 0 -0.14086873407513001 0.48299121119320121 0 -0.14818106720341179 0.48986892776338548 0 -0.1240525211074163 0.49999999999999512 0 -0.14086873407513001 0.48299121119320121 0 -0.13248926921757989 0.47466611745110782 0 -0.1240525211074163 0.49999999999999512 0 -0.14086873407513001 0.48299121119320121 0 -0.14231852586050731 0.47348296059300798 0 -0.13248926921757989 0.47466611745110782 0 -0.14231852586050731 0.47348296059300798 0 -0.13248926921757989 0.47466611745110782 0 -0.1441148717216697 0.46392831220405029 0 -0.13248926921757989 0.47466611745110782 0 -0.1231494702710853 0.46539638412097412 0 -0.11988321547935191 0.47559948104179939 0 -0.13248926921757989 0.47466611745110782 0 -0.14092601732774879 0.44933223490222229 0 -0.1441148717216697 0.46392831220405029 0 -0.13248926921757989 0.47466611745110782 0 -0.14092601732774879 0.44933223490222229 0 -0.13248926921757989 0.47466611745110782 0 -0.12952280689371309 0.45378977665046449 0 -0.14092601732774879 0.44933223490222229 0 -0.13248926921757989 0.47466611745110782 0 -0.12952280689371309 0.45378977665046449 0 -0.1231494702710853 0.46539638412097412 0 -0.14092601732774879 0.44933223490222229 0 -0.1225327829094065 0.43975523689572388 0 -0.12952280689371309 0.45378977665046449 0 -0.14092601732774879 0.44933223490222229 0 -0.1225327829094065 0.43975523689572388 0 -0.1290988346973517 0.43784586541086279 0 -0.14092601732774879 0.44933223490222229 0 -0.1225327829094065 0.43975523689572388 0 -0.1290988346973517 0.43784586541086279 0 -0.1225327829094065 0.43975523689572388 0 -0.1290988346973517 0.43784586541086279 0 -0.13968498328177389 0.43807237906633739 0 -0.14092601732774879 0.44933223490222229 0 -0.1290988346973517 0.43784586541086279 0 -0.13968498328177389 0.43807237906633739 0 -0.13968498328177389 0.43807237906633739 0 -0.1429493629329957 0.4432565290437665 0 -0.14092601732774879 0.44933223490222229 0 -0.14464048891315551 0.43817841287894849 0 -0.1429493629329957 0.4432565290437665 0 -0.13968498328177389 0.43807237906633739 0 -0.1429493629329957 0.4432565290437665 0 -0.13968498328177389 0.43807237906633739 0 -0.14464048891315551 0.43817841287894849 0 -0.1429493629329957 0.4432565290437665 0 -0.13968498328177389 0.43807237906633739 0 -0.14464048891315551 0.43817841287894849 0 -0.14464048891315551 0.43817841287894849 0 -0.1429493629329957 0.4432565290437665 0 -0.14956692064590871 0.4457405698299961 0 -0.1429493629329957 0.4432565290437665 0 -0.14962831665722279 0.45386335223779839 0 -0.14092601732774879 0.44933223490222229 0 -0.14962831665722279 0.45386335223779839 0 -0.1429493629329957 0.4432565290437665 0 -0.14092601732774879 0.44933223490222229 0 -0.14962831665722279 0.45386335223779839 0 -0.1429493629329957 0.4432565290437665 0 -0.14956692064590871 0.4457405698299961 0 -0.14962831665722279 0.45386335223779839 0 -0.1429493629329957 0.4432565290437665 0 -0.14092601732774879 0.44933223490222229 0 -0.1540909625662519 0.44999653735587952 0 -0.14956692064590871 0.4457405698299961 0 -0.14962831665722279 0.45386335223779839 0 -0.1540909625662519 0.44999653735587952 0 -0.14962831665722279 0.45386335223779839 0 -0.15191493078027399 0.4550539475621469 0 -0.1540909625662519 0.44999653735587952 0 -0.15191493078027399 0.4550539475621469 0 -0.15613307796382281 0.45372327063338169 0 -0.1540909625662519 0.44999653735587952 0 -0.14956692064590871 0.4457405698299961 0 -0.15652547215991669 0.44340801763358828 0 -0.14464048891315551 0.43817841287894849 0 -0.14956692064590871 0.4457405698299961 0 -0.15652547215991669 0.44340801763358828 0 -0.14962831665722279 0.45386335223779839 0 -0.15225788565976631 0.46813456242918439 0 -0.1649036533635499 0.47812206136547453 0 -0.14832038420104871 0.47028884845336177 0 -0.1441148717216697 0.46392831220405029 0 -0.15225788565976631 0.46813456242918439 0 -0.14092601732774879 0.44933223490222229 0 -0.1441148717216697 0.46392831220405029 0 -0.14962831665722279 0.45386335223779839 0 -0.14962831665722279 0.45386335223779839 0 -0.15191493078027399 0.4550539475621469 0 -0.1601186172237547 0.46353001932620408 0 -0.14962831665722279 0.45386335223779839 0 -0.15191493078027399 0.4550539475621469 0 -0.15191493078027399 0.4550539475621469 0 -0.15613307796382281 0.45372327063338169 0 -0.15681688871808189 0.457245305657622 0 -0.1441148717216697 0.46392831220405029 0 -0.14962831665722279 0.45386335223779839 0 -0.15225788565976631 0.46813456242918439 0 -0.14962831665722279 0.45386335223779839 0 -0.1601186172237547 0.46353001932620408 0 -0.1649036533635499 0.47812206136547453 0 -0.14962831665722279 0.45386335223779839 0 -0.1649036533635499 0.47812206136547453 0 -0.15191493078027399 0.4550539475621469 0 -0.1601186172237547 0.46353001932620408 0 -0.15681688871808189 0.457245305657622 0 -0.1601186172237547 0.46353001932620408 0 -0.15681688871808189 0.457245305657622 0 -0.15910092890447619 0.45667398510875551 0 -0.15613307796382281 0.45372327063338169 0 -0.15910092890447619 0.45667398510875551 0 -0.16056411238759449 0.45174249211005879 0 -0.15613307796382281 0.45372327063338169 0 -0.15681688871808189 0.457245305657622 0 -0.15910092890447619 0.45667398510875551 0 -0.15910092890447619 0.45667398510875551 0 -0.16366017532146909 0.45821217482414539 0 -0.16056411238759449 0.45174249211005879 0 -0.1601186172237547 0.46353001932620408 0 -0.15910092890447619 0.45667398510875551 0 -0.16366017532146909 0.45821217482414539 0 -0.1699575452332312 0.45484442217036392 0 -0.16842050118696619 0.46326612670156331 0 -0.17619040320496429 0.45953311870845248 0 -0.16366017532146909 0.45821217482414539 0 -0.1699575452332312 0.45484442217036392 0 -0.16056411238759449 0.45174249211005879 0 -0.16366017532146909 0.45821217482414539 0 -0.1699575452332312 0.45484442217036392 0 -0.16842050118696619 0.46326612670156331 0 -0.1601186172237547 0.46353001932620408 0 -0.16366017532146909 0.45821217482414539 0 -0.16842050118696619 0.46326612670156331 0 -0.1601186172237547 0.46353001932620408 0 -0.16842050118696619 0.46326612670156331 0 -0.16685612031475239 0.46922197534152033 0 -0.16842050118696619 0.46326612670156331 0 -0.17398170948473871 0.4719696939728395 0 -0.16685612031475239 0.46922197534152033 0 -0.14464048891315551 0.43817841287894849 0 -0.1681245751755191 0.43868090594168568 0 -0.14464048891315551 0.43817841287894849 0 -0.15652547215991669 0.44340801763358828 0 -0.1681245751755191 0.43868090594168568 0 -0.15652547215991669 0.44340801763358828 0 -0.16677336462190681 0.44739619033114952 0 -0.1681245751755191 0.43868090594168568 0 -0.1540909625662519 0.44999653735587952 0 -0.15652547215991669 0.44340801763358828 0 -0.16056411238759449 0.45174249211005879 0 -0.15652547215991669 0.44340801763358828 0 -0.16056411238759449 0.45174249211005879 0 -0.16677336462190681 0.44739619033114952 0 -0.1540909625662519 0.44999653735587952 0 -0.15613307796382281 0.45372327063338169 0 -0.16056411238759449 0.45174249211005879 0 -0.1699575452332312 0.45484442217036392 0 -0.16677336462190681 0.44739619033114952 0 -0.17869511815327269 0.44830511380005061 0 -0.1699575452332312 0.45484442217036392 0 -0.16056411238759449 0.45174249211005879 0 -0.16677336462190681 0.44739619033114952 0 -0.16677336462190681 0.44739619033114952 0 -0.1681245751755191 0.43868090594168568 0 -0.17869511815327269 0.44830511380005061 0 -0.17869511815327269 0.44830511380005061 0 -0.18989714196661289 0.45928023689744529 0 -0.19160866143788269 0.43918339900442199 0 -0.1681245751755191 0.43868090594168568 0 -0.19160866143788269 0.43918339900442199 0 -0.1681245751755191 0.43868090594168568 0 -0.17869511815327269 0.44830511380005061 0 -0.19160866143788269 0.43918339900442199 0 -0.17398170948473871 0.4719696939728395 0 -0.18989714196661289 0.45928023689744529 0 -0.17619040320496429 0.45953311870845248 0 -0.17398170948473871 0.4719696939728395 0 -0.18989714196661289 0.45928023689744529 0 -0.16842050118696619 0.46326612670156331 0 -0.17619040320496429 0.45953311870845248 0 -0.17398170948473871 0.4719696939728395 0 -0.1699575452332312 0.45484442217036392 0 -0.17869511815327269 0.44830511380005061 0 -0.17619040320496429 0.45953311870845248 0 -0.17869511815327269 0.44830511380005061 0 -0.17619040320496429 0.45953311870845248 0 -0.18989714196661289 0.45928023689744529 0 -0.17398170948473871 0.4719696939728395 0 -0.17106037607732991 0.4871951555728033 0 -0.19151222669067219 0.47934693284294327 0 -0.17398170948473871 0.4719696939728395 0 -0.19151222669067219 0.47934693284294327 0 -0.18989714196661289 0.45928023689744529 0 -0.17398170948473871 0.4719696939728395 0 -0.17106037607732991 0.4871951555728033 0 -0.15806627700286449 0.48465915104823359 0 -0.17398170948473871 0.4719696939728395 0 -0.15806627700286449 0.48465915104823359 0 -0.17398170948473871 0.4719696939728395 0 -0.1649036533635499 0.47812206136547453 0 -0.15806627700286449 0.48465915104823359 0 -0.17398170948473871 0.4719696939728395 0 -0.16685612031475239 0.46922197534152033 0 -0.1649036533635499 0.47812206136547453 0 -0.15432220235533881 0.47447023788523768 0 -0.1649036533635499 0.47812206136547453 0 -0.15806627700286449 0.48465915104823359 0 -0.1601186172237547 0.46353001932620408 0 -0.16685612031475239 0.46922197534152033 0 -0.1649036533635499 0.47812206136547453 0 -0.15432220235533881 0.47447023788523768 0 -0.15225788565976631 0.46813456242918439 0 -0.1649036533635499 0.47812206136547453 0 -0.15193139610526341 0.5 0 -0.17106037607732991 0.4871951555728033 0 -0.15806627700286449 0.48465915104823359 0 -0.15193139610526341 0.5 0 -0.17106037607732991 0.4871951555728033 0 -0.17981027110311071 0.5 0 -0.17106037607732991 0.4871951555728033 0 -0.17981027110311071 0.5 0 -0.19151222669067219 0.47934693284294327 0 -0.19151222669067219 0.47934693284294327 0 -0.2100003960179167 0.47638423854836492 0 -0.20768914610095771 0.5 0 -0.17981027110311071 0.5 0 -0.19151222669067219 0.47934693284294327 0 -0.20768914610095771 0.5 0 -0.19151222669067219 0.47934693284294327 0 -0.2100003960179167 0.47638423854836492 0 -0.2063908502184815 0.46096114403842192 0 -0.2100003960179167 0.47638423854836492 0 -0.20768914610095771 0.5 0 -0.22744002561351029 0.48077716204793991 0 -0.20768914610095771 0.5 0 -0.22744002561351029 0.48077716204793991 0 -0.23556802109880479 0.5 0 -0.2100003960179167 0.47638423854836492 0 -0.22744002561351029 0.48077716204793991 0 -0.21927267487265681 0.46836528913326708 0 -0.22744002561351029 0.48077716204793991 0 -0.24075001381890471 0.46809609393374019 0 -0.23031974354626639 0.46310394747724248 0 -0.22744002561351029 0.48077716204793991 0 -0.23031974354626639 0.46310394747724248 0 -0.21927267487265681 0.46836528913326708 0 -0.25709626697258792 0.45661393300026282 0 -0.24817650481907999 0.4840858103963806 0 -0.24075001381890471 0.46809609393374019 0 -0.22744002561351029 0.48077716204793991 0 -0.24817650481907999 0.4840858103963806 0 -0.24075001381890471 0.46809609393374019 0 -0.26344689609665178 0.49999999999999561 0 -0.24817650481907999 0.4840858103963806 0 -0.23556802109880479 0.5 0 -0.22744002561351029 0.48077716204793991 0 -0.24817650481907999 0.4840858103963806 0 -0.23556802109880479 0.5 0 -0.25709626697258792 0.45661393300026282 0 -0.25192701380613292 0.44439355165291439 0 -0.24071752814307881 0.45589961674687518 0 -0.23694085354882491 0.44452278889524299 0 -0.24071752814307881 0.45589961674687518 0 -0.22711460628691341 0.45299793902588847 0 -0.25192701380613292 0.44439355165291439 0 -0.23694085354882491 0.44452278889524299 0 -0.2412402750732788 0.43162135785284572 0 -0.25192701380613292 0.44439355165291439 0 -0.23694085354882491 0.44452278889524299 0 -0.24071752814307881 0.45589961674687518 0 -0.25709626697258792 0.45661393300026282 0 -0.24075001381890471 0.46809609393374019 0 -0.24071752814307881 0.45589961674687518 0 -0.24075001381890471 0.46809609393374019 0 -0.24071752814307881 0.45589961674687518 0 -0.23031974354626639 0.46310394747724248 0 -0.24071752814307881 0.45589961674687518 0 -0.23031974354626639 0.46310394747724248 0 -0.22711460628691341 0.45299793902588847 0 -0.23031974354626639 0.46310394747724248 0 -0.21927267487265681 0.46836528913326708 0 -0.21757434708596321 0.45762262993975411 0 -0.23031974354626639 0.46310394747724248 0 -0.22711460628691341 0.45299793902588847 0 -0.21757434708596321 0.45762262993975411 0 -0.22711460628691341 0.45299793902588847 0 -0.22116643988693241 0.44422162840306678 0 -0.2142874352372944 0.44809950427644479 0 -0.22711460628691341 0.45299793902588847 0 -0.2142874352372944 0.44809950427644479 0 -0.21757434708596321 0.45762262993975411 0 -0.23694085354882491 0.44452278889524299 0 -0.22116643988693241 0.44422162840306678 0 -0.22689571776329759 0.42978108002832222 0 -0.23694085354882491 0.44452278889524299 0 -0.22711460628691341 0.45299793902588847 0 -0.22116643988693241 0.44422162840306678 0 -0.22116643988693241 0.44422162840306678 0 -0.2058125744484875 0.44659077982205148 0 -0.22689571776329759 0.42978108002832222 0 -0.2058125744484875 0.44659077982205148 0 -0.22689571776329759 0.42978108002832222 0 -0.22116643988693241 0.44422162840306678 0 -0.2142874352372944 0.44809950427644479 0 -0.2058125744484875 0.44659077982205148 0 -0.2142874352372944 0.44809950427644479 0 -0.20648099006833809 0.44929031915842899 0 -0.2058125744484875 0.44659077982205148 0 -0.2142874352372944 0.44809950427644479 0 -0.20648099006833809 0.44929031915842899 0 -0.21074885581859271 0.45515904264354867 0 -0.20648099006833809 0.44929031915842899 0 -0.2058125744484875 0.44659077982205148 0 -0.2100003960179167 0.47638423854836492 0 -0.21927267487265681 0.46836528913326708 0 -0.2063908502184815 0.46096114403842192 0 -0.21927267487265681 0.46836528913326708 0 -0.21757434708596321 0.45762262993975411 0 -0.2063908502184815 0.46096114403842192 0 -0.2142874352372944 0.44809950427644479 0 -0.21757434708596321 0.45762262993975411 0 -0.21074885581859271 0.45515904264354867 0 -0.21757434708596321 0.45762262993975411 0 -0.21074885581859271 0.45515904264354867 0 -0.2063908502184815 0.46096114403842192 0 -0.20648099006833809 0.44929031915842899 0 -0.21074885581859271 0.45515904264354867 0 -0.2063908502184815 0.46096114403842192 0 -0.19151222669067219 0.47934693284294327 0 -0.2063908502184815 0.46096114403842192 0 -0.18989714196661289 0.45928023689744529 0 -0.20648099006833809 0.44929031915842899 0 -0.2063908502184815 0.46096114403842192 0 -0.18989714196661289 0.45928023689744529 0 -0.2058125744484875 0.44659077982205148 0 -0.18989714196661289 0.45928023689744529 0 -0.19160866143788269 0.43918339900442199 0 -0.20648099006833809 0.44929031915842899 0 -0.2058125744484875 0.44659077982205148 0 -0.18989714196661289 0.45928023689744529 0 -0.2058125744484875 0.44659077982205148 0 -0.18989714196661289 0.45928023689744529 0 -0.2058125744484875 0.44659077982205148 0 -0.19160866143788269 0.43918339900442199 0 -0.199179137082207 0.419800225301942 0 -0.2058125744484875 0.44659077982205148 0 -0.199179137082207 0.419800225301942 0 -0.19160866143788269 0.43918339900442199 0 -0.199179137082207 0.419800225301942 0 -0.18280004196774821 0.42222985183434703 0 -0.199179137082207 0.419800225301942 0 -0.19254569971592569 0.39300967078183269 0 -0.18375216497471339 0.40958518208228828 0 -0.199179137082207 0.419800225301942 0 -0.18375216497471339 0.40958518208228828 0 -0.18280004196774821 0.42222985183434703 0 -0.199179137082207 0.419800225301942 0 -0.19254569971592569 0.39300967078183269 0 -0.199179137082207 0.419800225301942 0 -0.2119639760637454 0.41908052215459662 0 -0.20801370811251771 0.40488294324646729 0 -0.2119639760637454 0.41908052215459662 0 -0.22202683646387719 0.40904424278118812 0 -0.20801370811251771 0.40488294324646729 0 -0.2058125744484875 0.44659077982205148 0 -0.21074645516945709 0.43115262456406811 0 -0.22689571776329759 0.42978108002832222 0 -0.2119639760637454 0.41908052215459662 0 -0.21074645516945709 0.43115262456406811 0 -0.22689571776329759 0.42978108002832222 0 -0.2058125744484875 0.44659077982205148 0 -0.199179137082207 0.419800225301942 0 -0.21074645516945709 0.43115262456406811 0 -0.199179137082207 0.419800225301942 0 -0.2119639760637454 0.41908052215459662 0 -0.21074645516945709 0.43115262456406811 0 -0.2119639760637454 0.41908052215459662 0 -0.22689571776329759 0.42978108002832222 0 -0.22202683646387719 0.40904424278118812 0 -0.22689571776329759 0.42978108002832222 0 -0.22202683646387719 0.40904424278118812 0 -0.23370620195730549 0.40906290933279171 0 -0.22689571776329759 0.42978108002832222 0 -0.23370620195730549 0.40906290933279171 0 -0.2479788610781079 0.41297138023459312 0 -0.22689571776329759 0.42978108002832222 0 -0.2479788610781079 0.41297138023459312 0 -0.25145621825734288 0.42051377321214961 0 -0.2479788610781079 0.41297138023459312 0 -0.2412402750732788 0.43162135785284572 0 -0.22689571776329759 0.42978108002832222 0 -0.2479788610781079 0.41297138023459312 0 -0.2412402750732788 0.43162135785284572 0 -0.25558334177432279 0.43347321759380331 0 -0.25145621825734288 0.42051377321214961 0 -0.2412402750732788 0.43162135785284572 0 -0.25558334177432279 0.43347321759380331 0 -0.25192701380613292 0.44439355165291439 0 -0.2412402750732788 0.43162135785284572 0 -0.23694085354882491 0.44452278889524299 0 -0.22689571776329759 0.42978108002832222 0 -0.2412402750732788 0.43162135785284572 0 -0.2361812703578462 0.3848656482542353 0 -0.24764286624595139 0.38379630491891298 0 -0.24225375703605359 0.39658748606746302 0 -0.2361812703578462 0.3848656482542353 0 -0.24086566659649761 0.3762231297536105 0 -0.24764286624595139 0.38379630491891298 0 -0.2361812703578462 0.3848656482542353 0 -0.24086566659649761 0.3762231297536105 0 -0.22742095933843451 0.37564378240796897 0 -0.24086566659649761 0.3762231297536105 0 -0.24764286624595139 0.38379630491891298 0 -0.2497436284699463 0.37314749472761388 0 -0.25266398200240292 0.39713496233737761 0 -0.2479788610781079 0.41297138023459312 0 -0.24225375703605359 0.39658748606746302 0 -0.25266398200240292 0.39713496233737761 0 -0.24764286624595139 0.38379630491891298 0 -0.24225375703605359 0.39658748606746302 0 -0.23370620195730549 0.40906290933279171 0 -0.2479788610781079 0.41297138023459312 0 -0.24225375703605359 0.39658748606746302 0 -0.23370620195730549 0.40906290933279171 0 -0.24225375703605359 0.39658748606746302 0 -0.22937583744519111 0.3969303575523922 0 -0.2361812703578462 0.3848656482542353 0 -0.24225375703605359 0.39658748606746302 0 -0.22937583744519111 0.3969303575523922 0 -0.22202683646387719 0.40904424278118812 0 -0.23370620195730549 0.40906290933279171 0 -0.22937583744519111 0.3969303575523922 0 -0.22202683646387719 0.40904424278118812 0 -0.22937583744519111 0.3969303575523922 0 -0.21745810281340541 0.39779651746908579 0 -0.22937583744519111 0.3969303575523922 0 -0.2215104199215244 0.38683900998356791 0 -0.21745810281340541 0.39779651746908579 0 -0.2361812703578462 0.3848656482542353 0 -0.22937583744519111 0.3969303575523922 0 -0.2215104199215244 0.38683900998356791 0 -0.2361812703578462 0.3848656482542353 0 -0.2215104199215244 0.38683900998356791 0 -0.22742095933843451 0.37564378240796897 0 -0.2215104199215244 0.38683900998356791 0 -0.22742095933843451 0.37564378240796897 0 -0.2124295916254175 0.38034252501769727 0 -0.22742095933843451 0.37564378240796897 0 -0.2124295916254175 0.38034252501769727 0 -0.21773112860446181 0.37052788264228148 0 -0.2215104199215244 0.38683900998356791 0 -0.2124295916254175 0.38034252501769727 0 -0.20636371212391649 0.39128603378181342 0 -0.2124295916254175 0.38034252501769727 0 -0.20636371212391649 0.39128603378181342 0 -0.19959175598245629 0.38181398918097198 0 -0.2124295916254175 0.38034252501769727 0 -0.19959175598245629 0.38181398918097198 0 -0.20299216290066499 0.3727899253732278 0 -0.22202683646387719 0.40904424278118812 0 -0.21745810281340541 0.39779651746908579 0 -0.20801370811251771 0.40488294324646729 0 -0.2215104199215244 0.38683900998356791 0 -0.21745810281340541 0.39779651746908579 0 -0.20636371212391649 0.39128603378181342 0 -0.21745810281340541 0.39779651746908579 0 -0.20636371212391649 0.39128603378181342 0 -0.20801370811251771 0.40488294324646729 0 -0.199179137082207 0.419800225301942 0 -0.20801370811251771 0.40488294324646729 0 -0.19254569971592569 0.39300967078183269 0 -0.20636371212391649 0.39128603378181342 0 -0.20801370811251771 0.40488294324646729 0 -0.19254569971592569 0.39300967078183269 0 -0.20636371212391649 0.39128603378181342 0 -0.19254569971592569 0.39300967078183269 0 -0.19254569971592569 0.39300967078183269 0 -0.18816071433062201 0.37529997013221139 0 -0.19254569971592569 0.39300967078183269 0 -0.19959175598245629 0.38181398918097198 0 -0.18816071433062201 0.37529997013221139 0 -0.20636371212391649 0.39128603378181342 0 -0.19254569971592569 0.39300967078183269 0 -0.19959175598245629 0.38181398918097198 0 -0.18816071433062201 0.37529997013221139 0 -0.1756076650621218 0.38603622937248988 0 -0.1673345084988028 0.37003276964796811 0 -0.19254569971592569 0.39300967078183269 0 -0.18816071433062201 0.37529997013221139 0 -0.1756076650621218 0.38603622937248988 0 -0.18816071433062201 0.37529997013221139 0 -0.1756076650621218 0.38603622937248988 0 -0.15825836888402009 0.39728661816824618 0 -0.1637394860037332 0.39660291229289762 0 -0.1673345084988028 0.37003276964796811 0 -0.15825836888402009 0.39728661816824618 0 -0.1673345084988028 0.37003276964796811 0 -0.15825836888402009 0.39728661816824618 0 -0.14709899980122471 0.37521340339153531 0 -0.1673345084988028 0.37003276964796811 0 -0.1756076650621218 0.38603622937248988 0 -0.1637394860037332 0.39660291229289762 0 -0.1673345084988028 0.37003276964796811 0 -0.15627190360854359 0.40325157970546649 0 -0.1637394860037332 0.39660291229289762 0 -0.1698624361914513 0.41156313338334072 0 -0.15627190360854359 0.40325157970546649 0 -0.1637394860037332 0.39660291229289762 0 -0.15627190360854359 0.40325157970546649 0 -0.15825836888402009 0.39728661816824618 0 -0.15627190360854359 0.40325157970546649 0 -0.15825836888402009 0.39728661816824618 0 -0.1637394860037332 0.39660291229289762 0 -0.15825836888402009 0.39728661816824618 0 -0.1637394860037332 0.39660291229289762 0 -0.1756076650621218 0.38603622937248988 0 -0.1637394860037332 0.39660291229289762 0 -0.1637394860037332 0.39660291229289762 0 -0.17747494672145589 0.40269022463508969 0 -0.1698624361914513 0.41156313338334072 0 -0.19254569971592569 0.39300967078183269 0 -0.1637394860037332 0.39660291229289762 0 -0.19254569971592569 0.39300967078183269 0 -0.17747494672145589 0.40269022463508969 0 -0.18375216497471339 0.40958518208228828 0 -0.19254569971592569 0.39300967078183269 0 -0.1756076650621218 0.38603622937248988 0 -0.1637394860037332 0.39660291229289762 0 -0.19254569971592569 0.39300967078183269 0 -0.1637394860037332 0.39660291229289762 0 -0.17747494672145589 0.40269022463508969 0 -0.18280004196774821 0.42222985183434703 0 -0.16461480106998341 0.42751801914354381 0 -0.1698624361914513 0.41156313338334072 0 -0.18375216497471339 0.40958518208228828 0 -0.18280004196774821 0.42222985183434703 0 -0.1698624361914513 0.41156313338334072 0 -0.17747494672145589 0.40269022463508969 0 -0.18375216497471339 0.40958518208228828 0 -0.1698624361914513 0.41156313338334072 0 -0.1681245751755191 0.43868090594168568 0 -0.19160866143788269 0.43918339900442199 0 -0.18280004196774821 0.42222985183434703 0 -0.18280004196774821 0.42222985183434703 0 -0.16461480106998341 0.42751801914354381 0 -0.1681245751755191 0.43868090594168568 0 -0.16461480106998341 0.42751801914354381 0 -0.14642956017221859 0.43280618645274038 0 -0.1681245751755191 0.43868090594168568 0 -0.18280004196774821 0.42222985183434703 0 -0.16461480106998341 0.42751801914354381 0 -0.16461480106998341 0.42751801914354381 0 -0.1698624361914513 0.41156313338334072 0 -0.1603495317350547 0.41439930041666412 0 -0.16461480106998341 0.42751801914354381 0 -0.1603495317350547 0.41439930041666412 0 -0.15135073189038201 0.41802888307910369 0 -0.15627190360854359 0.40325157970546649 0 -0.1698624361914513 0.41156313338334072 0 -0.1603495317350547 0.41439930041666412 0 -0.15627190360854359 0.40325157970546649 0 -0.15135073189038201 0.41802888307910369 0 -0.15627190360854359 0.40325157970546649 0 -0.15135073189038201 0.41802888307910369 0 -0.1439329764187352 0.41423738726290421 0 -0.15627190360854359 0.40325157970546649 0 -0.1439329764187352 0.41423738726290421 0 -0.15627190360854359 0.40325157970546649 0 -0.1603495317350547 0.41439930041666412 0 -0.15135073189038201 0.41802888307910369 0 -0.15627190360854359 0.40325157970546649 0 -0.1439329764187352 0.41423738726290421 0 -0.1477724985203783 0.40413339899218992 0 -0.15135073189038201 0.41802888307910369 0 -0.1439329764187352 0.41423738726290421 0 -0.14376811890448399 0.42371178545572508 0 -0.16461480106998341 0.42751801914354381 0 -0.14642956017221859 0.43280618645274038 0 -0.14464048891315551 0.43817841287894849 0 -0.1681245751755191 0.43868090594168568 0 -0.14642956017221859 0.43280618645274038 0 -0.16461480106998341 0.42751801914354381 0 -0.15135073189038201 0.41802888307910369 0 -0.14642956017221859 0.43280618645274038 0 -0.15135073189038201 0.41802888307910369 0 -0.14642956017221859 0.43280618645274038 0 -0.14376811890448399 0.42371178545572508 0 -0.14642956017221859 0.43280618645274038 0 -0.14038372233093321 0.42937519487637638 0 -0.15135073189038201 0.41802888307910369 0 -0.14376811890448399 0.42371178545572508 0 -0.14642956017221859 0.43280618645274038 0 -0.14642956017221859 0.43280618645274038 0 -0.13792601639881669 0.43527896987351777 0 -0.14038372233093321 0.42937519487637638 0 -0.14642956017221859 0.43280618645274038 0 -0.13792601639881669 0.43527896987351777 0 -0.14464048891315551 0.43817841287894849 0 -0.14642956017221859 0.43280618645274038 0 -0.13792601639881669 0.43527896987351777 0 -0.13968498328177389 0.43807237906633739 0 -0.14464048891315551 0.43817841287894849 0 -0.13792601639881669 0.43527896987351777 0 -0.14464048891315551 0.43817841287894849 0 -0.14642956017221859 0.43280618645274038 0 -0.1290988346973517 0.43784586541086279 0 -0.13792601639881669 0.43527896987351777 0 -0.13792601639881669 0.43527896987351777 0 -0.13159404922892839 0.42522319482034382 0 -0.1290988346973517 0.43784586541086279 0 -0.13968498328177389 0.43807237906633739 0 -0.13792601639881669 0.43527896987351777 0 -0.13792601639881669 0.43527896987351777 0 -0.13159404922892839 0.42522319482034382 0 -0.1308296856146938 0.43160435923150858 0 -0.13792601639881669 0.43527896987351777 0 -0.14038372233093321 0.42937519487637638 0 -0.13159404922892839 0.42522319482034382 0 -0.13968498328177389 0.43807237906633739 0 -0.13792601639881669 0.43527896987351777 0 -0.14376811890448399 0.42371178545572508 0 -0.14038372233093321 0.42937519487637638 0 -0.13159404922892839 0.42522319482034382 0 -0.13159404922892839 0.42522319482034382 0 -0.12956812288156139 0.42702695268643343 0 -0.122323280127368 0.42826150590421419 0 -0.12956812288156139 0.42702695268643343 0 -0.12596140486681129 0.43264681336638461 0 -0.122323280127368 0.42826150590421419 0 -0.13159404922892839 0.42522319482034382 0 -0.12956812288156139 0.42702695268643343 0 -0.1308296856146938 0.43160435923150858 0 -0.13159404922892839 0.42522319482034382 0 -0.12956812288156139 0.42702695268643343 0 -0.1290988346973517 0.43784586541086279 0 -0.13792601639881669 0.43527896987351777 0 -0.1308296856146938 0.43160435923150858 0 -0.12956812288156139 0.42702695268643343 0 -0.1308296856146938 0.43160435923150858 0 -0.12596140486681129 0.43264681336638461 0 -0.1290988346973517 0.43784586541086279 0 -0.1308296856146938 0.43160435923150858 0 -0.12596140486681129 0.43264681336638461 0 -0.1439329764187352 0.41423738726290421 0 -0.13159404922892839 0.42522319482034382 0 -0.13774206334015371 0.39984578965362189 0 -0.13159404922892839 0.42522319482034382 0 -0.13774206334015371 0.39984578965362189 0 -0.1172257577962874 0.40240496113899882 0 -0.1439329764187352 0.41423738726290421 0 -0.13159404922892839 0.42522319482034382 0 -0.1439329764187352 0.41423738726290421 0 -0.14376811890448399 0.42371178545572508 0 -0.13159404922892839 0.42522319482034382 0 -0.13774206334015371 0.39984578965362189 0 -0.1172257577962874 0.40240496113899882 0 -0.13774206334015371 0.39984578965362189 0 -0.12686349110364681 0.38039403713510422 0 -0.1172257577962874 0.40240496113899882 0 -0.13774206334015371 0.39984578965362189 0 -0.12686349110364681 0.38039403713510422 0 -0.14709899980122471 0.37521340339153531 0 -0.12686349110364681 0.38039403713510422 0 -0.14709899980122471 0.37521340339153531 0 -0.15825836888402009 0.39728661816824618 0 -0.13774206334015371 0.39984578965362189 0 -0.1477724985203783 0.40413339899218992 0 -0.15825836888402009 0.39728661816824618 0 -0.13774206334015371 0.39984578965362189 0 -0.15825836888402009 0.39728661816824618 0 -0.13774206334015371 0.39984578965362189 0 -0.14709899980122471 0.37521340339153531 0 -0.15627190360854359 0.40325157970546649 0 -0.15825836888402009 0.39728661816824618 0 -0.1477724985203783 0.40413339899218992 0 -0.1439329764187352 0.41423738726290421 0 -0.13774206334015371 0.39984578965362189 0 -0.1477724985203783 0.40413339899218992 0 -0.15327562131020919 0.35722905717784459 0 -0.13221035113767801 0.35746771982914882 0 -0.14527883393681379 0.34257078317659651 0 -0.15327562131020919 0.35722905717784459 0 -0.14527883393681379 0.34257078317659651 0 -0.16036370552846591 0.3395840458682976 0 -0.14709899980122471 0.37521340339153531 0 -0.15327562131020919 0.35722905717784459 0 -0.13221035113767801 0.35746771982914882 0 -0.14709899980122471 0.37521340339153531 0 -0.15327562131020919 0.35722905717784459 0 -0.1673345084988028 0.37003276964796811 0 -0.12686349110364681 0.38039403713510422 0 -0.14709899980122471 0.37521340339153531 0 -0.13221035113767801 0.35746771982914882 0 -0.13221035113767801 0.35746771982914882 0 -0.12985339253998951 0.33468409421343781 0 -0.14527883393681379 0.34257078317659651 0 -0.12985339253998951 0.33468409421343781 0 -0.1506910991677263 0.32388899879425359 0 -0.12985339253998951 0.33468409421343781 0 -0.1506910991677263 0.32388899879425359 0 -0.13711085082528421 0.31207082285108911 0 -0.12985339253998951 0.33468409421343781 0 -0.13711085082528421 0.31207082285108911 0 -0.1159693958580653 0.31484699278805028 0 -0.1506910991677263 0.32388899879425359 0 -0.16187937802100361 0.30673236857023051 0 -0.13711085082528421 0.31207082285108911 0 -0.1506910991677263 0.32388899879425359 0 -0.14527883393681379 0.34257078317659651 0 -0.16036370552846591 0.3395840458682976 0 -0.12985339253998951 0.33468409421343781 0 -0.1506910991677263 0.32388899879425359 0 -0.14527883393681379 0.34257078317659651 0 -0.16036370552846591 0.3395840458682976 0 -0.17852704077381579 0.33642381340354238 0 -0.17293077463630979 0.35322829152575541 0 -0.16036370552846591 0.3395840458682976 0 -0.1695204017502753 0.32921968760891063 0 -0.17852704077381579 0.33642381340354238 0 -0.1506910991677263 0.32388899879425359 0 -0.16036370552846591 0.3395840458682976 0 -0.1695204017502753 0.32921968760891063 0 -0.1506910991677263 0.32388899879425359 0 -0.1695204017502753 0.32921968760891063 0 -0.17128806494341561 0.31601075036313298 0 -0.1506910991677263 0.32388899879425359 0 -0.17128806494341561 0.31601075036313298 0 -0.16187937802100361 0.30673236857023051 0 -0.17128806494341561 0.31601075036313298 0 -0.17831504551129379 0.32539936655033452 0 -0.1828661816627673 0.31839421033209647 0 -0.17128806494341561 0.31601075036313298 0 -0.1828661816627673 0.31839421033209647 0 -0.1771444696208522 0.30667357769732129 0 -0.1695204017502753 0.32921968760891063 0 -0.17128806494341561 0.31601075036313298 0 -0.17831504551129379 0.32539936655033452 0 -0.17831504551129379 0.32539936655033452 0 -0.183502970788226 0.32388354229863009 0 -0.182579006085441 0.32916190826288599 0 -0.183502970788226 0.32388354229863009 0 -0.18716053478833949 0.32856107466159479 0 -0.18766531435556899 0.32356279140818961 0 -0.183502970788226 0.32388354229863009 0 -0.182579006085441 0.32916190826288599 0 -0.18716053478833949 0.32856107466159479 0 -0.183502970788226 0.32388354229863009 0 -0.1828661816627673 0.31839421033209647 0 -0.18766531435556899 0.32356279140818961 0 -0.1828661816627673 0.31839421033209647 0 -0.18766531435556899 0.32356279140818961 0 -0.18999224985646671 0.31973953914055497 0 -0.17831504551129379 0.32539936655033452 0 -0.183502970788226 0.32388354229863009 0 -0.1828661816627673 0.31839421033209647 0 -0.1695204017502753 0.32921968760891063 0 -0.17831504551129379 0.32539936655033452 0 -0.17793745457693461 0.33401115067390269 0 -0.1695204017502753 0.32921968760891063 0 -0.17852704077381579 0.33642381340354238 0 -0.17793745457693461 0.33401115067390269 0 -0.17831504551129379 0.32539936655033452 0 -0.17793745457693461 0.33401115067390269 0 -0.182579006085441 0.32916190826288599 0 -0.17852704077381579 0.33642381340354238 0 -0.17793745457693461 0.33401115067390269 0 -0.17852704077381579 0.33642381340354238 0 -0.17793745457693461 0.33401115067390269 0 -0.18533316031775421 0.3336583816261206 0 -0.17793745457693461 0.33401115067390269 0 -0.182579006085441 0.32916190826288599 0 -0.18533316031775421 0.3336583816261206 0 -0.182579006085441 0.32916190826288599 0 -0.18716053478833949 0.32856107466159479 0 -0.18533316031775421 0.3336583816261206 0 -0.17852704077381579 0.33642381340354238 0 -0.18533316031775421 0.3336583816261206 0 -0.19306915097357999 0.34105115710227951 0 -0.17852704077381579 0.33642381340354238 0 -0.17293077463630979 0.35322829152575541 0 -0.18569279178426321 0.36533273747758382 0 -0.17852704077381579 0.33642381340354238 0 -0.18569279178426321 0.36533273747758382 0 -0.17852704077381579 0.33642381340354238 0 -0.18569279178426321 0.36533273747758382 0 -0.1932067266130745 0.35115928584062889 0 -0.17852704077381579 0.33642381340354238 0 -0.17293077463630979 0.35322829152575541 0 -0.15327562131020919 0.35722905717784459 0 -0.16036370552846591 0.3395840458682976 0 -0.17293077463630979 0.35322829152575541 0 -0.17293077463630979 0.35322829152575541 0 -0.1673345084988028 0.37003276964796811 0 -0.14709899980122471 0.37521340339153531 0 -0.1673345084988028 0.37003276964796811 0 -0.15327562131020919 0.35722905717784459 0 -0.17293077463630979 0.35322829152575541 0 -0.1673345084988028 0.37003276964796811 0 -0.18816071433062201 0.37529997013221139 0 -0.1673345084988028 0.37003276964796811 0 -0.18569279178426321 0.36533273747758382 0 -0.1673345084988028 0.37003276964796811 0 -0.18569279178426321 0.36533273747758382 0 -0.17293077463630979 0.35322829152575541 0 -0.1673345084988028 0.37003276964796811 0 -0.18569279178426321 0.36533273747758382 0 -0.18816071433062201 0.37529997013221139 0 -0.18569279178426321 0.36533273747758382 0 -0.19959175598245629 0.38181398918097198 0 -0.18569279178426321 0.36533273747758382 0 -0.20299216290066499 0.3727899253732278 0 -0.18569279178426321 0.36533273747758382 0 -0.1955605980628852 0.36280641155486892 0 -0.20299216290066499 0.3727899253732278 0 -0.19959175598245629 0.38181398918097198 0 -0.18816071433062201 0.37529997013221139 0 -0.18569279178426321 0.36533273747758382 0 -0.18569279178426321 0.36533273747758382 0 -0.1955605980628852 0.36280641155486892 0 -0.1932067266130745 0.35115928584062889 0 -0.18569279178426321 0.36533273747758382 0 -0.1955605980628852 0.36280641155486892 0 -0.1955605980628852 0.36280641155486892 0 -0.20436227443940569 0.35639588853768461 0 -0.2070372334548792 0.36505039179258031 0 -0.1955605980628852 0.36280641155486892 0 -0.20299216290066499 0.3727899253732278 0 -0.2070372334548792 0.36505039179258031 0 -0.1955605980628852 0.36280641155486892 0 -0.1932067266130745 0.35115928584062889 0 -0.20436227443940569 0.35639588853768461 0 -0.1932067266130745 0.35115928584062889 0 -0.20213956018966511 0.34514705533476631 0 -0.20436227443940569 0.35639588853768461 0 -0.1932067266130745 0.35115928584062889 0 -0.20213956018966511 0.34514705533476631 0 -0.19306915097357999 0.34105115710227951 0 -0.20213956018966511 0.34514705533476631 0 -0.21127728835477599 0.35077825161199749 0 -0.2104738470894606 0.34074188314756299 0 -0.20213956018966511 0.34514705533476631 0 -0.20436227443940569 0.35639588853768461 0 -0.21127728835477599 0.35077825161199749 0 -0.20436227443940569 0.35639588853768461 0 -0.21127728835477599 0.35077825161199749 0 -0.21447687305220811 0.36200308203300768 0 -0.21127728835477599 0.35077825161199749 0 -0.21447687305220811 0.36200308203300768 0 -0.21876407460830771 0.35490793751997129 0 -0.21127728835477599 0.35077825161199749 0 -0.21787478431086851 0.34539448801945632 0 -0.21876407460830771 0.35490793751997129 0 -0.21127728835477599 0.35077825161199749 0 -0.21787478431086851 0.34539448801945632 0 -0.2104738470894606 0.34074188314756299 0 -0.20299216290066499 0.3727899253732278 0 -0.2070372334548792 0.36505039179258031 0 -0.21773112860446181 0.37052788264228148 0 -0.20436227443940569 0.35639588853768461 0 -0.2070372334548792 0.36505039179258031 0 -0.21447687305220811 0.36200308203300768 0 -0.2070372334548792 0.36505039179258031 0 -0.21447687305220811 0.36200308203300768 0 -0.21773112860446181 0.37052788264228148 0 -0.2124295916254175 0.38034252501769727 0 -0.20299216290066499 0.3727899253732278 0 -0.21773112860446181 0.37052788264228148 0 -0.22742095933843451 0.37564378240796897 0 -0.21773112860446181 0.37052788264228148 0 -0.22661289394167211 0.36193292318884529 0 -0.22742095933843451 0.37564378240796897 0 -0.22661289394167211 0.36193292318884529 0 -0.23489418760722269 0.3688028866759836 0 -0.22661289394167211 0.36193292318884529 0 -0.23489418760722269 0.3688028866759836 0 -0.23563921311654579 0.36125252117593443 0 -0.21447687305220811 0.36200308203300768 0 -0.22661289394167211 0.36193292318884529 0 -0.21876407460830771 0.35490793751997129 0 -0.21447687305220811 0.36200308203300768 0 -0.21773112860446181 0.37052788264228148 0 -0.22661289394167211 0.36193292318884529 0 -0.22661289394167211 0.36193292318884529 0 -0.21876407460830771 0.35490793751997129 0 -0.2256463045549113 0.35063700320247609 0 -0.21787478431086851 0.34539448801945632 0 -0.2256463045549113 0.35063700320247609 0 -0.2249588059729131 0.3426355912631871 0 -0.21787478431086851 0.34539448801945632 0 -0.21876407460830771 0.35490793751997129 0 -0.2256463045549113 0.35063700320247609 0 -0.2256463045549113 0.35063700320247609 0 -0.23239403917658011 0.34562832062546073 0 -0.2249588059729131 0.3426355912631871 0 -0.2256463045549113 0.35063700320247609 0 -0.23239403917658011 0.34562832062546073 0 -0.233764043095156 0.35397235234023111 0 -0.22661289394167211 0.36193292318884529 0 -0.233764043095156 0.35397235234023111 0 -0.23563921311654579 0.36125252117593443 0 -0.22661289394167211 0.36193292318884529 0 -0.2256463045549113 0.35063700320247609 0 -0.233764043095156 0.35397235234023111 0 -0.233764043095156 0.35397235234023111 0 -0.23930192916587761 0.34872929050112739 0 -0.24325441169470791 0.35766202595407981 0 -0.233764043095156 0.35397235234023111 0 -0.24325441169470791 0.35766202595407981 0 -0.23563921311654579 0.36125252117593443 0 -0.23239403917658011 0.34562832062546073 0 -0.233764043095156 0.35397235234023111 0 -0.23930192916587761 0.34872929050112739 0 -0.23239403917658011 0.34562832062546073 0 -0.23930192916587761 0.34872929050112739 0 -0.24125177945447651 0.3409373878598605 0 -0.24657712319585259 0.34987625391855598 0 -0.24859619045395809 0.34285830564594633 0 -0.24125177945447651 0.3409373878598605 0 -0.23930192916587761 0.34872929050112739 0 -0.24657712319585259 0.34987625391855598 0 -0.24125177945447651 0.3409373878598605 0 -0.25391328726094559 0.34890931164713751 0 -0.24657712319585259 0.34987625391855598 0 -0.24859619045395809 0.34285830564594633 0 -0.2544225028153646 0.35704045856956051 0 -0.24657712319585259 0.34987625391855598 0 -0.24325441169470791 0.35766202595407981 0 -0.23930192916587761 0.34872929050112739 0 -0.24657712319585259 0.34987625391855598 0 -0.24325441169470791 0.35766202595407981 0 -0.25022691897323251 0.36464838694454038 0 -0.2544225028153646 0.35704045856956051 0 -0.24325441169470791 0.35766202595407981 0 -0.25022691897323251 0.36464838694454038 0 -0.24325441169470791 0.35766202595407981 0 -0.24284891512288129 0.36763733724529901 0 -0.25022691897323251 0.36464838694454038 0 -0.2497436284699463 0.37314749472761388 0 -0.24284891512288129 0.36763733724529901 0 -0.24086566659649761 0.3762231297536105 0 -0.2497436284699463 0.37314749472761388 0 -0.24284891512288129 0.36763733724529901 0 -0.24086566659649761 0.3762231297536105 0 -0.22742095933843451 0.37564378240796897 0 -0.23489418760722269 0.3688028866759836 0 -0.24086566659649761 0.3762231297536105 0 -0.24284891512288129 0.36763733724529901 0 -0.23489418760722269 0.3688028866759836 0 -0.24284891512288129 0.36763733724529901 0 -0.23489418760722269 0.3688028866759836 0 -0.23563921311654579 0.36125252117593443 0 -0.24325441169470791 0.35766202595407981 0 -0.24284891512288129 0.36763733724529901 0 -0.23563921311654579 0.36125252117593443 0 -0.23819632410120209 0.32163389972561718 0 -0.24770440204924679 0.32485832541545689 0 -0.23895943366919539 0.33086895031098468 0 -0.23819632410120209 0.32163389972561718 0 -0.23895943366919539 0.33086895031098468 0 -0.23001259602559421 0.32464312633339981 0 -0.23819632410120209 0.32163389972561718 0 -0.2434464850075419 0.31288425184447149 0 -0.23222923621898639 0.31441062175302248 0 -0.23819632410120209 0.32163389972561718 0 -0.2434464850075419 0.31288425184447149 0 -0.24770440204924679 0.32485832541545689 0 -0.24770440204924679 0.32485832541545689 0 -0.2481504662485389 0.3351734803797673 0 -0.23895943366919539 0.33086895031098468 0 -0.2481504662485389 0.3351734803797673 0 -0.24125177945447651 0.3409373878598605 0 -0.23895943366919539 0.33086895031098468 0 -0.2481504662485389 0.3351734803797673 0 -0.24859619045395809 0.34285830564594633 0 -0.24125177945447651 0.3409373878598605 0 -0.24125177945447651 0.3409373878598605 0 -0.23895943366919539 0.33086895031098468 0 -0.22932933132875699 0.33494078692956158 0 -0.23895943366919539 0.33086895031098468 0 -0.22932933132875699 0.33494078692956158 0 -0.23001259602559421 0.32464312633339981 0 -0.22932933132875699 0.33494078692956158 0 -0.22079709947073109 0.32684225419703877 0 -0.23001259602559421 0.32464312633339981 0 -0.23239403917658011 0.34562832062546073 0 -0.22932933132875699 0.33494078692956158 0 -0.2249588059729131 0.3426355912631871 0 -0.23239403917658011 0.34562832062546073 0 -0.24125177945447651 0.3409373878598605 0 -0.22932933132875699 0.33494078692956158 0 -0.22932933132875699 0.33494078692956158 0 -0.2189554726347735 0.33640792132716052 0 -0.2249588059729131 0.3426355912631871 0 -0.21787478431086851 0.34539448801945632 0 -0.2189554726347735 0.33640792132716052 0 -0.2249588059729131 0.3426355912631871 0 -0.22932933132875699 0.33494078692956158 0 -0.2189554726347735 0.33640792132716052 0 -0.22079709947073109 0.32684225419703877 0 -0.22079709947073109 0.32684225419703877 0 -0.23001259602559421 0.32464312633339981 0 -0.22385342927962351 0.31795210995437179 0 -0.22079709947073109 0.32684225419703877 0 -0.22385342927962351 0.31795210995437179 0 -0.21493434511603099 0.316967227370891 0 -0.23001259602559421 0.32464312633339981 0 -0.23222923621898639 0.31441062175302248 0 -0.22385342927962351 0.31795210995437179 0 -0.23819632410120209 0.32163389972561718 0 -0.23001259602559421 0.32464312633339981 0 -0.23222923621898639 0.31441062175302248 0 -0.23222923621898639 0.31441062175302248 0 -0.22385342927962351 0.31795210995437179 0 -0.22266440203132881 0.3063930971467565 0 -0.22385342927962351 0.31795210995437179 0 -0.21493434511603099 0.316967227370891 0 -0.22266440203132881 0.3063930971467565 0 -0.22079709947073109 0.32684225419703877 0 -0.21493434511603099 0.316967227370891 0 -0.20993268947817911 0.32905697562044123 0 -0.21493434511603099 0.316967227370891 0 -0.2048908968578691 0.3198916403193563 0 -0.20993268947817911 0.32905697562044123 0 -0.20319898222509669 0.32649525470981577 0 -0.2048908968578691 0.3198916403193563 0 -0.20993268947817911 0.32905697562044123 0 -0.21493434511603099 0.316967227370891 0 -0.2048908968578691 0.3198916403193563 0 -0.21011457970588029 0.30684160726995868 0 -0.21787478431086851 0.34539448801945632 0 -0.2189554726347735 0.33640792132716052 0 -0.2104738470894606 0.34074188314756299 0 -0.2189554726347735 0.33640792132716052 0 -0.20993268947817911 0.32905697562044123 0 -0.2104738470894606 0.34074188314756299 0 -0.2189554726347735 0.33640792132716052 0 -0.22079709947073109 0.32684225419703877 0 -0.20993268947817911 0.32905697562044123 0 -0.20993268947817911 0.32905697562044123 0 -0.2104738470894606 0.34074188314756299 0 -0.20133458994744921 0.33496745555796648 0 -0.20319898222509669 0.32649525470981577 0 -0.20993268947817911 0.32905697562044123 0 -0.20133458994744921 0.33496745555796648 0 -0.20213956018966511 0.34514705533476631 0 -0.2104738470894606 0.34074188314756299 0 -0.20133458994744921 0.33496745555796648 0 -0.20213956018966511 0.34514705533476631 0 -0.20133458994744921 0.33496745555796648 0 -0.19306915097357999 0.34105115710227951 0 -0.20133458994744921 0.33496745555796648 0 -0.1927257747084144 0.33274118565251831 0 -0.19306915097357999 0.34105115710227951 0 -0.20133458994744921 0.33496745555796648 0 -0.19759099898727869 0.32848428112376421 0 -0.1927257747084144 0.33274118565251831 0 -0.20319898222509669 0.32649525470981577 0 -0.20133458994744921 0.33496745555796648 0 -0.19759099898727869 0.32848428112376421 0 -0.18533316031775421 0.3336583816261206 0 -0.1927257747084144 0.33274118565251831 0 -0.19306915097357999 0.34105115710227951 0 -0.19759099898727869 0.32848428112376421 0 -0.1927257747084144 0.33274118565251831 0 -0.19200449216393731 0.32567824651244981 0 -0.18716053478833949 0.32856107466159479 0 -0.1927257747084144 0.33274118565251831 0 -0.19200449216393731 0.32567824651244981 0 -0.18716053478833949 0.32856107466159479 0 -0.18533316031775421 0.3336583816261206 0 -0.1927257747084144 0.33274118565251831 0 -0.17852704077381579 0.33642381340354238 0 -0.1932067266130745 0.35115928584062889 0 -0.19306915097357999 0.34105115710227951 0 -0.2048908968578691 0.3198916403193563 0 -0.19753581469002229 0.32008139309320499 0 -0.19962736651661861 0.31032321415072323 0 -0.19753581469002229 0.32008139309320499 0 -0.18997582166084109 0.31125856437906402 0 -0.19962736651661861 0.31032321415072323 0 -0.19759099898727869 0.32848428112376421 0 -0.19753581469002229 0.32008139309320499 0 -0.19200449216393731 0.32567824651244981 0 -0.20319898222509669 0.32649525470981577 0 -0.2048908968578691 0.3198916403193563 0 -0.19753581469002229 0.32008139309320499 0 -0.20319898222509669 0.32649525470981577 0 -0.19759099898727869 0.32848428112376421 0 -0.19753581469002229 0.32008139309320499 0 -0.19753581469002229 0.32008139309320499 0 -0.19200449216393731 0.32567824651244981 0 -0.18999224985646671 0.31973953914055497 0 -0.18716053478833949 0.32856107466159479 0 -0.19200449216393731 0.32567824651244981 0 -0.18766531435556899 0.32356279140818961 0 -0.19200449216393731 0.32567824651244981 0 -0.18766531435556899 0.32356279140818961 0 -0.18999224985646671 0.31973953914055497 0 -0.19753581469002229 0.32008139309320499 0 -0.18999224985646671 0.31973953914055497 0 -0.18997582166084109 0.31125856437906402 0 -0.1828661816627673 0.31839421033209647 0 -0.18999224985646671 0.31973953914055497 0 -0.18997582166084109 0.31125856437906402 0 -0.18997582166084109 0.31125856437906402 0 -0.19416787616911199 0.30362340178878938 0 -0.19962736651661861 0.31032321415072323 0 -0.19416787616911199 0.30362340178878938 0 -0.19982998007853989 0.29690597540144131 0 -0.1865242007640788 0.29849548760596639 0 -0.18997582166084109 0.31125856437906402 0 -0.19416787616911199 0.30362340178878938 0 -0.1865242007640788 0.29849548760596639 0 -0.19416787616911199 0.30362340178878938 0 -0.19982998007853989 0.29690597540144131 0 -0.19962736651661861 0.31032321415072323 0 -0.19982998007853989 0.29690597540144131 0 -0.18941307173722041 0.28531498816537709 0 -0.20807932411286689 0.28469256101988533 0 -0.19982998007853989 0.29690597540144131 0 -0.18941307173722041 0.28531498816537709 0 -0.1865242007640788 0.29849548760596639 0 -0.19982998007853989 0.29690597540144131 0 -0.20807932411286689 0.28469256101988533 0 -0.21463409494107799 0.29533932847375932 0 -0.20807932411286689 0.28469256101988533 0 -0.21463409494107799 0.29533932847375932 0 -0.2184477008686371 0.28709995185219472 0 -0.20807932411286689 0.28469256101988533 0 -0.2184477008686371 0.28709995185219472 0 -0.2234088548139388 0.27712443735185621 0 -0.19982998007853989 0.29690597540144131 0 -0.19962736651661861 0.31032321415072323 0 -0.21011457970588029 0.30684160726995868 0 -0.2048908968578691 0.3198916403193563 0 -0.19962736651661861 0.31032321415072323 0 -0.21011457970588029 0.30684160726995868 0 -0.19982998007853989 0.29690597540144131 0 -0.21463409494107799 0.29533932847375932 0 -0.21011457970588029 0.30684160726995868 0 -0.21463409494107799 0.29533932847375932 0 -0.21011457970588029 0.30684160726995868 0 -0.22266440203132881 0.3063930971467565 0 -0.21493434511603099 0.316967227370891 0 -0.21011457970588029 0.30684160726995868 0 -0.22266440203132881 0.3063930971467565 0 -0.23222923621898639 0.31441062175302248 0 -0.22266440203132881 0.3063930971467565 0 -0.23584048412835479 0.30169597114944569 0 -0.22266440203132881 0.3063930971467565 0 -0.22766852960666489 0.2912434805632782 0 -0.23584048412835479 0.30169597114944569 0 -0.21463409494107799 0.29533932847375932 0 -0.22266440203132881 0.3063930971467565 0 -0.22766852960666489 0.2912434805632782 0 -0.22766852960666489 0.2912434805632782 0 -0.23860949613004209 0.28511423798800761 0 -0.23584048412835479 0.30169597114944569 0 -0.21463409494107799 0.29533932847375932 0 -0.2184477008686371 0.28709995185219472 0 -0.22766852960666489 0.2912434805632782 0 -0.2184477008686371 0.28709995185219472 0 -0.22766852960666489 0.2912434805632782 0 -0.2234088548139388 0.27712443735185621 0 -0.22766852960666489 0.2912434805632782 0 -0.23860949613004209 0.28511423798800761 0 -0.2234088548139388 0.27712443735185621 0 -0.23860949613004209 0.28511423798800761 0 -0.24841219216506441 0.29577418845162839 0 -0.23584048412835479 0.30169597114944569 0 -0.23860949613004209 0.28511423798800761 0 -0.24841219216506441 0.29577418845162839 0 -0.24880267460358879 0.28021218768035561 0 -0.25545362836846242 0.30692479697051939 0 -0.2434464850075419 0.31288425184447149 0 -0.24841219216506441 0.29577418845162839 0 -0.2434464850075419 0.31288425184447149 0 -0.24841219216506441 0.29577418845162839 0 -0.23584048412835479 0.30169597114944569 0 -0.2434464850075419 0.31288425184447149 0 -0.23222923621898639 0.31441062175302248 0 -0.23584048412835479 0.30169597114944569 0 -0.25919022577934031 0.25017534986325912 0 -0.24136292575450871 0.25884568007201769 0 -0.2312847749721309 0.24546669042689431 0 -0.24136292575450871 0.25884568007201769 0 -0.23823231230834721 0.27128772094181097 0 -0.22734681489303479 0.2612955638893753 0 -0.25162135286180037 0.26644704218825149 0 -0.24136292575450871 0.25884568007201769 0 -0.23823231230834721 0.27128772094181097 0 -0.25162135286180037 0.26644704218825149 0 -0.24880267460358879 0.28021218768035561 0 -0.23823231230834721 0.27128772094181097 0 -0.23860949613004209 0.28511423798800761 0 -0.24880267460358879 0.28021218768035561 0 -0.23823231230834721 0.27128772094181097 0 -0.2234088548139388 0.27712443735185621 0 -0.22734681489303479 0.2612955638893753 0 -0.23823231230834721 0.27128772094181097 0 -0.2234088548139388 0.27712443735185621 0 -0.22734681489303479 0.2612955638893753 0 -0.23860949613004209 0.28511423798800761 0 -0.23823231230834721 0.27128772094181097 0 -0.2234088548139388 0.27712443735185621 0 -0.22734681489303479 0.2612955638893753 0 -0.2312847749721309 0.24546669042689431 0 -0.22734681489303479 0.2612955638893753 0 -0.21223583082632591 0.25822292974731392 0 -0.2312847749721309 0.24546669042689431 0 -0.24136292575450871 0.25884568007201769 0 -0.22734681489303479 0.2612955638893753 0 -0.2312847749721309 0.24546669042689431 0 -0.2234088548139388 0.27712443735185621 0 -0.22734681489303479 0.2612955638893753 0 -0.21223583082632591 0.25822292974731392 0 -0.20807932411286689 0.28469256101988533 0 -0.2234088548139388 0.27712443735185621 0 -0.20213187860093509 0.27278475937003588 0 -0.2234088548139388 0.27712443735185621 0 -0.21223583082632591 0.25822292974731392 0 -0.20213187860093509 0.27278475937003588 0 -0.18941307173722041 0.28531498816537709 0 -0.20213187860093509 0.27278475937003588 0 -0.17670602846729319 0.26845795196589622 0 -0.20213187860093509 0.27278475937003588 0 -0.17670602846729319 0.26845795196589622 0 -0.18941307173722041 0.28531498816537709 0 -0.20807932411286689 0.28469256101988533 0 -0.20213187860093509 0.27278475937003588 0 -0.21223583082632591 0.25822292974731392 0 -0.1890783929044971 0.2535865590034147 0 -0.20466137290697139 0.24097435901006151 0 -0.20213187860093509 0.27278475937003588 0 -0.1890783929044971 0.2535865590034147 0 -0.17670602846729319 0.26845795196589622 0 -0.21223583082632591 0.25822292974731392 0 -0.20213187860093509 0.27278475937003588 0 -0.1890783929044971 0.2535865590034147 0 -0.1890783929044971 0.2535865590034147 0 -0.17670602846729319 0.26845795196589622 0 -0.16331315165998439 0.2490404556413599 0 -0.17670602846729319 0.26845795196589622 0 -0.15128017833365109 0.26413114456175629 0 -0.16331315165998439 0.2490404556413599 0 -0.17670602846729319 0.26845795196589622 0 -0.15128017833365109 0.26413114456175629 0 -0.17670602846729319 0.26845795196589622 0 -0.17033317067300699 0.28915008493343708 0 -0.15128017833365109 0.26413114456175629 0 -0.18941307173722041 0.28531498816537709 0 -0.17670602846729319 0.26845795196589622 0 -0.17033317067300699 0.28915008493343708 0 -0.18941307173722041 0.28531498816537709 0 -0.1865242007640788 0.29849548760596639 0 -0.17033317067300699 0.28915008493343708 0 -0.1865242007640788 0.29849548760596639 0 -0.1771444696208522 0.30667357769732129 0 -0.17033317067300699 0.28915008493343708 0 -0.18997582166084109 0.31125856437906402 0 -0.1865242007640788 0.29849548760596639 0 -0.1771444696208522 0.30667357769732129 0 -0.1828661816627673 0.31839421033209647 0 -0.18997582166084109 0.31125856437906402 0 -0.1771444696208522 0.30667357769732129 0 -0.1771444696208522 0.30667357769732129 0 -0.16187937802100361 0.30673236857023051 0 -0.17033317067300699 0.28915008493343708 0 -0.17128806494341561 0.31601075036313298 0 -0.1771444696208522 0.30667357769732129 0 -0.16187937802100361 0.30673236857023051 0 -0.17033317067300699 0.28915008493343708 0 -0.1477012508750199 0.29063356367559012 0 -0.15128017833365109 0.26413114456175629 0 -0.16187937802100361 0.30673236857023051 0 -0.17033317067300699 0.28915008493343708 0 -0.1477012508750199 0.29063356367559012 0 -0.16187937802100361 0.30673236857023051 0 -0.1477012508750199 0.29063356367559012 0 -0.13711085082528421 0.31207082285108911 0 -0.1477012508750199 0.29063356367559012 0 -0.13711085082528421 0.31207082285108911 0 -0.130794833844152 0.29502047344398091 0 -0.13711085082528421 0.31207082285108911 0 -0.130794833844152 0.29502047344398091 0 -0.1159693958580653 0.31484699278805028 0 -0.1477012508750199 0.29063356367559012 0 -0.130794833844152 0.29502047344398091 0 -0.1329054002051519 0.2770428158357312 0 -0.1329054002051519 0.2770428158357312 0 -0.12585432820000911 0.25980433715761653 0 -0.15128017833365109 0.26413114456175629 0 -0.12585432820000911 0.25980433715761653 0 -0.14489447939972011 0.25096968575412071 0 -0.13372513950953771 0.2438434600885151 0 -0.12585432820000911 0.25980433715761653 0 -0.15128017833365109 0.26413114456175629 0 -0.14489447939972011 0.25096968575412071 0 -0.15128017833365109 0.26413114456175629 0 -0.16331315165998439 0.2490404556413599 0 -0.12585432820000911 0.25980433715761653 0 -0.14489447939972011 0.25096968575412071 0 -0.15128017833365109 0.26413114456175629 0 -0.1477012508750199 0.29063356367559012 0 -0.1329054002051519 0.2770428158357312 0 -0.15128017833365109 0.26413114456175629 0 -0.10042847806636709 0.25547752975347682 0 -0.112967296835481 0.27018960251552138 0 -0.092345854062578031 0.27148634985045239 0 -0.112967296835481 0.27018960251552138 0 -0.110039379630841 0.28811580483755861 0 -0.092345854062578031 0.27148634985045239 0 -0.12585432820000911 0.25980433715761653 0 -0.10042847806636709 0.25547752975347682 0 -0.1167041051780945 0.24189083116500881 0 -0.12585432820000911 0.25980433715761653 0 -0.10042847806636709 0.25547752975347682 0 -0.12585432820000911 0.25980433715761653 0 -0.10042847806636709 0.25547752975347682 0 -0.112967296835481 0.27018960251552138 0 -0.1329054002051519 0.2770428158357312 0 -0.12585432820000911 0.25980433715761653 0 -0.112967296835481 0.27018960251552138 0 -0.1329054002051519 0.2770428158357312 0 -0.112967296835481 0.27018960251552138 0 -0.110039379630841 0.28811580483755861 0 -0.130794833844152 0.29502047344398091 0 -0.1329054002051519 0.2770428158357312 0 -0.110039379630841 0.28811580483755861 0 -0.130794833844152 0.29502047344398091 0 -0.110039379630841 0.28811580483755861 0 -0.1159693958580653 0.31484699278805028 0 -0.110039379630841 0.28811580483755861 0 -0.095437215035528336 0.30389651554150499 0 -0.1159693958580653 0.31484699278805028 0 -0.110039379630841 0.28811580483755861 0 -0.095437215035528336 0.30389651554150499 0 -0.090791093029198577 0.28687228575064011 0 -0.110039379630841 0.28811580483755861 0 -0.090791093029198577 0.28687228575064011 0 -0.092345854062578031 0.27148634985045239 0 -0.090791093029198577 0.28687228575064011 0 -0.077821893902788611 0.29410933663990058 0 -0.07831112251425687 0.2767534218837836 0 -0.095437215035528336 0.30389651554150499 0 -0.090791093029198577 0.28687228575064011 0 -0.077821893902788611 0.29410933663990058 0 -0.095437215035528336 0.30389651554150499 0 -0.077821893902788611 0.29410933663990058 0 -0.074140058066329617 0.31715761941483828 0 -0.095437215035528336 0.30389651554150499 0 -0.074140058066329617 0.31715761941483828 0 -0.063373956920142915 0.3003139275038833 0 -0.051415723163340372 0.31083478870918568 0 -0.074140058066329617 0.31715761941483828 0 -0.063373956920142915 0.3003139275038833 0 -0.077821893902788611 0.29410933663990058 0 -0.074140058066329617 0.31715761941483828 0 -0.063373956920142915 0.3003139275038833 0 -0.077821893902788611 0.29410933663990058 0 -0.064763047064807094 0.2837251688135029 0 -0.077821893902788611 0.29410933663990058 0 -0.064763047064807094 0.2837251688135029 0 -0.07831112251425687 0.2767534218837836 0 -0.064763047064807094 0.2837251688135029 0 -0.067383378827520102 0.27524601921565672 0 -0.07831112251425687 0.2767534218837836 0 -0.064763047064807094 0.2837251688135029 0 -0.067383378827520102 0.27524601921565672 0 -0.05905367151615535 0.27305577199076497 0 -0.067383378827520102 0.27524601921565672 0 -0.0674056742148611 0.26744971417457558 0 -0.05905367151615535 0.27305577199076497 0 -0.067383378827520102 0.27524601921565672 0 -0.0674056742148611 0.26744971417457558 0 -0.07831112251425687 0.2767534218837836 0 -0.0674056742148611 0.26744971417457558 0 -0.092345854062578031 0.27148634985045239 0 -0.0674056742148611 0.26744971417457558 0 -0.07831112251425687 0.2767534218837836 0 -0.092345854062578031 0.27148634985045239 0 -0.0674056742148611 0.26744971417457558 0 -0.092345854062578031 0.27148634985045239 0 -0.08084273799674388 0.2621990387475136 0 -0.090791093029198577 0.28687228575064011 0 -0.07831112251425687 0.2767534218837836 0 -0.092345854062578031 0.27148634985045239 0 -0.10042847806636709 0.25547752975347682 0 -0.092345854062578031 0.27148634985045239 0 -0.08084273799674388 0.2621990387475136 0 -0.10042847806636709 0.25547752975347682 0 -0.08084273799674388 0.2621990387475136 0 -0.075002627932725052 0.25115072234933689 0 -0.10042847806636709 0.25547752975347682 0 -0.075002627932725052 0.25115072234933689 0 -0.075002627932725052 0.25115072234933689 0 -0.069031055707188135 0.26543087760972639 0 -0.068864894844569563 0.24099580956131719 0 -0.069031055707188135 0.26543087760972639 0 -0.065487680095918557 0.25198886679450833 0 -0.068864894844569563 0.24099580956131719 0 -0.069031055707188135 0.26543087760972639 0 -0.068864894844569563 0.24099580956131719 0 -0.08084273799674388 0.2621990387475136 0 -0.075002627932725052 0.25115072234933689 0 -0.069031055707188135 0.26543087760972639 0 -0.0674056742148611 0.26744971417457558 0 -0.08084273799674388 0.2621990387475136 0 -0.069031055707188135 0.26543087760972639 0 -0.0674056742148611 0.26744971417457558 0 -0.069031055707188135 0.26543087760972639 0 -0.060111534945475283 0.26112144945333621 0 -0.069031055707188135 0.26543087760972639 0 -0.065487680095918557 0.25198886679450833 0 -0.060111534945475283 0.26112144945333621 0 -0.065487680095918557 0.25198886679450833 0 -0.057473046824010193 0.25138953212648951 0 -0.056167770342264473 0.25732471018917152 0 -0.056167770342264473 0.25732471018917152 0 -0.060111534945475283 0.26112144945333621 0 -0.042465494367144092 0.26341307849869883 0 -0.065487680095918557 0.25198886679450833 0 -0.056167770342264473 0.25732471018917152 0 -0.060111534945475283 0.26112144945333621 0 -0.0674056742148611 0.26744971417457558 0 -0.042465494367144092 0.26341307849869883 0 -0.0674056742148611 0.26744971417457558 0 -0.060111534945475283 0.26112144945333621 0 -0.042465494367144092 0.26341307849869883 0 -0.056167770342264473 0.25732471018917152 0 -0.05037604210121599 0.25262391612040858 0 -0.042465494367144092 0.26341307849869883 0 -0.057473046824010193 0.25138953212648951 0 -0.056167770342264473 0.25732471018917152 0 -0.05037604210121599 0.25262391612040858 0 -0.05905367151615535 0.27305577199076497 0 -0.052071480306431113 0.2762751118287734 0 -0.042465494367144092 0.26341307849869883 0 -0.0674056742148611 0.26744971417457558 0 -0.05905367151615535 0.27305577199076497 0 -0.042465494367144092 0.26341307849869883 0 -0.064763047064807094 0.2837251688135029 0 -0.05905367151615535 0.27305577199076497 0 -0.052071480306431113 0.2762751118287734 0 -0.052071480306431113 0.2762751118287734 0 -0.041664929719391279 0.27249434293487329 0 -0.039999715970024802 0.28130664949279421 0 -0.052071480306431113 0.2762751118287734 0 -0.041664929719391279 0.27249434293487329 0 -0.042465494367144092 0.26341307849869883 0 -0.041664929719391279 0.27249434293487329 0 -0.032123028233965137 0.26898253191922711 0 -0.042465494367144092 0.26341307849869883 0 -0.032123028233965137 0.26898253191922711 0 -0.025247380035041789 0.28112638579220611 0 -0.039999715970024802 0.28130664949279421 0 -0.041664929719391279 0.27249434293487329 0 -0.032123028233965137 0.26898253191922711 0 -0.039999715970024802 0.28130664949279421 0 -0.042465494367144092 0.26341307849869883 0 -0.03380682102268847 0.25098539695467159 0 -0.01752531451942714 0.25937644282282202 0 -0.042703660127466757 0.25329284473608898 0 -0.042465494367144092 0.26341307849869883 0 -0.03380682102268847 0.25098539695467159 0 -0.05037604210121599 0.25262391612040858 0 -0.042703660127466757 0.25329284473608898 0 -0.042465494367144092 0.26341307849869883 0 -0.032123028233965137 0.26898253191922711 0 -0.042465494367144092 0.26341307849869883 0 -0.01752531451942714 0.25937644282282202 0 -0.042465494367144092 0.26341307849869883 0 -0.01752531451942714 0.25937644282282202 0 -0.032123028233965137 0.26898253191922711 0 -0.010466590141016009 0.27556878780514932 0 -0.032123028233965137 0.26898253191922711 0 -0.025247380035041789 0.28112638579220611 0 -0.010466590141016009 0.27556878780514932 0 -0.032123028233965137 0.26898253191922711 0 -0.01752531451942714 0.25937644282282202 0 -0.010466590141016009 0.27556878780514932 0 -0.01752531451942714 0.25937644282282202 0 -0.010466590141016009 0.27556878780514932 0 0.0025876402662879292 0.27154251029758097 0 -0.01752531451942714 0.25937644282282202 0 -0.0034308520392153999 0.23957271417256071 0 0.0074148653282896868 0.25533980714694521 0 -0.01752531451942714 0.25937644282282202 0 0.0074148653282896868 0.25533980714694521 0 -0.01752531451942714 0.25937644282282202 0 0.0074148653282896868 0.25533980714694521 0 0.0025876402662879292 0.27154251029758097 0 -0.0088036474365049203 0.30899849761532328 0 -0.0044254824918266633 0.29091902391131591 0 0.0079897030218612653 0.29341606875966952 0 -0.0088036474365049203 0.30899849761532328 0 -0.0044254824918266633 0.29091902391131591 0 -0.016653249901892441 0.29224199899286979 0 -0.010466590141016009 0.27556878780514932 0 -0.0044254824918266633 0.29091902391131591 0 -0.016653249901892441 0.29224199899286979 0 -0.010466590141016009 0.27556878780514932 0 -0.0044254824918266633 0.29091902391131591 0 0.0010718695852379181 0.28551473104180147 0 -0.016653249901892441 0.29224199899286979 0 -0.02819283711561198 0.2912112625841517 0 -0.02468152688121461 0.30245446010001459 0 -0.025247380035041789 0.28112638579220611 0 -0.010466590141016009 0.27556878780514932 0 -0.016653249901892441 0.29224199899286979 0 -0.025247380035041789 0.28112638579220611 0 -0.016653249901892441 0.29224199899286979 0 -0.02819283711561198 0.2912112625841517 0 -0.025247380035041789 0.28112638579220611 0 -0.02819283711561198 0.2912112625841517 0 -0.039999715970024802 0.28130664949279421 0 -0.0088036474365049203 0.30899849761532328 0 -0.016653249901892441 0.29224199899286979 0 -0.02468152688121461 0.30245446010001459 0 -0.0088036474365049203 0.30899849761532328 0 -0.02468152688121461 0.30245446010001459 0 -0.03110150703683591 0.31896268496452163 0 -0.02819283711561198 0.2912112625841517 0 -0.02468152688121461 0.30245446010001459 0 -0.038656392915227787 0.30085785634320672 0 -0.02468152688121461 0.30245446010001459 0 -0.038656392915227787 0.30085785634320672 0 -0.03110150703683591 0.31896268496452163 0 -0.038656392915227787 0.30085785634320672 0 -0.051415723163340372 0.31083478870918568 0 -0.03110150703683591 0.31896268496452163 0 -0.02819283711561198 0.2912112625841517 0 -0.038656392915227787 0.30085785634320672 0 -0.039999715970024802 0.28130664949279421 0 -0.038656392915227787 0.30085785634320672 0 -0.039999715970024802 0.28130664949279421 0 -0.051271881112956337 0.29139650634234598 0 -0.063373956920142915 0.3003139275038833 0 -0.064763047064807094 0.2837251688135029 0 -0.051271881112956337 0.29139650634234598 0 -0.052071480306431113 0.2762751118287734 0 -0.039999715970024802 0.28130664949279421 0 -0.051271881112956337 0.29139650634234598 0 -0.064763047064807094 0.2837251688135029 0 -0.052071480306431113 0.2762751118287734 0 -0.051271881112956337 0.29139650634234598 0 -0.038656392915227787 0.30085785634320672 0 -0.051271881112956337 0.29139650634234598 0 -0.051415723163340372 0.31083478870918568 0 -0.063373956920142915 0.3003139275038833 0 -0.051271881112956337 0.29139650634234598 0 -0.051415723163340372 0.31083478870918568 0 -0.051415723163340372 0.31083478870918568 0 -0.052842901097130898 0.33041872328817162 0 -0.074140058066329617 0.31715761941483828 0 -0.052842901097130898 0.33041872328817162 0 -0.050179835288259957 0.35006453561624901 0 -0.06414836977957282 0.34623357368258229 0 -0.052842901097130898 0.33041872328817162 0 -0.031545744127932138 0.34367982716150491 0 -0.052842901097130898 0.33041872328817162 0 -0.031545744127932138 0.34367982716150491 0 -0.050179835288259957 0.35006453561624901 0 -0.052842901097130898 0.33041872328817162 0 -0.031545744127932138 0.34367982716150491 0 -0.03110150703683591 0.31896268496452163 0 -0.051415723163340372 0.31083478870918568 0 -0.052842901097130898 0.33041872328817162 0 -0.03110150703683591 0.31896268496452163 0 -0.0088036474365049203 0.30899849761532328 0 -0.03110150703683591 0.31896268496452163 0 -0.01097707269742047 0.33176609503759752 0 -0.031545744127932138 0.34367982716150491 0 -0.01097707269742047 0.33176609503759752 0 -0.014121833759423301 0.34448237942590892 0 -0.031545744127932138 0.34367982716150491 0 -0.03110150703683591 0.31896268496452163 0 -0.01097707269742047 0.33176609503759752 0 -0.01097707269742047 0.33176609503759752 0 -0.0037159310536072801 0.34554266446969478 0 0.011687549334469371 0.33546397949879081 0 -0.01097707269742047 0.33176609503759752 0 -0.0037159310536072801 0.34554266446969478 0 -0.014121833759423301 0.34448237942590892 0 -0.0088036474365049203 0.30899849761532328 0 -0.01097707269742047 0.33176609503759752 0 0.0058365437179024784 0.32056342995326098 0 -0.0010507322556096851 0.36898430484526562 0 -0.010248587158733309 0.35694093103483832 0 0.0110485698104664 0.37020203490817022 0 -0.0094156444216362475 0.36015796803734229 0 -0.010248587158733309 0.35694093103483832 0 -0.020550161860889059 0.36132452443374319 0 -0.0094156444216362475 0.36015796803734229 0 -0.02122551799645481 0.37249959608994171 0 -0.0094156444216362475 0.36015796803734229 0 -0.0096707754525183383 0.37030921587089621 0 -0.02122551799645481 0.37249959608994171 0 -0.0096707754525183383 0.37030921587089621 0 -0.02122551799645481 0.37249959608994171 0 -0.0069912071363726069 0.37959499451103501 0 -0.0096707754525183383 0.37030921587089621 0 -0.0010507322556096851 0.36898430484526562 0 -0.0069912071363726069 0.37959499451103501 0 -0.0094156444216362475 0.36015796803734229 0 -0.0010507322556096851 0.36898430484526562 0 -0.010248587158733309 0.35694093103483832 0 -0.0094156444216362475 0.36015796803734229 0 -0.0096707754525183383 0.37030921587089621 0 -0.0010507322556096851 0.36898430484526562 0 -0.0037159310536072801 0.34554266446969478 0 -0.010248587158733309 0.35694093103483832 0 0.0011584182775674981 0.35598493204216519 0 -0.0037159310536072801 0.34554266446969478 0 -0.014121833759423301 0.34448237942590892 0 -0.010248587158733309 0.35694093103483832 0 -0.031545744127932138 0.34367982716150491 0 -0.010248587158733309 0.35694093103483832 0 -0.020550161860889059 0.36132452443374319 0 -0.031545744127932138 0.34367982716150491 0 -0.014121833759423301 0.34448237942590892 0 -0.010248587158733309 0.35694093103483832 0 -0.031545744127932138 0.34367982716150491 0 -0.010248587158733309 0.35694093103483832 0 -0.031545744127932138 0.34367982716150491 0 -0.020550161860889059 0.36132452443374319 0 -0.039681676827804463 0.36050714310943738 0 -0.020550161860889059 0.36132452443374319 0 -0.033454334427791423 0.37334775147900717 0 -0.039681676827804463 0.36050714310943738 0 -0.0094156444216362475 0.36015796803734229 0 -0.020550161860889059 0.36132452443374319 0 -0.02122551799645481 0.37249959608994171 0 -0.020550161860889059 0.36132452443374319 0 -0.02122551799645481 0.37249959608994171 0 -0.033454334427791423 0.37334775147900717 0 -0.033454334427791423 0.37334775147900717 0 -0.039681676827804463 0.36050714310943738 0 -0.043242204971908497 0.37100052180995768 0 -0.033454334427791423 0.37334775147900717 0 -0.043242204971908497 0.37100052180995768 0 -0.039262397833006488 0.38056871414013721 0 -0.031545744127932138 0.34367982716150491 0 -0.039681676827804463 0.36050714310943738 0 -0.050179835288259957 0.35006453561624901 0 -0.050179835288259957 0.35006453561624901 0 -0.062680484608859457 0.36948341083954872 0 -0.06414836977957282 0.34623357368258229 0 -0.039681676827804463 0.36050714310943738 0 -0.043242204971908497 0.37100052180995768 0 -0.062680484608859457 0.36948341083954872 0 -0.039681676827804463 0.36050714310943738 0 -0.050179835288259957 0.35006453561624901 0 -0.062680484608859457 0.36948341083954872 0 -0.043242204971908497 0.37100052180995768 0 -0.062680484608859457 0.36948341083954872 0 -0.039262397833006488 0.38056871414013721 0 -0.062680484608859457 0.36948341083954872 0 -0.088177979284516095 0.35627428505180642 0 -0.080593995065548124 0.37656413053467541 0 -0.062680484608859457 0.36948341083954872 0 -0.088177979284516095 0.35627428505180642 0 -0.088177979284516095 0.35627428505180642 0 -0.0974029808452921 0.37092447796523959 0 -0.080593995065548124 0.37656413053467541 0 -0.088177979284516095 0.35627428505180642 0 -0.0974029808452921 0.37092447796523959 0 -0.062680484608859457 0.36948341083954872 0 -0.088177979284516095 0.35627428505180642 0 -0.083922103998376685 0.34951554430291748 0 -0.088177979284516095 0.35627428505180642 0 -0.083922103998376685 0.34951554430291748 0 -0.092922039949559831 0.34319753945475528 0 -0.088177979284516095 0.35627428505180642 0 -0.083922103998376685 0.34951554430291748 0 -0.062680484608859457 0.36948341083954872 0 -0.083922103998376685 0.34951554430291748 0 -0.06414836977957282 0.34623357368258229 0 -0.083922103998376685 0.34951554430291748 0 -0.06414836977957282 0.34623357368258229 0 -0.074110908657115851 0.33482398725754398 0 -0.052842901097130898 0.33041872328817162 0 -0.06414836977957282 0.34623357368258229 0 -0.074110908657115851 0.33482398725754398 0 -0.052842901097130898 0.33041872328817162 0 -0.074110908657115851 0.33482398725754398 0 -0.074140058066329617 0.31715761941483828 0 -0.052842901097130898 0.33041872328817162 0 -0.074140058066329617 0.31715761941483828 0 -0.074110908657115851 0.33482398725754398 0 -0.074140058066329617 0.31715761941483828 0 -0.092941675748036953 0.32803043495533563 0 -0.095437215035528336 0.30389651554150499 0 -0.074140058066329617 0.31715761941483828 0 -0.092941675748036953 0.32803043495533563 0 -0.074110908657115851 0.33482398725754398 0 -0.092941675748036953 0.32803043495533563 0 -0.085532985545225412 0.33851621294814471 0 -0.083922103998376685 0.34951554430291748 0 -0.074110908657115851 0.33482398725754398 0 -0.085532985545225412 0.33851621294814471 0 -0.092941675748036953 0.32803043495533563 0 -0.085532985545225412 0.33851621294814471 0 -0.092922039949559831 0.34319753945475528 0 -0.083922103998376685 0.34951554430291748 0 -0.085532985545225412 0.33851621294814471 0 -0.092922039949559831 0.34319753945475528 0 -0.092941675748036953 0.32803043495533563 0 -0.1159693958580653 0.31484699278805028 0 -0.1090156859122528 0.34547918963262192 0 -0.092941675748036953 0.32803043495533563 0 -0.092922039949559831 0.34319753945475528 0 -0.1090156859122528 0.34547918963262192 0 -0.095437215035528336 0.30389651554150499 0 -0.092941675748036953 0.32803043495533563 0 -0.1159693958580653 0.31484699278805028 0 -0.12985339253998951 0.33468409421343781 0 -0.1159693958580653 0.31484699278805028 0 -0.1090156859122528 0.34547918963262192 0 -0.12985339253998951 0.33468409421343781 0 -0.1090156859122528 0.34547918963262192 0 -0.13221035113767801 0.35746771982914882 0 -0.1152476226487827 0.36597016654590631 0 -0.1090156859122528 0.34547918963262192 0 -0.13221035113767801 0.35746771982914882 0 -0.12985339253998951 0.33468409421343781 0 -0.1090156859122528 0.34547918963262192 0 -0.12686349110364681 0.38039403713510422 0 -0.13221035113767801 0.35746771982914882 0 -0.1152476226487827 0.36597016654590631 0 -0.1152476226487827 0.36597016654590631 0 -0.0974029808452921 0.37092447796523959 0 -0.1090156859122528 0.34547918963262192 0 -0.1152476226487827 0.36597016654590631 0 -0.0974029808452921 0.37092447796523959 0 -0.1066279824060688 0.38557467087867248 0 -0.088177979284516095 0.35627428505180642 0 -0.0974029808452921 0.37092447796523959 0 -0.1090156859122528 0.34547918963262192 0 -0.088177979284516095 0.35627428505180642 0 -0.092922039949559831 0.34319753945475528 0 -0.1090156859122528 0.34547918963262192 0 -0.088177979284516095 0.35627428505180642 0 -0.1090156859122528 0.34547918963262192 0 -0.1004636347143234 0.40449584184527437 0 -0.1172257577962874 0.40240496113899882 0 -0.1004636347143234 0.40449584184527437 0 -0.1066279824060688 0.38557467087867248 0 -0.087112170998381533 0.39057104989848468 0 -0.1004636347143234 0.40449584184527437 0 -0.1066279824060688 0.38557467087867248 0 -0.1172257577962874 0.40240496113899882 0 -0.0974029808452921 0.37092447796523959 0 -0.1066279824060688 0.38557467087867248 0 -0.087112170998381533 0.39057104989848468 0 -0.1066279824060688 0.38557467087867248 0 -0.087112170998381533 0.39057104989848468 0 -0.0974029808452921 0.37092447796523959 0 -0.1066279824060688 0.38557467087867248 0 -0.12686349110364681 0.38039403713510422 0 -0.1066279824060688 0.38557467087867248 0 -0.12686349110364681 0.38039403713510422 0 -0.1152476226487827 0.36597016654590631 0 -0.1066279824060688 0.38557467087867248 0 -0.12686349110364681 0.38039403713510422 0 -0.1066279824060688 0.38557467087867248 0 -0.1172257577962874 0.40240496113899882 0 -0.1066279824060688 0.38557467087867248 0 -0.1172257577962874 0.40240496113899882 0 -0.1004636347143234 0.40449584184527437 0 -0.1172257577962874 0.40240496113899882 0 -0.1126621506992191 0.42039764185012168 0 -0.13159404922892839 0.42522319482034382 0 -0.1172257577962874 0.40240496113899882 0 -0.1126621506992191 0.42039764185012168 0 -0.13159404922892839 0.42522319482034382 0 -0.1172257577962874 0.40240496113899882 0 -0.1126621506992191 0.42039764185012168 0 -0.122323280127368 0.42826150590421419 0 -0.1184271650535877 0.43761752184646502 0 -0.100617809783888 0.4372364519860118 0 -0.1184271650535877 0.43761752184646502 0 -0.13159404922892839 0.42522319482034382 0 -0.1126621506992191 0.42039764185012168 0 -0.122323280127368 0.42826150590421419 0 -0.1290988346973517 0.43784586541086279 0 -0.12596140486681129 0.43264681336638461 0 -0.1184271650535877 0.43761752184646502 0 -0.12596140486681129 0.43264681336638461 0 -0.122323280127368 0.42826150590421419 0 -0.1184271650535877 0.43761752184646502 0 -0.1126621506992191 0.42039764185012168 0 -0.095248854756354168 0.42554902826552182 0 -0.1184271650535877 0.43761752184646502 0 -0.095248854756354168 0.42554902826552182 0 -0.1184271650535877 0.43761752184646502 0 -0.095248854756354168 0.42554902826552182 0 -0.100617809783888 0.4372364519860118 0 -0.1184271650535877 0.43761752184646502 0 -0.1004636347143234 0.40449584184527437 0 -0.1126621506992191 0.42039764185012168 0 -0.095248854756354168 0.42554902826552182 0 -0.1004636347143234 0.40449584184527437 0 -0.095248854756354168 0.42554902826552182 0 -0.083701511632359421 0.40658672255155037 0 -0.095248854756354168 0.42554902826552182 0 -0.072070544459121394 0.41348053468457729 0 -0.095248854756354168 0.42554902826552182 0 -0.083701511632359421 0.40658672255155037 0 -0.072070544459121394 0.41348053468457729 0 -0.100617809783888 0.4372364519860118 0 -0.082808454514188209 0.43685538212555908 0 -0.095248854756354168 0.42554902826552182 0 -0.100617809783888 0.4372364519860118 0 -0.082808454514188209 0.43685538212555908 0 -0.095248854756354168 0.42554902826552182 0 -0.082808454514188209 0.43685538212555908 0 -0.072070544459121394 0.41348053468457729 0 -0.082808454514188209 0.43685538212555908 0 -0.05724412415213663 0.43630837771938857 0 -0.082808454514188209 0.43685538212555908 0 -0.065850344338038089 0.41913371161459639 0 -0.072070544459121394 0.41348053468457729 0 -0.082808454514188209 0.43685538212555908 0 -0.065850344338038089 0.41913371161459639 0 -0.05724412415213663 0.43630837771938857 0 -0.082808454514188209 0.43685538212555908 0 -0.065850344338038089 0.41913371161459639 0 -0.083701511632359421 0.40658672255155037 0 -0.072070544459121394 0.41348053468457729 0 -0.067596359590694016 0.39556742891829633 0 -0.072070544459121394 0.41348053468457729 0 -0.067596359590694016 0.39556742891829633 0 -0.048080548183006069 0.40056380793810659 0 -0.067596359590694016 0.39556742891829633 0 -0.087112170998381533 0.39057104989848468 0 -0.1004636347143234 0.40449584184527437 0 -0.083701511632359421 0.40658672255155037 0 -0.1004636347143234 0.40449584184527437 0 -0.083701511632359421 0.40658672255155037 0 -0.087112170998381533 0.39057104989848468 0 -0.083701511632359421 0.40658672255155037 0 -0.067596359590694016 0.39556742891829633 0 -0.087112170998381533 0.39057104989848468 0 -0.0974029808452921 0.37092447796523959 0 -0.080593995065548124 0.37656413053467541 0 -0.087112170998381533 0.39057104989848468 0 -0.067596359590694016 0.39556742891829633 0 -0.080593995065548124 0.37656413053467541 0 -0.087112170998381533 0.39057104989848468 0 -0.062680484608859457 0.36948341083954872 0 -0.067596359590694016 0.39556742891829633 0 -0.080593995065548124 0.37656413053467541 0 -0.062680484608859457 0.36948341083954872 0 -0.05388509557894057 0.38707679608081091 0 -0.037182989933202709 0.38269253662729091 0 -0.062680484608859457 0.36948341083954872 0 -0.037182989933202709 0.38269253662729091 0 -0.062680484608859457 0.36948341083954872 0 -0.067596359590694016 0.39556742891829633 0 -0.05388509557894057 0.38707679608081091 0 -0.067596359590694016 0.39556742891829633 0 -0.05388509557894057 0.38707679608081091 0 -0.048080548183006069 0.40056380793810659 0 -0.067596359590694016 0.39556742891829633 0 -0.048080548183006069 0.40056380793810659 0 -0.048080548183006069 0.40056380793810659 0 -0.035431149198081248 0.40021704716407619 0 -0.028997254198101018 0.39105311351542471 0 -0.048080548183006069 0.40056380793810659 0 -0.028997254198101018 0.39105311351542471 0 -0.048080548183006069 0.40056380793810659 0 -0.03404560985566104 0.3858969287814501 0 -0.028997254198101018 0.39105311351542471 0 -0.048080548183006069 0.40056380793810659 0 -0.040994941804105511 0.4046686124028433 0 -0.035431149198081248 0.40021704716407619 0 -0.048080548183006069 0.40056380793810659 0 -0.040994941804105511 0.4046686124028433 0 -0.04567144399981863 0.40886320002262938 0 -0.048080548183006069 0.40056380793810659 0 -0.03404560985566104 0.3858969287814501 0 -0.035431149198081248 0.40021704716407619 0 -0.025983829274983269 0.40414483845867288 0 -0.035912309118249268 0.40874476062639592 0 -0.040994941804105511 0.4046686124028433 0 -0.035431149198081248 0.40021704716407619 0 -0.035912309118249268 0.40874476062639592 0 -0.062680484608859457 0.36948341083954872 0 -0.039262397833006488 0.38056871414013721 0 -0.037182989933202709 0.38269253662729091 0 -0.048080548183006069 0.40056380793810659 0 -0.03404560985566104 0.3858969287814501 0 -0.037182989933202709 0.38269253662729091 0 -0.05388509557894057 0.38707679608081091 0 -0.048080548183006069 0.40056380793810659 0 -0.037182989933202709 0.38269253662729091 0 -0.03404560985566104 0.3858969287814501 0 -0.037182989933202709 0.38269253662729091 0 -0.03404560985566104 0.3858969287814501 0 -0.028997254198101018 0.39105311351542471 0 -0.033454334427791423 0.37334775147900717 0 -0.039262397833006488 0.38056871414013721 0 -0.037182989933202709 0.38269253662729091 0 -0.033454334427791423 0.37334775147900717 0 -0.03404560985566104 0.3858969287814501 0 -0.037182989933202709 0.38269253662729091 0 -0.039262397833006488 0.38056871414013721 0 -0.037182989933202709 0.38269253662729091 0 -0.025030984083210629 0.38898795411390152 0 -0.0069912071363726069 0.37959499451103501 0 -0.02122551799645481 0.37249959608994171 0 -0.03404560985566104 0.3858969287814501 0 -0.025030984083210629 0.38898795411390152 0 -0.02122551799645481 0.37249959608994171 0 -0.033454334427791423 0.37334775147900717 0 -0.03404560985566104 0.3858969287814501 0 -0.02122551799645481 0.37249959608994171 0 -0.025030984083210629 0.38898795411390152 0 -0.0069912071363726069 0.37959499451103501 0 -0.02122551799645481 0.37249959608994171 0 -0.03404560985566104 0.3858969287814501 0 -0.03404560985566104 0.3858969287814501 0 -0.025030984083210629 0.38898795411390152 0 -0.03404560985566104 0.3858969287814501 0 -0.025030984083210629 0.38898795411390152 0 -0.028997254198101018 0.39105311351542471 0 -0.025030984083210629 0.38898795411390152 0 -0.028997254198101018 0.39105311351542471 0 -0.028997254198101018 0.39105311351542471 0 -0.025983829274983269 0.40414483845867288 0 -0.016165867411719409 0.40415856906401931 0 -0.035431149198081248 0.40021704716407619 0 -0.028997254198101018 0.39105311351542471 0 -0.025983829274983269 0.40414483845867288 0 -0.025983829274983269 0.40414483845867288 0 -0.016165867411719409 0.40415856906401931 0 -0.025030984083210629 0.38898795411390152 0 -0.01036147629946654 0.39658757815636869 0 -0.025030984083210629 0.38898795411390152 0 -0.028997254198101018 0.39105311351542471 0 -0.016165867411719409 0.40415856906401931 0 -0.025030984083210629 0.38898795411390152 0 -0.016165867411719409 0.40415856906401931 0 -0.01036147629946654 0.39658757815636869 0 -0.028997254198101018 0.39105311351542471 0 -0.016165867411719409 0.40415856906401931 0 -0.016165867411719409 0.40415856906401931 0 -0.01036147629946654 0.39658757815636869 0 0.004308031484278 0.40418720219883503 0 -0.025030984083210629 0.38898795411390152 0 -0.01036147629946654 0.39658757815636869 0 -0.010329784645874749 0.38776334634356652 0 -0.01036147629946654 0.39658757815636869 0 -0.0058222667695143528 0.39077606481988558 0 -0.010329784645874749 0.38776334634356652 0 -0.016165867411719409 0.40415856906401931 0 0.004308031484278 0.40418720219883503 0 -0.01036147629946654 0.39658757815636869 0 0.00016191192984808269 0.39552454060480252 0 0.004308031484278 0.40418720219883503 0 -0.01036147629946654 0.39658757815636869 0 0.004308031484278 0.40418720219883503 0 -0.01036147629946654 0.39658757815636869 0 -0.0058222667695143528 0.39077606481988558 0 0.00016191192984808269 0.39552454060480252 0 -0.025030984083210629 0.38898795411390152 0 -0.0069912071363726069 0.37959499451103501 0 -0.010329784645874749 0.38776334634356652 0 -0.0027597180625642021 0.38322879417480482 0 -0.0069912071363726069 0.37959499451103501 0 -0.010329784645874749 0.38776334634356652 0 -0.0058222667695143528 0.39077606481988558 0 -0.0027597180625642021 0.38322879417480482 0 0.00016191192984808269 0.39552454060480252 0 -0.0058222667695143528 0.39077606481988558 0 -0.0027597180625642021 0.38322879417480482 0 -0.010329784645874749 0.38776334634356652 0 -0.0090229082492393406 0.43685887589620359 0 -0.0011147325697431071 0.41953118481563689 0 -0.021578663034775899 0.42333473416258549 0 -0.0011147325697431071 0.41953118481563689 0 -0.01865328435892857 0.41307601755781093 0 -0.021578663034775899 0.42333473416258549 0 -0.016165867411719409 0.40415856906401931 0 -0.0011147325697431071 0.41953118481563689 0 0.004308031484278 0.40418720219883503 0 -0.016165867411719409 0.40415856906401931 0 -0.0011147325697431071 0.41953118481563689 0 -0.01865328435892857 0.41307601755781093 0 -0.016165867411719409 0.40415856906401931 0 -0.0011147325697431071 0.41953118481563689 0 -0.01865328435892857 0.41307601755781093 0 -0.02842332950342134 0.41421076128814022 0 -0.021578663034775899 0.42333473416258549 0 -0.02842332950342134 0.41421076128814022 0 -0.021578663034775899 0.42333473416258549 0 -0.039570917195228053 0.42221229263938248 0 -0.025983829274983269 0.40414483845867288 0 -0.016165867411719409 0.40415856906401931 0 -0.01865328435892857 0.41307601755781093 0 -0.025983829274983269 0.40414483845867288 0 -0.02842332950342134 0.41421076128814022 0 -0.035912309118249268 0.40874476062639592 0 -0.025983829274983269 0.40414483845867288 0 -0.01865328435892857 0.41307601755781093 0 -0.02842332950342134 0.41421076128814022 0 -0.021578663034775899 0.42333473416258549 0 -0.039570917195228053 0.42221229263938248 0 -0.029312553263086152 0.43814178927906278 0 -0.0090229082492393406 0.43685887589620359 0 -0.021578663034775899 0.42333473416258549 0 -0.029312553263086152 0.43814178927906278 0 -0.039570917195228053 0.42221229263938248 0 -0.044949641596164457 0.43654625621586862 0 -0.052645725510622313 0.4201189569572189 0 -0.039570917195228053 0.42221229263938248 0 -0.044949641596164457 0.43654625621586862 0 -0.029312553263086152 0.43814178927906278 0 -0.02842332950342134 0.41421076128814022 0 -0.039570917195228053 0.42221229263938248 0 -0.035912309118249268 0.40874476062639592 0 -0.039570917195228053 0.42221229263938248 0 -0.04567144399981863 0.40886320002262938 0 -0.052645725510622313 0.4201189569572189 0 -0.040994941804105511 0.4046686124028433 0 -0.035912309118249268 0.40874476062639592 0 -0.04567144399981863 0.40886320002262938 0 -0.039570917195228053 0.42221229263938248 0 -0.035912309118249268 0.40874476062639592 0 -0.04567144399981863 0.40886320002262938 0 -0.048080548183006069 0.40056380793810659 0 -0.04567144399981863 0.40886320002262938 0 -0.052645725510622313 0.4201189569572189 0 -0.072070544459121394 0.41348053468457729 0 -0.048080548183006069 0.40056380793810659 0 -0.065850344338038089 0.41913371161459639 0 -0.048080548183006069 0.40056380793810659 0 -0.052645725510622313 0.4201189569572189 0 -0.065850344338038089 0.41913371161459639 0 -0.072070544459121394 0.41348053468457729 0 -0.048080548183006069 0.40056380793810659 0 -0.065850344338038089 0.41913371161459639 0 -0.048080548183006069 0.40056380793810659 0 -0.044949641596164457 0.43654625621586862 0 -0.052645725510622313 0.4201189569572189 0 -0.05724412415213663 0.43630837771938857 0 -0.065850344338038089 0.41913371161459639 0 -0.052645725510622313 0.4201189569572189 0 -0.05724412415213663 0.43630837771938857 0 -0.044949641596164457 0.43654625621586862 0 -0.056649378699288967 0.44894983520940529 0 -0.042934938835729797 0.45864869138666958 0 -0.05724412415213663 0.43630837771938857 0 -0.056649378699288967 0.44894983520940529 0 -0.069464705364229926 0.44857870770521702 0 -0.044949641596164457 0.43654625621586862 0 -0.05724412415213663 0.43630837771938857 0 -0.056649378699288967 0.44894983520940529 0 -0.042934938835729797 0.45864869138666958 0 -0.053261052109157547 0.48091133692522098 0 -0.068653483548184013 0.46466714301988221 0 -0.056649378699288967 0.44894983520940529 0 -0.042934938835729797 0.45864869138666958 0 -0.068653483548184013 0.46466714301988221 0 -0.044949641596164457 0.43654625621586862 0 -0.042934938835729797 0.45864869138666958 0 -0.029312553263086152 0.43814178927906278 0 -0.0090229082492393406 0.43685887589620359 0 -0.029312553263086152 0.43814178927906278 0 -0.01889483194544812 0.45373436656547739 0 -0.042934938835729797 0.45864869138666958 0 -0.029312553263086152 0.43814178927906278 0 -0.01889483194544812 0.45373436656547739 0 -0.01889483194544812 0.45373436656547739 0 -0.0099672232814585378 0.46790150176959422 0 -0.027799044823768691 0.47668662741378881 0 -0.042934938835729797 0.45864869138666958 0 -0.01889483194544812 0.45373436656547739 0 -0.027799044823768691 0.47668662741378881 0 -0.01889483194544812 0.45373436656547739 0 -0.0099672232814585378 0.46790150176959422 0 0.0034201282783908361 0.45253129080750037 0 -0.0090229082492393406 0.43685887589620359 0 -0.01889483194544812 0.45373436656547739 0 0.0034201282783908361 0.45253129080750037 0 -0.0099672232814585378 0.46790150176959422 0 -0.0063919657320580248 0.5 0 -0.027799044823768691 0.47668662741378881 0 -0.0099672232814585378 0.46790150176959422 0 -0.0063919657320580248 0.5 0 0.0066987132942785254 0.47730329520009579 0 -0.0063919657320580248 0.5 0 -0.027799044823768691 0.47668662741378881 0 -0.035807104575897641 0.5 0 -0.027799044823768691 0.47668662741378881 0 -0.035807104575897641 0.5 0 -0.053261052109157547 0.48091133692522098 0 -0.042934938835729797 0.45864869138666958 0 -0.027799044823768691 0.47668662741378881 0 -0.053261052109157547 0.48091133692522098 0 -0.035807104575897641 0.5 0 -0.053261052109157547 0.48091133692522098 0 -0.065222243419737147 0.5 0 -0.053261052109157547 0.48091133692522098 0 -0.065222243419737147 0.5 0 -0.078401386831107422 0.4823177627134288 0 -0.078401386831107422 0.4823177627134288 0 -0.094637382263576764 0.5 0 -0.09890350383566654 0.48082680621464352 0 -0.065222243419737147 0.5 0 -0.078401386831107422 0.4823177627134288 0 -0.094637382263576764 0.5 0 -0.078401386831107422 0.4823177627134288 0 -0.068653483548184013 0.46466714301988221 0 -0.089730655810322579 0.46750129012082647 0 -0.078401386831107422 0.4823177627134288 0 -0.089730655810322579 0.46750129012082647 0 -0.09890350383566654 0.48082680621464352 0 -0.053261052109157547 0.48091133692522098 0 -0.078401386831107422 0.4823177627134288 0 -0.068653483548184013 0.46466714301988221 0 -0.068653483548184013 0.46466714301988221 0 -0.069464705364229926 0.44857870770521702 0 -0.082842027692703865 0.45398169775563951 0 -0.056649378699288967 0.44894983520940529 0 -0.068653483548184013 0.46466714301988221 0 -0.069464705364229926 0.44857870770521702 0 -0.082808454514188209 0.43685538212555908 0 -0.05724412415213663 0.43630837771938857 0 -0.069464705364229926 0.44857870770521702 0 -0.082808454514188209 0.43685538212555908 0 -0.069464705364229926 0.44857870770521702 0 -0.082842027692703865 0.45398169775563951 0 -0.082808454514188209 0.43685538212555908 0 -0.082842027692703865 0.45398169775563951 0 -0.1013458349967704 0.45622743158367901 0 -0.082808454514188209 0.43685538212555908 0 -0.1013458349967704 0.45622743158367901 0 -0.068653483548184013 0.46466714301988221 0 -0.082842027692703865 0.45398169775563951 0 -0.089730655810322579 0.46750129012082647 0 -0.082842027692703865 0.45398169775563951 0 -0.089730655810322579 0.46750129012082647 0 -0.1013458349967704 0.45622743158367901 0 -0.089730655810322579 0.46750129012082647 0 -0.1013458349967704 0.45622743158367901 0 -0.1034062643645272 0.46961600945658077 0 -0.1013458349967704 0.45622743158367901 0 -0.11988321547935191 0.47559948104179939 0 -0.1034062643645272 0.46961600945658077 0 -0.082808454514188209 0.43685538212555908 0 -0.1013458349967704 0.45622743158367901 0 -0.10019343655534819 0.44625139505840561 0 -0.100617809783888 0.4372364519860118 0 -0.082808454514188209 0.43685538212555908 0 -0.10019343655534819 0.44625139505840561 0 -0.100617809783888 0.4372364519860118 0 -0.10019343655534819 0.44625139505840561 0 -0.1184271650535877 0.43761752184646502 0 -0.1013458349967704 0.45622743158367901 0 -0.10019343655534819 0.44625139505840561 0 -0.1134356363686342 0.44938709720253911 0 -0.10019343655534819 0.44625139505840561 0 -0.1134356363686342 0.44938709720253911 0 -0.1225327829094065 0.43975523689572388 0 -0.10019343655534819 0.44625139505840561 0 -0.1225327829094065 0.43975523689572388 0 -0.1184271650535877 0.43761752184646502 0 -0.10019343655534819 0.44625139505840561 0 -0.1225327829094065 0.43975523689572388 0 -0.12952280689371309 0.45378977665046449 0 -0.12252918222066039 0.44898353405824409 0 -0.1205769451609858 0.45571788841664251 0 -0.12952280689371309 0.45378977665046449 0 -0.12252918222066039 0.44898353405824409 0 -0.1225327829094065 0.43975523689572388 0 -0.1134356363686342 0.44938709720253911 0 -0.12252918222066039 0.44898353405824409 0 -0.1225327829094065 0.43975523689572388 0 -0.1134356363686342 0.44938709720253911 0 -0.12252918222066039 0.44898353405824409 0 -0.1205769451609858 0.45571788841664251 0 -0.1290988346973517 0.43784586541086279 0 -0.1225327829094065 0.43975523689572388 0 -0.1184271650535877 0.43761752184646502 0 -0.1290988346973517 0.43784586541086279 0 -0.1184271650535877 0.43761752184646502 0 -0.1225327829094065 0.43975523689572388 0 -0.1184271650535877 0.43761752184646502 0 -0.1013458349967704 0.45622743158367901 0 -0.1231494702710853 0.46539638412097412 0 -0.11988321547935191 0.47559948104179939 0 -0.1013458349967704 0.45622743158367901 0 -0.11988321547935191 0.47559948104179939 0 -0.1013458349967704 0.45622743158367901 0 -0.1134356363686342 0.44938709720253911 0 -0.1205769451609858 0.45571788841664251 0 -0.1013458349967704 0.45622743158367901 0 -0.1205769451609858 0.45571788841664251 0 -0.1231494702710853 0.46539638412097412 0 -0.12952280689371309 0.45378977665046449 0 -0.1205769451609858 0.45571788841664251 0 -0.1231494702710853 0.46539638412097412 0 -0.13248926921757989 0.47466611745110782 0 -0.11988321547935191 0.47559948104179939 0 -0.1150500764181014 0.48737709725065947 0 -0.11988321547935191 0.47559948104179939 0 -0.1093834369322924 0.4782499879820476 0 -0.1034062643645272 0.46961600945658077 0 -0.11988321547935191 0.47559948104179939 0 -0.1093834369322924 0.4782499879820476 0 -0.1150500764181014 0.48737709725065947 0 -0.13248926921757989 0.47466611745110782 0 -0.1240525211074163 0.49999999999999512 0 -0.1150500764181014 0.48737709725065947 0 -0.1240525211074163 0.49999999999999512 0 -0.1150500764181014 0.48737709725065947 0 -0.094637382263576764 0.5 0 -0.1150500764181014 0.48737709725065947 0 -0.094637382263576764 0.5 0 -0.09890350383566654 0.48082680621464352 0 -0.1093834369322924 0.4782499879820476 0 -0.1150500764181014 0.48737709725065947 0 -0.09890350383566654 0.48082680621464352 0 -0.089730655810322579 0.46750129012082647 0 -0.09890350383566654 0.48082680621464352 0 -0.1034062643645272 0.46961600945658077 0 -0.1093834369322924 0.4782499879820476 0 -0.09890350383566654 0.48082680621464352 0 -0.1034062643645272 0.46961600945658077 0 -0.16388199871744061 0.087714084115998514 0 -0.1810405098616675 0.083926175477865031 0 -0.15180250106367019 0.08294877954566604 0 -0.16032468043510409 0.073802391208327753 0 -0.1810405098616675 0.083926175477865031 0 -0.15180250106367019 0.08294877954566604 0 -0.1810405098616675 0.083926175477865031 0 -0.15180250106367019 0.08294877954566604 0 -0.16032468043510409 0.073802391208327753 0 -0.16806393766365069 0.069167979326082443 0 -0.15166183879649131 0.059397805679049141 0 -0.16032468043510409 0.073802391208327753 0 -0.16806393766365069 0.069167979326082443 0 -0.1810405098616675 0.083926175477865031 0 -0.16806393766365069 0.069167979326082443 0 -0.1810405098616675 0.083926175477865031 0 -0.1890191485767185 0.059911153232940287 0 -0.16388199871744061 0.087714084115998514 0 -0.1810405098616675 0.083926175477865031 0 -0.17325121224136561 0.094925558344142888 0 -0.17591616185794931 0.1064444804352572 0 -0.17325121224136561 0.094925558344142888 0 -0.19385385485728771 0.1048570398411638 0 -0.1810405098616675 0.083926175477865031 0 -0.17325121224136561 0.094925558344142888 0 -0.19385385485728771 0.1048570398411638 0 -0.17591616185794931 0.1064444804352572 0 -0.18097956372513971 0.11915233980838411 0 -0.19385385485728771 0.1048570398411638 0 -0.18097956372513971 0.11915233980838411 0 -0.1942634777965449 0.1224181253585027 0 -0.1831445246093325 0.13217281660412331 0 -0.17591616185794931 0.1064444804352572 0 -0.18097956372513971 0.11915233980838411 0 -0.1699266795816238 0.11723715980542949 0 -0.18097956372513971 0.11915233980838411 0 -0.1699266795816238 0.11723715980542949 0 -0.17060113293046569 0.12806389986013739 0 -0.15995179184728911 0.12196181651241959 0 -0.16384190746718291 0.1093024680711731 0 -0.15181822128916089 0.10223282982399789 0 -0.1699266795816238 0.11723715980542949 0 -0.15995179184728911 0.12196181651241959 0 -0.17060113293046569 0.12806389986013739 0 -0.1699266795816238 0.11723715980542949 0 -0.15995179184728911 0.12196181651241959 0 -0.16384190746718291 0.1093024680711731 0 -0.17591616185794931 0.1064444804352572 0 -0.1699266795816238 0.11723715980542949 0 -0.16384190746718291 0.1093024680711731 0 -0.17591616185794931 0.1064444804352572 0 -0.17325121224136561 0.094925558344142888 0 -0.16574190031461961 0.100123884158114 0 -0.16388199871744061 0.087714084115998514 0 -0.17325121224136561 0.094925558344142888 0 -0.16574190031461961 0.100123884158114 0 -0.17591616185794931 0.1064444804352572 0 -0.16574190031461961 0.100123884158114 0 -0.16384190746718291 0.1093024680711731 0 -0.16574190031461961 0.100123884158114 0 -0.16384190746718291 0.1093024680711731 0 -0.15181822128916089 0.10223282982399789 0 -0.16388199871744061 0.087714084115998514 0 -0.15181822128916089 0.10223282982399789 0 -0.16388199871744061 0.087714084115998514 0 -0.16574190031461961 0.100123884158114 0 -0.15181822128916089 0.10223282982399789 0 -0.15181822128916089 0.10223282982399789 0 -0.14477436421563719 0.11071010572386369 0 -0.13822852753266429 0.094196900555796464 0 -0.14477436421563719 0.11071010572386369 0 -0.13822852753266429 0.094196900555796464 0 -0.15181822128916089 0.10223282982399789 0 -0.14477436421563719 0.11071010572386369 0 -0.15350213099114909 0.1174391628193699 0 -0.14744042999522641 0.1174357992206823 0 -0.1557013276051126 0.13827559460685271 0 -0.15995179184728911 0.12196181651241959 0 -0.15181822128916089 0.10223282982399789 0 -0.15995179184728911 0.12196181651241959 0 -0.15181822128916089 0.10223282982399789 0 -0.15350213099114909 0.1174391628193699 0 -0.15350213099114909 0.1174391628193699 0 -0.14744042999522641 0.1174357992206823 0 -0.15350213099114909 0.1174391628193699 0 -0.14477436421563719 0.11071010572386369 0 -0.14744042999522641 0.1174357992206823 0 -0.15181822128916089 0.10223282982399789 0 -0.15350213099114909 0.1174391628193699 0 -0.14477436421563719 0.11071010572386369 0 -0.14477436421563719 0.11071010572386369 0 -0.14744042999522641 0.1174357992206823 0 -0.1391897193816109 0.1174312209547113 0 -0.14477436421563719 0.11071010572386369 0 -0.1391897193816109 0.1174312209547113 0 -0.14477436421563719 0.11071010572386369 0 -0.14744042999522641 0.1174357992206823 0 -0.14112840812542479 0.1225835340944206 0 -0.14744042999522641 0.1174357992206823 0 -0.1449825935057058 0.1304672940640158 0 -0.14744042999522641 0.1174357992206823 0 -0.1391897193816109 0.1174312209547113 0 -0.14112840812542479 0.1225835340944206 0 -0.14744042999522641 0.1174357992206823 0 -0.1391897193816109 0.1174312209547113 0 -0.1391897193816109 0.1174312209547113 0 -0.13063045818263819 0.1174264714760163 0 -0.1329008896191585 0.1249998221382722 0 -0.1391897193816109 0.1174312209547113 0 -0.13063045818263819 0.1174264714760163 0 -0.14112840812542479 0.1225835340944206 0 -0.1329008896191585 0.1249998221382722 0 -0.1391897193816109 0.1174312209547113 0 -0.1329008896191585 0.1249998221382722 0 -0.1391897193816109 0.1174312209547113 0 -0.1391897193816109 0.1174312209547113 0 -0.13717831926084509 0.11263888129147399 0 -0.13063045818263819 0.1174264714760163 0 -0.14477436421563719 0.11071010572386369 0 -0.13717831926084509 0.11263888129147399 0 -0.1341187352634941 0.104987727011304 0 -0.13717831926084509 0.11263888129147399 0 -0.13063045818263819 0.1174264714760163 0 -0.1341187352634941 0.104987727011304 0 -0.14477436421563719 0.11071010572386369 0 -0.1391897193816109 0.1174312209547113 0 -0.13717831926084509 0.11263888129147399 0 -0.1329008896191585 0.1249998221382722 0 -0.13063045818263819 0.1174264714760163 0 -0.1227349250116945 0.1241645890505584 0 -0.1329008896191585 0.1249998221382722 0 -0.13063045818263819 0.1174264714760163 0 -0.13822852753266429 0.094196900555796464 0 -0.1341187352634941 0.104987727011304 0 -0.122048227283587 0.088799205742465873 0 -0.1260798609718696 0.11432481948205279 0 -0.13063045818263819 0.1174264714760163 0 -0.122048227283587 0.088799205742465873 0 -0.13063045818263819 0.1174264714760163 0 -0.1341187352634941 0.104987727011304 0 -0.122048227283587 0.088799205742465873 0 -0.14477436421563719 0.11071010572386369 0 -0.13822852753266429 0.094196900555796464 0 -0.1341187352634941 0.104987727011304 0 -0.13063045818263819 0.1174264714760163 0 -0.122048227283587 0.088799205742465873 0 -0.13822852753266429 0.094196900555796464 0 -0.1316826908496912 0.077683695387729318 0 -0.13822852753266429 0.094196900555796464 0 -0.1316826908496912 0.077683695387729318 0 -0.122048227283587 0.088799205742465873 0 -0.13822852753266429 0.094196900555796464 0 -0.1432236585917025 0.081385649383491646 0 -0.1316826908496912 0.077683695387729318 0 -0.15181822128916089 0.10223282982399789 0 -0.1432236585917025 0.081385649383491646 0 -0.15180250106367019 0.08294877954566604 0 -0.15181822128916089 0.10223282982399789 0 -0.1432236585917025 0.081385649383491646 0 -0.15181822128916089 0.10223282982399789 0 -0.13822852753266429 0.094196900555796464 0 -0.1432236585917025 0.081385649383491646 0 -0.16388199871744061 0.087714084115998514 0 -0.15181822128916089 0.10223282982399789 0 -0.15180250106367019 0.08294877954566604 0 -0.1432236585917025 0.081385649383491646 0 -0.15180250106367019 0.08294877954566604 0 -0.14905461479004051 0.073571216012976115 0 -0.16032468043510409 0.073802391208327753 0 -0.14905461479004051 0.073571216012976115 0 -0.15166183879649131 0.059397805679049141 0 -0.16032468043510409 0.073802391208327753 0 -0.15180250106367019 0.08294877954566604 0 -0.14905461479004051 0.073571216012976115 0 -0.1432236585917025 0.081385649383491646 0 -0.14905461479004051 0.073571216012976115 0 -0.1401209104391051 0.068190221173107801 0 -0.14905461479004051 0.073571216012976115 0 -0.1401209104391051 0.068190221173107801 0 -0.15166183879649131 0.059397805679049141 0 -0.1316826908496912 0.077683695387729318 0 -0.1273435975974414 0.063966576480238457 0 -0.122048227283587 0.088799205742465873 0 -0.1401209104391051 0.068190221173107801 0 -0.1316826908496912 0.077683695387729318 0 -0.1273435975974414 0.063966576480238457 0 -0.1432236585917025 0.081385649383491646 0 -0.1401209104391051 0.068190221173107801 0 -0.1316826908496912 0.077683695387729318 0 -0.1401209104391051 0.068190221173107801 0 -0.1273435975974414 0.063966576480238457 0 -0.13683155324242049 0.051847307747786037 0 -0.1273435975974414 0.063966576480238457 0 -0.13683155324242049 0.051847307747786037 0 -0.122256025542699 0.04565008101194272 0 -0.13425460843496409 0.038204228198458451 0 -0.11675663211135109 0.02816575936089178 0 -0.13683155324242049 0.051847307747786037 0 -0.13425460843496409 0.038204228198458451 0 -0.122256025542699 0.04565008101194272 0 -0.13425460843496409 0.038204228198458451 0 -0.14863207383593019 0.03675879738172088 0 -0.13673964572822811 0.027108430623508518 0 -0.13683155324242049 0.051847307747786037 0 -0.13425460843496409 0.038204228198458451 0 -0.14863207383593019 0.03675879738172088 0 -0.13683155324242049 0.051847307747786037 0 -0.14863207383593019 0.03675879738172088 0 -0.15166183879649131 0.059397805679049141 0 -0.1401209104391051 0.068190221173107801 0 -0.13683155324242049 0.051847307747786037 0 -0.15166183879649131 0.059397805679049141 0 -0.13484827916613151 -0.0027808947433938811 0 -0.12981639210235441 0.0078850114728474599 0 -0.13838000154227589 0.0091785200793412618 0 -0.13484827916613151 -0.0027808947433938811 0 -0.13838000154227589 0.0091785200793412618 0 -0.14796543771765441 0.001202300475282913 0 -0.13484827916613151 -0.0027808947433938811 0 -0.12981639210235441 0.0078850114728474599 0 -0.1223498310080533 0.0029838050248971858 0 -0.12981639210235441 0.0078850114728474599 0 -0.13124453787925491 0.01737924024431799 0 -0.1222593109160566 0.012664386759074759 0 -0.12981639210235441 0.0078850114728474599 0 -0.13838000154227589 0.0091785200793412618 0 -0.13124453787925491 0.01737924024431799 0 -0.13425460843496409 0.038204228198458451 0 -0.13673964572822811 0.027108430623508518 0 -0.11675663211135109 0.02816575936089178 0 -0.13124453787925491 0.01737924024431799 0 -0.13673964572822811 0.027108430623508518 0 -0.11675663211135109 0.02816575936089178 0 -0.13838000154227589 0.0091785200793412618 0 -0.13124453787925491 0.01737924024431799 0 -0.14594985819646561 0.020440288418733792 0 -0.13124453787925491 0.01737924024431799 0 -0.13673964572822811 0.027108430623508518 0 -0.14594985819646561 0.020440288418733792 0 -0.14863207383593019 0.03675879738172088 0 -0.13673964572822811 0.027108430623508518 0 -0.14594985819646561 0.020440288418733792 0 -0.14594985819646561 0.020440288418733792 0 -0.14890150006416131 0.003167320015021291 0 -0.15934291663814079 0.023723362342346701 0 -0.14863207383593019 0.03675879738172088 0 -0.14594985819646561 0.020440288418733792 0 -0.15934291663814079 0.023723362342346701 0 -0.14890150006416131 0.003167320015021291 0 -0.15934291663814079 0.023723362342346701 0 -0.14594985819646561 0.020440288418733792 0 -0.14796543771765441 0.001202300475282913 0 -0.14594985819646561 0.020440288418733792 0 -0.14890150006416131 0.003167320015021291 0 -0.14796543771765441 0.001202300475282913 0 -0.13838000154227589 0.0091785200793412618 0 -0.14594985819646561 0.020440288418733792 0 -0.14796543771765441 0.001202300475282913 0 -0.14890150006416131 0.003167320015021291 0 -0.14796543771765441 0.001202300475282913 0 -0.14890150006416131 0.003167320015021291 0 -0.169000741073837 0.0059288131650698048 0 -0.15934291663814079 0.023723362342346701 0 -0.15934291663814079 0.023723362342346701 0 -0.1791690891902957 0.02288183026790714 0 -0.1697392005341809 0.044302205374848053 0 -0.169000741073837 0.0059288131650698048 0 -0.15934291663814079 0.023723362342346701 0 -0.1791690891902957 0.02288183026790714 0 -0.169000741073837 0.0059288131650698048 0 -0.1791690891902957 0.02288183026790714 0 -0.18819939858690191 0.0026979606130545031 0 -0.16806393766365069 0.069167979326082443 0 -0.15166183879649131 0.059397805679049141 0 -0.16530981608413139 0.057369754131819328 0 -0.15166183879649131 0.059397805679049141 0 -0.16530981608413139 0.057369754131819328 0 -0.1697392005341809 0.044302205374848053 0 -0.14863207383593019 0.03675879738172088 0 -0.15934291663814079 0.023723362342346701 0 -0.1697392005341809 0.044302205374848053 0 -0.14863207383593019 0.03675879738172088 0 -0.15166183879649131 0.059397805679049141 0 -0.1697392005341809 0.044302205374848053 0 -0.15934291663814079 0.023723362342346701 0 -0.1697392005341809 0.044302205374848053 0 -0.1791690891902957 0.02288183026790714 0 -0.1697392005341809 0.044302205374848053 0 -0.18824507381367339 0.04045240557540708 0 -0.16530981608413139 0.057369754131819328 0 -0.1697392005341809 0.044302205374848053 0 -0.1890191485767185 0.059911153232940287 0 -0.1697392005341809 0.044302205374848053 0 -0.1890191485767185 0.059911153232940287 0 -0.18824507381367339 0.04045240557540708 0 -0.16806393766365069 0.069167979326082443 0 -0.16530981608413139 0.057369754131819328 0 -0.1890191485767185 0.059911153232940287 0 -0.1890191485767185 0.059911153232940287 0 -0.20736134191982411 0.037486648435152002 0 -0.22245932487765871 0.060355989158520758 0 -0.1890191485767185 0.059911153232940287 0 -0.18824507381367339 0.04045240557540708 0 -0.20736134191982411 0.037486648435152002 0 -0.18824507381367339 0.04045240557540708 0 -0.20736134191982411 0.037486648435152002 0 -0.20083173929574391 0.018861737562953 0 -0.20870483855239319 -0.0032175623307339201 0 -0.18819939858690191 0.0026979606130545031 0 -0.20083173929574391 0.018861737562953 0 -0.1791690891902957 0.02288183026790714 0 -0.18819939858690191 0.0026979606130545031 0 -0.20083173929574391 0.018861737562953 0 -0.1791690891902957 0.02288183026790714 0 -0.18824507381367339 0.04045240557540708 0 -0.20083173929574391 0.018861737562953 0 -0.20736134191982411 0.037486648435152002 0 -0.20083173929574391 0.018861737562953 0 -0.22355847216147801 0.013912248749877039 0 -0.20870483855239319 -0.0032175623307339201 0 -0.20083173929574391 0.018861737562953 0 -0.22355847216147801 0.013912248749877039 0 -0.20736134191982411 0.037486648435152002 0 -0.22355847216147801 0.013912248749877039 0 -0.23862382685953931 0.038227620258071249 0 -0.22955938951886709 -0.011319915092621461 0 -0.22355847216147801 0.013912248749877039 0 -0.2442909533675125 0.00031103310138003761 0 -0.22355847216147801 0.013912248749877039 0 -0.23862382685953931 0.038227620258071249 0 -0.2581642947923683 0.031220422211486819 0 -0.24569043146862371 0.018973199561681149 0 -0.23862382685953931 0.038227620258071249 0 -0.22355847216147801 0.013912248749877039 0 -0.24569043146862371 0.018973199561681149 0 -0.23862382685953931 0.038227620258071249 0 -0.22355847216147801 0.013912248749877039 0 -0.24569043146862371 0.018973199561681149 0 -0.2442909533675125 0.00031103310138003761 0 -0.20736134191982411 0.037486648435152002 0 -0.22245932487765871 0.060355989158520758 0 -0.23862382685953931 0.038227620258071249 0 -0.25368918155760051 0.062542991766265349 0 -0.23862382685953931 0.038227620258071249 0 -0.25368918155760051 0.062542991766265349 0 -0.22245932487765871 0.060355989158520758 0 -0.23862382685953931 0.038227620258071249 0 -0.25368918155760051 0.062542991766265349 0 -0.22245932487765871 0.060355989158520758 0 -0.23951652745766219 0.085880967342263012 0 -0.23951652745766219 0.085880967342263012 0 -0.2102785186596649 0.084903571410064022 0 -0.22410140977727691 0.10595826017473919 0 -0.23951652745766219 0.085880967342263012 0 -0.2102785186596649 0.084903571410064022 0 -0.22245932487765871 0.060355989158520758 0 -0.23951652745766219 0.085880967342263012 0 -0.2102785186596649 0.084903571410064022 0 -0.1890191485767185 0.059911153232940287 0 -0.22245932487765871 0.060355989158520758 0 -0.2102785186596649 0.084903571410064022 0 -0.1810405098616675 0.083926175477865031 0 -0.2102785186596649 0.084903571410064022 0 -0.1810405098616675 0.083926175477865031 0 -0.2102785186596649 0.084903571410064022 0 -0.19385385485728771 0.1048570398411638 0 -0.1810405098616675 0.083926175477865031 0 -0.1890191485767185 0.059911153232940287 0 -0.2102785186596649 0.084903571410064022 0 -0.18097956372513971 0.11915233980838411 0 -0.1942634777965449 0.1224181253585027 0 -0.19385385485728771 0.1048570398411638 0 -0.1942634777965449 0.1224181253585027 0 -0.19385385485728771 0.1048570398411638 0 -0.2107316562744562 0.1221006009333864 0 -0.2102785186596649 0.084903571410064022 0 -0.19385385485728771 0.1048570398411638 0 -0.22410140977727691 0.10595826017473919 0 -0.19385385485728771 0.1048570398411638 0 -0.2107316562744562 0.1221006009333864 0 -0.22410140977727691 0.10595826017473919 0 -0.2107316562744562 0.1221006009333864 0 -0.22410140977727691 0.10595826017473919 0 -0.23457263881566659 0.12998572298373201 0 -0.25249197155940639 0.1117611665329582 0 -0.23951652745766219 0.085880967342263012 0 -0.22410140977727691 0.10595826017473919 0 -0.25249197155940639 0.1117611665329582 0 -0.22410140977727691 0.10595826017473919 0 -0.23457263881566659 0.12998572298373201 0 -0.25201251588210177 0.1280123011904658 0 -0.25249197155940639 0.1117611665329582 0 -0.23457263881566659 0.12998572298373201 0 -0.25556563270471711 0.14786828493522511 0 -0.25201251588210177 0.1280123011904658 0 -0.23457263881566659 0.12998572298373201 0 -0.2107316562744562 0.1221006009333864 0 -0.23457263881566659 0.12998572298373201 0 -0.2161322807778866 0.1402539683106396 0 -0.23457263881566659 0.12998572298373201 0 -0.23082563225020769 0.15603102961746909 0 -0.2161322807778866 0.1402539683106396 0 -0.23082563225020769 0.15603102961746909 0 -0.21344989147557131 0.15716214023416439 0 -0.2161322807778866 0.1402539683106396 0 -0.25556563270471711 0.14786828493522511 0 -0.23457263881566659 0.12998572298373201 0 -0.23082563225020769 0.15603102961746909 0 -0.23082563225020769 0.15603102961746909 0 -0.24991153353962359 0.17059528531891879 0 -0.22852019968506859 0.1755939260887546 0 -0.25556563270471711 0.14786828493522511 0 -0.23082563225020769 0.15603102961746909 0 -0.24991153353962359 0.17059528531891879 0 -0.24991153353962359 0.17059528531891879 0 -0.23385421898177999 0.18586774263441269 0 -0.2442574343745301 0.1933222857026127 0 -0.24991153353962359 0.17059528531891879 0 -0.2442574343745301 0.1933222857026127 0 -0.24991153353962359 0.17059528531891879 0 -0.22852019968506859 0.1755939260887546 0 -0.23385421898177999 0.18586774263441269 0 -0.22852019968506859 0.1755939260887546 0 -0.23385421898177999 0.18586774263441269 0 -0.2092585604278992 0.18858520269579429 0 -0.23082563225020769 0.15603102961746909 0 -0.21344989147557131 0.15716214023416439 0 -0.21518617753590219 0.172752068230728 0 -0.23082563225020769 0.15603102961746909 0 -0.22852019968506859 0.1755939260887546 0 -0.21518617753590219 0.172752068230728 0 -0.21344989147557131 0.15716214023416439 0 -0.2027933038798003 0.16687476400181669 0 -0.20257585432443151 0.14905064658874659 0 -0.21344989147557131 0.15716214023416439 0 -0.21518617753590219 0.172752068230728 0 -0.2027933038798003 0.16687476400181669 0 -0.21518617753590219 0.172752068230728 0 -0.2027933038798003 0.16687476400181669 0 -0.2092585604278992 0.18858520269579429 0 -0.22852019968506859 0.1755939260887546 0 -0.21518617753590219 0.172752068230728 0 -0.2092585604278992 0.18858520269579429 0 -0.2092585604278992 0.18858520269579429 0 -0.18337798467760771 0.17878495995313001 0 -0.2027933038798003 0.16687476400181669 0 -0.2092585604278992 0.18858520269579429 0 -0.18337798467760771 0.17878495995313001 0 -0.2027933038798003 0.16687476400181669 0 -0.19027382293960721 0.15829127259842571 0 -0.18337798467760771 0.17878495995313001 0 -0.2027933038798003 0.16687476400181669 0 -0.19027382293960721 0.15829127259842571 0 -0.20257585432443151 0.14905064658874659 0 -0.19027382293960721 0.15829127259842571 0 -0.20257585432443151 0.14905064658874659 0 -0.18668262200009189 0.1459420036721196 0 -0.20257585432443151 0.14905064658874659 0 -0.1999207025160708 0.13473377783860149 0 -0.18668262200009189 0.1459420036721196 0 -0.1942634777965449 0.1224181253585027 0 -0.1999207025160708 0.13473377783860149 0 -0.1831445246093325 0.13217281660412331 0 -0.1942634777965449 0.1224181253585027 0 -0.2107316562744562 0.1221006009333864 0 -0.1999207025160708 0.13473377783860149 0 -0.1999207025160708 0.13473377783860149 0 -0.1831445246093325 0.13217281660412331 0 -0.18668262200009189 0.1459420036721196 0 -0.2107316562744562 0.1221006009333864 0 -0.1999207025160708 0.13473377783860149 0 -0.2161322807778866 0.1402539683106396 0 -0.21344989147557131 0.15716214023416439 0 -0.20257585432443151 0.14905064658874659 0 -0.2161322807778866 0.1402539683106396 0 -0.20257585432443151 0.14905064658874659 0 -0.1999207025160708 0.13473377783860149 0 -0.2161322807778866 0.1402539683106396 0 -0.23294923604434339 0.23877628647000029 0 -0.2312847749721309 0.24546669042689431 0 -0.20466137290697139 0.24097435901006151 0 -0.23294923604434339 0.23877628647000029 0 -0.2312847749721309 0.24546669042689431 0 -0.25352856868734108 0.2361842778412068 0 -0.23294923604434339 0.23877628647000029 0 -0.24414723244081521 0.2294953384228533 0 -0.25919022577934031 0.25017534986325912 0 -0.2312847749721309 0.24546669042689431 0 -0.25919022577934031 0.25017534986325912 0 -0.23294923604434339 0.23877628647000029 0 -0.2312847749721309 0.24546669042689431 0 -0.25352856868734108 0.2361842778412068 0 -0.25919022577934031 0.25017534986325912 0 -0.23294923604434339 0.23877628647000029 0 -0.25919022577934031 0.25017534986325912 0 -0.23294923604434339 0.23877628647000029 0 -0.23294923604434339 0.23877628647000029 0 -0.24414723244081521 0.2294953384228533 0 -0.23860333520943661 0.21604928608630641 0 -0.26030390646675128 0.2222670805481724 0 -0.24414723244081521 0.2294953384228533 0 -0.23860333520943661 0.21604928608630641 0 -0.23294923604434339 0.23877628647000029 0 -0.23860333520943661 0.21604928608630641 0 -0.23294923604434339 0.23877628647000029 0 -0.21896248045072389 0.22210199531137889 0 -0.20466137290697139 0.24097435901006151 0 -0.23294923604434339 0.23877628647000029 0 -0.21896248045072389 0.22210199531137889 0 -0.23860333520943661 0.21604928608630641 0 -0.21896248045072389 0.22210199531137889 0 -0.22769749771131539 0.21028533724268819 0 -0.21808503900691009 0.2046046221346092 0 -0.22769749771131539 0.21028533724268819 0 -0.23513913617819099 0.1983854454384584 0 -0.21808503900691009 0.2046046221346092 0 -0.22769749771131539 0.21028533724268819 0 -0.23860333520943661 0.21604928608630641 0 -0.23513913617819099 0.1983854454384584 0 -0.21896248045072389 0.22210199531137889 0 -0.22769749771131539 0.21028533724268819 0 -0.23860333520943661 0.21604928608630641 0 -0.23860333520943661 0.21604928608630641 0 -0.2442574343745301 0.1933222857026127 0 -0.25193111579350458 0.20679586774225589 0 -0.23860333520943661 0.21604928608630641 0 -0.2442574343745301 0.1933222857026127 0 -0.23860333520943661 0.21604928608630641 0 -0.23513913617819099 0.1983854454384584 0 -0.2442574343745301 0.1933222857026127 0 -0.23385421898177999 0.18586774263441269 0 -0.23513913617819099 0.1983854454384584 0 -0.2442574343745301 0.1933222857026127 0 -0.23513913617819099 0.1983854454384584 0 -0.2092585604278992 0.18858520269579429 0 -0.23385421898177999 0.18586774263441269 0 -0.23513913617819099 0.1983854454384584 0 -0.2092585604278992 0.18858520269579429 0 -0.23513913617819099 0.1983854454384584 0 -0.2092585604278992 0.18858520269579429 0 -0.21808503900691009 0.2046046221346092 0 -0.2092585604278992 0.18858520269579429 0 -0.2052218065846107 0.2041101733630151 0 -0.21808503900691009 0.2046046221346092 0 -0.2092585604278992 0.18858520269579429 0 -0.1912310338773138 0.1978335072076505 0 -0.2052218065846107 0.2041101733630151 0 -0.2092585604278992 0.18858520269579429 0 -0.1912310338773138 0.1978335072076505 0 -0.18337798467760771 0.17878495995313001 0 -0.1912310338773138 0.1978335072076505 0 -0.19908408307701961 0.2168820544621711 0 -0.1912310338773138 0.1978335072076505 0 -0.19908408307701961 0.2168820544621711 0 -0.2052218065846107 0.2041101733630151 0 -0.1912310338773138 0.1978335072076505 0 -0.19908408307701961 0.2168820544621711 0 -0.1801482604308943 0.21134292621828171 0 -0.19908408307701961 0.2168820544621711 0 -0.1872344417689572 0.2252575767888311 0 -0.1801482604308943 0.21134292621828171 0 -0.21896248045072389 0.22210199531137889 0 -0.19908408307701961 0.2168820544621711 0 -0.21033835227981609 0.21192471131779361 0 -0.19908408307701961 0.2168820544621711 0 -0.21033835227981609 0.21192471131779361 0 -0.2052218065846107 0.2041101733630151 0 -0.21896248045072389 0.22210199531137889 0 -0.21033835227981609 0.21192471131779361 0 -0.21808503900691009 0.2046046221346092 0 -0.21033835227981609 0.21192471131779361 0 -0.2052218065846107 0.2041101733630151 0 -0.21808503900691009 0.2046046221346092 0 -0.21896248045072389 0.22210199531137889 0 -0.19908408307701961 0.2168820544621711 0 -0.20466137290697139 0.24097435901006151 0 -0.20466137290697139 0.24097435901006151 0 -0.17803797084181219 0.2364820275932262 0 -0.1872344417689572 0.2252575767888311 0 -0.19908408307701961 0.2168820544621711 0 -0.20466137290697139 0.24097435901006151 0 -0.1872344417689572 0.2252575767888311 0 -0.20466137290697139 0.24097435901006151 0 -0.17803797084181219 0.2364820275932262 0 -0.1890783929044971 0.2535865590034147 0 -0.20466137290697139 0.24097435901006151 0 -0.17803797084181219 0.2364820275932262 0 -0.2312847749721309 0.24546669042689431 0 -0.20466137290697139 0.24097435901006151 0 -0.21223583082632591 0.25822292974731392 0 -0.2312847749721309 0.24546669042689431 0 -0.20466137290697139 0.24097435901006151 0 -0.16331315165998439 0.2490404556413599 0 -0.17803797084181219 0.2364820275932262 0 -0.15141456877665291 0.2319896961763909 0 -0.1890783929044971 0.2535865590034147 0 -0.16331315165998439 0.2490404556413599 0 -0.17803797084181219 0.2364820275932262 0 -0.17803797084181219 0.2364820275932262 0 -0.1872344417689572 0.2252575767888311 0 -0.17344686876436449 0.22198357930574439 0 -0.17803797084181219 0.2364820275932262 0 -0.17344686876436449 0.22198357930574439 0 -0.1652307275424536 0.23284064723830999 0 -0.1872344417689572 0.2252575767888311 0 -0.17344686876436449 0.22198357930574439 0 -0.1801482604308943 0.21134292621828171 0 -0.17344686876436449 0.22198357930574439 0 -0.1652307275424536 0.23284064723830999 0 -0.15658294323770389 0.2039947186900731 0 -0.17803797084181219 0.2364820275932262 0 -0.1652307275424536 0.23284064723830999 0 -0.15141456877665291 0.2319896961763909 0 -0.17803797084181219 0.2364820275932262 0 -0.15141456877665291 0.2319896961763909 0 -0.1652307275424536 0.23284064723830999 0 -0.15658294323770389 0.2039947186900731 0 -0.15141456877665291 0.2319896961763909 0 -0.15658294323770389 0.2039947186900731 0 -0.1801482604308943 0.21134292621828171 0 -0.17257094147838059 0.1984032940782845 0 -0.17344686876436449 0.22198357930574439 0 -0.15658294323770389 0.2039947186900731 0 -0.1801482604308943 0.21134292621828171 0 -0.1652307275424536 0.23284064723830999 0 -0.15658294323770389 0.2039947186900731 0 -0.1912310338773138 0.1978335072076505 0 -0.17257094147838059 0.1984032940782845 0 -0.1731539066673991 0.18611165646960159 0 -0.1912310338773138 0.1978335072076505 0 -0.18337798467760771 0.17878495995313001 0 -0.1731539066673991 0.18611165646960159 0 -0.1912310338773138 0.1978335072076505 0 -0.1801482604308943 0.21134292621828171 0 -0.17257094147838059 0.1984032940782845 0 -0.1912310338773138 0.1978335072076505 0 -0.18337798467760771 0.17878495995313001 0 -0.17257094147838059 0.1984032940782845 0 -0.1731539066673991 0.18611165646960159 0 -0.15963338954370521 0.18747169461293961 0 -0.15658294323770389 0.2039947186900731 0 -0.15963338954370521 0.18747169461293961 0 -0.15658294323770389 0.2039947186900731 0 -0.17257094147838059 0.1984032940782845 0 -0.15963338954370521 0.18747169461293961 0 -0.15658294323770389 0.2039947186900731 0 -0.15060448241672911 0.18405270260908849 0 -0.15658294323770389 0.2039947186900731 0 -0.14363706253131359 0.20042100423087941 0 -0.15060448241672911 0.18405270260908849 0 -0.15658294323770389 0.2039947186900731 0 -0.15963338954370521 0.18747169461293961 0 -0.15060448241672911 0.18405270260908849 0 -0.14363706253131359 0.20042100423087941 0 -0.1344442555656801 0.19148131876414279 0 -0.15060448241672911 0.18405270260908849 0 -0.14363706253131359 0.20042100423087941 0 -0.1344442555656801 0.19148131876414279 0 -0.13294785415663121 0.20771349417350879 0 -0.1344442555656801 0.19148131876414279 0 -0.13294785415663121 0.20771349417350879 0 -0.1229308343743053 0.19698652554228971 0 -0.1344442555656801 0.19148131876414279 0 -0.1228109469060103 0.1835479806420878 0 -0.1229308343743053 0.19698652554228971 0 -0.13294785415663121 0.20771349417350879 0 -0.1436057772798221 0.21486278691758359 0 -0.12926350810843429 0.2282520106051586 0 -0.13294785415663121 0.20771349417350879 0 -0.12926350810843429 0.2282520106051586 0 -0.11871299624398721 0.21299884569041261 0 -0.14363706253131359 0.20042100423087941 0 -0.13294785415663121 0.20771349417350879 0 -0.1436057772798221 0.21486278691758359 0 -0.15658294323770389 0.2039947186900731 0 -0.15141456877665291 0.2319896961763909 0 -0.15658294323770389 0.2039947186900731 0 -0.1436057772798221 0.21486278691758359 0 -0.15141456877665291 0.2319896961763909 0 -0.15658294323770389 0.2039947186900731 0 -0.14363706253131359 0.20042100423087941 0 -0.1436057772798221 0.21486278691758359 0 -0.1436057772798221 0.21486278691758359 0 -0.15141456877665291 0.2319896961763909 0 -0.12926350810843429 0.2282520106051586 0 -0.15141456877665291 0.2319896961763909 0 -0.12926350810843429 0.2282520106051586 0 -0.15029959929541789 0.23802903132135531 0 -0.15141456877665291 0.2319896961763909 0 -0.12926350810843429 0.2282520106051586 0 -0.12926350810843429 0.2282520106051586 0 -0.13372513950953771 0.2438434600885151 0 -0.15029959929541789 0.23802903132135531 0 -0.12585432820000911 0.25980433715761653 0 -0.13372513950953771 0.2438434600885151 0 -0.1167041051780945 0.24189083116500881 0 -0.12926350810843429 0.2282520106051586 0 -0.13372513950953771 0.2438434600885151 0 -0.1167041051780945 0.24189083116500881 0 -0.16331315165998439 0.2490404556413599 0 -0.15141456877665291 0.2319896961763909 0 -0.15029959929541789 0.23802903132135531 0 -0.14489447939972011 0.25096968575412071 0 -0.13372513950953771 0.2438434600885151 0 -0.15029959929541789 0.23802903132135531 0 -0.14489447939972011 0.25096968575412071 0 -0.16331315165998439 0.2490404556413599 0 -0.15029959929541789 0.23802903132135531 0 -0.15141456877665291 0.2319896961763909 0 -0.15029959929541789 0.23802903132135531 0 -0.1648386012632751 0.1592771847145372 0 -0.1557013276051126 0.13827559460685271 0 -0.1648386012632751 0.1592771847145372 0 -0.15076325750583081 0.1515142313652918 0 -0.1557013276051126 0.13827559460685271 0 -0.16808536240541971 0.14169080320084021 0 -0.1648386012632751 0.1592771847145372 0 -0.1557013276051126 0.13827559460685271 0 -0.16808536240541971 0.14169080320084021 0 -0.1648386012632751 0.1592771847145372 0 -0.16808536240541971 0.14169080320084021 0 -0.17573167354151339 0.16023788157698521 0 -0.1648386012632751 0.1592771847145372 0 -0.15995179184728911 0.12196181651241959 0 -0.15350213099114909 0.1174391628193699 0 -0.1557013276051126 0.13827559460685271 0 -0.15995179184728911 0.12196181651241959 0 -0.16808536240541971 0.14169080320084021 0 -0.1557013276051126 0.13827559460685271 0 -0.15995179184728911 0.12196181651241959 0 -0.16808536240541971 0.14169080320084021 0 -0.17060113293046569 0.12806389986013739 0 -0.15995179184728911 0.12196181651241959 0 -0.16808536240541971 0.14169080320084021 0 -0.16808536240541971 0.14169080320084021 0 -0.17060113293046569 0.12806389986013739 0 -0.16808536240541971 0.14169080320084021 0 -0.17060113293046569 0.12806389986013739 0 -0.1831445246093325 0.13217281660412331 0 -0.16808536240541971 0.14169080320084021 0 -0.1831445246093325 0.13217281660412331 0 -0.18668262200009189 0.1459420036721196 0 -0.18097956372513971 0.11915233980838411 0 -0.17060113293046569 0.12806389986013739 0 -0.1831445246093325 0.13217281660412331 0 -0.16808536240541971 0.14169080320084021 0 -0.18668262200009189 0.1459420036721196 0 -0.17573167354151339 0.16023788157698521 0 -0.16808536240541971 0.14169080320084021 0 -0.17573167354151339 0.16023788157698521 0 -0.19027382293960721 0.15829127259842571 0 -0.18668262200009189 0.1459420036721196 0 -0.17573167354151339 0.16023788157698521 0 -0.19027382293960721 0.15829127259842571 0 -0.17573167354151339 0.16023788157698521 0 -0.18337798467760771 0.17878495995313001 0 -0.17573167354151339 0.16023788157698521 0 -0.18337798467760771 0.17878495995313001 0 -0.16268383584970361 0.17094867053580559 0 -0.17573167354151339 0.16023788157698521 0 -0.18337798467760771 0.17878495995313001 0 -0.18337798467760771 0.17878495995313001 0 -0.16268383584970361 0.17094867053580559 0 -0.18337798467760771 0.17878495995313001 0 -0.1731539066673991 0.18611165646960159 0 -0.16268383584970361 0.17094867053580559 0 -0.1731539066673991 0.18611165646960159 0 -0.15963338954370521 0.18747169461293961 0 -0.16268383584970361 0.17094867053580559 0 -0.15963338954370521 0.18747169461293961 0 -0.16268383584970361 0.17094867053580559 0 -0.15963338954370521 0.18747169461293961 0 -0.16268383584970361 0.17094867053580559 0 -0.15060448241672911 0.18405270260908849 0 -0.1648386012632751 0.1592771847145372 0 -0.16268383584970361 0.17094867053580559 0 -0.14462602159575569 0.16411068652810351 0 -0.17573167354151339 0.16023788157698521 0 -0.1648386012632751 0.1592771847145372 0 -0.16268383584970361 0.17094867053580559 0 -0.1648386012632751 0.1592771847145372 0 -0.16268383584970361 0.17094867053580559 0 -0.1648386012632751 0.1592771847145372 0 -0.14462602159575569 0.16411068652810351 0 -0.15076325750583081 0.1515142313652918 0 -0.16268383584970361 0.17094867053580559 0 -0.14462602159575569 0.16411068652810351 0 -0.14462602159575569 0.16411068652810351 0 -0.15060448241672911 0.18405270260908849 0 -0.138383506613524 0.16913391733396069 0 -0.16268383584970361 0.17094867053580559 0 -0.14462602159575569 0.16411068652810351 0 -0.15060448241672911 0.18405270260908849 0 -0.14462602159575569 0.16411068652810351 0 -0.15060448241672911 0.18405270260908849 0 -0.1325712098831397 0.17775841156540301 0 -0.13518877418088099 0.16178575254837491 0 -0.113606673307435 0.1771076302921846 0 -0.1344442555656801 0.19148131876414279 0 -0.15060448241672911 0.18405270260908849 0 -0.1325712098831397 0.17775841156540301 0 -0.15060448241672911 0.18405270260908849 0 -0.1325712098831397 0.17775841156540301 0 -0.138383506613524 0.16913391733396069 0 -0.1344442555656801 0.19148131876414279 0 -0.1325712098831397 0.17775841156540301 0 -0.1228109469060103 0.1835479806420878 0 -0.14462602159575569 0.16411068652810351 0 -0.12780670982323791 0.1577416884143977 0 -0.14462602159575569 0.16411068652810351 0 -0.13518877418088099 0.16178575254837491 0 -0.12780670982323791 0.1577416884143977 0 -0.1325712098831397 0.17775841156540301 0 -0.13518877418088099 0.16178575254837491 0 -0.138383506613524 0.16913391733396069 0 -0.14462602159575569 0.16411068652810351 0 -0.13518877418088099 0.16178575254837491 0 -0.138383506613524 0.16913391733396069 0 -0.13518877418088099 0.16178575254837491 0 -0.12780670982323791 0.1577416884143977 0 -0.1214978699446866 0.15989022037322639 0 -0.14462602159575569 0.16411068652810351 0 -0.12780670982323791 0.1577416884143977 0 -0.1387634556074559 0.14455525433318811 0 -0.12780670982323791 0.1577416884143977 0 -0.1387634556074559 0.14455525433318811 0 -0.121944143834941 0.1381862562194813 0 -0.1387634556074559 0.14455525433318811 0 -0.15076325750583081 0.1515142313652918 0 -0.1557013276051126 0.13827559460685271 0 -0.14462602159575569 0.16411068652810351 0 -0.1387634556074559 0.14455525433318811 0 -0.15076325750583081 0.1515142313652918 0 -0.14462602159575569 0.16411068652810351 0 -0.1387634556074559 0.14455525433318811 0 -0.14744042999522641 0.1174357992206823 0 -0.1557013276051126 0.13827559460685271 0 -0.1449825935057058 0.1304672940640158 0 -0.14744042999522641 0.1174357992206823 0 -0.1557013276051126 0.13827559460685271 0 -0.1387634556074559 0.14455525433318811 0 -0.1557013276051126 0.13827559460685271 0 -0.1449825935057058 0.1304672940640158 0 -0.1329008896191585 0.1249998221382722 0 -0.1387634556074559 0.14455525433318811 0 -0.1329008896191585 0.1249998221382722 0 -0.1387634556074559 0.14455525433318811 0 -0.121944143834941 0.1381862562194813 0 -0.14112840812542479 0.1225835340944206 0 -0.1329008896191585 0.1249998221382722 0 -0.1449825935057058 0.1304672940640158 0 -0.1329008896191585 0.1249998221382722 0 -0.1387634556074559 0.14455525433318811 0 -0.1449825935057058 0.1304672940640158 0 -0.1329008896191585 0.1249998221382722 0 -0.121944143834941 0.1381862562194813 0 -0.1227349250116945 0.1241645890505584 0 -0.1329008896191585 0.1249998221382722 0 -0.121944143834941 0.1381862562194813 0 -0.121944143834941 0.1381862562194813 0 -0.1156464258735503 0.126861634041079 0 -0.1227349250116945 0.1241645890505584 0 -0.121944143834941 0.1381862562194813 0 -0.1156464258735503 0.126861634041079 0 -0.1092075109771196 0.1381780051810165 0 -0.1156464258735503 0.126861634041079 0 -0.1057748932756444 0.1271262769184659 0 -0.1092075109771196 0.1381780051810165 0 -0.1092075109771196 0.1381780051810165 0 -0.099096739546815971 0.13209194139381389 0 -0.08869789856706399 0.14293228666902821 0 -0.1057748932756444 0.1271262769184659 0 -0.1092075109771196 0.1381780051810165 0 -0.099096739546815971 0.13209194139381389 0 -0.099398363452204819 0.12588472304443801 0 -0.099096739546815971 0.13209194139381389 0 -0.089811380158422688 0.12690958404784841 0 -0.1057748932756444 0.1271262769184659 0 -0.099398363452204819 0.12588472304443801 0 -0.099096739546815971 0.13209194139381389 0 -0.10885259121747901 0.1539419284793439 0 -0.099437595758801733 0.15721259264873169 0 -0.08869789856706399 0.14293228666902821 0 -0.10885259121747901 0.1539419284793439 0 -0.1109873980507214 0.15137269030068859 0 -0.08869789856706399 0.14293228666902821 0 -0.1109873980507214 0.15137269030068859 0 -0.08869789856706399 0.14293228666902821 0 -0.1092075109771196 0.1381780051810165 0 -0.1109873980507214 0.15137269030068859 0 -0.08869789856706399 0.14293228666902821 0 -0.12780670982323791 0.1577416884143977 0 -0.1109873980507214 0.15137269030068859 0 -0.12780670982323791 0.1577416884143977 0 -0.121944143834941 0.1381862562194813 0 -0.1109873980507214 0.15137269030068859 0 -0.10885259121747901 0.1539419284793439 0 -0.1109873980507214 0.15137269030068859 0 -0.115535774435332 0.15758007792962639 0 -0.12780670982323791 0.1577416884143977 0 -0.1109873980507214 0.15137269030068859 0 -0.115535774435332 0.15758007792962639 0 -0.10885259121747901 0.1539419284793439 0 -0.1109873980507214 0.15137269030068859 0 -0.121944143834941 0.1381862562194813 0 -0.1109873980507214 0.15137269030068859 0 -0.121944143834941 0.1381862562194813 0 -0.1092075109771196 0.1381780051810165 0 -0.1109873980507214 0.15137269030068859 0 -0.13518877418088099 0.16178575254837491 0 -0.113606673307435 0.1771076302921846 0 -0.13518877418088099 0.16178575254837491 0 -0.1166098376323535 0.16442064974635379 0 -0.113606673307435 0.1771076302921846 0 -0.12780670982323791 0.1577416884143977 0 -0.1214978699446866 0.15989022037322639 0 -0.115535774435332 0.15758007792962639 0 -0.13518877418088099 0.16178575254837491 0 -0.1214978699446866 0.15989022037322639 0 -0.1166098376323535 0.16442064974635379 0 -0.1214978699446866 0.15989022037322639 0 -0.1166098376323535 0.16442064974635379 0 -0.115535774435332 0.15758007792962639 0 -0.1166098376323535 0.16442064974635379 0 -0.113606673307435 0.1771076302921846 0 -0.10737726550867779 0.16194404991299441 0 -0.10885259121747901 0.1539419284793439 0 -0.115535774435332 0.15758007792962639 0 -0.10737726550867779 0.16194404991299441 0 -0.1166098376323535 0.16442064974635379 0 -0.115535774435332 0.15758007792962639 0 -0.10737726550867779 0.16194404991299441 0 -0.1228109469060103 0.1835479806420878 0 -0.113606673307435 0.1771076302921846 0 -0.1096303274162695 0.1929966439624477 0 -0.1325712098831397 0.17775841156540301 0 -0.1228109469060103 0.1835479806420878 0 -0.113606673307435 0.1771076302921846 0 -0.1228109469060103 0.1835479806420878 0 -0.113606673307435 0.1771076302921846 0 -0.113606673307435 0.1771076302921846 0 -0.091127084138849623 0.1930666659297185 0 -0.113606673307435 0.1771076302921846 0 -0.087492645486815956 0.17706354227554769 0 -0.091127084138849623 0.1930666659297185 0 -0.10737726550867779 0.16194404991299441 0 -0.099437595758801733 0.15721259264873169 0 -0.089970165012931397 0.16056885698924259 0 -0.113606673307435 0.1771076302921846 0 -0.089970165012931397 0.16056885698924259 0 -0.113606673307435 0.1771076302921846 0 -0.089970165012931397 0.16056885698924259 0 -0.087492645486815956 0.17706354227554769 0 -0.113606673307435 0.1771076302921846 0 -0.10737726550867779 0.16194404991299441 0 -0.089970165012931397 0.16056885698924259 0 -0.10885259121747901 0.1539419284793439 0 -0.10737726550867779 0.16194404991299441 0 -0.099437595758801733 0.15721259264873169 0 -0.089970165012931397 0.16056885698924259 0 -0.087492645486815956 0.17706354227554769 0 -0.074278111295709215 0.17000457559862439 0 -0.087492645486815956 0.17706354227554769 0 -0.068481193679154118 0.1845699825679675 0 -0.091127084138849623 0.1930666659297185 0 -0.068481193679154118 0.1845699825679675 0 -0.068314892388041351 0.160114263568681 0 -0.087492645486815956 0.17706354227554769 0 -0.068481193679154118 0.1845699825679675 0 -0.074278111295709215 0.17000457559862439 0 -0.066021112855366146 0.18391517533809179 0 -0.068481193679154118 0.1845699825679675 0 -0.068314892388041351 0.160114263568681 0 -0.068481193679154118 0.1845699825679675 0 -0.074278111295709215 0.17000457559862439 0 -0.068314892388041351 0.160114263568681 0 -0.089970165012931397 0.16056885698924259 0 -0.074278111295709215 0.17000457559862439 0 -0.068314892388041351 0.160114263568681 0 -0.089970165012931397 0.16056885698924259 0 -0.068314892388041351 0.160114263568681 0 -0.066233675032596279 0.15678918464508371 0 -0.066021112855366146 0.18391517533809179 0 -0.066233675032596279 0.15678918464508371 0 -0.066021112855366146 0.18391517533809179 0 -0.068314892388041351 0.160114263568681 0 -0.066233675032596279 0.15678918464508371 0 -0.074278111295709215 0.17000457559862439 0 -0.068314892388041351 0.160114263568681 0 -0.068314892388041351 0.160114263568681 0 -0.066233675032596279 0.15678918464508371 0 -0.089970165012931397 0.16056885698924259 0 -0.066233675032596279 0.15678918464508371 0 -0.066333656718427003 0.14403008368630199 0 -0.066233675032596279 0.15678918464508371 0 -0.066333656718427003 0.14403008368630199 0 -0.066333656718427003 0.14403008368630199 0 -0.066408399083407288 0.1344918830373654 0 -0.066408399083407288 0.1344918830373654 0 -0.08869789856706399 0.14293228666902821 0 -0.066333656718427003 0.14403008368630199 0 -0.066408399083407288 0.1344918830373654 0 -0.08869789856706399 0.14293228666902821 0 -0.066408399083407288 0.1344918830373654 0 -0.078881239883732232 0.12904761162657871 0 -0.075190423473234069 0.1173957081592313 0 -0.066408399083407288 0.1344918830373654 0 -0.078881239883732232 0.12904761162657871 0 -0.08869789856706399 0.14293228666902821 0 -0.099096739546815971 0.13209194139381389 0 -0.089811380158422688 0.12690958404784841 0 -0.08869789856706399 0.14293228666902821 0 -0.078881239883732232 0.12904761162657871 0 -0.089811380158422688 0.12690958404784841 0 -0.08869789856706399 0.14293228666902821 0 -0.078881239883732232 0.12904761162657871 0 -0.089811380158422688 0.12690958404784841 0 -0.086698371085831297 0.12269099841282061 0 -0.099437595758801733 0.15721259264873169 0 -0.089970165012931397 0.16056885698924259 0 -0.08869789856706399 0.14293228666902821 0 -0.089970165012931397 0.16056885698924259 0 -0.066333656718427003 0.14403008368630199 0 -0.08869789856706399 0.14293228666902821 0 -0.089970165012931397 0.16056885698924259 0 -0.066333656718427003 0.14403008368630199 0 -0.10042847806636709 0.25547752975347682 0 -0.10256314820442571 0.23855296541090479 0 -0.1167041051780945 0.24189083116500881 0 -0.10256314820442571 0.23855296541090479 0 -0.1167041051780945 0.24189083116500881 0 -0.1071124474402156 0.22451432503392629 0 -0.10042847806636709 0.25547752975347682 0 -0.10256314820442571 0.23855296541090479 0 -0.089493622757612704 0.24026325820799521 0 -0.10256314820442571 0.23855296541090479 0 -0.093636315800558673 0.2308040108206407 0 -0.089493622757612704 0.24026325820799521 0 -0.12926350810843429 0.2282520106051586 0 -0.1071124474402156 0.22451432503392629 0 -0.11871299624398721 0.21299884569041261 0 -0.12926350810843429 0.2282520106051586 0 -0.1071124474402156 0.22451432503392629 0 -0.12926350810843429 0.2282520106051586 0 -0.1167041051780945 0.24189083116500881 0 -0.1071124474402156 0.22451432503392629 0 -0.1071124474402156 0.22451432503392629 0 -0.093636315800558673 0.2308040108206407 0 -0.084961386771996925 0.22077663946269391 0 -0.1071124474402156 0.22451432503392629 0 -0.084961386771996925 0.22077663946269391 0 -0.1071124474402156 0.22451432503392629 0 -0.092114623986149335 0.21497778110491239 0 -0.084961386771996925 0.22077663946269391 0 -0.10256314820442571 0.23855296541090479 0 -0.1071124474402156 0.22451432503392629 0 -0.093636315800558673 0.2308040108206407 0 -0.1071124474402156 0.22451432503392629 0 -0.10481838026482899 0.21209984552285241 0 -0.092114623986149335 0.21497778110491239 0 -0.096160751173513651 0.20393638909251649 0 -0.10481838026482899 0.21209984552285241 0 -0.092114623986149335 0.21497778110491239 0 -0.096160751173513651 0.20393638909251649 0 -0.10481838026482899 0.21209984552285241 0 -0.11117801673268279 0.20345199456479129 0 -0.11871299624398721 0.21299884569041261 0 -0.11117801673268279 0.20345199456479129 0 -0.1229308343743053 0.19698652554228971 0 -0.1071124474402156 0.22451432503392629 0 -0.10481838026482899 0.21209984552285241 0 -0.11871299624398721 0.21299884569041261 0 -0.13294785415663121 0.20771349417350879 0 -0.11871299624398721 0.21299884569041261 0 -0.1229308343743053 0.19698652554228971 0 -0.10481838026482899 0.21209984552285241 0 -0.11871299624398721 0.21299884569041261 0 -0.11117801673268279 0.20345199456479129 0 -0.11117801673268279 0.20345199456479129 0 -0.1229308343743053 0.19698652554228971 0 -0.1096303274162695 0.1929966439624477 0 -0.1228109469060103 0.1835479806420878 0 -0.1229308343743053 0.19698652554228971 0 -0.1096303274162695 0.1929966439624477 0 -0.096160751173513651 0.20393638909251649 0 -0.1096303274162695 0.1929966439624477 0 -0.091127084138849623 0.1930666659297185 0 -0.113606673307435 0.1771076302921846 0 -0.1096303274162695 0.1929966439624477 0 -0.091127084138849623 0.1930666659297185 0 -0.096160751173513651 0.20393638909251649 0 -0.11117801673268279 0.20345199456479129 0 -0.1096303274162695 0.1929966439624477 0 -0.096160751173513651 0.20393638909251649 0 -0.091127084138849623 0.1930666659297185 0 -0.06864749497026533 0.209025701567254 0 -0.091127084138849623 0.1930666659297185 0 -0.06864749497026533 0.209025701567254 0 -0.068481193679154118 0.1845699825679675 0 -0.06864749497026533 0.209025701567254 0 -0.066021112855366146 0.18391517533809179 0 -0.065808550678132988 0.2110411660311001 0 -0.066021112855366146 0.18391517533809179 0 -0.06864749497026533 0.209025701567254 0 -0.065808550678132988 0.2110411660311001 0 -0.066021112855366146 0.18391517533809179 0 -0.068481193679154118 0.1845699825679675 0 -0.06864749497026533 0.209025701567254 0 -0.068481193679154118 0.1845699825679675 0 -0.091127084138849623 0.1930666659297185 0 -0.06864749497026533 0.209025701567254 0 -0.06864749497026533 0.209025701567254 0 -0.06869873398195088 0.21656074151290819 0 -0.092114623986149335 0.21497778110491239 0 -0.06864749497026533 0.209025701567254 0 -0.065808550678132988 0.2110411660311001 0 -0.064234271225447559 0.21215880130905471 0 -0.065808550678132988 0.2110411660311001 0 -0.058497321473036379 0.20846662493572049 0 -0.065763743920802087 0.21675915263731421 0 -0.064234271225447559 0.21215880130905471 0 -0.065808550678132988 0.2110411660311001 0 -0.065763743920802087 0.21675915263731421 0 -0.065808550678132988 0.2110411660311001 0 -0.064234271225447559 0.21215880130905471 0 -0.065808550678132988 0.2110411660311001 0 -0.065763743920802087 0.21675915263731421 0 -0.065808550678132988 0.2110411660311001 0 -0.06869873398195088 0.21656074151290819 0 -0.06864749497026533 0.209025701567254 0 -0.06869873398195088 0.21656074151290819 0 -0.06864749497026533 0.209025701567254 0 -0.065808550678132988 0.2110411660311001 0 -0.06869873398195088 0.21656074151290819 0 -0.065763743920802087 0.21675915263731421 0 -0.06869873398195088 0.21656074151290819 0 -0.06869873398195088 0.21656074151290819 0 -0.092114623986149335 0.21497778110491239 0 -0.096160751173513651 0.20393638909251649 0 -0.06864749497026533 0.209025701567254 0 -0.092114623986149335 0.21497778110491239 0 -0.06869873398195088 0.21656074151290819 0 -0.092114623986149335 0.21497778110491239 0 -0.077375894777422169 0.2206552652351412 0 -0.093636315800558673 0.2308040108206407 0 -0.083427032110735141 0.22993409625448619 0 -0.089493622757612704 0.24026325820799521 0 -0.093636315800558673 0.2308040108206407 0 -0.083427032110735141 0.22993409625448619 0 -0.084961386771996925 0.22077663946269391 0 -0.083427032110735141 0.22993409625448619 0 -0.07601676569576768 0.228641577662415 0 -0.078560988668282025 0.2381970928071101 0 -0.083427032110735141 0.22993409625448619 0 -0.080119306373077126 0.22517876868520459 0 -0.07601676569576768 0.228641577662415 0 -0.083427032110735141 0.22993409625448619 0 -0.080119306373077126 0.22517876868520459 0 -0.084961386771996925 0.22077663946269391 0 -0.092114623986149335 0.21497778110491239 0 -0.084961386771996925 0.22077663946269391 0 -0.077375894777422169 0.2206552652351412 0 -0.080119306373077126 0.22517876868520459 0 -0.084961386771996925 0.22077663946269391 0 -0.077375894777422169 0.2206552652351412 0 -0.06869873398195088 0.21656074151290819 0 -0.068864894844569563 0.24099580956131719 0 -0.065763743920802087 0.21675915263731421 0 -0.065625712008360482 0.23437400971591121 0 -0.060159400493014152 0.2275803036177256 0 -0.065763743920802087 0.21675915263731421 0 -0.06869873398195088 0.21656074151290819 0 -0.065625712008360482 0.23437400971591121 0 -0.06869873398195088 0.21656074151290819 0 -0.07601676569576768 0.228641577662415 0 -0.068864894844569563 0.24099580956131719 0 -0.06869873398195088 0.21656074151290819 0 -0.077375894777422169 0.2206552652351412 0 -0.07601676569576768 0.228641577662415 0 -0.080119306373077126 0.22517876868520459 0 -0.077375894777422169 0.2206552652351412 0 -0.07601676569576768 0.228641577662415 0 -0.065763743920802087 0.21675915263731421 0 -0.065625712008360482 0.23437400971591121 0 -0.06869873398195088 0.21656074151290819 0 -0.065625712008360482 0.23437400971591121 0 -0.068864894844569563 0.24099580956131719 0 -0.07601676569576768 0.228641577662415 0 -0.068864894844569563 0.24099580956131719 0 -0.078560988668282025 0.2381970928071101 0 -0.065487680095918557 0.25198886679450833 0 -0.065625712008360482 0.23437400971591121 0 -0.065487680095918557 0.25198886679450833 0 -0.065625712008360482 0.23437400971591121 0 -0.068864894844569563 0.24099580956131719 0 -0.065487680095918557 0.25198886679450833 0 -0.065625712008360482 0.23437400971591121 0 -0.057860694756641753 0.24362063540186971 0 -0.075002627932725052 0.25115072234933689 0 -0.068864894844569563 0.24099580956131719 0 -0.078560988668282025 0.2381970928071101 0 -0.10042847806636709 0.25547752975347682 0 -0.075002627932725052 0.25115072234933689 0 -0.089493622757612704 0.24026325820799521 0 -0.075002627932725052 0.25115072234933689 0 -0.078560988668282025 0.2381970928071101 0 -0.089493622757612704 0.24026325820799521 0 -0.083427032110735141 0.22993409625448619 0 -0.078560988668282025 0.2381970928071101 0 -0.089493622757612704 0.24026325820799521 0 -0.03380682102268847 0.25098539695467159 0 -0.035251169830308682 0.23920588644242599 0 -0.045814025952887881 0.2438424024991058 0 -0.035251169830308682 0.23920588644242599 0 -0.045814025952887881 0.2438424024991058 0 -0.043393065611399467 0.23155581423164809 0 -0.042703660127466757 0.25329284473608898 0 -0.03380682102268847 0.25098539695467159 0 -0.045814025952887881 0.2438424024991058 0 -0.05037604210121599 0.25262391612040858 0 -0.042703660127466757 0.25329284473608898 0 -0.045814025952887881 0.2438424024991058 0 -0.05037604210121599 0.25262391612040858 0 -0.045814025952887881 0.2438424024991058 0 -0.057860694756641753 0.24362063540186971 0 -0.065487680095918557 0.25198886679450833 0 -0.057473046824010193 0.25138953212648951 0 -0.057860694756641753 0.24362063540186971 0 -0.057473046824010193 0.25138953212648951 0 -0.05037604210121599 0.25262391612040858 0 -0.057860694756641753 0.24362063540186971 0 -0.065625712008360482 0.23437400971591121 0 -0.057860694756641753 0.24362063540186971 0 -0.054492609398925917 0.23434202346863381 0 -0.045814025952887881 0.2438424024991058 0 -0.057860694756641753 0.24362063540186971 0 -0.054492609398925917 0.23434202346863381 0 -0.045814025952887881 0.2438424024991058 0 -0.054492609398925917 0.23434202346863381 0 -0.043393065611399467 0.23155581423164809 0 -0.054492609398925917 0.23434202346863381 0 -0.053014792450058669 0.22546721983970849 0 -0.043393065611399467 0.23155581423164809 0 -0.065763743920802087 0.21675915263731421 0 -0.053014792450058669 0.22546721983970849 0 -0.039209828011562253 0.21855424979372701 0 -0.065625712008360482 0.23437400971591121 0 -0.054492609398925917 0.23434202346863381 0 -0.060159400493014152 0.2275803036177256 0 -0.054492609398925917 0.23434202346863381 0 -0.060159400493014152 0.2275803036177256 0 -0.053014792450058669 0.22546721983970849 0 -0.065763743920802087 0.21675915263731421 0 -0.060159400493014152 0.2275803036177256 0 -0.053014792450058669 0.22546721983970849 0 -0.053014792450058669 0.22546721983970849 0 -0.043393065611399467 0.23155581423164809 0 -0.039209828011562253 0.21855424979372701 0 -0.043393065611399467 0.23155581423164809 0 -0.039209828011562253 0.21855424979372701 0 -0.03079841917081786 0.2301150410804933 0 -0.035251169830308682 0.23920588644242599 0 -0.043393065611399467 0.23155581423164809 0 -0.03079841917081786 0.2301150410804933 0 -0.039209828011562253 0.21855424979372701 0 -0.039419483691331067 0.2030538939146426 0 -0.025335484461147469 0.21061499150639801 0 -0.039209828011562253 0.21855424979372701 0 -0.049825842788655678 0.20783541168448019 0 -0.039419483691331067 0.2030538939146426 0 -0.065763743920802087 0.21675915263731421 0 -0.039209828011562253 0.21855424979372701 0 -0.065763743920802087 0.21675915263731421 0 -0.039209828011562253 0.21855424979372701 0 -0.055506201483900848 0.2127548480720593 0 -0.039209828011562253 0.21855424979372701 0 -0.055506201483900848 0.2127548480720593 0 -0.049825842788655678 0.20783541168448019 0 -0.065763743920802087 0.21675915263731421 0 -0.064234271225447559 0.21215880130905471 0 -0.055506201483900848 0.2127548480720593 0 -0.064234271225447559 0.21215880130905471 0 -0.055506201483900848 0.2127548480720593 0 -0.058497321473036379 0.20846662493572049 0 -0.065808550678132988 0.2110411660311001 0 -0.058497321473036379 0.20846662493572049 0 -0.055356604413067813 0.19798632396530971 0 -0.058497321473036379 0.20846662493572049 0 -0.049825842788655678 0.20783541168448019 0 -0.055356604413067813 0.19798632396530971 0 -0.055506201483900848 0.2127548480720593 0 -0.058497321473036379 0.20846662493572049 0 -0.049825842788655678 0.20783541168448019 0 -0.049825842788655678 0.20783541168448019 0 -0.055356604413067813 0.19798632396530971 0 -0.039419483691331067 0.2030538939146426 0 -0.066021112855366146 0.18391517533809179 0 -0.055356604413067813 0.19798632396530971 0 -0.044315438334339458 0.18745454849878371 0 -0.066021112855366146 0.18391517533809179 0 -0.065808550678132988 0.2110411660311001 0 -0.055356604413067813 0.19798632396530971 0 -0.055356604413067813 0.19798632396530971 0 -0.039419483691331067 0.2030538939146426 0 -0.044315438334339458 0.18745454849878371 0 -0.039419483691331067 0.2030538939146426 0 -0.044315438334339458 0.18745454849878371 0 -0.028796850410046891 0.18226342031322679 0 -0.039419483691331067 0.2030538939146426 0 -0.0129015393843833 0.20000098804412961 0 -0.028796850410046891 0.18226342031322679 0 -0.0129015393843833 0.20000098804412961 0 -0.028796850410046891 0.18226342031322679 0 -0.013453151448595241 0.18417069211108661 0 -0.039419483691331067 0.2030538939146426 0 -0.0129015393843833 0.20000098804412961 0 -0.0129015393843833 0.20000098804412961 0 -0.013453151448595241 0.18417069211108661 0 -0.00028996088320263491 0.18500468114881519 0 -0.0129015393843833 0.20000098804412961 0 -0.01265591210232273 0.2203493469501441 0 0.0016476579252085719 0.2096816015185605 0 -0.0129015393843833 0.20000098804412961 0 -0.025335484461147469 0.21061499150639801 0 -0.01265591210232273 0.2203493469501441 0 -0.039209828011562253 0.21855424979372701 0 -0.025335484461147469 0.21061499150639801 0 -0.01265591210232273 0.2203493469501441 0 -0.039419483691331067 0.2030538939146426 0 -0.0129015393843833 0.20000098804412961 0 -0.025335484461147469 0.21061499150639801 0 -0.039209828011562253 0.21855424979372701 0 -0.03079841917081786 0.2301150410804933 0 -0.01265591210232273 0.2203493469501441 0 -0.03079841917081786 0.2301150410804933 0 -0.01265591210232273 0.2203493469501441 0 -0.02244351739374972 0.23953077744621121 0 -0.039209828011562253 0.21855424979372701 0 -0.01265591210232273 0.2203493469501441 0 -0.01265591210232273 0.2203493469501441 0 -0.0034308520392153999 0.23957271417256071 0 0.01389800380691664 0.22214444410656131 0 -0.01265591210232273 0.2203493469501441 0 -0.0034308520392153999 0.23957271417256071 0 -0.02244351739374972 0.23953077744621121 0 -0.01752531451942714 0.25937644282282202 0 -0.0034308520392153999 0.23957271417256071 0 -0.02244351739374972 0.23953077744621121 0 -0.03380682102268847 0.25098539695467159 0 -0.01752531451942714 0.25937644282282202 0 -0.02244351739374972 0.23953077744621121 0 -0.035251169830308682 0.23920588644242599 0 -0.03079841917081786 0.2301150410804933 0 -0.02244351739374972 0.23953077744621121 0 -0.03380682102268847 0.25098539695467159 0 -0.035251169830308682 0.23920588644242599 0 -0.02244351739374972 0.23953077744621121 0 -0.043568974899400273 0.14462012257036949 0 -0.030464346452956662 0.15762747951077419 0 -0.029999534488163209 0.13823877069795421 0 -0.04651177827342904 0.13016045666882731 0 -0.029999534488163209 0.13823877069795421 0 -0.028036371238320579 0.1199614803508675 0 -0.043568974899400273 0.14462012257036949 0 -0.04651177827342904 0.13016045666882731 0 -0.029999534488163209 0.13823877069795421 0 -0.04651177827342904 0.13016045666882731 0 -0.048542840092985109 0.1277267006655024 0 -0.028036371238320579 0.1199614803508675 0 -0.066408399083407288 0.1344918830373654 0 -0.048542840092985109 0.1277267006655024 0 -0.066570607878952359 0.1137917079845272 0 -0.043568974899400273 0.14462012257036949 0 -0.04651177827342904 0.13016045666882731 0 -0.05263039639341538 0.1344417336134934 0 -0.066408399083407288 0.1344918830373654 0 -0.048542840092985109 0.1277267006655024 0 -0.066408399083407288 0.1344918830373654 0 -0.05263039639341538 0.1344417336134934 0 -0.048542840092985109 0.1277267006655024 0 -0.04651177827342904 0.13016045666882731 0 -0.05263039639341538 0.1344417336134934 0 -0.048542840092985109 0.1277267006655024 0 -0.05263039639341538 0.1344417336134934 0 -0.048542840092985109 0.1277267006655024 0 -0.04651177827342904 0.13016045666882731 0 -0.05263039639341538 0.1344417336134934 0 -0.066333656718427003 0.14403008368630199 0 -0.066408399083407288 0.1344918830373654 0 -0.05263039639341538 0.1344417336134934 0 -0.066333656718427003 0.14403008368630199 0 -0.05263039639341538 0.1344417336134934 0 -0.066233675032596279 0.15678918464508371 0 -0.043568974899400273 0.14462012257036949 0 -0.05263039639341538 0.1344417336134934 0 -0.066233675032596279 0.15678918464508371 0 -0.05263039639341538 0.1344417336134934 0 -0.066233675032596279 0.15678918464508371 0 -0.066333656718427003 0.14403008368630199 0 -0.05263039639341538 0.1344417336134934 0 -0.066233675032596279 0.15678918464508371 0 -0.043568974899400273 0.14462012257036949 0 -0.047519884062352823 0.17057379315642909 0 -0.066021112855366146 0.18391517533809179 0 -0.066233675032596279 0.15678918464508371 0 -0.047519884062352823 0.17057379315642909 0 -0.066021112855366146 0.18391517533809179 0 -0.047519884062352823 0.17057379315642909 0 -0.044315438334339458 0.18745454849878371 0 -0.047519884062352823 0.17057379315642909 0 -0.044315438334339458 0.18745454849878371 0 -0.028796850410046891 0.18226342031322679 0 -0.043568974899400273 0.14462012257036949 0 -0.047519884062352823 0.17057379315642909 0 -0.030464346452956662 0.15762747951077419 0 -0.047519884062352823 0.17057379315642909 0 -0.030464346452956662 0.15762747951077419 0 -0.028796850410046891 0.18226342031322679 0 -0.030464346452956662 0.15762747951077419 0 -0.028796850410046891 0.18226342031322679 0 -0.01182425511674812 0.16941367893817499 0 -0.030464346452956662 0.15762747951077419 0 -0.01182425511674812 0.16941367893817499 0 -0.015961145144913709 0.1477325777345789 0 -0.028796850410046891 0.18226342031322679 0 -0.013453151448595241 0.18417069211108661 0 -0.01182425511674812 0.16941367893817499 0 -0.013453151448595241 0.18417069211108661 0 -0.00028996088320263491 0.18500468114881519 0 -0.01182425511674812 0.16941367893817499 0 -0.01182425511674812 0.16941367893817499 0 -0.00310765456763989 0.1541001138217365 0 -0.015961145144913709 0.1477325777345789 0 -0.00310765456763989 0.1541001138217365 0 -0.0053187784756482037 0.13314818692898439 0 -0.00310765456763989 0.1541001138217365 0 -0.015961145144913709 0.1477325777345789 0 -0.0053187784756482037 0.13314818692898439 0 -0.030464346452956662 0.15762747951077419 0 -0.015961145144913709 0.1477325777345789 0 -0.029999534488163209 0.13823877069795421 0 -0.029999534488163209 0.13823877069795421 0 -0.0053187784756482037 0.13314818692898439 0 -0.028036371238320579 0.1199614803508675 0 -0.015961145144913709 0.1477325777345789 0 -0.029999534488163209 0.13823877069795421 0 -0.0053187784756482037 0.13314818692898439 0 -0.0053187784756482037 0.13314818692898439 0 -0.0075299023836562541 0.1121962600362324 0 -0.0053187784756482037 0.13314818692898439 0 -0.0075299023836562541 0.1121962600362324 0 -0.028036371238320579 0.1199614803508675 0 -0.0053187784756482037 0.13314818692898439 0 -0.0075299023836562541 0.1121962600362324 0 0.0063128264978964321 0.1192299247608785 0 -0.0075299023836562541 0.1121962600362324 0 -0.02270061515257487 0.10580314356290429 0 -0.0095783367382122064 0.092785929079288523 0 -0.0075299023836562541 0.1121962600362324 0 -0.001874208190440482 0.1007078587364118 0 0.007862743883253559 0.1063674998369563 0 -0.0075299023836562541 0.1121962600362324 0 -0.0095783367382122064 0.092785929079288523 0 -0.0075299023836562541 0.1121962600362324 0 -0.001874208190440482 0.1007078587364118 0 -0.0095783367382122064 0.092785929079288523 0 -0.001874208190440482 0.1007078587364118 0 -0.0095783367382122064 0.092785929079288523 0 0.001748662476852601 0.091481745993168911 0 -0.02270061515257487 0.10580314356290429 0 -0.0095783367382122064 0.092785929079288523 0 -0.027197751499556558 0.092661012844275609 0 -0.02270061515257487 0.10580314356290429 0 -0.027197751499556558 0.092661012844275609 0 -0.037870295796270589 0.1101938567548891 0 -0.02270061515257487 0.10580314356290429 0 -0.028036371238320579 0.1199614803508675 0 -0.037870295796270589 0.1101938567548891 0 -0.0075299023836562541 0.1121962600362324 0 -0.028036371238320579 0.1199614803508675 0 -0.0075299023836562541 0.1121962600362324 0 -0.02270061515257487 0.10580314356290429 0 -0.028036371238320579 0.1199614803508675 0 -0.0026965575123678509 0.07018053110336081 0 -0.011626771092769181 0.073375598122344787 0 -0.008426033057798054 0.08633612887591674 0 -0.012192906841015601 0.068011070713587168 0 -0.0026965575123678509 0.07018053110336081 0 -0.0010016482544057399 0.049626083543962703 0 -0.012684390160019271 0.06335392665600359 0 -0.012192906841015601 0.068011070713587168 0 -0.012684390160019271 0.06335392665600359 0 -0.012192906841015601 0.068011070713587168 0 -0.01872206659464936 0.065487221202599685 0 -0.0026965575123678509 0.07018053110336081 0 -0.011626771092769181 0.073375598122344787 0 -0.012192906841015601 0.068011070713587168 0 -0.0026965575123678509 0.07018053110336081 0 -0.011626771092769181 0.073375598122344787 0 -0.012192906841015601 0.068011070713587168 0 -0.011626771092769181 0.073375598122344787 0 -0.012192906841015601 0.068011070713587168 0 -0.011626771092769181 0.073375598122344787 0 -0.01652520720284003 0.075128168933663628 0 -0.012192906841015601 0.068011070713587168 0 -0.01652520720284003 0.075128168933663628 0 -0.011626771092769181 0.073375598122344787 0 -0.01652520720284003 0.075128168933663628 0 -0.0026965575123678509 0.07018053110336081 0 -0.008426033057798054 0.08633612887591674 0 -0.0026965575123678509 0.07018053110336081 0 -0.008426033057798054 0.08633612887591674 0 0.0018902392877233011 0.081322413430447618 0 -0.011626771092769181 0.073375598122344787 0 -0.0095783367382122064 0.092785929079288523 0 -0.011626771092769181 0.073375598122344787 0 -0.0095783367382122064 0.092785929079288523 0 -0.008426033057798054 0.08633612887591674 0 -0.011626771092769181 0.073375598122344787 0 -0.0095783367382122064 0.092785929079288523 0 -0.01652520720284003 0.075128168933663628 0 -0.0095783367382122064 0.092785929079288523 0 -0.008426033057798054 0.08633612887591674 0 0.001748662476852601 0.091481745993168911 0 -0.008426033057798054 0.08633612887591674 0 0.001748662476852601 0.091481745993168911 0 0.0018902392877233011 0.081322413430447618 0 -0.027197751499556558 0.092661012844275609 0 -0.01652520720284003 0.075128168933663628 0 -0.027197751499556558 0.092661012844275609 0 -0.01652520720284003 0.075128168933663628 0 -0.04162901193866872 0.084109850932677394 0 -0.0095783367382122064 0.092785929079288523 0 -0.027197751499556558 0.092661012844275609 0 -0.01652520720284003 0.075128168933663628 0 -0.01652520720284003 0.075128168933663628 0 -0.04162901193866872 0.084109850932677394 0 -0.01652520720284003 0.075128168933663628 0 -0.030885373427736829 0.064156304962561181 0 -0.04162901193866872 0.084109850932677394 0 -0.012192906841015601 0.068011070713587168 0 -0.01652520720284003 0.075128168933663628 0 -0.01872206659464936 0.065487221202599685 0 -0.01652520720284003 0.075128168933663628 0 -0.030885373427736829 0.064156304962561181 0 -0.01872206659464936 0.065487221202599685 0 -0.030885373427736829 0.064156304962561181 0 -0.04162901193866872 0.084109850932677394 0 -0.048275819548523391 0.066381142994375961 0 -0.027197751499556558 0.092661012844275609 0 -0.04162901193866872 0.084109850932677394 0 -0.050070916516812537 0.099368881581380186 0 -0.04162901193866872 0.084109850932677394 0 -0.050070916516812537 0.099368881581380186 0 -0.066732816674498069 0.093091532931689036 0 -0.04162901193866872 0.084109850932677394 0 -0.066732816674498069 0.093091532931689036 0 -0.066924059478826722 0.068686200817062282 0 -0.04162901193866872 0.084109850932677394 0 -0.066732816674498069 0.093091532931689036 0 -0.04162901193866872 0.084109850932677394 0 -0.048275819548523391 0.066381142994375961 0 -0.066924059478826722 0.068686200817062282 0 -0.048542840092985109 0.1277267006655024 0 -0.037870295796270589 0.1101938567548891 0 -0.05169260532427554 0.1133808287466582 0 -0.048542840092985109 0.1277267006655024 0 -0.028036371238320579 0.1199614803508675 0 -0.037870295796270589 0.1101938567548891 0 -0.048542840092985109 0.1277267006655024 0 -0.028036371238320579 0.1199614803508675 0 -0.048542840092985109 0.1277267006655024 0 -0.037870295796270589 0.1101938567548891 0 -0.027197751499556558 0.092661012844275609 0 -0.037870295796270589 0.1101938567548891 0 -0.027197751499556558 0.092661012844275609 0 -0.037870295796270589 0.1101938567548891 0 -0.050070916516812537 0.099368881581380186 0 -0.037870295796270589 0.1101938567548891 0 -0.050070916516812537 0.099368881581380186 0 -0.05169260532427554 0.1133808287466582 0 -0.050070916516812537 0.099368881581380186 0 -0.05169260532427554 0.1133808287466582 0 -0.066570607878952359 0.1137917079845272 0 -0.050070916516812537 0.099368881581380186 0 -0.066570607878952359 0.1137917079845272 0 -0.066732816674498069 0.093091532931689036 0 -0.048542840092985109 0.1277267006655024 0 -0.05169260532427554 0.1133808287466582 0 -0.066570607878952359 0.1137917079845272 0 -0.066408399083407288 0.1344918830373654 0 -0.066570607878952359 0.1137917079845272 0 -0.066408399083407288 0.1344918830373654 0 -0.066570607878952359 0.1137917079845272 0 -0.075190423473234069 0.1173957081592313 0 -0.066570607878952359 0.1137917079845272 0 -0.075190423473234069 0.1173957081592313 0 -0.075440524811640958 0.10564041670169411 0 -0.075190423473234069 0.1173957081592313 0 -0.089270813351835787 0.1095727134184582 0 -0.1029104408279362 0.11741108981762401 0 -0.075190423473234069 0.1173957081592313 0 -0.086698371085831297 0.12269099841282061 0 -0.1029104408279362 0.11741108981762401 0 -0.078881239883732232 0.12904761162657871 0 -0.075190423473234069 0.1173957081592313 0 -0.086698371085831297 0.12269099841282061 0 -0.075190423473234069 0.1173957081592313 0 -0.1029104408279362 0.11741108981762401 0 -0.089811380158422688 0.12690958404784841 0 -0.086698371085831297 0.12269099841282061 0 -0.1029104408279362 0.11741108981762401 0 -0.075190423473234069 0.1173957081592313 0 -0.089270813351835787 0.1095727134184582 0 -0.075440524811640958 0.10564041670169411 0 -0.089270813351835787 0.1095727134184582 0 -0.086515164773621894 0.10016929511514359 0 -0.075440524811640958 0.10564041670169411 0 -0.086515164773621894 0.10016929511514359 0 -0.066732816674498069 0.093091532931689036 0 -0.086515164773621894 0.10016929511514359 0 -0.075440524811640958 0.10564041670169411 0 -0.066732816674498069 0.093091532931689036 0 -0.066570607878952359 0.1137917079845272 0 -0.075440524811640958 0.10564041670169411 0 -0.066732816674498069 0.093091532931689036 0 -0.066570607878952359 0.1137917079845272 0 -0.066732816674498069 0.093091532931689036 0 -0.066732816674498069 0.093091532931689036 0 -0.066924059478826722 0.068686200817062282 0 -0.081443394390842999 0.084641895683047225 0 -0.066732816674498069 0.093091532931689036 0 -0.066924059478826722 0.068686200817062282 0 -0.066924059478826722 0.068686200817062282 0 -0.088675991544996211 0.07015198366154024 0 -0.079073813286096778 0.056491176204467357 0 -0.066924059478826722 0.068686200817062282 0 -0.088675991544996211 0.07015198366154024 0 -0.081443394390842999 0.084641895683047225 0 -0.088675991544996211 0.07015198366154024 0 -0.081443394390842999 0.084641895683047225 0 -0.1021216607929136 0.087733849043397261 0 -0.086515164773621894 0.10016929511514359 0 -0.066732816674498069 0.093091532931689036 0 -0.081443394390842999 0.084641895683047225 0 -0.086515164773621894 0.10016929511514359 0 -0.081443394390842999 0.084641895683047225 0 -0.1021216607929136 0.087733849043397261 0 -0.088675991544996211 0.07015198366154024 0 -0.1021216607929136 0.087733849043397261 0 -0.1134659963845347 0.06017194000891582 0 -0.122048227283587 0.088799205742465873 0 -0.1134659963845347 0.06017194000891582 0 -0.1273435975974414 0.063966576480238457 0 -0.122048227283587 0.088799205742465873 0 -0.1134659963845347 0.06017194000891582 0 -0.1021216607929136 0.087733849043397261 0 -0.122048227283587 0.088799205742465873 0 -0.1134659963845347 0.06017194000891582 0 -0.1021216607929136 0.087733849043397261 0 -0.122048227283587 0.088799205742465873 0 -0.1116772351151549 0.095892366674745003 0 -0.1260798609718696 0.11432481948205279 0 -0.122048227283587 0.088799205742465873 0 -0.1169367544935382 0.1027821613185312 0 -0.1260798609718696 0.11432481948205279 0 -0.1169367544935382 0.1027821613185312 0 -0.1062975128727458 0.10724705729859819 0 -0.122048227283587 0.088799205742465873 0 -0.1116772351151549 0.095892366674745003 0 -0.1169367544935382 0.1027821613185312 0 -0.1116772351151549 0.095892366674745003 0 -0.1169367544935382 0.1027821613185312 0 -0.1062975128727458 0.10724705729859819 0 -0.13063045818263819 0.1174264714760163 0 -0.1227349250116945 0.1241645890505584 0 -0.1029104408279362 0.11741108981762401 0 -0.1260798609718696 0.11432481948205279 0 -0.1029104408279362 0.11741108981762401 0 -0.1062975128727458 0.10724705729859819 0 -0.1260798609718696 0.11432481948205279 0 -0.13063045818263819 0.1174264714760163 0 -0.1029104408279362 0.11741108981762401 0 -0.13063045818263819 0.1174264714760163 0 -0.1029104408279362 0.11741108981762401 0 -0.1260798609718696 0.11432481948205279 0 -0.1062975128727458 0.10724705729859819 0 -0.1156464258735503 0.126861634041079 0 -0.1227349250116945 0.1241645890505584 0 -0.1029104408279362 0.11741108981762401 0 -0.089270813351835787 0.1095727134184582 0 -0.1029104408279362 0.11741108981762401 0 -0.1062975128727458 0.10724705729859819 0 -0.1057748932756444 0.1271262769184659 0 -0.099398363452204819 0.12588472304443801 0 -0.1029104408279362 0.11741108981762401 0 -0.1156464258735503 0.126861634041079 0 -0.1057748932756444 0.1271262769184659 0 -0.1029104408279362 0.11741108981762401 0 -0.099398363452204819 0.12588472304443801 0 -0.089811380158422688 0.12690958404784841 0 -0.1029104408279362 0.11741108981762401 0 -0.086515164773621894 0.10016929511514359 0 -0.1021216607929136 0.087733849043397261 0 -0.1062975128727458 0.10724705729859819 0 -0.086515164773621894 0.10016929511514359 0 -0.1062975128727458 0.10724705729859819 0 -0.089270813351835787 0.1095727134184582 0 -0.086515164773621894 0.10016929511514359 0 -0.1062975128727458 0.10724705729859819 0 -0.1021216607929136 0.087733849043397261 0 -0.1116772351151549 0.095892366674745003 0 -0.1062975128727458 0.10724705729859819 0 -0.09925865578773807 0.018127290523325089 0 -0.11675663211135109 0.02816575936089178 0 -0.09925865578773807 0.018127290523325089 0 -0.11675663211135109 0.02816575936089178 0 -0.10488376548548239 0.031544674275365808 0 -0.09925865578773807 0.018127290523325089 0 -0.10488376548548239 0.031544674275365808 0 -0.091532091212849331 0.0297745274513363 0 -0.09925865578773807 0.018127290523325089 0 -0.095604690122484154 0.0046030214967198897 0 -0.1039383286280792 0.0089763514412531699 0 -0.095604690122484154 0.0046030214967198897 0 -0.10833403638251719 0.00045540899958987168 0 -0.1039383286280792 0.0089763514412531699 0 -0.10833403638251719 0.00045540899958987168 0 -0.1039383286280792 0.0089763514412531699 0 -0.1125559322195774 0.012719684745377831 0 -0.09925865578773807 0.018127290523325089 0 -0.1039383286280792 0.0089763514412531699 0 -0.1125559322195774 0.012719684745377831 0 -0.10833403638251719 0.00045540899958987168 0 -0.1125559322195774 0.012719684745377831 0 -0.1223498310080533 0.0029838050248971858 0 -0.12981639210235441 0.0078850114728474599 0 -0.1223498310080533 0.0029838050248971858 0 -0.1222593109160566 0.012664386759074759 0 -0.1125559322195774 0.012719684745377831 0 -0.1223498310080533 0.0029838050248971858 0 -0.1222593109160566 0.012664386759074759 0 -0.1125559322195774 0.012719684745377831 0 -0.1222593109160566 0.012664386759074759 0 -0.11675663211135109 0.02816575936089178 0 -0.09925865578773807 0.018127290523325089 0 -0.1125559322195774 0.012719684745377831 0 -0.11675663211135109 0.02816575936089178 0 -0.13124453787925491 0.01737924024431799 0 -0.1222593109160566 0.012664386759074759 0 -0.11675663211135109 0.02816575936089178 0 -0.13425460843496409 0.038204228198458451 0 -0.11675663211135109 0.02816575936089178 0 -0.122256025542699 0.04565008101194272 0 -0.122256025542699 0.04565008101194272 0 -0.1134659963845347 0.06017194000891582 0 -0.10488376548548239 0.031544674275365808 0 -0.11675663211135109 0.02816575936089178 0 -0.122256025542699 0.04565008101194272 0 -0.10488376548548239 0.031544674275365808 0 -0.1273435975974414 0.063966576480238457 0 -0.122256025542699 0.04565008101194272 0 -0.1134659963845347 0.06017194000891582 0 -0.088675991544996211 0.07015198366154024 0 -0.1134659963845347 0.06017194000891582 0 -0.092935716283443909 0.048445778465597729 0 -0.1134659963845347 0.06017194000891582 0 -0.10488376548548239 0.031544674275365808 0 -0.092935716283443909 0.048445778465597729 0 -0.1134659963845347 0.06017194000891582 0 -0.10488376548548239 0.031544674275365808 0 -0.10488376548548239 0.031544674275365808 0 -0.092935716283443909 0.048445778465597729 0 -0.091532091212849331 0.0297745274513363 0 -0.092935716283443909 0.048445778465597729 0 -0.077989389013993701 0.034932055587095397 0 -0.091532091212849331 0.0297745274513363 0 -0.092935716283443909 0.048445778465597729 0 -0.079073813286096778 0.056491176204467357 0 -0.077989389013993701 0.034932055587095397 0 -0.088675991544996211 0.07015198366154024 0 -0.092935716283443909 0.048445778465597729 0 -0.079073813286096778 0.056491176204467357 0 -0.079073813286096778 0.056491176204467357 0 -0.077989389013993701 0.034932055587095397 0 -0.062303541824740828 0.051946446463352169 0 -0.066924059478826722 0.068686200817062282 0 -0.079073813286096778 0.056491176204467357 0 -0.062303541824740828 0.051946446463352169 0 -0.077989389013993701 0.034932055587095397 0 -0.062303541824740828 0.051946446463352169 0 -0.055989172704238442 0.032189459874909031 0 -0.077989389013993701 0.034932055587095397 0 -0.072482499343658219 0.02119509960066077 0 -0.055989172704238442 0.032189459874909031 0 -0.09925865578773807 0.018127290523325089 0 -0.085443370950341352 0.021240889215914119 0 -0.081760679464125852 0.0080888216857570028 0 -0.077989389013993701 0.034932055587095397 0 -0.072482499343658219 0.02119509960066077 0 -0.085443370950341352 0.021240889215914119 0 -0.077989389013993701 0.034932055587095397 0 -0.085443370950341352 0.021240889215914119 0 -0.091532091212849331 0.0297745274513363 0 -0.072482499343658219 0.02119509960066077 0 -0.085443370950341352 0.021240889215914119 0 -0.081760679464125852 0.0080888216857570028 0 -0.09925865578773807 0.018127290523325089 0 -0.085443370950341352 0.021240889215914119 0 -0.091532091212849331 0.0297745274513363 0 -0.09925865578773807 0.018127290523325089 0 -0.095604690122484154 0.0046030214967198897 0 -0.081760679464125852 0.0080888216857570028 0 -0.09925865578773807 0.018127290523325089 0 -0.081760679464125852 0.0080888216857570028 0 -0.095604690122484154 0.0046030214967198897 0 -0.081760679464125852 0.0080888216857570028 0 -0.086737188235438467 -0.0026871390507275071 0 -0.095604690122484154 0.0046030214967198897 0 -0.081760679464125852 0.0080888216857570028 0 -0.086737188235438467 -0.0026871390507275071 0 -0.076731109028641123 -0.003136302877962713 0 -0.081760679464125852 0.0080888216857570028 0 -0.081760679464125852 0.0080888216857570028 0 -0.058773107015043582 0.013876890357900981 0 -0.064502170934588127 -0.001812266123055262 0 -0.081760679464125852 0.0080888216857570028 0 -0.064502170934588127 -0.001812266123055262 0 -0.076731109028641123 -0.003136302877962713 0 -0.081760679464125852 0.0080888216857570028 0 -0.072482499343658219 0.02119509960066077 0 -0.081760679464125852 0.0080888216857570028 0 -0.058773107015043582 0.013876890357900981 0 -0.064502170934588127 -0.001812266123055262 0 -0.081760679464125852 0.0080888216857570028 0 -0.058773107015043582 0.013876890357900981 0 -0.058773107015043582 0.013876890357900981 0 -0.047595321881734168 0.0035205729130709691 0 -0.035785534565961681 0.019664959030046079 0 -0.064502170934588127 -0.001812266123055262 0 -0.058773107015043582 0.013876890357900981 0 -0.047595321881734168 0.0035205729130709691 0 -0.058773107015043582 0.013876890357900981 0 -0.035785534565961681 0.019664959030046079 0 -0.072482499343658219 0.02119509960066077 0 -0.058773107015043582 0.013876890357900981 0 -0.055989172704238442 0.032189459874909031 0 -0.058773107015043582 0.013876890357900981 0 -0.035785534565961681 0.019664959030046079 0 -0.055989172704238442 0.032189459874909031 0 -0.035785534565961681 0.019664959030046079 0 -0.055989172704238442 0.032189459874909031 0 -0.03500815846826498 0.037445768744366177 0 -0.0335280131860973 -0.0010070592965236731 0 -0.047595321881734168 0.0035205729130709691 0 -0.035785534565961681 0.019664959030046079 0 -0.048275819548523391 0.066381142994375961 0 -0.062303541824740828 0.051946446463352169 0 -0.044552370305776801 0.050382291096268447 0 -0.048275819548523391 0.066381142994375961 0 -0.066924059478826722 0.068686200817062282 0 -0.062303541824740828 0.051946446463352169 0 -0.062303541824740828 0.051946446463352169 0 -0.055989172704238442 0.032189459874909031 0 -0.044552370305776801 0.050382291096268447 0 -0.055989172704238442 0.032189459874909031 0 -0.03500815846826498 0.037445768744366177 0 -0.044552370305776801 0.050382291096268447 0 -0.03500815846826498 0.037445768744366177 0 -0.044552370305776801 0.050382291096268447 0 -0.030547445882707958 0.050352801199962903 0 -0.030885373427736829 0.064156304962561181 0 -0.048275819548523391 0.066381142994375961 0 -0.044552370305776801 0.050382291096268447 0 -0.030885373427736829 0.064156304962561181 0 -0.044552370305776801 0.050382291096268447 0 -0.030547445882707958 0.050352801199962903 0 -0.012684390160019271 0.06335392665600359 0 -0.02132245534163615 0.056786634747180473 0 -0.013173874761706551 0.050692377164040681 0 -0.012684390160019271 0.06335392665600359 0 -0.01872206659464936 0.065487221202599685 0 -0.02132245534163615 0.056786634747180473 0 -0.030885373427736829 0.064156304962561181 0 -0.01872206659464936 0.065487221202599685 0 -0.02132245534163615 0.056786634747180473 0 -0.030885373427736829 0.064156304962561181 0 -0.02132245534163615 0.056786634747180473 0 -0.030547445882707958 0.050352801199962903 0 -0.02132245534163615 0.056786634747180473 0 -0.030547445882707958 0.050352801199962903 0 -0.021016195142833032 0.044428273691246897 0 -0.02132245534163615 0.056786634747180473 0 -0.021016195142833032 0.044428273691246897 0 -0.013173874761706551 0.050692377164040681 0 -0.03500815846826498 0.037445768744366177 0 -0.030547445882707958 0.050352801199962903 0 -0.021016195142833032 0.044428273691246897 0 -0.03500815846826498 0.037445768744366177 0 -0.021016195142833032 0.044428273691246897 0 -0.022890507040715598 0.033251799269932013 0 -0.021016195142833032 0.044428273691246897 0 -0.022890507040715598 0.033251799269932013 0 -0.0098446849096385323 0.039266967181809782 0 -0.0098446849096385323 0.039266967181809782 0 -0.0010016482544057399 0.049626083543962703 0 0.01018961033220196 0.03124109637433688 0 -0.0098446849096385323 0.039266967181809782 0 -0.012797962116879769 0.025453027702191169 0 0.01018961033220196 0.03124109637433688 0 -0.022890507040715598 0.033251799269932013 0 -0.0098446849096385323 0.039266967181809782 0 -0.012797962116879769 0.025453027702191169 0 -0.0098446849096385323 0.039266967181809782 0 -0.013173874761706551 0.050692377164040681 0 -0.0010016482544057399 0.049626083543962703 0 -0.021016195142833032 0.044428273691246897 0 -0.0098446849096385323 0.039266967181809782 0 -0.013173874761706551 0.050692377164040681 0 -0.012192906841015601 0.068011070713587168 0 -0.0010016482544057399 0.049626083543962703 0 -0.012684390160019271 0.06335392665600359 0 -0.012192906841015601 0.068011070713587168 0 -0.0010016482544057399 0.049626083543962703 0 -0.012684390160019271 0.06335392665600359 0 -0.013173874761706551 0.050692377164040681 0 -0.0010016482544057399 0.049626083543962703 0 -0.0335280131860973 -0.0010070592965236731 0 -0.035785534565961681 0.019664959030046079 0 -0.019722241910513701 0.0071943322981713022 0 -0.035785534565961681 0.019664959030046079 0 -0.019722241910513701 0.0071943322981713022 0 -0.012797962116879769 0.025453027702191169 0 -0.035785534565961681 0.019664959030046079 0 -0.03500815846826498 0.037445768744366177 0 -0.022890507040715598 0.033251799269932013 0 -0.035785534565961681 0.019664959030046079 0 -0.012797962116879769 0.025453027702191169 0 -0.035785534565961681 0.019664959030046079 0 -0.022890507040715598 0.033251799269932013 0 -0.012797962116879769 0.025453027702191169 0 -0.012797962116879769 0.025453027702191169 0 0.01018961033220196 0.03124109637433688 0 -0.012797962116879769 0.025453027702191169 0 -0.0022331534232775431 0.014027187764504149 0 0.01018961033220196 0.03124109637433688 0 -0.0098585965785851441 -0.0059301340037717061 0 -0.019722241910513701 0.0071943322981713022 0 -0.0022331534232775431 0.014027187764504149 0 -0.019722241910513701 0.0071943322981713022 0 -0.012797962116879769 0.025453027702191169 0 -0.0022331534232775431 0.014027187764504149 0 -0.0022331534232775431 0.014027187764504149 0 0.0082625261741114814 -0.013678052723406669 0 -0.0022331534232775431 0.014027187764504149 0 0.01008691607334981 0.0041923708565834994 0 0.0082625261741114814 -0.013678052723406669 0 0.01008691607334981 0.0041923708565834994 0 0.01913511904158063 0.0086210074943256394 0 0.01565328096706934 -0.0039403827831331287 0 0.01008691607334981 0.0041923708565834994 0 0.0096168076072651269 0.015932094530627501 0 0.01913511904158063 0.0086210074943256394 0 -0.0022331534232775431 0.014027187764504149 0 0.01008691607334981 0.0041923708565834994 0 0.0096168076072651269 0.015932094530627501 0 -0.0022331534232775431 0.014027187764504149 0 0.01018961033220196 0.03124109637433688 0 0.01240202379567875 0.027606545995120881 0 0.01240202379567875 0.027606545995120881 0 0.0096168076072651269 0.015932094530627501 0 0.01913511904158063 0.0086210074943256394 0 -0.0022331534232775431 0.014027187764504149 0 0.01240202379567875 0.027606545995120881 0 0.0096168076072651269 0.015932094530627501 0 0.01018961033220196 0.03124109637433688 0 0.01240202379567875 0.027606545995120881 0 0.01240202379567875 0.027606545995120881 0 0.01666054653459487 0.029548212393157931 0 0.012959145317862211 0.03193844093833563 0 0.01018961033220196 0.03124109637433688 0 0.01240202379567875 0.027606545995120881 0 0.012959145317862211 0.03193844093833563 0 0.01240202379567875 0.027606545995120881 0 0.021999816366094039 0.01183930302613545 0 0.01240202379567875 0.027606545995120881 0 0.021999816366094039 0.01183930302613545 0 0.01913511904158063 0.0086210074943256394 0 0.01240202379567875 0.027606545995120881 0 0.019050277025597261 0.024216729513651818 0 0.021999816366094039 0.01183930302613545 0 0.019050277025597261 0.024216729513651818 0 0.023515875851852889 0.021978206805346821 0 0.021999816366094039 0.01183930302613545 0 0.01240202379567875 0.027606545995120881 0 0.01913511904158063 0.0086210074943256394 0 0.019050277025597261 0.024216729513651818 0 0.021696466960282192 0.030267346484527179 0 0.023515875851852889 0.021978206805346821 0 0.01666054653459487 0.029548212393157931 0 0.019050277025597261 0.024216729513651818 0 0.021696466960282192 0.030267346484527179 0 0.01240202379567875 0.027606545995120881 0 0.01666054653459487 0.029548212393157931 0 0.019050277025597261 0.024216729513651818 0 0.021696466960282192 0.030267346484527179 0 0.029704476208095371 0.026977040722692702 0 0.023515875851852889 0.021978206805346821 0 0.023515875851852889 0.021978206805346821 0 0.03029999511334381 0.017553309096407579 0 0.021999816366094039 0.01183930302613545 0 0.029704476208095371 0.026977040722692702 0 0.023515875851852889 0.021978206805346821 0 0.03029999511334381 0.017553309096407579 0 0.028089215002352751 0.011868493967824171 0 0.021999816366094039 0.01183930302613545 0 0.031367496467616551 0.0067367790013773696 0 0.021999816366094039 0.01183930302613545 0 0.01913511904158063 0.0086210074943256394 0 0.031597608936509813 -0.0039279399428496231 0 0.021999816366094039 0.01183930302613545 0 0.031597608936509813 -0.0039279399428496231 0 0.03029999511334381 0.017553309096407579 0 0.028089215002352751 0.011868493967824171 0 0.021999816366094039 0.01183930302613545 0 0.021999816366094039 0.01183930302613545 0 0.031367496467616551 0.0067367790013773696 0 0.031597608936509813 -0.0039279399428496231 0 -0.0026965575123678509 0.07018053110336081 0 0.0041703984429817299 0.050817540990758379 0 0.0041703984429817299 0.050817540990758379 0 0.01413255305761299 0.053295331951093948 0 0.0076491080124192617 0.066479041277831746 0 -0.0026965575123678509 0.07018053110336081 0 -0.0010016482544057399 0.049626083543962703 0 0.0041703984429817299 0.050817540990758379 0 -0.0026965575123678509 0.07018053110336081 0 0.0041703984429817299 0.050817540990758379 0 0.0076491080124192617 0.066479041277831746 0 0.01413255305761299 0.053295331951093948 0 0.021601429672512919 0.060600451019135373 0 0.0076491080124192617 0.066479041277831746 0 0.0041703984429817299 0.050817540990758379 0 0.01413255305761299 0.053295331951093948 0 0.014363511144767541 0.041777591222962311 0 -0.0010016482544057399 0.049626083543962703 0 0.01018961033220196 0.03124109637433688 0 0.01018961033220196 0.03124109637433688 0 0.0041703984429817299 0.050817540990758379 0 0.01018961033220196 0.03124109637433688 0 0.0041703984429817299 0.050817540990758379 0 0.014363511144767541 0.041777591222962311 0 -0.0010016482544057399 0.049626083543962703 0 0.01018961033220196 0.03124109637433688 0 0.0041703984429817299 0.050817540990758379 0 0.01018961033220196 0.03124109637433688 0 0.014363511144767541 0.041777591222962311 0 0.012959145317862211 0.03193844093833563 0 0.014363511144767541 0.041777591222962311 0 0.012959145317862211 0.03193844093833563 0 0.01704832528111952 0.035229675541161652 0 0.01018961033220196 0.03124109637433688 0 0.012959145317862211 0.03193844093833563 0 0.01666054653459487 0.029548212393157931 0 0.012959145317862211 0.03193844093833563 0 0.01704832528111952 0.035229675541161652 0 0.028992456847958491 0.037576890786819757 0 0.022878318015383491 0.04680203524478195 0 0.039882401592453702 0.049695276044104057 0 0.021696466960282192 0.030267346484527179 0 0.01704832528111952 0.035229675541161652 0 0.02089770751312859 0.038806146650991677 0 0.01666054653459487 0.029548212393157931 0 0.021696466960282192 0.030267346484527179 0 0.01704832528111952 0.035229675541161652 0 0.014363511144767541 0.041777591222962311 0 0.01704832528111952 0.035229675541161652 0 0.02089770751312859 0.038806146650991677 0 0.021696466960282192 0.030267346484527179 0 0.02089770751312859 0.038806146650991677 0 0.028992456847958491 0.037576890786819757 0 0.021696466960282192 0.030267346484527179 0 0.029704476208095371 0.026977040722692702 0 0.028992456847958491 0.037576890786819757 0 0.02089770751312859 0.038806146650991677 0 0.028992456847958491 0.037576890786819757 0 0.022878318015383491 0.04680203524478195 0 0.014363511144767541 0.041777591222962311 0 0.02089770751312859 0.038806146650991677 0 0.022878318015383491 0.04680203524478195 0 0.022878318015383491 0.04680203524478195 0 0.021601429672512919 0.060600451019135373 0 0.039882401592453702 0.049695276044104057 0 0.01413255305761299 0.053295331951093948 0 0.014363511144767541 0.041777591222962311 0 0.022878318015383491 0.04680203524478195 0 0.01413255305761299 0.053295331951093948 0 0.022878318015383491 0.04680203524478195 0 0.021601429672512919 0.060600451019135373 0 0.039882401592453702 0.049695276044104057 0 0.052345104134184847 0.06852352026791067 0 0.021601429672512919 0.060600451019135373 0 0.039882401592453702 0.049695276044104057 0 0.033536488615149677 0.070930040064839148 0 0.039882401592453702 0.049695276044104057 0 0.038487043007739932 0.033335337637557888 0 0.051722808635829703 0.031173442694840431 0 0.028992456847958491 0.037576890786819757 0 0.039882401592453702 0.049695276044104057 0 0.038487043007739932 0.033335337637557888 0 0.029704476208095371 0.026977040722692702 0 0.028992456847958491 0.037576890786819757 0 0.038487043007739932 0.033335337637557888 0 0.039882401592453702 0.049695276044104057 0 0.058620481256779253 0.049728677514882427 0 0.051722808635829703 0.031173442694840431 0 0.058620481256779253 0.049728677514882427 0 0.051722808635829703 0.031173442694840431 0 0.06775755235339477 0.033518249815540108 0 0.058620481256779253 0.049728677514882427 0 0.068929224309626003 0.064434322876007005 0 0.052345104134184847 0.06852352026791067 0 0.039882401592453702 0.049695276044104057 0 0.058620481256779253 0.049728677514882427 0 0.052345104134184847 0.06852352026791067 0 0.039358816423437491 0.01009711581734369 0 0.04131641617302699 0.022097714066806249 0 0.057917029859047973 0.01387187649573211 0 0.039358816423437491 0.01009711581734369 0 0.037876654679761437 0.00088407560193540572 0 0.04812698845273166 -0.002445301108796889 0 0.039358816423437491 0.01009711581734369 0 0.031367496467616551 0.0067367790013773696 0 0.037876654679761437 0.00088407560193540572 0 0.031367496467616551 0.0067367790013773696 0 0.037876654679761437 0.00088407560193540572 0 0.031597608936509813 -0.0039279399428496231 0 0.03029999511334381 0.017553309096407579 0 0.028089215002352751 0.011868493967824171 0 0.039358816423437491 0.01009711581734369 0 0.028089215002352751 0.011868493967824171 0 0.039358816423437491 0.01009711581734369 0 0.031367496467616551 0.0067367790013773696 0 0.03029999511334381 0.017553309096407579 0 0.039358816423437491 0.01009711581734369 0 0.04131641617302699 0.022097714066806249 0 0.029704476208095371 0.026977040722692702 0 0.03029999511334381 0.017553309096407579 0 0.04131641617302699 0.022097714066806249 0 0.029704476208095371 0.026977040722692702 0 0.038487043007739932 0.033335337637557888 0 0.04131641617302699 0.022097714066806249 0 0.038487043007739932 0.033335337637557888 0 0.04131641617302699 0.022097714066806249 0 0.051722808635829703 0.031173442694840431 0 0.051722808635829703 0.031173442694840431 0 0.057917029859047973 0.01387187649573211 0 0.06775755235339477 0.033518249815540108 0 0.04131641617302699 0.022097714066806249 0 0.051722808635829703 0.031173442694840431 0 0.057917029859047973 0.01387187649573211 0 0.057917029859047973 0.01387187649573211 0 0.062013967520400802 -0.0042462096768786442 0 0.04812698845273166 -0.002445301108796889 0 0.039358816423437491 0.01009711581734369 0 0.057917029859047973 0.01387187649573211 0 0.04812698845273166 -0.002445301108796889 0 0.057917029859047973 0.01387187649573211 0 0.076709230922832189 0.001922789365138874 0 0.062013967520400802 -0.0042462096768786442 0 0.057917029859047973 0.01387187649573211 0 0.076709230922832189 0.001922789365138874 0 0.078365408569493755 0.018645094384254539 0 0.076709230922832189 0.001922789365138874 0 0.096147117019604947 0.01119599966823865 0 0.095873490612464862 -0.0091199760057633986 0 0.076709230922832189 0.001922789365138874 0 0.078365408569493755 0.018645094384254539 0 0.096147117019604947 0.01119599966823865 0 0.078365408569493755 0.018645094384254539 0 0.06775755235339477 0.033518249815540108 0 0.088691678881052338 0.035134442907107259 0 0.078365408569493755 0.018645094384254539 0 0.088691678881052338 0.035134442907107259 0 0.096147117019604947 0.01119599966823865 0 0.057917029859047973 0.01387187649573211 0 0.078365408569493755 0.018645094384254539 0 0.06775755235339477 0.033518249815540108 0 0.06775755235339477 0.033518249815540108 0 0.072825311636549775 0.049502073451769039 0 0.088691678881052338 0.035134442907107259 0 0.058620481256779253 0.049728677514882427 0 0.06775755235339477 0.033518249815540108 0 0.072825311636549775 0.049502073451769039 0 0.072825311636549775 0.049502073451769039 0 0.08812675710036072 0.056168312611539803 0 0.068929224309626003 0.064434322876007005 0 0.058620481256779253 0.049728677514882427 0 0.072825311636549775 0.049502073451769039 0 0.068929224309626003 0.064434322876007005 0 0.072825311636549775 0.049502073451769039 0 0.08812675710036072 0.056168312611539803 0 0.088691678881052338 0.035134442907107259 0 0.1051737398552656 0.0515223846976295 0 0.11255272758242001 0.02474424485831174 0 0.088691678881052338 0.035134442907107259 0 0.1051737398552656 0.0515223846976295 0 0.11255272758242001 0.02474424485831174 0 0.08812675710036072 0.056168312611539803 0 0.088691678881052338 0.035134442907107259 0 0.1051737398552656 0.0515223846976295 0 0.08812675710036072 0.056168312611539803 0 0.1051737398552656 0.0515223846976295 0 0.10113758081897679 0.072615316908646171 0 0.1051737398552656 0.0515223846976295 0 0.1292870195040241 0.047693770240235897 0 0.12955283612148191 0.075747047680026283 0 0.1051737398552656 0.0515223846976295 0 0.11255272758242001 0.02474424485831174 0 0.1292870195040241 0.047693770240235897 0 0.11255272758242001 0.02474424485831174 0 0.1319162287353226 0.012503038883484139 0 0.1199317153095743 -0.0020338949810060208 0 0.11255272758242001 0.02474424485831174 0 0.1199317153095743 -0.0020338949810060208 0 0.11255272758242001 0.02474424485831174 0 0.096147117019604947 0.01119599966823865 0 0.1199317153095743 -0.0020338949810060208 0 0.096147117019604947 0.01119599966823865 0 0.1199317153095743 -0.0020338949810060208 0 0.095873490612464862 -0.0091199760057633986 0 0.088691678881052338 0.035134442907107259 0 0.11255272758242001 0.02474424485831174 0 0.096147117019604947 0.01119599966823865 0 0.1026077755952461 0.10031971303746889 0 0.1099296308062646 0.088612576332737863 0 0.089107414080031949 0.094150167390576342 0 0.1026077755952461 0.10031971303746889 0 0.1069114080777486 0.11055083773881361 0 0.1135840732173998 0.1016103536531833 0 0.1026077755952461 0.10031971303746889 0 0.1135840732173998 0.1016103536531833 0 0.1099296308062646 0.088612576332737863 0 0.1026077755952461 0.10031971303746889 0 0.093506351794785406 0.1066746300720337 0 0.089107414080031949 0.094150167390576342 0 0.1026077755952461 0.10031971303746889 0 0.1069114080777486 0.11055083773881361 0 0.093506351794785406 0.1066746300720337 0 0.1069114080777486 0.11055083773881361 0 0.093506351794785406 0.1066746300720337 0 0.10431382853469311 0.13313436824515471 0 0.1069114080777486 0.11055083773881361 0 0.11352435403687949 0.1204829026024563 0 0.10431382853469311 0.13313436824515471 0 0.1069114080777486 0.11055083773881361 0 0.11352435403687949 0.1204829026024563 0 0.1202526868660708 0.11044628281604001 0 0.1217351922711031 0.1192989762774001 0 0.1202526868660708 0.11044628281604001 0 0.1276482339718534 0.1229841003322137 0 0.11352435403687949 0.1204829026024563 0 0.1217351922711031 0.1192989762774001 0 0.1255154942096095 0.12328261935889059 0 0.1217351922711031 0.1192989762774001 0 0.1255154942096095 0.12328261935889059 0 0.1276482339718534 0.1229841003322137 0 0.11352435403687949 0.1204829026024563 0 0.1217351922711031 0.1192989762774001 0 0.1202526868660708 0.11044628281604001 0 0.1135840732173998 0.1016103536531833 0 0.1099296308062646 0.088612576332737863 0 0.12860053504666741 0.099365574006120005 0 0.1202526868660708 0.11044628281604001 0 0.1135840732173998 0.1016103536531833 0 0.12860053504666741 0.099365574006120005 0 0.1069114080777486 0.11055083773881361 0 0.1202526868660708 0.11044628281604001 0 0.1135840732173998 0.1016103536531833 0 0.1099296308062646 0.088612576332737863 0 0.12955283612148191 0.075747047680026283 0 0.12860053504666741 0.099365574006120005 0 0.1099296308062646 0.088612576332737863 0 0.10113758081897679 0.072615316908646171 0 0.12955283612148191 0.075747047680026283 0 0.1051737398552656 0.0515223846976295 0 0.10113758081897679 0.072615316908646171 0 0.12955283612148191 0.075747047680026283 0 0.1099296308062646 0.088612576332737863 0 0.10113758081897679 0.072615316908646171 0 0.089107414080031949 0.094150167390576342 0 0.08247699747929238 0.074503605842183226 0 0.064807806675916041 0.087351764491717346 0 0.089107414080031949 0.094150167390576342 0 0.10113758081897679 0.072615316908646171 0 0.08247699747929238 0.074503605842183226 0 0.089107414080031949 0.094150167390576342 0 0.08812675710036072 0.056168312611539803 0 0.08247699747929238 0.074503605842183226 0 0.068929224309626003 0.064434322876007005 0 0.08812675710036072 0.056168312611539803 0 0.10113758081897679 0.072615316908646171 0 0.08247699747929238 0.074503605842183226 0 0.08247699747929238 0.074503605842183226 0 0.068929224309626003 0.064434322876007005 0 0.064807806675916041 0.087351764491717346 0 0.064807806675916041 0.087351764491717346 0 0.06394048404786927 0.1080196653400031 0 0.077270509217646277 0.1061800087155246 0 0.064807806675916041 0.087351764491717346 0 0.077270509217646277 0.1061800087155246 0 0.089107414080031949 0.094150167390576342 0 0.064807806675916041 0.087351764491717346 0 0.077270509217646277 0.1061800087155246 0 0.077270509217646277 0.1061800087155246 0 0.093506351794785406 0.1066746300720337 0 0.08217663205449445 0.1135920189640913 0 0.077270509217646277 0.1061800087155246 0 0.093506351794785406 0.1066746300720337 0 0.089107414080031949 0.094150167390576342 0 0.077270509217646277 0.1061800087155246 0 0.089107414080031949 0.094150167390576342 0 0.093506351794785406 0.1066746300720337 0 0.08217663205449445 0.1135920189640913 0 0.10431382853469311 0.13313436824515471 0 0.08217663205449445 0.1135920189640913 0 0.10431382853469311 0.13313436824515471 0 0.08217663205449445 0.1135920189640913 0 0.091057241003940539 0.1270085531063774 0 0.10431382853469311 0.13313436824515471 0 0.08217663205449445 0.1135920189640913 0 0.091057241003940539 0.1270085531063774 0 0.077270509217646277 0.1061800087155246 0 0.08217663205449445 0.1135920189640913 0 0.07805050974256475 0.11998205555214141 0 0.077270509217646277 0.1061800087155246 0 0.08217663205449445 0.1135920189640913 0 0.08217663205449445 0.1135920189640913 0 0.07805050974256475 0.11998205555214141 0 0.091057241003940539 0.1270085531063774 0 0.077270509217646277 0.1061800087155246 0 0.07805050974256475 0.11998205555214141 0 0.062316571028444838 0.12137768967102661 0 0.06394048404786927 0.1080196653400031 0 0.077270509217646277 0.1061800087155246 0 0.062316571028444838 0.12137768967102661 0 0.077270509217646277 0.1061800087155246 0 0.062316571028444838 0.12137768967102661 0 0.062316571028444838 0.12137768967102661 0 0.050624720445006849 0.106642004940183 0 0.044253106403897909 0.12459245988437841 0 0.06394048404786927 0.1080196653400031 0 0.062316571028444838 0.12137768967102661 0 0.050624720445006849 0.106642004940183 0 0.064807806675916041 0.087351764491717346 0 0.06394048404786927 0.1080196653400031 0 0.050624720445006849 0.106642004940183 0 0.050624720445006849 0.106642004940183 0 0.035332618520500778 0.1015116936805794 0 0.040110076628712098 0.11240740449663079 0 0.050624720445006849 0.106642004940183 0 0.035332618520500778 0.1015116936805794 0 0.043973226446178661 0.087018714843041078 0 0.035332618520500778 0.1015116936805794 0 0.040110076628712098 0.11240740449663079 0 0.030229861145442901 0.1168834594813825 0 0.050624720445006849 0.106642004940183 0 0.044253106403897909 0.12459245988437841 0 0.040110076628712098 0.11240740449663079 0 0.044253106403897909 0.12459245988437841 0 0.040110076628712098 0.11240740449663079 0 0.030229861145442901 0.1168834594813825 0 0.068929224309626003 0.064434322876007005 0 0.064807806675916041 0.087351764491717346 0 0.052345104134184847 0.06852352026791067 0 0.064807806675916041 0.087351764491717346 0 0.052345104134184847 0.06852352026791067 0 0.064807806675916041 0.087351764491717346 0 0.050624720445006849 0.106642004940183 0 0.043973226446178661 0.087018714843041078 0 0.064807806675916041 0.087351764491717346 0 0.052345104134184847 0.06852352026791067 0 0.043973226446178661 0.087018714843041078 0 0.035332618520500778 0.1015116936805794 0 0.043973226446178661 0.087018714843041078 0 0.027028514095220821 0.086290768220759873 0 0.043973226446178661 0.087018714843041078 0 0.033536488615149677 0.070930040064839148 0 0.027028514095220821 0.086290768220759873 0 0.052345104134184847 0.06852352026791067 0 0.043973226446178661 0.087018714843041078 0 0.033536488615149677 0.070930040064839148 0 0.039882401592453702 0.049695276044104057 0 0.052345104134184847 0.06852352026791067 0 0.033536488615149677 0.070930040064839148 0 0.021601429672512919 0.060600451019135373 0 0.033536488615149677 0.070930040064839148 0 0.01760535005785822 0.074624230894497143 0 0.033536488615149677 0.070930040064839148 0 0.01760535005785822 0.074624230894497143 0 0.027028514095220821 0.086290768220759873 0 0.01760535005785822 0.074624230894497143 0 0.027028514095220821 0.086290768220759873 0 0.01249814566162195 0.084703906761446193 0 0.027028514095220821 0.086290768220759873 0 0.01249814566162195 0.084703906761446193 0 0.019027163089685752 0.099950616800987407 0 0.001748662476852601 0.091481745993168911 0 0.01249814566162195 0.084703906761446193 0 0.019027163089685752 0.099950616800987407 0 0.0018902392877233011 0.081322413430447618 0 0.01249814566162195 0.084703906761446193 0 0.0083265143116289572 0.075461768696436171 0 0.001748662476852601 0.091481745993168911 0 0.0018902392877233011 0.081322413430447618 0 0.01249814566162195 0.084703906761446193 0 0.01760535005785822 0.074624230894497143 0 0.01249814566162195 0.084703906761446193 0 0.0083265143116289572 0.075461768696436171 0 0.01760535005785822 0.074624230894497143 0 0.0083265143116289572 0.075461768696436171 0 0.0076491080124192617 0.066479041277831746 0 -0.0026965575123678509 0.07018053110336081 0 0.0083265143116289572 0.075461768696436171 0 0.0076491080124192617 0.066479041277831746 0 -0.0026965575123678509 0.07018053110336081 0 0.0018902392877233011 0.081322413430447618 0 0.0083265143116289572 0.075461768696436171 0 -0.0026965575123678509 0.07018053110336081 0 0.0076491080124192617 0.066479041277831746 0 0.021601429672512919 0.060600451019135373 0 0.01760535005785822 0.074624230894497143 0 0.0076491080124192617 0.066479041277831746 0 0.016574038043092539 0.1142261010344367 0 0.030229861145442901 0.1168834594813825 0 0.019027163089685752 0.099950616800987407 0 0.016574038043092539 0.1142261010344367 0 0.030229861145442901 0.1168834594813825 0 0.019437595599184069 0.1286990042919787 0 0.035332618520500778 0.1015116936805794 0 0.030229861145442901 0.1168834594813825 0 0.019027163089685752 0.099950616800987407 0 0.035332618520500778 0.1015116936805794 0 0.027028514095220821 0.086290768220759873 0 0.019027163089685752 0.099950616800987407 0 0.016574038043092539 0.1142261010344367 0 0.019027163089685752 0.099950616800987407 0 0.007862743883253559 0.1063674998369563 0 0.001748662476852601 0.091481745993168911 0 0.019027163089685752 0.099950616800987407 0 0.007862743883253559 0.1063674998369563 0 -0.001874208190440482 0.1007078587364118 0 0.001748662476852601 0.091481745993168911 0 0.007862743883253559 0.1063674998369563 0 -0.0075299023836562541 0.1121962600362324 0 0.007862743883253559 0.1063674998369563 0 -0.0075299023836562541 0.1121962600362324 0 0.007862743883253559 0.1063674998369563 0 0.0063128264978964321 0.1192299247608785 0 0.016574038043092539 0.1142261010344367 0 0.007862743883253559 0.1063674998369563 0 0.0063128264978964321 0.1192299247608785 0 0.016574038043092539 0.1142261010344367 0 0.0063128264978964321 0.1192299247608785 0 0.019437595599184069 0.1286990042919787 0 -0.0053187784756482037 0.13314818692898439 0 0.019437595599184069 0.1286990042919787 0 0.01482277047455626 0.14559743918814619 0 -0.0053187784756482037 0.13314818692898439 0 0.0063128264978964321 0.1192299247608785 0 0.019437595599184069 0.1286990042919787 0 0.019437595599184069 0.1286990042919787 0 0.01482277047455626 0.14559743918814619 0 0.033045115188374941 0.13389580859688111 0 0.030229861145442901 0.1168834594813825 0 0.019437595599184069 0.1286990042919787 0 0.033045115188374941 0.13389580859688111 0 0.01482277047455626 0.14559743918814619 0 0.033045115188374941 0.13389580859688111 0 0.031478434931761543 0.15271847413395759 0 0.01482277047455626 0.14559743918814619 0 0.01559423702427948 0.1688615776413864 0 0.031478434931761543 0.15271847413395759 0 -0.00310765456763989 0.1541001138217365 0 0.01482277047455626 0.14559743918814619 0 0.01559423702427948 0.1688615776413864 0 -0.00310765456763989 0.1541001138217365 0 -0.0053187784756482037 0.13314818692898439 0 0.01482277047455626 0.14559743918814619 0 -0.01182425511674812 0.16941367893817499 0 -0.00310765456763989 0.1541001138217365 0 0.01559423702427948 0.1688615776413864 0 -0.00028996088320263491 0.18500468114881519 0 -0.01182425511674812 0.16941367893817499 0 0.01559423702427948 0.1688615776413864 0 -0.00028996088320263491 0.18500468114881519 0 0.01559423702427948 0.1688615776413864 0 -0.00028996088320263491 0.18500468114881519 0 0.01559423702427948 0.1688615776413864 0 0.013877997832830341 0.1833182642642612 0 0.01559423702427948 0.1688615776413864 0 0.02659131026768027 0.1824587160932267 0 0.037545662834883878 0.16868150880605051 0 0.01559423702427948 0.1688615776413864 0 0.013877997832830341 0.1833182642642612 0 0.02659131026768027 0.1824587160932267 0 0.01559423702427948 0.1688615776413864 0 0.037545662834883878 0.16868150880605051 0 0.031478434931761543 0.15271847413395759 0 0.01559423702427948 0.1688615776413864 0 0.031478434931761543 0.15271847413395759 0 0.037545662834883878 0.16868150880605051 0 0.055119722720796849 0.16646819115797809 0 0.037545662834883878 0.16868150880605051 0 0.05124117778001866 0.1515217808922534 0 0.031478434931761543 0.15271847413395759 0 0.02659131026768027 0.1824587160932267 0 0.038535907734574833 0.1821438443667695 0 0.040134349229511847 0.19389517630310371 0 0.02659131026768027 0.1824587160932267 0 0.037545662834883878 0.16868150880605051 0 0.038535907734574833 0.1821438443667695 0 0.037545662834883878 0.16868150880605051 0 0.038535907734574833 0.1821438443667695 0 0.048696758959174719 0.18041138382108901 0 0.038535907734574833 0.1821438443667695 0 0.048696758959174719 0.18041138382108901 0 0.049601155347030898 0.19160307883484881 0 0.055119722720796849 0.16646819115797809 0 0.061923885680036941 0.1926888003442859 0 0.048696758959174719 0.18041138382108901 0 0.055119722720796849 0.16646819115797809 0 0.061923885680036941 0.1926888003442859 0 0.037545662834883878 0.16868150880605051 0 0.055119722720796849 0.16646819115797809 0 0.05124117778001866 0.1515217808922534 0 0.037545662834883878 0.16868150880605051 0 0.048696758959174719 0.18041138382108901 0 0.055119722720796849 0.16646819115797809 0 0.055119722720796849 0.16646819115797809 0 0.05124117778001866 0.1515217808922534 0 0.055119722720796849 0.16646819115797809 0 0.05124117778001866 0.1515217808922534 0 0.063954354713880654 0.15242148049127791 0 0.05124117778001866 0.1515217808922534 0 0.059915206412632087 0.14129445857900269 0 0.047362632839242948 0.13657537062652811 0 0.05124117778001866 0.1515217808922534 0 0.047362632839242948 0.13657537062652811 0 0.05124117778001866 0.1515217808922534 0 0.059915206412632087 0.14129445857900269 0 0.063954354713880654 0.15242148049127791 0 0.062316571028444838 0.12137768967102661 0 0.059915206412632087 0.14129445857900269 0 0.047362632839242948 0.13657537062652811 0 0.062316571028444838 0.12137768967102661 0 0.044253106403897909 0.12459245988437841 0 0.047362632839242948 0.13657537062652811 0 0.062316571028444838 0.12137768967102661 0 0.047362632839242948 0.13657537062652811 0 0.044253106403897909 0.12459245988437841 0 0.030229861145442901 0.1168834594813825 0 0.033045115188374941 0.13389580859688111 0 0.044253106403897909 0.12459245988437841 0 0.047362632839242948 0.13657537062652811 0 0.044253106403897909 0.12459245988437841 0 0.047362632839242948 0.13657537062652811 0 0.033045115188374941 0.13389580859688111 0 0.047362632839242948 0.13657537062652811 0 0.031478434931761543 0.15271847413395759 0 0.047362632839242948 0.13657537062652811 0 0.033045115188374941 0.13389580859688111 0 0.031478434931761543 0.15271847413395759 0 0.05124117778001866 0.1515217808922534 0 0.047362632839242948 0.13657537062652811 0 0.031478434931761543 0.15271847413395759 0 0.015725352613162932 0.240237530555059 0 0.0074148653282896868 0.25533980714694521 0 0.032355045176006542 0.25130317147106829 0 0.015725352613162932 0.240237530555059 0 0.028389700793817189 0.2328275158781595 0 0.032355045176006542 0.25130317147106829 0 -0.0034308520392153999 0.23957271417256071 0 0.015725352613162932 0.240237530555059 0 0.0074148653282896868 0.25533980714694521 0 -0.01265591210232273 0.2203493469501441 0 0.01389800380691664 0.22214444410656131 0 -0.0034308520392153999 0.23957271417256071 0 0.015725352613162932 0.240237530555059 0 0.01389800380691664 0.22214444410656131 0 0.01389800380691664 0.22214444410656131 0 0.028389700793817189 0.2328275158781595 0 0.02874829209455023 0.21710047614670419 0 0.015725352613162932 0.240237530555059 0 0.01389800380691664 0.22214444410656131 0 0.028389700793817189 0.2328275158781595 0 0.02874829209455023 0.21710047614670419 0 0.013616404922564249 0.1969480821736167 0 0.035816877177226869 0.20801813360059301 0 0.01389800380691664 0.22214444410656131 0 0.02874829209455023 0.21710047614670419 0 0.013616404922564249 0.1969480821736167 0 -0.01265591210232273 0.2203493469501441 0 0.01389800380691664 0.22214444410656131 0 0.0016476579252085719 0.2096816015185605 0 0.01389800380691664 0.22214444410656131 0 0.0016476579252085719 0.2096816015185605 0 0.013616404922564249 0.1969480821736167 0 -0.0129015393843833 0.20000098804412961 0 -0.00028996088320263491 0.18500468114881519 0 0.013616404922564249 0.1969480821736167 0 -0.0129015393843833 0.20000098804412961 0 0.013616404922564249 0.1969480821736167 0 -0.0129015393843833 0.20000098804412961 0 0.0016476579252085719 0.2096816015185605 0 0.013616404922564249 0.1969480821736167 0 -0.00028996088320263491 0.18500468114881519 0 0.013877997832830341 0.1833182642642612 0 0.013616404922564249 0.1969480821736167 0 0.013616404922564249 0.1969480821736167 0 0.040134349229511847 0.19389517630310371 0 0.035816877177226869 0.20801813360059301 0 0.013616404922564249 0.1969480821736167 0 0.040134349229511847 0.19389517630310371 0 0.013877997832830341 0.1833182642642612 0 0.02659131026768027 0.1824587160932267 0 0.013616404922564249 0.1969480821736167 0 0.02659131026768027 0.1824587160932267 0 0.013616404922564249 0.1969480821736167 0 0.040134349229511847 0.19389517630310371 0 0.040134349229511847 0.19389517630310371 0 0.04795287665260696 0.20217717991796419 0 0.035816877177226869 0.20801813360059301 0 0.040134349229511847 0.19389517630310371 0 0.049601155347030898 0.19160307883484881 0 0.04795287665260696 0.20217717991796419 0 0.038535907734574833 0.1821438443667695 0 0.040134349229511847 0.19389517630310371 0 0.049601155347030898 0.19160307883484881 0 0.048696758959174719 0.18041138382108901 0 0.049601155347030898 0.19160307883484881 0 0.061923885680036941 0.1926888003442859 0 0.049601155347030898 0.19160307883484881 0 0.061923885680036941 0.1926888003442859 0 0.04795287665260696 0.20217717991796419 0 0.04795287665260696 0.20217717991796419 0 0.048632462986901048 0.2299697534615763 0 0.068728048639277617 0.2189094095305934 0 0.04795287665260696 0.20217717991796419 0 0.048632462986901048 0.2299697534615763 0 0.061923885680036941 0.1926888003442859 0 0.04795287665260696 0.20217717991796419 0 0.068728048639277617 0.2189094095305934 0 0.04795287665260696 0.20217717991796419 0 0.035816877177226869 0.20801813360059301 0 0.048632462986901048 0.2299697534615763 0 0.02874829209455023 0.21710047614670419 0 0.035816877177226869 0.20801813360059301 0 0.048632462986901048 0.2299697534615763 0 0.028389700793817189 0.2328275158781595 0 0.02874829209455023 0.21710047614670419 0 0.048632462986901048 0.2299697534615763 0 0.048632462986901048 0.2299697534615763 0 0.04931204932119515 0.25776232700518847 0 0.048632462986901048 0.2299697534615763 0 0.04931204932119515 0.25776232700518847 0 0.064679514925013504 0.25672124119556489 0 0.048632462986901048 0.2299697534615763 0 0.032355045176006542 0.25130317147106829 0 0.04931204932119515 0.25776232700518847 0 0.028389700793817189 0.2328275158781595 0 0.048632462986901048 0.2299697534615763 0 0.032355045176006542 0.25130317147106829 0 0.075532211598518292 0.24513001871690099 0 0.09232475481013408 0.2267792745777571 0 0.099291887912012641 0.25448972756623273 0 0.048632462986901048 0.2299697534615763 0 0.075532211598518292 0.24513001871690099 0 0.064679514925013504 0.25672124119556489 0 0.075532211598518292 0.24513001871690099 0 0.068728048639277617 0.2189094095305934 0 0.048632462986901048 0.2299697534615763 0 0.075532211598518292 0.24513001871690099 0 0.068728048639277617 0.2189094095305934 0 0.075532211598518292 0.24513001871690099 0 0.068728048639277617 0.2189094095305934 0 0.09232475481013408 0.2267792745777571 0 0.068728048639277617 0.2189094095305934 0 0.09232475481013408 0.2267792745777571 0 0.090055139724468464 0.2100971429987126 0 0.068728048639277617 0.2189094095305934 0 0.090055139724468464 0.2100971429987126 0 0.077040805753265162 0.20275914235435311 0 0.061923885680036941 0.1926888003442859 0 0.068728048639277617 0.2189094095305934 0 0.077040805753265162 0.20275914235435311 0 0.061923885680036941 0.1926888003442859 0 0.068728048639277617 0.2189094095305934 0 0.061923885680036941 0.1926888003442859 0 0.077040805753265162 0.20275914235435311 0 0.087555337315549125 0.18957261043951279 0 0.090055139724468464 0.2100971429987126 0 0.077040805753265162 0.20275914235435311 0 0.087555337315549125 0.18957261043951279 0 0.090055139724468464 0.2100971429987126 0 0.087555337315549125 0.18957261043951279 0 0.1069094871505792 0.20592691479184319 0 0.087555337315549125 0.18957261043951279 0 0.1069094871505792 0.20592691479184319 0 0.11016713497732571 0.18289328513508921 0 0.11016713497732571 0.18289328513508921 0 0.12897817025866801 0.18346674115541761 0 0.1268075333241114 0.1976092192565472 0 0.1069094871505792 0.20592691479184319 0 0.11016713497732571 0.18289328513508921 0 0.1268075333241114 0.1976092192565472 0 0.1069094871505792 0.20592691479184319 0 0.1291669559664349 0.21616423018784239 0 0.1268075333241114 0.1976092192565472 0 0.1069094871505792 0.20592691479184319 0 0.1142840934926185 0.22209648473362351 0 0.1291669559664349 0.21616423018784239 0 0.09232475481013408 0.2267792745777571 0 0.1069094871505792 0.20592691479184319 0 0.1142840934926185 0.22209648473362351 0 0.09232475481013408 0.2267792745777571 0 0.090055139724468464 0.2100971429987126 0 0.1069094871505792 0.20592691479184319 0 0.09232475481013408 0.2267792745777571 0 0.1142840934926185 0.22209648473362351 0 0.1122195266156497 0.2375771116303825 0 0.1142840934926185 0.22209648473362351 0 0.1122195266156497 0.2375771116303825 0 0.1288706846895987 0.23554873164052459 0 0.1142840934926185 0.22209648473362351 0 0.1288706846895987 0.23554873164052459 0 0.1291669559664349 0.21616423018784239 0 0.1122195266156497 0.2375771116303825 0 0.1288706846895987 0.23554873164052459 0 0.1238201153911186 0.25476429287071212 0 0.1122195266156497 0.2375771116303825 0 0.1238201153911186 0.25476429287071212 0 0.099291887912012641 0.25448972756623273 0 0.09232475481013408 0.2267792745777571 0 0.1122195266156497 0.2375771116303825 0 0.099291887912012641 0.25448972756623273 0 0.090442645307828584 0.14474510030615301 0 0.074663790550389367 0.13934114397402611 0 0.078831876105566939 0.16348182785312931 0 0.090442645307828584 0.14474510030615301 0 0.078831876105566939 0.16348182785312931 0 0.1025440294903377 0.16049546454828509 0 0.090442645307828584 0.14474510030615301 0 0.091057241003940539 0.1270085531063774 0 0.074663790550389367 0.13934114397402611 0 0.07805050974256475 0.11998205555214141 0 0.091057241003940539 0.1270085531063774 0 0.074663790550389367 0.13934114397402611 0 0.07805050974256475 0.11998205555214141 0 0.062316571028444838 0.12137768967102661 0 0.074663790550389367 0.13934114397402611 0 0.062316571028444838 0.12137768967102661 0 0.059915206412632087 0.14129445857900269 0 0.074663790550389367 0.13934114397402611 0 0.059915206412632087 0.14129445857900269 0 0.074663790550389367 0.13934114397402611 0 0.063954354713880654 0.15242148049127791 0 0.074663790550389367 0.13934114397402611 0 0.063954354713880654 0.15242148049127791 0 0.078831876105566939 0.16348182785312931 0 0.055119722720796849 0.16646819115797809 0 0.078831876105566939 0.16348182785312931 0 0.055119722720796849 0.16646819115797809 0 0.07098404995411757 0.17703501168727959 0 0.078831876105566939 0.16348182785312931 0 0.055119722720796849 0.16646819115797809 0 0.063954354713880654 0.15242148049127791 0 0.078831876105566939 0.16348182785312931 0 0.055119722720796849 0.16646819115797809 0 0.061923885680036941 0.1926888003442859 0 0.07098404995411757 0.17703501168727959 0 0.061923885680036941 0.1926888003442859 0 0.087555337315549125 0.18957261043951279 0 0.07098404995411757 0.17703501168727959 0 0.087555337315549125 0.18957261043951279 0 0.07098404995411757 0.17703501168727959 0 0.092403951481038998 0.1736920609916594 0 0.07098404995411757 0.17703501168727959 0 0.092403951481038998 0.1736920609916594 0 0.078831876105566939 0.16348182785312931 0 0.078831876105566939 0.16348182785312931 0 0.1025440294903377 0.16049546454828509 0 0.092403951481038998 0.1736920609916594 0 0.078831876105566939 0.16348182785312931 0 0.1025440294903377 0.16049546454828509 0 0.087555337315549125 0.18957261043951279 0 0.092403951481038998 0.1736920609916594 0 0.11016713497732571 0.18289328513508921 0 0.092403951481038998 0.1736920609916594 0 0.1025440294903377 0.16049546454828509 0 0.11016713497732571 0.18289328513508921 0 0.11016713497732571 0.18289328513508921 0 0.1257091652135838 0.17107597770849811 0 0.12897817025866801 0.18346674115541761 0 0.1025440294903377 0.16049546454828509 0 0.11016713497732571 0.18289328513508921 0 0.1257091652135838 0.17107597770849811 0 0.1025440294903377 0.16049546454828509 0 0.12645102501488989 0.1526767175262205 0 0.12625618287510831 0.15750910124344011 0 0.1025440294903377 0.16049546454828509 0 0.12625618287510831 0.15750910124344011 0 0.1257091652135838 0.17107597770849811 0 0.1025440294903377 0.16049546454828509 0 0.12625618287510831 0.15750910124344011 0 0.1025440294903377 0.16049546454828509 0 0.10431382853469311 0.13313436824515471 0 0.12645102501488989 0.1526767175262205 0 0.10431382853469311 0.13313436824515471 0 0.12645102501488989 0.1526767175262205 0 0.090442645307828584 0.14474510030615301 0 0.1025440294903377 0.16049546454828509 0 0.10431382853469311 0.13313436824515471 0 0.090442645307828584 0.14474510030615301 0 0.091057241003940539 0.1270085531063774 0 0.10431382853469311 0.13313436824515471 0 0.11352435403687949 0.1204829026024563 0 0.10431382853469311 0.13313436824515471 0 0.1255154942096095 0.12328261935889059 0 0.10431382853469311 0.13313436824515471 0 0.12645102501488989 0.1526767175262205 0 0.1255154942096095 0.12328261935889059 0 0.12645102501488989 0.1526767175262205 0 0.1276482339718534 0.1229841003322137 0 0.13790205993413429 0.13741426781037969 0 0.1276482339718534 0.1229841003322137 0 0.1458485368839173 0.1204366086941533 0 0.13790205993413429 0.13741426781037969 0 0.12645102501488989 0.1526767175262205 0 0.1276482339718534 0.1229841003322137 0 0.12645102501488989 0.1526767175262205 0 0.1255154942096095 0.12328261935889059 0 0.1276482339718534 0.1229841003322137 0 0.1505641742866323 0.14194120974499549 0 0.16326600105996991 0.13541785446327961 0 0.1458485368839173 0.1204366086941533 0 0.13790205993413429 0.13741426781037969 0 0.1505641742866323 0.14194120974499549 0 0.1458485368839173 0.1204366086941533 0 0.1468502216485407 0.15491544048671621 0 0.16248316232395529 0.15294659187046911 0 0.1468502216485407 0.15491544048671621 0 0.1551383442678686 0.16006610634440679 0 0.16248316232395529 0.15294659187046911 0 0.1505641742866323 0.14194120974499549 0 0.1468502216485407 0.15491544048671621 0 0.16248316232395529 0.15294659187046911 0 0.13790205993413429 0.13741426781037969 0 0.1505641742866323 0.14194120974499549 0 0.13814913949268201 0.1488759199573314 0 0.1505641742866323 0.14194120974499549 0 0.1468502216485407 0.15491544048671621 0 0.13814913949268201 0.1488759199573314 0 0.1468502216485407 0.15491544048671621 0 0.13814913949268201 0.1488759199573314 0 0.13121728097312599 0.1568842891029617 0 0.1468502216485407 0.15491544048671621 0 0.13121728097312599 0.1568842891029617 0 0.13790205993413429 0.13741426781037969 0 0.13814913949268201 0.1488759199573314 0 0.12645102501488989 0.1526767175262205 0 0.13814913949268201 0.1488759199573314 0 0.12645102501488989 0.1526767175262205 0 0.13121728097312599 0.1568842891029617 0 0.12645102501488989 0.1526767175262205 0 0.12625618287510831 0.15750910124344011 0 0.12645102501488989 0.1526767175262205 0 0.12625618287510831 0.15750910124344011 0 0.13121728097312599 0.1568842891029617 0 0.12645102501488989 0.1526767175262205 0 0.13121728097312599 0.1568842891029617 0 0.13121728097312599 0.1568842891029617 0 0.1257091652135838 0.17107597770849811 0 0.13797697979920731 0.1628516389257873 0 0.12625618287510831 0.15750910124344011 0 0.13121728097312599 0.1568842891029617 0 0.12625618287510831 0.15750910124344011 0 0.13121728097312599 0.1568842891029617 0 0.1257091652135838 0.17107597770849811 0 0.1468502216485407 0.15491544048671621 0 0.13121728097312599 0.1568842891029617 0 0.13797697979920731 0.1628516389257873 0 0.12625618287510831 0.15750910124344011 0 0.1257091652135838 0.17107597770849811 0 0.1257091652135838 0.17107597770849811 0 0.13797697979920731 0.1628516389257873 0 0.13845483397233971 0.17529225915811639 0 0.13121728097312599 0.1568842891029617 0 0.13797697979920731 0.1628516389257873 0 0.12897817025866801 0.18346674115541761 0 0.13845483397233971 0.17529225915811639 0 0.14490800992819169 0.1929286026204344 0 0.1257091652135838 0.17107597770849811 0 0.12897817025866801 0.18346674115541761 0 0.13845483397233971 0.17529225915811639 0 0.13845483397233971 0.17529225915811639 0 0.14902359863118539 0.17889205531239341 0 0.14490800992819169 0.1929286026204344 0 0.13845483397233971 0.17529225915811639 0 0.14902359863118539 0.17889205531239341 0 0.14930190558590051 0.16680307010876649 0 0.14902359863118539 0.17889205531239341 0 0.14930190558590051 0.16680307010876649 0 0.15763547029784561 0.1748755382213785 0 0.14902359863118539 0.17889205531239341 0 0.1555387083333431 0.18622911194836361 0 0.14490800992819169 0.1929286026204344 0 0.14902359863118539 0.17889205531239341 0 0.1555387083333431 0.18622911194836361 0 0.15763547029784561 0.1748755382213785 0 0.1468502216485407 0.15491544048671621 0 0.13797697979920731 0.1628516389257873 0 0.14930190558590051 0.16680307010876649 0 0.13797697979920731 0.1628516389257873 0 0.13845483397233971 0.17529225915811639 0 0.14930190558590051 0.16680307010876649 0 0.14930190558590051 0.16680307010876649 0 0.1551383442678686 0.16006610634440679 0 0.16191808751307821 0.1655993229116762 0 0.1468502216485407 0.15491544048671621 0 0.14930190558590051 0.16680307010876649 0 0.1551383442678686 0.16006610634440679 0 0.16718898209341521 0.17863088183965489 0 0.17603750977032631 0.1512395260811269 0 0.1551383442678686 0.16006610634440679 0 0.16191808751307821 0.1655993229116762 0 0.16248316232395529 0.15294659187046911 0 0.16191808751307821 0.1655993229116762 0 0.16718898209341521 0.17863088183965489 0 0.17603750977032631 0.1512395260811269 0 0.16191808751307821 0.1655993229116762 0 0.16248316232395529 0.15294659187046911 0 0.14930190558590051 0.16680307010876649 0 0.16191808751307821 0.1655993229116762 0 0.15763547029784561 0.1748755382213785 0 0.16191808751307821 0.1655993229116762 0 0.17603750977032631 0.1512395260811269 0 0.16248316232395529 0.15294659187046911 0 0.1555387083333431 0.18622911194836361 0 0.15763547029784561 0.1748755382213785 0 0.16718898209341521 0.17863088183965489 0 0.16191808751307821 0.1655993229116762 0 0.15763547029784561 0.1748755382213785 0 0.16718898209341521 0.17863088183965489 0 0.16718898209341521 0.17863088183965489 0 0.18095789398725731 0.1834916544657493 0 0.1714882767406738 0.19218726861581009 0 0.16718898209341521 0.17863088183965489 0 0.18095789398725731 0.1834916544657493 0 0.18137908844958339 0.1688980403825199 0 0.18095789398725731 0.1834916544657493 0 0.18137908844958339 0.1688980403825199 0 0.19254586427987699 0.17369795344251951 0 0.18137908844958339 0.1688980403825199 0 0.17603750977032631 0.1512395260811269 0 0.19121933321210299 0.16107957466430881 0 0.16718898209341521 0.17863088183965489 0 0.18137908844958339 0.1688980403825199 0 0.17603750977032631 0.1512395260811269 0 0.17603750977032631 0.1512395260811269 0 0.18196326048480069 0.13289587029080949 0 0.20182214956199471 0.14799214905664659 0 0.17603750977032631 0.1512395260811269 0 0.18196326048480069 0.13289587029080949 0 0.17603750977032631 0.1512395260811269 0 0.18196326048480069 0.13289587029080949 0 0.16326600105996991 0.13541785446327961 0 0.18196326048480069 0.13289587029080949 0 0.16326600105996991 0.13541785446327961 0 0.16404883979598081 0.1178891170560898 0 0.16326600105996991 0.13541785446327961 0 0.16404883979598081 0.1178891170560898 0 0.17603750977032631 0.1512395260811269 0 0.16326600105996991 0.13541785446327961 0 0.16248316232395529 0.15294659187046911 0 0.16326600105996991 0.13541785446327961 0 0.16248316232395529 0.15294659187046911 0 0.1505641742866323 0.14194120974499549 0 0.16326600105996991 0.13541785446327961 0 0.16248316232395529 0.15294659187046911 0 0.17603750977032631 0.1512395260811269 0 0.16248316232395529 0.15294659187046911 0 0.1288706846895987 0.23554873164052459 0 0.1506460328029153 0.22984096173730531 0 0.1429516111893297 0.2536596858764289 0 0.1506460328029153 0.22984096173730531 0 0.16027138273763461 0.24852049756823641 0 0.1429516111893297 0.2536596858764289 0 0.1506460328029153 0.22984096173730531 0 0.1429516111893297 0.2536596858764289 0 0.1288706846895987 0.23554873164052459 0 0.1238201153911186 0.25476429287071212 0 0.1429516111893297 0.2536596858764289 0 0.1288706846895987 0.23554873164052459 0 0.1506460328029153 0.22984096173730531 0 0.1291669559664349 0.21616423018784239 0 0.1506460328029153 0.22984096173730531 0 0.15834045441650099 0.20602223759818189 0 0.1506460328029153 0.22984096173730531 0 0.14277450762845559 0.20832961858547411 0 0.1291669559664349 0.21616423018784239 0 0.1506460328029153 0.22984096173730531 0 0.14277450762845559 0.20832961858547411 0 0.15834045441650099 0.20602223759818189 0 0.14277450762845559 0.20832961858547411 0 0.1291669559664349 0.21616423018784239 0 0.1268075333241114 0.1976092192565472 0 0.12897817025866801 0.18346674115541761 0 0.1268075333241114 0.1976092192565472 0 0.14490800992819169 0.1929286026204344 0 0.14277450762845559 0.20832961858547411 0 0.1268075333241114 0.1976092192565472 0 0.14490800992819169 0.1929286026204344 0 0.1555387083333431 0.18622911194836361 0 0.14490800992819169 0.1929286026204344 0 0.15834045441650099 0.20602223759818189 0 0.14277450762845559 0.20832961858547411 0 0.14490800992819169 0.1929286026204344 0 0.15834045441650099 0.20602223759818189 0 0.14490800992819169 0.1929286026204344 0 0.15834045441650099 0.20602223759818189 0 0.16718898209341521 0.17863088183965489 0 0.15834045441650099 0.20602223759818189 0 0.16718898209341521 0.17863088183965489 0 0.1714882767406738 0.19218726861581009 0 0.15834045441650099 0.20602223759818189 0 0.1714882767406738 0.19218726861581009 0 0.17946577646552159 0.20060430055965431 0 0.15834045441650099 0.20602223759818189 0 0.1555387083333431 0.18622911194836361 0 0.16718898209341521 0.17863088183965489 0 0.15834045441650099 0.20602223759818189 0 0.18095789398725731 0.1834916544657493 0 0.1714882767406738 0.19218726861581009 0 0.17946577646552159 0.20060430055965431 0 0.18095789398725731 0.1834916544657493 0 0.17946577646552159 0.20060430055965431 0 0.19382641384472829 0.19067229411225081 0 0.17946577646552159 0.20060430055965431 0 0.17716415535138871 0.22437114417182871 0 0.19494378709011739 0.20816941647066481 0 0.17946577646552159 0.20060430055965431 0 0.15834045441650099 0.20602223759818189 0 0.17716415535138871 0.22437114417182871 0 0.15834045441650099 0.20602223759818189 0 0.17716415535138871 0.22437114417182871 0 0.1506460328029153 0.22984096173730531 0 0.15834045441650099 0.20602223759818189 0 0.17716415535138871 0.22437114417182871 0 0.1506460328029153 0.22984096173730531 0 0.17716415535138871 0.22437114417182871 0 0.16027138273763461 0.24852049756823641 0 0.17716415535138871 0.22437114417182871 0 0.19598785628627599 0.24272005074547559 0 0.17716415535138871 0.22437114417182871 0 0.16027138273763461 0.24852049756823641 0 0.17975598754895639 0.25190851587712321 0 0.17716415535138871 0.22437114417182871 0 0.19598785628627599 0.24272005074547559 0 0.17975598754895639 0.25190851587712321 0 0.21219769157285709 0.2450843821313986 0 0.19598785628627599 0.24272005074547559 0 0.21051771893646759 0.25000570199699779 0 0.21219769157285709 0.2450843821313986 0 0.21126486532791991 0.23468656430554169 0 0.19598785628627599 0.24272005074547559 0 0.21219769157285709 0.2450843821313986 0 0.21051771893646759 0.25000570199699779 0 0.21907377066557479 0.25114941779199362 0 0.21219769157285709 0.2450843821313986 0 0.2214487545296647 0.24276729075442291 0 0.21907377066557479 0.25114941779199362 0 0.21219769157285709 0.2450843821313986 0 0.21126486532791991 0.23468656430554169 0 0.2214487545296647 0.24276729075442291 0 0.21126486532791991 0.23468656430554169 0 0.22247441958762981 0.23435178607244969 0 0.2214487545296647 0.24276729075442291 0 0.17716415535138871 0.22437114417182871 0 0.19598785628627599 0.24272005074547559 0 0.20379904179337119 0.22439247708175489 0 0.17716415535138871 0.22437114417182871 0 0.20379904179337119 0.22439247708175489 0 0.19494378709011739 0.20816941647066481 0 0.21126486532791991 0.23468656430554169 0 0.19598785628627599 0.24272005074547559 0 0.20379904179337119 0.22439247708175489 0 0.21126486532791991 0.23468656430554169 0 0.218508876067466 0.22495011336055831 0 0.22247441958762981 0.23435178607244969 0 0.21126486532791991 0.23468656430554169 0 0.20379904179337119 0.22439247708175489 0 0.218508876067466 0.22495011336055831 0 0.218508876067466 0.22495011336055831 0 0.21230390893178741 0.21808339820415781 0 0.2204804890062215 0.21405214371863551 0 0.20379904179337119 0.22439247708175489 0 0.218508876067466 0.22495011336055831 0 0.21230390893178741 0.21808339820415781 0 0.21230390893178741 0.21808339820415781 0 0.20766492188954869 0.20897122778634539 0 0.2204804890062215 0.21405214371863551 0 0.20766492188954869 0.20897122778634539 0 0.21951363928609249 0.2032564164544769 0 0.2204804890062215 0.21405214371863551 0 0.20766492188954869 0.20897122778634539 0 0.19494378709011739 0.20816941647066481 0 0.20714491453347009 0.19700731500142249 0 0.20379904179337119 0.22439247708175489 0 0.21230390893178741 0.21808339820415781 0 0.20766492188954869 0.20897122778634539 0 0.20379904179337119 0.22439247708175489 0 0.20766492188954869 0.20897122778634539 0 0.19494378709011739 0.20816941647066481 0 0.19382641384472829 0.19067229411225081 0 0.20714491453347009 0.19700731500142249 0 0.2079002467121269 0.1810631247334947 0 0.19494378709011739 0.20816941647066481 0 0.19382641384472829 0.19067229411225081 0 0.20714491453347009 0.19700731500142249 0 0.17946577646552159 0.20060430055965431 0 0.19494378709011739 0.20816941647066481 0 0.19382641384472829 0.19067229411225081 0 0.20714491453347009 0.19700731500142249 0 0.21925765774728281 0.19283581628869931 0 0.2079002467121269 0.1810631247334947 0 0.20766492188954869 0.20897122778634539 0 0.20714491453347009 0.19700731500142249 0 0.21951363928609249 0.2032564164544769 0 0.20714491453347009 0.19700731500142249 0 0.21925765774728281 0.19283581628869931 0 0.21951363928609249 0.2032564164544769 0 0.21925765774728281 0.19283581628869931 0 0.23144660559121091 0.1977334819407516 0 0.21951363928609249 0.2032564164544769 0 0.21925765774728281 0.19283581628869931 0 0.23144660559121091 0.1977334819407516 0 0.23101425979819629 0.18615166245619971 0 0.23144660559121091 0.1977334819407516 0 0.24045915933852061 0.19302064201700689 0 0.23101425979819629 0.18615166245619971 0 0.24045915933852061 0.19302064201700689 0 0.24225369330493801 0.18118052733621071 0 0.25025279213335572 0.18946103504802941 0 0.24045915933852061 0.19302064201700689 0 0.24872883409279989 0.19966322007310511 0 0.25025279213335572 0.18946103504802941 0 0.24045915933852061 0.19302064201700689 0 0.24872883409279989 0.19966322007310511 0 0.2400818213457217 0.2048125127320031 0 0.23144660559121091 0.1977334819407516 0 0.24045915933852061 0.19302064201700689 0 0.2400818213457217 0.2048125127320031 0 0.24141684304534991 0.2150325974531051 0 0.24881397098779351 0.22519728049980481 0 0.25422107852046649 0.20926999077951919 0 0.2400818213457217 0.2048125127320031 0 0.24141684304534991 0.2150325974531051 0 0.2310872469488208 0.20893851399100721 0 0.2400818213457217 0.2048125127320031 0 0.24141684304534991 0.2150325974531051 0 0.25422107852046649 0.20926999077951919 0 0.24872883409279989 0.19966322007310511 0 0.2400818213457217 0.2048125127320031 0 0.25422107852046649 0.20926999077951919 0 0.24141684304534991 0.2150325974531051 0 0.2310872469488208 0.20893851399100721 0 0.23014045856423279 0.219164686417227 0 0.2310872469488208 0.20893851399100721 0 0.2204804890062215 0.21405214371863551 0 0.23014045856423279 0.219164686417227 0 0.23144660559121091 0.1977334819407516 0 0.2400818213457217 0.2048125127320031 0 0.2310872469488208 0.20893851399100721 0 0.23144660559121091 0.1977334819407516 0 0.2310872469488208 0.20893851399100721 0 0.21951363928609249 0.2032564164544769 0 0.2310872469488208 0.20893851399100721 0 0.21951363928609249 0.2032564164544769 0 0.2204804890062215 0.21405214371863551 0 0.218508876067466 0.22495011336055831 0 0.2204804890062215 0.21405214371863551 0 0.23014045856423279 0.219164686417227 0 0.218508876067466 0.22495011336055831 0 0.23000084417173811 0.22928689524845369 0 0.23014045856423279 0.219164686417227 0 0.218508876067466 0.22495011336055831 0 0.22247441958762981 0.23435178607244969 0 0.23000084417173811 0.22928689524845369 0 0.23000084417173811 0.22928689524845369 0 0.2394132621117919 0.23171428000501559 0 0.23174112859480539 0.2391352410452843 0 0.22247441958762981 0.23435178607244969 0 0.23000084417173811 0.22928689524845369 0 0.23174112859480539 0.2391352410452843 0 0.23000084417173811 0.22928689524845369 0 0.23014045856423279 0.219164686417227 0 0.23820641329824749 0.22337600431743279 0 0.24141684304534991 0.2150325974531051 0 0.23014045856423279 0.219164686417227 0 0.23820641329824749 0.22337600431743279 0 0.24881397098779351 0.22519728049980481 0 0.2394132621117919 0.23171428000501559 0 0.24630761234628959 0.2408699076082205 0 0.24141684304534991 0.2150325974531051 0 0.23820641329824749 0.22337600431743279 0 0.24881397098779351 0.22519728049980481 0 0.23820641329824749 0.22337600431743279 0 0.24881397098779351 0.22519728049980481 0 0.2394132621117919 0.23171428000501559 0 0.23000084417173811 0.22928689524845369 0 0.23820641329824749 0.22337600431743279 0 0.2394132621117919 0.23171428000501559 0 0.24630761234628959 0.2408699076082205 0 0.23194065142920089 0.2521963531798696 0 0.25041249206326122 0.25574829785010778 0 0.2394132621117919 0.23171428000501559 0 0.24630761234628959 0.2408699076082205 0 0.23174112859480539 0.2391352410452843 0 0.24630761234628959 0.2408699076082205 0 0.23174112859480539 0.2391352410452843 0 0.23194065142920089 0.2521963531798696 0 0.23174112859480539 0.2391352410452843 0 0.2214487545296647 0.24276729075442291 0 0.23194065142920089 0.2521963531798696 0 0.22247441958762981 0.23435178607244969 0 0.23174112859480539 0.2391352410452843 0 0.2214487545296647 0.24276729075442291 0 0.2214487545296647 0.24276729075442291 0 0.21907377066557479 0.25114941779199362 0 0.23194065142920089 0.2521963531798696 0 0.21285267864722349 0.13123172288861731 0 0.20182214956199471 0.14799214905664659 0 0.2276067893536641 0.14474477203217431 0 0.20182214956199471 0.14799214905664659 0 0.2276067893536641 0.14474477203217431 0 0.20182214956199471 0.14799214905664659 0 0.22470359644895441 0.1587138734914737 0 0.2276067893536641 0.14474477203217431 0 0.21285267864722349 0.13123172288861731 0 0.19853600640964589 0.12767756710424 0 0.20182214956199471 0.14799214905664659 0 0.18196326048480069 0.13289587029080949 0 0.19853600640964589 0.12767756710424 0 0.1878890111992729 0.11455221450049149 0 0.18196326048480069 0.13289587029080949 0 0.19853600640964589 0.12767756710424 0 0.20182214956199471 0.14799214905664659 0 0.17603750977032631 0.1512395260811269 0 0.20182214956199471 0.14799214905664659 0 0.19121933321210299 0.16107957466430881 0 0.17603750977032631 0.1512395260811269 0 0.20182214956199471 0.14799214905664659 0 0.20182214956199471 0.14799214905664659 0 0.19121933321210299 0.16107957466430881 0 0.20557391262408559 0.16497657468476001 0 0.18137908844958339 0.1688980403825199 0 0.19121933321210299 0.16107957466430881 0 0.19254586427987699 0.17369795344251951 0 0.19121933321210299 0.16107957466430881 0 0.19254586427987699 0.17369795344251951 0 0.20557391262408559 0.16497657468476001 0 0.19254586427987699 0.17369795344251951 0 0.2079002467121269 0.1810631247334947 0 0.20557391262408559 0.16497657468476001 0 0.19382641384472829 0.19067229411225081 0 0.19254586427987699 0.17369795344251951 0 0.2079002467121269 0.1810631247334947 0 0.18095789398725731 0.1834916544657493 0 0.19382641384472829 0.19067229411225081 0 0.19254586427987699 0.17369795344251951 0 0.2079002467121269 0.1810631247334947 0 0.20557391262408559 0.16497657468476001 0 0.2182807462303096 0.17068806150258869 0 0.2079002467121269 0.1810631247334947 0 0.2182807462303096 0.17068806150258869 0 0.22182874370621869 0.18038582537541989 0 0.21925765774728281 0.19283581628869931 0 0.2079002467121269 0.1810631247334947 0 0.22182874370621869 0.18038582537541989 0 0.20557391262408559 0.16497657468476001 0 0.2182807462303096 0.17068806150258869 0 0.22470359644895441 0.1587138734914737 0 0.20182214956199471 0.14799214905664659 0 0.20557391262408559 0.16497657468476001 0 0.22470359644895441 0.1587138734914737 0 0.2182807462303096 0.17068806150258869 0 0.22470359644895441 0.1587138734914737 0 0.23269080804317779 0.17119046189611731 0 0.22470359644895441 0.1587138734914737 0 0.23564662886050461 0.16014066403425281 0 0.2352135522685069 0.15272179726535401 0 0.22470359644895441 0.1587138734914737 0 0.23269080804317779 0.17119046189611731 0 0.23564662886050461 0.16014066403425281 0 0.21925765774728281 0.19283581628869931 0 0.22182874370621869 0.18038582537541989 0 0.23101425979819629 0.18615166245619971 0 0.2182807462303096 0.17068806150258869 0 0.23269080804317779 0.17119046189611731 0 0.22182874370621869 0.18038582537541989 0 0.23269080804317779 0.17119046189611731 0 0.22182874370621869 0.18038582537541989 0 0.23101425979819629 0.18615166245619971 0 0.24045915933852061 0.19302064201700689 0 0.23101425979819629 0.18615166245619971 0 0.24225369330493801 0.18118052733621071 0 0.23269080804317779 0.17119046189611731 0 0.24225369330493801 0.18118052733621071 0 0.24581064233554051 0.17128420309500381 0 0.23269080804317779 0.17119046189611731 0 0.23101425979819629 0.18615166245619971 0 0.24225369330493801 0.18118052733621071 0 0.24225369330493801 0.18118052733621071 0 0.24581064233554051 0.17128420309500381 0 0.25296995519570942 0.17925300746053391 0 0.24225369330493801 0.18118052733621071 0 0.25296995519570942 0.17925300746053391 0 0.25025279213335572 0.18946103504802941 0 0.23564662886050461 0.16014066403425281 0 0.24291012143398361 0.16293804139943149 0 0.24271506610789989 0.15513914611888771 0 0.23269080804317779 0.17119046189611731 0 0.24581064233554051 0.17128420309500381 0 0.24291012143398361 0.16293804139943149 0 0.23269080804317779 0.17119046189611731 0 0.23564662886050461 0.16014066403425281 0 0.24291012143398361 0.16293804139943149 0 0.24581064233554051 0.17128420309500381 0 0.24291012143398361 0.16293804139943149 0 0.25001721952960188 0.16429476609722601 0 0.24291012143398361 0.16293804139943149 0 0.24941040752394411 0.15784075768116751 0 0.25001721952960188 0.16429476609722601 0 0.24291012143398361 0.16293804139943149 0 0.24941040752394411 0.15784075768116751 0 0.24271506610789989 0.15513914611888771 0 0.24941040752394411 0.15784075768116751 0 0.2498315443611612 0.15128786641935449 0 0.24271506610789989 0.15513914611888771 0 0.2276067893536641 0.14474477203217431 0 0.25339142914533358 0.14149739500770209 0 0.24345421272192971 0.14868044336672601 0 0.2352135522685069 0.15272179726535401 0 0.2276067893536641 0.14474477203217431 0 0.2498315443611612 0.15128786641935449 0 0.24345421272192971 0.14868044336672601 0 0.25196689509501241 0.14669168335688329 0 0.24345421272192971 0.14868044336672601 0 0.2276067893536641 0.14474477203217431 0 0.25339142914533358 0.14149739500770209 0 0.2276067893536641 0.14474477203217431 0 0.2392033234874103 0.13771369580611209 0 0.25339142914533358 0.14149739500770209 0 0.2498315443611612 0.15128786641935449 0 0.24345421272192971 0.14868044336672601 0 0.24271506610789989 0.15513914611888771 0 0.24345421272192971 0.14868044336672601 0 0.25196689509501241 0.14669168335688329 0 0.25339142914533358 0.14149739500770209 0 0.24345421272192971 0.14868044336672601 0 0.24271506610789989 0.15513914611888771 0 0.2352135522685069 0.15272179726535401 0 0.23564662886050461 0.16014066403425281 0 0.24271506610789989 0.15513914611888771 0 0.2352135522685069 0.15272179726535401 0 0.22470359644895441 0.1587138734914737 0 0.2352135522685069 0.15272179726535401 0 0.2276067893536641 0.14474477203217431 0 0.21285267864722349 0.13123172288861731 0 0.2276067893536641 0.14474477203217431 0 0.2305943327787712 0.12933780649576501 0 0.2276067893536641 0.14474477203217431 0 0.2305943327787712 0.12933780649576501 0 0.2392033234874103 0.13771369580611209 0 0.2305943327787712 0.12933780649576501 0 0.23864985556033941 0.12686179158742841 0 0.2392033234874103 0.13771369580611209 0 0.23864985556033941 0.12686179158742841 0 0.2392033234874103 0.13771369580611209 0 0.24452721965912369 0.1343388745907225 0 0.2392033234874103 0.13771369580611209 0 0.24452721965912369 0.1343388745907225 0 0.25339142914533358 0.14149739500770209 0 0.24452721965912369 0.1343388745907225 0 0.25015776659190792 0.1325905326178661 0 0.25215296059542641 0.1375486109728486 0 0.23864985556033941 0.12686179158742841 0 0.24452721965912369 0.1343388745907225 0 0.24585578702196609 0.1268444944034785 0 0.24452721965912369 0.1343388745907225 0 0.24585578702196609 0.1268444944034785 0 0.25015776659190792 0.1325905326178661 0 0.24585578702196609 0.1268444944034785 0 0.24290642762556411 0.12092019009332131 0 0.24849811750951931 0.11407538808026201 0 0.24585578702196609 0.1268444944034785 0 0.24849811750951931 0.11407538808026201 0 0.25015776659190792 0.1325905326178661 0 0.23864985556033941 0.12686179158742841 0 0.24585578702196609 0.1268444944034785 0 0.24290642762556411 0.12092019009332131 0 0.24290642762556411 0.12092019009332131 0 0.24849811750951931 0.11407538808026201 0 0.2386219504104318 0.11589908630211621 0 0.23864985556033941 0.12686179158742841 0 0.2386219504104318 0.11589908630211621 0 0.2282025429645563 0.11731376353995231 0 0.23864985556033941 0.12686179158742841 0 0.24290642762556411 0.12092019009332131 0 0.2386219504104318 0.11589908630211621 0 0.2386219504104318 0.11589908630211621 0 0.2410942389745743 0.088244831128660939 0 0.24849811750951931 0.11407538808026201 0 0.2410942389745743 0.088244831128660939 0 0.24849811750951931 0.11407538808026201 0 0.2410942389745743 0.088244831128660939 0 0.25239177367054749 0.098507312554499224 0 0.2386219504104318 0.11589908630211621 0 0.23287620853859281 0.1009134256887242 0 0.2410942389745743 0.088244831128660939 0 0.24849811750951931 0.11407538808026201 0 0.2386219504104318 0.11589908630211621 0 0.2410942389745743 0.088244831128660939 0 0.23287620853859281 0.1009134256887242 0 0.22440407963653 0.10019610422177 0 0.22708326881131169 0.091309460428523587 0 0.23287620853859281 0.1009134256887242 0 0.2291671021118209 0.108827555572599 0 0.22440407963653 0.10019610422177 0 0.2386219504104318 0.11589908630211621 0 0.23287620853859281 0.1009134256887242 0 0.2291671021118209 0.108827555572599 0 0.22440407963653 0.10019610422177 0 0.2217307290089934 0.1098153981104321 0 0.21497462701719669 0.097088617495100643 0 0.2291671021118209 0.108827555572599 0 0.22440407963653 0.10019610422177 0 0.2217307290089934 0.1098153981104321 0 0.22440407963653 0.10019610422177 0 0.21497462701719669 0.097088617495100643 0 0.22708326881131169 0.091309460428523587 0 0.2305943327787712 0.12933780649576501 0 0.20815293215493849 0.11171587878463431 0 0.2282025429645563 0.11731376353995231 0 0.2217307290089934 0.1098153981104321 0 0.20815293215493849 0.11171587878463431 0 0.2305943327787712 0.12933780649576501 0 0.2282025429645563 0.11731376353995231 0 0.20815293215493849 0.11171587878463431 0 0.2305943327787712 0.12933780649576501 0 0.23864985556033941 0.12686179158742841 0 0.2282025429645563 0.11731376353995231 0 0.2386219504104318 0.11589908630211621 0 0.2291671021118209 0.108827555572599 0 0.2282025429645563 0.11731376353995231 0 0.2291671021118209 0.108827555572599 0 0.2282025429645563 0.11731376353995231 0 0.2217307290089934 0.1098153981104321 0 0.21285267864722349 0.13123172288861731 0 0.2305943327787712 0.12933780649576501 0 0.20815293215493849 0.11171587878463431 0 0.21285267864722349 0.13123172288861731 0 0.19853600640964589 0.12767756710424 0 0.20815293215493849 0.11171587878463431 0 0.2217307290089934 0.1098153981104321 0 0.20815293215493849 0.11171587878463431 0 0.20815293215493849 0.11171587878463431 0 0.21497462701719669 0.097088617495100643 0 0.1927200493459536 0.099597332808249187 0 0.21497462701719669 0.097088617495100643 0 0.1927200493459536 0.099597332808249187 0 0.20752774279952149 0.087425338864733387 0 0.2217307290089934 0.1098153981104321 0 0.20815293215493849 0.11171587878463431 0 0.21497462701719669 0.097088617495100643 0 0.20815293215493849 0.11171587878463431 0 0.1927200493459536 0.099597332808249187 0 0.20815293215493849 0.11171587878463431 0 0.1927200493459536 0.099597332808249187 0 0.1878890111992729 0.11455221450049149 0 0.1927200493459536 0.099597332808249187 0 0.1878890111992729 0.11455221450049149 0 0.20815293215493849 0.11171587878463431 0 0.1878890111992729 0.11455221450049149 0 0.19853600640964589 0.12767756710424 0 0.20815293215493849 0.11171587878463431 0 0.1878890111992729 0.11455221450049149 0 0.19800054508621709 0.083251117631649829 0 0.20328104082648041 0.066904902455050375 0 0.18814494792274999 0.070053523447921984 0 0.19800054508621709 0.083251117631649829 0 0.20328104082648041 0.066904902455050375 0 0.18814494792274999 0.070053523447921984 0 0.20328104082648041 0.066904902455050375 0 0.19450610843587779 0.056893349858266377 0 0.18814494792274999 0.070053523447921984 0 0.19800054508621709 0.083251117631649829 0 0.17926476804815841 0.089031682368816367 0 0.1927200493459536 0.099597332808249187 0 0.19800054508621709 0.083251117631649829 0 0.17926476804815841 0.089031682368816367 0 0.1927200493459536 0.099597332808249187 0 0.19800054508621709 0.083251117631649829 0 0.20752774279952149 0.087425338864733387 0 0.1927200493459536 0.099597332808249187 0 0.19800054508621709 0.083251117631649829 0 0.19800054508621709 0.083251117631649829 0 0.20752774279952149 0.087425338864733387 0 0.2120094260234259 0.074778493881178215 0 0.21497462701719669 0.097088617495100643 0 0.20752774279952149 0.087425338864733387 0 0.2199340665248147 0.082411132507488424 0 0.20752774279952149 0.087425338864733387 0 0.2120094260234259 0.074778493881178215 0 0.2199340665248147 0.082411132507488424 0 0.2120094260234259 0.074778493881178215 0 0.2231526568938004 0.070959411075660908 0 0.2199340665248147 0.082411132507488424 0 0.19800054508621709 0.083251117631649829 0 0.2120094260234259 0.074778493881178215 0 0.20328104082648041 0.066904902455050375 0 0.2120094260234259 0.074778493881178215 0 0.2231526568938004 0.070959411075660908 0 0.21860303015766011 0.059234410415828317 0 0.2120094260234259 0.074778493881178215 0 0.20328104082648041 0.066904902455050375 0 0.21860303015766011 0.059234410415828317 0 0.2231526568938004 0.070959411075660908 0 0.2347908907043334 0.066253790120663042 0 0.21860303015766011 0.059234410415828317 0 0.2231526568938004 0.070959411075660908 0 0.2199340665248147 0.082411132507488424 0 0.22964642406434491 0.079593797403078814 0 0.2231526568938004 0.070959411075660908 0 0.22964642406434491 0.079593797403078814 0 0.2347908907043334 0.066253790120663042 0 0.21497462701719669 0.097088617495100643 0 0.2199340665248147 0.082411132507488424 0 0.22708326881131169 0.091309460428523587 0 0.2199340665248147 0.082411132507488424 0 0.22964642406434491 0.079593797403078814 0 0.22708326881131169 0.091309460428523587 0 0.23287620853859281 0.1009134256887242 0 0.22708326881131169 0.091309460428523587 0 0.2410942389745743 0.088244831128660939 0 0.22964642406434491 0.079593797403078814 0 0.22708326881131169 0.091309460428523587 0 0.2410942389745743 0.088244831128660939 0 0.2410942389745743 0.088244831128660939 0 0.25369105809401321 0.081918063120687543 0 0.25239177367054749 0.098507312554499224 0 0.2410942389745743 0.088244831128660939 0 0.24952890687735321 0.073073377366024511 0 0.25369105809401321 0.081918063120687543 0 0.2410942389745743 0.088244831128660939 0 0.24370138759444351 0.059082073085500092 0 0.2410942389745743 0.088244831128660939 0 0.2347908907043334 0.066253790120663042 0 0.2410942389745743 0.088244831128660939 0 0.24952890687735321 0.073073377366024511 0 0.24370138759444351 0.059082073085500092 0 0.2410942389745743 0.088244831128660939 0 0.2347908907043334 0.066253790120663042 0 0.24370138759444351 0.059082073085500092 0 0.22964642406434491 0.079593797403078814 0 0.2410942389745743 0.088244831128660939 0 0.2347908907043334 0.066253790120663042 0 0.2347908907043334 0.066253790120663042 0 0.24370138759444351 0.059082073085500092 0 0.22848754243409289 0.044262749112664951 0 0.24370138759444351 0.059082073085500092 0 0.24630853621431251 0.02991931504233921 0 0.22848754243409289 0.044262749112664951 0 0.2297324461314301 0.033483195754257157 0 0.24630853621431251 0.02991931504233921 0 0.24370138759444351 0.059082073085500092 0 0.22848754243409289 0.044262749112664951 0 0.24630853621431251 0.02991931504233921 0 0.24370138759444351 0.059082073085500092 0 0.24630853621431251 0.02991931504233921 0 0.25483882626874249 0.049685009769870697 0 0.2297324461314301 0.033483195754257157 0 0.24630853621431251 0.02991931504233921 0 0.2297324461314301 0.033483195754257157 0 0.2119193062887747 0.037313043757400702 0 0.22848754243409289 0.044262749112664951 0 0.2297324461314301 0.033483195754257157 0 0.2119193062887747 0.037313043757400702 0 0.22848754243409289 0.044262749112664951 0 0.21688592908505649 0.047800587567846997 0 0.2119193062887747 0.037313043757400702 0 0.2347908907043334 0.066253790120663042 0 0.22848754243409289 0.044262749112664951 0 0.2347908907043334 0.066253790120663042 0 0.22848754243409289 0.044262749112664951 0 0.21860303015766011 0.059234410415828317 0 0.22848754243409289 0.044262749112664951 0 0.21860303015766011 0.059234410415828317 0 0.21688592908505649 0.047800587567846997 0 0.2483044514930087 0.01035146626751412 0 0.23901876256443469 0.014559923492275211 0 0.24656239287624979 -0.001609643027110886 0 0.23469694437165051 0.0022618289873079442 0 0.23901876256443469 0.014559923492275211 0 0.24656239287624979 -0.001609643027110886 0 0.23901876256443469 0.014559923492275211 0 0.24656239287624979 -0.001609643027110886 0 0.2483044514930087 0.01035146626751412 0 0.2444108933689163 0.015618964023873029 0 0.23901876256443469 0.014559923492275211 0 0.2483044514930087 0.01035146626751412 0 0.2444108933689163 0.015618964023873029 0 0.2472029391619103 0.019914800318815509 0 0.2297324461314301 0.033483195754257157 0 0.24630853621431251 0.02991931504233921 0 0.23653492810855251 0.027202346837374811 0 0.23901876256443469 0.014559923492275211 0 0.23788697056641789 0.022087777504016581 0 0.22963993274737521 0.021082830764168659 0 0.23788697056641789 0.022087777504016581 0 0.24311876483586489 0.02021850675619126 0 0.2431381742684974 0.025311944218053471 0 0.2444108933689163 0.015618964023873029 0 0.23901876256443469 0.014559923492275211 0 0.24311876483586489 0.02021850675619126 0 0.23901876256443469 0.014559923492275211 0 0.23788697056641789 0.022087777504016581 0 0.24311876483586489 0.02021850675619126 0 0.2444108933689163 0.015618964023873029 0 0.2472029391619103 0.019914800318815509 0 0.24311876483586489 0.02021850675619126 0 0.2472029391619103 0.019914800318815509 0 0.24698249866114111 0.02238057957587794 0 0.2472029391619103 0.019914800318815509 0 0.24698249866114111 0.02238057957587794 0 0.24311876483586489 0.02021850675619126 0 0.24698249866114111 0.02238057957587794 0 0.24311876483586489 0.02021850675619126 0 0.2431381742684974 0.025311944218053471 0 0.24698249866114111 0.02238057957587794 0 0.2431381742684974 0.025311944218053471 0 0.24630853621431251 0.02991931504233921 0 0.24698249866114111 0.02238057957587794 0 0.2431381742684974 0.025311944218053471 0 0.24698249866114111 0.02238057957587794 0 0.24630853621431251 0.02991931504233921 0 0.2431381742684974 0.025311944218053471 0 0.24630853621431251 0.02991931504233921 0 0.23653492810855251 0.027202346837374811 0 0.23788697056641789 0.022087777504016581 0 0.23653492810855251 0.027202346837374811 0 0.22963993274737521 0.021082830764168659 0 0.23788697056641789 0.022087777504016581 0 0.2431381742684974 0.025311944218053471 0 0.23653492810855251 0.027202346837374811 0 0.2297324461314301 0.033483195754257157 0 0.21137739841694539 0.014282811910766311 0 0.2297324461314301 0.033483195754257157 0 0.22963993274737521 0.021082830764168659 0 0.21137739841694539 0.014282811910766311 0 0.2297324461314301 0.033483195754257157 0 0.23653492810855251 0.027202346837374811 0 0.22963993274737521 0.021082830764168659 0 0.22963993274737521 0.021082830764168659 0 0.22547492372744191 0.0080188387317456696 0 0.21137739841694539 0.014282811910766311 0 0.23901876256443469 0.014559923492275211 0 0.22963993274737521 0.021082830764168659 0 0.22547492372744191 0.0080188387317456696 0 0.23469694437165051 0.0022618289873079442 0 0.23901876256443469 0.014559923492275211 0 0.22547492372744191 0.0080188387317456696 0 0.23469694437165051 0.0022618289873079442 0 0.22547492372744191 0.0080188387317456696 0 0.2254233362482346 -0.0059296518762354672 0 0.21137739841694539 0.014282811910766311 0 0.21216641885567369 -0.0026323268736598488 0 0.19302235070246099 -0.0049175719327250282 0 0.22547492372744191 0.0080188387317456696 0 0.21137739841694539 0.014282811910766311 0 0.21216641885567369 -0.0026323268736598488 0 0.21137739841694539 0.014282811910766311 0 0.1987661747429528 0.02667537068428202 0 0.2119193062887747 0.037313043757400702 0 0.2297324461314301 0.033483195754257157 0 0.21137739841694539 0.014282811910766311 0 0.2119193062887747 0.037313043757400702 0 0.1987661747429528 0.02667537068428202 0 0.1919206051829502 0.013746544760152231 0 0.18125015291228411 0.02613914579758227 0 0.21137739841694539 0.014282811910766311 0 0.1987661747429528 0.02667537068428202 0 0.1919206051829502 0.013746544760152231 0 0.21137739841694539 0.014282811910766311 0 0.19302235070246099 -0.0049175719327250282 0 0.21137739841694539 0.014282811910766311 0 0.1919206051829502 0.013746544760152231 0 0.19302235070246099 -0.0049175719327250282 0 0.20328104082648041 0.066904902455050375 0 0.2065571888260436 0.051662787113981777 0 0.21860303015766011 0.059234410415828317 0 0.2065571888260436 0.051662787113981777 0 0.21860303015766011 0.059234410415828317 0 0.21688592908505649 0.047800587567846997 0 0.2065571888260436 0.051662787113981777 0 0.2119193062887747 0.037313043757400702 0 0.19410616644611969 0.041142891760545967 0 0.2065571888260436 0.051662787113981777 0 0.21688592908505649 0.047800587567846997 0 0.2119193062887747 0.037313043757400702 0 0.1987661747429528 0.02667537068428202 0 0.2119193062887747 0.037313043757400702 0 0.19410616644611969 0.041142891760545967 0 0.2119193062887747 0.037313043757400702 0 0.19410616644611969 0.041142891760545967 0 0.1987661747429528 0.02667537068428202 0 0.19410616644611969 0.041142891760545967 0 0.18125015291228411 0.02613914579758227 0 0.19410616644611969 0.041142891760545967 0 0.19450610843587779 0.056893349858266377 0 0.18044119815799539 0.05470264451383175 0 0.2065571888260436 0.051662787113981777 0 0.19410616644611969 0.041142891760545967 0 0.19450610843587779 0.056893349858266377 0 0.20328104082648041 0.066904902455050375 0 0.2065571888260436 0.051662787113981777 0 0.19450610843587779 0.056893349858266377 0 0.18814494792274999 0.070053523447921984 0 0.19450610843587779 0.056893349858266377 0 0.18044119815799539 0.05470264451383175 0 0.18044119815799539 0.05470264451383175 0 0.16659590041655781 0.060857247368742318 0 0.1749794800952181 0.070425575241559082 0 0.19410616644611969 0.041142891760545967 0 0.18044119815799539 0.05470264451383175 0 0.1805261206486162 0.039770655086388718 0 0.19410616644611969 0.041142891760545967 0 0.1805261206486162 0.039770655086388718 0 0.18125015291228411 0.02613914579758227 0 0.1805261206486162 0.039770655086388718 0 0.18125015291228411 0.02613914579758227 0 0.1656938651092634 0.028472791439148281 0 0.18044119815799539 0.05470264451383175 0 0.1805261206486162 0.039770655086388718 0 0.16738231408275059 0.043248462808102142 0 0.16738231408275059 0.043248462808102142 0 0.1656938651092634 0.028472791439148281 0 0.15025922675785061 0.03945423818368695 0 0.16738231408275059 0.043248462808102142 0 0.15718899190402799 0.052325275075252829 0 0.15025922675785061 0.03945423818368695 0 0.1805261206486162 0.039770655086388718 0 0.16738231408275059 0.043248462808102142 0 0.1656938651092634 0.028472791439148281 0 0.16738231408275059 0.043248462808102142 0 0.15718899190402799 0.052325275075252829 0 0.16659590041655781 0.060857247368742318 0 0.16738231408275059 0.043248462808102142 0 0.16659590041655781 0.060857247368742318 0 0.18044119815799539 0.05470264451383175 0 0.16738231408275059 0.043248462808102142 0 0.16659590041655781 0.060857247368742318 0 0.15718899190402799 0.052325275075252829 0 0.16659590041655781 0.060857247368742318 0 0.1556325797020191 0.064570359932442714 0 0.17355832690626291 0.0061767596233742684 0 0.19302235070246099 -0.0049175719327250282 0 0.1919206051829502 0.013746544760152231 0 0.17355832690626291 0.0061767596233742684 0 0.18125015291228411 0.02613914579758227 0 0.1919206051829502 0.013746544760152231 0 0.17355832690626291 0.0061767596233742684 0 0.19302235070246099 -0.0049175719327250282 0 0.17355832690626291 0.0061767596233742684 0 0.18125015291228411 0.02613914579758227 0 0.1656938651092634 0.028472791439148281 0 0.17355832690626291 0.0061767596233742684 0 0.1656938651092634 0.028472791439148281 0 0.15409430311006411 0.01727109117947245 0 0.1656938651092634 0.028472791439148281 0 0.15409430311006411 0.01727109117947245 0 0.15025922675785061 0.03945423818368695 0 0.17355832690626291 0.0061767596233742684 0 0.15409430311006411 0.01727109117947245 0 0.15959246971988511 -0.0045329482719538598 0 0.17355832690626291 0.0061767596233742684 0 0.15409430311006411 0.01727109117947245 0 0.15409430311006411 0.01727109117947245 0 0.1405465305075351 -0.003726063561556271 0 0.15959246971988511 -0.0045329482719538598 0 0.15409430311006411 0.01727109117947245 0 0.1319162287353226 0.012503038883484139 0 0.1405465305075351 -0.003726063561556271 0 0.15409430311006411 0.01727109117947245 0 0.13463027931386529 0.02836542273557064 0 0.15025922675785061 0.03945423818368695 0 0.15409430311006411 0.01727109117947245 0 0.13463027931386529 0.02836542273557064 0 0.15409430311006411 0.01727109117947245 0 0.13463027931386529 0.02836542273557064 0 0.1319162287353226 0.012503038883484139 0 0.11255272758242001 0.02474424485831174 0 0.13463027931386529 0.02836542273557064 0 0.1319162287353226 0.012503038883484139 0 0.1319162287353226 0.012503038883484139 0 0.1199317153095743 -0.0020338949810060208 0 0.1405465305075351 -0.003726063561556271 0 0.15718899190402799 0.052325275075252829 0 0.14460244129156419 0.059622343025794187 0 0.15025922675785061 0.03945423818368695 0 0.14460244129156419 0.059622343025794187 0 0.15025922675785061 0.03945423818368695 0 0.1292870195040241 0.047693770240235897 0 0.15718899190402799 0.052325275075252829 0 0.14460244129156419 0.059622343025794187 0 0.1556325797020191 0.064570359932442714 0 0.13463027931386529 0.02836542273557064 0 0.15025922675785061 0.03945423818368695 0 0.1292870195040241 0.047693770240235897 0 0.11255272758242001 0.02474424485831174 0 0.13463027931386529 0.02836542273557064 0 0.1292870195040241 0.047693770240235897 0 0.14460244129156419 0.059622343025794187 0 0.1292870195040241 0.047693770240235897 0 0.12955283612148191 0.075747047680026283 0 0.14460244129156419 0.059622343025794187 0 0.12955283612148191 0.075747047680026283 0 0.14676727111660029 0.074848445495479102 0 0.14676727111660029 0.074848445495479102 0 0.1556325797020191 0.064570359932442714 0 0.16110364173781661 0.074770805324728296 0 0.14676727111660029 0.074848445495479102 0 0.16110364173781661 0.074770805324728296 0 0.1568681918395598 0.08438447050917311 0 0.14460244129156419 0.059622343025794187 0 0.14676727111660029 0.074848445495479102 0 0.1556325797020191 0.064570359932442714 0 0.12955283612148191 0.075747047680026283 0 0.14676727111660029 0.074848445495479102 0 0.1461505591141565 0.089682723664727071 0 0.1461505591141565 0.089682723664727071 0 0.16492916327317231 0.098177574492736105 0 0.1568681918395598 0.08438447050917311 0 0.14676727111660029 0.074848445495479102 0 0.1461505591141565 0.089682723664727071 0 0.1568681918395598 0.08438447050917311 0 0.12955283612148191 0.075747047680026283 0 0.12860053504666741 0.099365574006120005 0 0.12955283612148191 0.075747047680026283 0 0.1461505591141565 0.089682723664727071 0 0.12860053504666741 0.099365574006120005 0 0.12860053504666741 0.099365574006120005 0 0.1276482339718534 0.1229841003322137 0 0.1458485368839173 0.1204366086941533 0 0.1276482339718534 0.1229841003322137 0 0.1458485368839173 0.1204366086941533 0 0.12860053504666741 0.099365574006120005 0 0.1276482339718534 0.1229841003322137 0 0.1202526868660708 0.11044628281604001 0 0.12860053504666741 0.099365574006120005 0 0.1276482339718534 0.1229841003322137 0 0.1255154942096095 0.12328261935889059 0 0.1276482339718534 0.1229841003322137 0 0.1458485368839173 0.1204366086941533 0 0.16404883979598081 0.1178891170560898 0 0.1458485368839173 0.1204366086941533 0 0.15023342641524531 0.104887820213221 0 0.16404883979598081 0.1178891170560898 0 0.1461505591141565 0.089682723664727071 0 0.12860053504666741 0.099365574006120005 0 0.15023342641524531 0.104887820213221 0 0.12860053504666741 0.099365574006120005 0 0.1458485368839173 0.1204366086941533 0 0.15023342641524531 0.104887820213221 0 0.1461505591141565 0.089682723664727071 0 0.15023342641524531 0.104887820213221 0 0.16492916327317231 0.098177574492736105 0 0.15023342641524531 0.104887820213221 0 0.16492916327317231 0.098177574492736105 0 0.16404883979598081 0.1178891170560898 0 0.16492916327317231 0.098177574492736105 0 0.16404883979598081 0.1178891170560898 0 0.1777703663325074 0.1038495842452766 0 0.16492916327317231 0.098177574492736105 0 0.16404883979598081 0.1178891170560898 0 0.16326600105996991 0.13541785446327961 0 0.1458485368839173 0.1204366086941533 0 0.16404883979598081 0.1178891170560898 0 0.18196326048480069 0.13289587029080949 0 0.1878890111992729 0.11455221450049149 0 0.16404883979598081 0.1178891170560898 0 0.1878890111992729 0.11455221450049149 0 0.16404883979598081 0.1178891170560898 0 0.1777703663325074 0.1038495842452766 0 0.1878890111992729 0.11455221450049149 0 0.16404883979598081 0.1178891170560898 0 0.18196326048480069 0.13289587029080949 0 0.1878890111992729 0.11455221450049149 0 0.16492916327317231 0.098177574492736105 0 0.1777703663325074 0.1038495842452766 0 0.17926476804815841 0.089031682368816367 0 0.1927200493459536 0.099597332808249187 0 0.1878890111992729 0.11455221450049149 0 0.1777703663325074 0.1038495842452766 0 0.1927200493459536 0.099597332808249187 0 0.1777703663325074 0.1038495842452766 0 0.17926476804815841 0.089031682368816367 0 0.1927200493459536 0.099597332808249187 0 0.17926476804815841 0.089031682368816367 0 0.17926476804815841 0.089031682368816367 0 0.1749794800952181 0.070425575241559082 0 0.16580948675036411 0.078466031929382479 0 0.17926476804815841 0.089031682368816367 0 0.16580948675036411 0.078466031929382479 0 0.18814494792274999 0.070053523447921984 0 0.18044119815799539 0.05470264451383175 0 0.1749794800952181 0.070425575241559082 0 0.18814494792274999 0.070053523447921984 0 0.17926476804815841 0.089031682368816367 0 0.1749794800952181 0.070425575241559082 0 0.16659590041655781 0.060857247368742318 0 0.1749794800952181 0.070425575241559082 0 0.16580948675036411 0.078466031929382479 0 0.16659590041655781 0.060857247368742318 0 0.16580948675036411 0.078466031929382479 0 0.16659590041655781 0.060857247368742318 0 0.16110364173781661 0.074770805324728296 0 0.16580948675036411 0.078466031929382479 0 0.16659590041655781 0.060857247368742318 0 0.1556325797020191 0.064570359932442714 0 0.16110364173781661 0.074770805324728296 0 0.16110364173781661 0.074770805324728296 0 0.16580948675036411 0.078466031929382479 0 0.16492916327317231 0.098177574492736105 0 0.1568681918395598 0.08438447050917311 0 0.16580948675036411 0.078466031929382479 0 0.16110364173781661 0.074770805324728296 0 0.1568681918395598 0.08438447050917311 0 0.16580948675036411 0.078466031929382479 0 0.16492916327317231 0.098177574492736105 0 0.16580948675036411 0.078466031929382479 0 0.16492916327317231 0.098177574492736105 0 0.17926476804815841 0.089031682368816367 0 0.16580948675036411 0.078466031929382479 0 0.11126858964330009 0.5 0 0.11805385294840549 0.47394573846252008 0 0.087664151552690278 0.47558089235511009 0 0.11805385294840549 0.47394573846252008 0 0.099525532321176113 0.45978149101431348 0 0.087664151552690278 0.47558089235511009 0 0.11126858964330009 0.5 0 0.11805385294840549 0.47394573846252008 0 0.1406837284871397 0.5 0 0.11805385294840549 0.47394573846252008 0 0.11425084389686151 0.4521769295555757 0 0.12940155298578651 0.45683828108602542 0 0.11805385294840549 0.47394573846252008 0 0.11425084389686151 0.4521769295555757 0 0.099525532321176113 0.45978149101431348 0 0.11425084389686151 0.4521769295555757 0 0.117941283131712 0.43676093648858377 0 0.12940155298578651 0.45683828108602542 0 0.11425084389686151 0.4521769295555757 0 0.10001820378295059 0.44321877497881318 0 0.117941283131712 0.43676093648858377 0 0.10001820378295059 0.44321877497881318 0 0.099525532321176113 0.45978149101431348 0 0.08530800898663779 0.45200591039959531 0 0.11425084389686151 0.4521769295555757 0 0.10001820378295059 0.44321877497881318 0 0.099525532321176113 0.45978149101431348 0 0.08530800898663779 0.45200591039959531 0 0.071353327378032044 0.45784877241761762 0 0.087664151552690278 0.47558089235511009 0 0.099525532321176113 0.45978149101431348 0 0.08530800898663779 0.45200591039959531 0 0.087664151552690278 0.47558089235511009 0 0.08530800898663779 0.45200591039959531 0 0.070646327828356184 0.44227265841734448 0 0.082640511056621679 0.43333287321437353 0 0.10001820378295059 0.44321877497881318 0 0.08530800898663779 0.45200591039959531 0 0.082640511056621679 0.43333287321437353 0 0.070646327828356184 0.44227265841734448 0 0.071353327378032044 0.45784877241761762 0 0.057386259516969337 0.4411488695965341 0 0.071353327378032044 0.45784877241761762 0 0.057386259516969337 0.4411488695965341 0 0.08530800898663779 0.45200591039959531 0 0.070646327828356184 0.44227265841734448 0 0.071353327378032044 0.45784877241761762 0 0.070646327828356184 0.44227265841734448 0 0.057386259516969337 0.4411488695965341 0 0.06088632701536939 0.43349791809594468 0 0.071353327378032044 0.45784877241761762 0 0.063623683247550578 0.47791655828528701 0 0.055458756807517447 0.45837299093309369 0 0.071353327378032044 0.45784877241761762 0 0.063623683247550578 0.47791655828528701 0 0.087664151552690278 0.47558089235511009 0 0.11126858964330009 0.5 0 0.087664151552690278 0.47558089235511009 0 0.081853450799460548 0.5 0 0.063623683247550578 0.47791655828528701 0 0.081853450799460548 0.5 0 0.052438311955621042 0.5 0 0.063623683247550578 0.47791655828528701 0 0.087664151552690278 0.47558089235511009 0 0.081853450799460548 0.5 0 0.063623683247550578 0.47791655828528701 0 0.052438311955621042 0.5 0 0.043790578706976828 0.47671357869430298 0 0.063623683247550578 0.47791655828528701 0 0.043790578706976828 0.47671357869430298 0 0.055458756807517447 0.45837299093309369 0 0.052438311955621042 0.5 0 0.043790578706976828 0.47671357869430298 0 0.023023173111781481 0.5 0 0.043790578706976828 0.47671357869430298 0 0.023023173111781481 0.5 0 0.024486121477988981 0.46856790330469478 0 0.023023173111781481 0.5 0 0.0066987132942785254 0.47730329520009579 0 0.024486121477988981 0.46856790330469478 0 -0.0063919657320580248 0.5 0 0.023023173111781481 0.5 0 0.0066987132942785254 0.47730329520009579 0 -0.0090229082492393406 0.43685887589620359 0 0.0034201282783908361 0.45253129080750037 0 0.01393640227223307 0.43490380056725492 0 0.0034201282783908361 0.45253129080750037 0 0.02898753711420925 0.45027641631887272 0 0.01393640227223307 0.43490380056725492 0 0.0066987132942785254 0.47730329520009579 0 0.0034201282783908361 0.45253129080750037 0 0.024486121477988981 0.46856790330469478 0 -0.0099672232814585378 0.46790150176959422 0 0.0066987132942785254 0.47730329520009579 0 0.0034201282783908361 0.45253129080750037 0 0.0034201282783908361 0.45253129080750037 0 0.024486121477988981 0.46856790330469478 0 0.02898753711420925 0.45027641631887272 0 0.024486121477988981 0.46856790330469478 0 0.02898753711420925 0.45027641631887272 0 0.039670614699343222 0.45799247655925651 0 0.02898753711420925 0.45027641631887272 0 0.036206976896258437 0.44231487993151303 0 0.01393640227223307 0.43490380056725492 0 0.02898753711420925 0.45027641631887272 0 0.01393640227223307 0.43490380056725492 0 0.036206976896258437 0.44231487993151303 0 0.039670614699343222 0.45799247655925651 0 0.047913683830277547 0.44733407741862041 0 0.02898753711420925 0.45027641631887272 0 0.036206976896258437 0.44231487993151303 0 0.039670614699343222 0.45799247655925651 0 0.036206976896258437 0.44231487993151303 0 0.047913683830277547 0.44733407741862041 0 0.034154388954679857 0.42992763809764067 0 0.047913683830277547 0.44733407741862041 0 0.034154388954679857 0.42992763809764067 0 0.043790578706976828 0.47671357869430298 0 0.024486121477988981 0.46856790330469478 0 0.039670614699343222 0.45799247655925651 0 0.043790578706976828 0.47671357869430298 0 0.039670614699343222 0.45799247655925651 0 0.055458756807517447 0.45837299093309369 0 0.039670614699343222 0.45799247655925651 0 0.055458756807517447 0.45837299093309369 0 0.047913683830277547 0.44733407741862041 0 0.047913683830277547 0.44733407741862041 0 0.057386259516969337 0.4411488695965341 0 0.043419191655907893 0.4244489667754493 0 0.071353327378032044 0.45784877241761762 0 0.055458756807517447 0.45837299093309369 0 0.057386259516969337 0.4411488695965341 0 0.055458756807517447 0.45837299093309369 0 0.047913683830277547 0.44733407741862041 0 0.057386259516969337 0.4411488695965341 0 0.06088632701536939 0.43349791809594468 0 0.061852747193298779 0.42480075535189271 0 0.043419191655907893 0.4244489667754493 0 0.057386259516969337 0.4411488695965341 0 0.043419191655907893 0.4244489667754493 0 0.061852747193298779 0.42480075535189271 0 0.056253053689165819 0.41772763515158617 0 0.043419191655907893 0.4244489667754493 0 0.06088632701536939 0.43349791809594468 0 0.043419191655907893 0.4244489667754493 0 0.057386259516969337 0.4411488695965341 0 0.06088632701536939 0.43349791809594468 0 0.043419191655907893 0.4244489667754493 0 0.056555481300125957 0.41141326469942802 0 0.046132713918016217 0.40424569480822331 0 0.065766333332290733 0.40427315279629311 0 0.061852747193298779 0.42480075535189271 0 0.056253053689165819 0.41772763515158617 0 0.06689120894448651 0.41607519860530351 0 0.056555481300125957 0.41141326469942802 0 0.056253053689165819 0.41772763515158617 0 0.06689120894448651 0.41607519860530351 0 0.056555481300125957 0.41141326469942802 0 0.056253053689165819 0.41772763515158617 0 0.047019012942006423 0.4138941018716058 0 0.056253053689165819 0.41772763515158617 0 0.047019012942006423 0.4138941018716058 0 0.043419191655907893 0.4244489667754493 0 0.056555481300125957 0.41141326469942802 0 0.047019012942006423 0.4138941018716058 0 0.046132713918016217 0.40424569480822331 0 0.047019012942006423 0.4138941018716058 0 0.02649909450374174 0.4042182368201544 0 0.046132713918016217 0.40424569480822331 0 0.047019012942006423 0.4138941018716058 0 0.043419191655907893 0.4244489667754493 0 0.02649909450374174 0.4042182368201544 0 0.043419191655907893 0.4244489667754493 0 0.020395094079082441 0.41252119877666071 0 0.043419191655907893 0.4244489667754493 0 0.02649909450374174 0.4042182368201544 0 0.034154388954679857 0.42992763809764067 0 0.043419191655907893 0.4244489667754493 0 0.020395094079082441 0.41252119877666071 0 0.047913683830277547 0.44733407741862041 0 0.034154388954679857 0.42992763809764067 0 0.043419191655907893 0.4244489667754493 0 0.034154388954679857 0.42992763809764067 0 0.01988544539146982 0.4244307221364132 0 0.020395094079082441 0.41252119877666071 0 0.036206976896258437 0.44231487993151303 0 0.034154388954679857 0.42992763809764067 0 0.01393640227223307 0.43490380056725492 0 0.034154388954679857 0.42992763809764067 0 0.01988544539146982 0.4244307221364132 0 0.01393640227223307 0.43490380056725492 0 0.043419191655907893 0.4244489667754493 0 0.020395094079082441 0.41252119877666071 0 0.02649909450374174 0.4042182368201544 0 0.034154388954679857 0.42992763809764067 0 0.020395094079082441 0.41252119877666071 0 0.020395094079082441 0.41252119877666071 0 0.013817819949920519 0.40420050181785683 0 0.020395094079082441 0.41252119877666071 0 0.013817819949920519 0.40420050181785683 0 0.02649909450374174 0.4042182368201544 0 0.01988544539146982 0.4244307221364132 0 0.020395094079082441 0.41252119877666071 0 0.01148204813146409 0.41911482169896019 0 0.020395094079082441 0.41252119877666071 0 0.01148204813146409 0.41911482169896019 0 0.004308031484278 0.40418720219883503 0 0.020395094079082441 0.41252119877666071 0 0.004308031484278 0.40418720219883503 0 0.013817819949920519 0.40420050181785683 0 0.020395094079082441 0.41252119877666071 0 0.004308031484278 0.40418720219883503 0 -0.0011147325697431071 0.41953118481563689 0 0.01148204813146409 0.41911482169896019 0 0.004308031484278 0.40418720219883503 0 -0.0090229082492393406 0.43685887589620359 0 -0.0011147325697431071 0.41953118481563689 0 0.01393640227223307 0.43490380056725492 0 -0.0011147325697431071 0.41953118481563689 0 0.01148204813146409 0.41911482169896019 0 0.01393640227223307 0.43490380056725492 0 -0.0011147325697431071 0.41953118481563689 0 0.01393640227223307 0.43490380056725492 0 0.01988544539146982 0.4244307221364132 0 0.01148204813146409 0.41911482169896019 0 0.01393640227223307 0.43490380056725492 0 -0.0027597180625642021 0.38322879417480482 0 -0.0069912071363726069 0.37959499451103501 0 0.0110485698104664 0.37020203490817022 0 0.01146012947491881 0.38562002733429013 0 0.019580013748181749 0.38498622063255072 0 0.0110485698104664 0.37020203490817022 0 -0.0027597180625642021 0.38322879417480482 0 0.01146012947491881 0.38562002733429013 0 0.0110485698104664 0.37020203490817022 0 -0.0027597180625642021 0.38322879417480482 0 0.00016191192984808269 0.39552454060480252 0 0.013817819949920519 0.40420050181785683 0 0.01146012947491881 0.38562002733429013 0 0.013817819949920519 0.40420050181785683 0 0.01850936891139306 0.39466521951640759 0 -0.0027597180625642021 0.38322879417480482 0 0.01146012947491881 0.38562002733429013 0 0.013817819949920519 0.40420050181785683 0 -0.0027597180625642021 0.38322879417480482 0 0.013817819949920519 0.40420050181785683 0 0.00016191192984808269 0.39552454060480252 0 0.004308031484278 0.40418720219883503 0 0.013817819949920519 0.40420050181785683 0 0.004308031484278 0.40418720219883503 0 0.013817819949920519 0.40420050181785683 0 0.01850936891139306 0.39466521951640759 0 0.02618163725761545 0.39257440657301751 0 0.019580013748181749 0.38498622063255072 0 0.01850936891139306 0.39466521951640759 0 0.02649909450374174 0.4042182368201544 0 0.013817819949920519 0.40420050181785683 0 0.02649909450374174 0.4042182368201544 0 0.013817819949920519 0.40420050181785683 0 0.01850936891139306 0.39466521951640759 0 0.02649909450374174 0.4042182368201544 0 0.01850936891139306 0.39466521951640759 0 0.02649909450374174 0.4042182368201544 0 0.02618163725761545 0.39257440657301751 0 0.02649909450374174 0.4042182368201544 0 0.02618163725761545 0.39257440657301751 0 0.036325615322632503 0.3972881113784355 0 0.02618163725761545 0.39257440657301751 0 0.019580013748181749 0.38498622063255072 0 0.02928782431774048 0.38155907420421231 0 0.02928782431774048 0.38155907420421231 0 0.0110485698104664 0.37020203490817022 0 0.019580013748181749 0.38498622063255072 0 0.02928782431774048 0.38155907420421231 0 0.0110485698104664 0.37020203490817022 0 0.02618163725761545 0.39257440657301751 0 0.02928782431774048 0.38155907420421231 0 0.036325615322632503 0.3972881113784355 0 0.01146012947491881 0.38562002733429013 0 0.01850936891139306 0.39466521951640759 0 0.019580013748181749 0.38498622063255072 0 0.02928782431774048 0.38155907420421231 0 0.036325615322632503 0.3972881113784355 0 0.047527078825015452 0.39291611350025302 0 0.02928782431774048 0.38155907420421231 0 0.047527078825015452 0.39291611350025302 0 0.049574167188610588 0.37191388163458577 0 0.02928782431774048 0.38155907420421231 0 0.047527078825015452 0.39291611350025302 0 0.02649909450374174 0.4042182368201544 0 0.046132713918016217 0.40424569480822331 0 0.02649909450374174 0.4042182368201544 0 0.036325615322632503 0.3972881113784355 0 0.046132713918016217 0.40424569480822331 0 0.036325615322632503 0.3972881113784355 0 0.046132713918016217 0.40424569480822331 0 0.047527078825015452 0.39291611350025302 0 0.046132713918016217 0.40424569480822331 0 0.065766333332290733 0.40427315279629311 0 0.046132713918016217 0.40424569480822331 0 0.047527078825015452 0.39291611350025302 0 0.065766333332290733 0.40427315279629311 0 0.047527078825015452 0.39291611350025302 0 0.068434369970583303 0.3943844684315837 0 0.065766333332290733 0.40427315279629311 0 0.047527078825015452 0.39291611350025302 0 0.06193309746443236 0.38647005412799279 0 0.068434369970583303 0.3943844684315837 0 0.047527078825015452 0.39291611350025302 0 0.065766333332290733 0.40427315279629311 0 0.047527078825015452 0.39291611350025302 0 0.06193309746443236 0.38647005412799279 0 0.049574167188610588 0.37191388163458577 0 0.06193309746443236 0.38647005412799279 0 0.067581756187310715 0.37219749919818068 0 0.049574167188610588 0.37191388163458577 0 0.078819754289459143 0.38905394308622671 0 0.081056192328171073 0.37467663381788591 0 0.067581756187310715 0.37219749919818068 0 0.06193309746443236 0.38647005412799279 0 0.078819754289459143 0.38905394308622671 0 0.067581756187310715 0.37219749919818068 0 0.06193309746443236 0.38647005412799279 0 0.067581756187310715 0.37219749919818068 0 0.06193309746443236 0.38647005412799279 0 0.078819754289459143 0.38905394308622671 0 0.068434369970583303 0.3943844684315837 0 0.087462349707736115 0.38136974705834781 0 0.095899664369112805 0.38871878260873988 0 0.094073787844201479 0.37302962872053891 0 0.078819754289459143 0.38905394308622671 0 0.087462349707736115 0.38136974705834781 0 0.095899664369112805 0.38871878260873988 0 0.078819754289459143 0.38905394308622671 0 0.087462349707736115 0.38136974705834781 0 0.081056192328171073 0.37467663381788591 0 0.087462349707736115 0.38136974705834781 0 0.094073787844201479 0.37302962872053891 0 0.081056192328171073 0.37467663381788591 0 0.078819754289459143 0.38905394308622671 0 0.084451357722178419 0.40150152014536122 0 0.095899664369112805 0.38871878260873988 0 0.078819754289459143 0.38905394308622671 0 0.084451357722178419 0.40150152014536122 0 0.076597634997320266 0.39750672929089631 0 0.084451357722178419 0.40150152014536122 0 0.071074737202204086 0.40428057669949907 0 0.076597634997320266 0.39750672929089631 0 0.071074737202204086 0.40428057669949907 0 0.076597634997320266 0.39750672929089631 0 0.068434369970583303 0.3943844684315837 0 0.078819754289459143 0.38905394308622671 0 0.076597634997320266 0.39750672929089631 0 0.068434369970583303 0.3943844684315837 0 0.071074737202204086 0.40428057669949907 0 0.068434369970583303 0.3943844684315837 0 0.065766333332290733 0.40427315279629311 0 0.071074737202204086 0.40428057669949907 0 0.065766333332290733 0.40427315279629311 0 0.065766333332290733 0.40427315279629311 0 0.083157983265430918 0.415102414027057 0 0.06689120894448651 0.41607519860530351 0 0.073240972041465832 0.42413029822388348 0 0.083157983265430918 0.415102414027057 0 0.065766333332290733 0.40427315279629311 0 0.06689120894448651 0.41607519860530351 0 0.083157983265430918 0.415102414027057 0 0.071074737202204086 0.40428057669949907 0 0.065766333332290733 0.40427315279629311 0 0.083157983265430918 0.415102414027057 0 0.056555481300125957 0.41141326469942802 0 0.065766333332290733 0.40427315279629311 0 0.06689120894448651 0.41607519860530351 0 0.061852747193298779 0.42480075535189271 0 0.06689120894448651 0.41607519860530351 0 0.073240972041465832 0.42413029822388348 0 0.06088632701536939 0.43349791809594468 0 0.061852747193298779 0.42480075535189271 0 0.070217146436438019 0.43244433501192292 0 0.070646327828356184 0.44227265841734448 0 0.06088632701536939 0.43349791809594468 0 0.070217146436438019 0.43244433501192292 0 0.061852747193298779 0.42480075535189271 0 0.070217146436438019 0.43244433501192292 0 0.073240972041465832 0.42413029822388348 0 0.070217146436438019 0.43244433501192292 0 0.073240972041465832 0.42413029822388348 0 0.082640511056621679 0.43333287321437353 0 0.070646327828356184 0.44227265841734448 0 0.070217146436438019 0.43244433501192292 0 0.082640511056621679 0.43333287321437353 0 0.073240972041465832 0.42413029822388348 0 0.082640511056621679 0.43333287321437353 0 0.083157983265430918 0.415102414027057 0 0.082640511056621679 0.43333287321437353 0 0.083157983265430918 0.415102414027057 0 0.10054963319857139 0.42593167525782039 0 0.083157983265430918 0.415102414027057 0 0.10054963319857139 0.42593167525782039 0 0.084451357722178419 0.40150152014536122 0 0.083157983265430918 0.415102414027057 0 0.1019547717661847 0.40683661306628999 0 0.084451357722178419 0.40150152014536122 0 0.071074737202204086 0.40428057669949907 0 0.083157983265430918 0.415102414027057 0 0.1019547717661847 0.40683661306628999 0 0.10054963319857139 0.42593167525782039 0 0.122062438569231 0.42088052023847522 0 0.083157983265430918 0.415102414027057 0 0.1019547717661847 0.40683661306628999 0 0.10054963319857139 0.42593167525782039 0 0.10054963319857139 0.42593167525782039 0 0.117941283131712 0.43676093648858377 0 0.10001820378295059 0.44321877497881318 0 0.10054963319857139 0.42593167525782039 0 0.117941283131712 0.43676093648858377 0 0.10001820378295059 0.44321877497881318 0 0.082640511056621679 0.43333287321437353 0 0.10054963319857139 0.42593167525782039 0 0.10054963319857139 0.42593167525782039 0 0.117941283131712 0.43676093648858377 0 0.122062438569231 0.42088052023847522 0 0.1019547717661847 0.40683661306628999 0 0.122062438569231 0.42088052023847522 0 0.12007696768576211 0.40459465373442299 0 0.1019547717661847 0.40683661306628999 0 0.12007696768576211 0.40459465373442299 0 0.1078510997923085 0.39445339370904831 0 0.12007696768576211 0.40459465373442299 0 0.11947874349952591 0.39062430912746088 0 0.1078510997923085 0.39445339370904831 0 0.12007696768576211 0.40459465373442299 0 0.11947874349952591 0.39062430912746088 0 0.13151641422077751 0.39383785932960408 0 0.11947874349952591 0.39062430912746088 0 0.11132423347166299 0.38334976742805688 0 0.12662500232711851 0.37688587143617253 0 0.11132423347166299 0.38334976742805688 0 0.115567025820269 0.37262035280254668 0 0.12662500232711851 0.37688587143617253 0 0.11132423347166299 0.38334976742805688 0 0.10433634381894751 0.37569845203277108 0 0.115567025820269 0.37262035280254668 0 0.11947874349952591 0.39062430912746088 0 0.11132423347166299 0.38334976742805688 0 0.1078510997923085 0.39445339370904831 0 0.11132423347166299 0.38334976742805688 0 0.095899664369112805 0.38871878260873988 0 0.1078510997923085 0.39445339370904831 0 0.10433634381894751 0.37569845203277108 0 0.095899664369112805 0.38871878260873988 0 0.094073787844201479 0.37302962872053891 0 0.11132423347166299 0.38334976742805688 0 0.10433634381894751 0.37569845203277108 0 0.095899664369112805 0.38871878260873988 0 0.1019547717661847 0.40683661306628999 0 0.095899664369112805 0.38871878260873988 0 0.1078510997923085 0.39445339370904831 0 0.084451357722178419 0.40150152014536122 0 0.1019547717661847 0.40683661306628999 0 0.095899664369112805 0.38871878260873988 0 0.098685045156321621 0.34681105998341372 0 0.096577378987978163 0.35935765722146101 0 0.1109286135372209 0.35291529110093361 0 0.096577378987978163 0.35935765722146101 0 0.1075303349477173 0.36583006903430071 0 0.1109286135372209 0.35291529110093361 0 0.098685045156321621 0.34681105998341372 0 0.1109286135372209 0.35291529110093361 0 0.1129744169299198 0.33857575120950129 0 0.098685045156321621 0.34681105998341372 0 0.096577378987978163 0.35935765722146101 0 0.087170732363208547 0.3517195333734956 0 0.096577378987978163 0.35935765722146101 0 0.094073787844201479 0.37302962872053891 0 0.1075303349477173 0.36583006903430071 0 0.10433634381894751 0.37569845203277108 0 0.1075303349477173 0.36583006903430071 0 0.115567025820269 0.37262035280254668 0 0.10433634381894751 0.37569845203277108 0 0.094073787844201479 0.37302962872053891 0 0.1075303349477173 0.36583006903430071 0 0.1075303349477173 0.36583006903430071 0 0.115567025820269 0.37262035280254668 0 0.1205517780632667 0.36291387531152092 0 0.1075303349477173 0.36583006903430071 0 0.1205517780632667 0.36291387531152092 0 0.1109286135372209 0.35291529110093361 0 0.115567025820269 0.37262035280254668 0 0.1205517780632667 0.36291387531152092 0 0.12662500232711851 0.37688587143617253 0 0.1205517780632667 0.36291387531152092 0 0.1109286135372209 0.35291529110093361 0 0.1255955125629282 0.34704084004977581 0 0.1109286135372209 0.35291529110093361 0 0.1129744169299198 0.33857575120950129 0 0.1255955125629282 0.34704084004977581 0 0.1240675302768615 0.3350351489434979 0 0.1129744169299198 0.33857575120950129 0 0.1255955125629282 0.34704084004977581 0 0.11785150776308299 0.32836608001163747 0 0.1240675302768615 0.3350351489434979 0 0.13058597441058231 0.32383589276846259 0 0.11785150776308299 0.32836608001163747 0 0.1240675302768615 0.3350351489434979 0 0.1129744169299198 0.33857575120950129 0 0.11785150776308299 0.32836608001163747 0 0.1129744169299198 0.33857575120950129 0 0.1087081180765168 0.3289572853325835 0 0.1125413153204573 0.31735674411723258 0 0.13058597441058231 0.32383589276846259 0 0.1178495081892303 0.31459287174078809 0 0.1125413153204573 0.31735674411723258 0 0.13058597441058231 0.32383589276846259 0 0.1178495081892303 0.31459287174078809 0 0.119825138903894 0.31356419940477948 0 0.13390930933902809 0.31354367030759722 0 0.11785150776308299 0.32836608001163747 0 0.1125413153204573 0.31735674411723258 0 0.13058597441058231 0.32383589276846259 0 0.1178495081892303 0.31459287174078809 0 0.119825138903894 0.31356419940477948 0 0.11785150776308299 0.32836608001163747 0 0.1125413153204573 0.31735674411723258 0 0.1087081180765168 0.3289572853325835 0 0.1178495081892303 0.31459287174078809 0 0.1125413153204573 0.31735674411723258 0 0.1178495081892303 0.31459287174078809 0 0.1125413153204573 0.31735674411723258 0 0.093331102287702347 0.30713622099843962 0 0.1125413153204573 0.31735674411723258 0 0.097895692759646491 0.32498243380718611 0 0.09217963845964755 0.3100456427818874 0 0.1125413153204573 0.31735674411723258 0 0.09217963845964755 0.3100456427818874 0 0.1125413153204573 0.31735674411723258 0 0.097895692759646491 0.32498243380718611 0 0.1125413153204573 0.31735674411723258 0 0.097895692759646491 0.32498243380718611 0 0.1087081180765168 0.3289572853325835 0 0.097895692759646491 0.32498243380718611 0 0.1015579094370167 0.33509780572749109 0 0.083250070198834236 0.33260812349713692 0 0.098685045156321621 0.34681105998341372 0 0.1015579094370167 0.33509780572749109 0 0.083250070198834236 0.33260812349713692 0 0.098685045156321621 0.34681105998341372 0 0.1129744169299198 0.33857575120950129 0 0.1015579094370167 0.33509780572749109 0 0.1129744169299198 0.33857575120950129 0 0.1087081180765168 0.3289572853325835 0 0.1015579094370167 0.33509780572749109 0 0.097895692759646491 0.32498243380718611 0 0.1087081180765168 0.3289572853325835 0 0.1015579094370167 0.33509780572749109 0 0.098685045156321621 0.34681105998341372 0 0.083250070198834236 0.33260812349713692 0 0.087170732363208547 0.3517195333734956 0 0.097895692759646491 0.32498243380718611 0 0.083250070198834236 0.33260812349713692 0 0.097895692759646491 0.32498243380718611 0 0.083250070198834236 0.33260812349713692 0 0.09217963845964755 0.3100456427818874 0 0.083250070198834236 0.33260812349713692 0 0.068030586914267069 0.32166274834729808 0 0.09217963845964755 0.3100456427818874 0 0.083250070198834236 0.33260812349713692 0 0.09217963845964755 0.3100456427818874 0 0.083250070198834236 0.33260812349713692 0 0.068030586914267069 0.32166274834729808 0 0.066892704216812315 0.34112508456218782 0 0.083250070198834236 0.33260812349713692 0 0.066892704216812315 0.34112508456218782 0 0.068030586914267069 0.32166274834729808 0 0.066892704216812315 0.34112508456218782 0 0.056709191557820303 0.33261810404757741 0 0.083250070198834236 0.33260812349713692 0 0.066892704216812315 0.34112508456218782 0 0.073230414910189001 0.35792494426836863 0 0.066892704216812315 0.34112508456218782 0 0.073230414910189001 0.35792494426836863 0 0.050535338234787917 0.349642045627234 0 0.083250070198834236 0.33260812349713692 0 0.073230414910189001 0.35792494426836863 0 0.083250070198834236 0.33260812349713692 0 0.073230414910189001 0.35792494426836863 0 0.087170732363208547 0.3517195333734956 0 0.073230414910189001 0.35792494426836863 0 0.087170732363208547 0.3517195333734956 0 0.084110752562719937 0.36189588189709793 0 0.096577378987978163 0.35935765722146101 0 0.087170732363208547 0.3517195333734956 0 0.084110752562719937 0.36189588189709793 0 0.094073787844201479 0.37302962872053891 0 0.084110752562719937 0.36189588189709793 0 0.081056192328171073 0.37467663381788591 0 0.096577378987978163 0.35935765722146101 0 0.094073787844201479 0.37302962872053891 0 0.084110752562719937 0.36189588189709793 0 0.073230414910189001 0.35792494426836863 0 0.084110752562719937 0.36189588189709793 0 0.084110752562719937 0.36189588189709793 0 0.081056192328171073 0.37467663381788591 0 0.076494778997097695 0.36667373979538331 0 0.081056192328171073 0.37467663381788591 0 0.076494778997097695 0.36667373979538331 0 0.067581756187310715 0.37219749919818068 0 0.073230414910189001 0.35792494426836863 0 0.084110752562719937 0.36189588189709793 0 0.076494778997097695 0.36667373979538331 0 0.073230414910189001 0.35792494426836863 0 0.067581756187310715 0.37219749919818068 0 0.073230414910189001 0.35792494426836863 0 0.076494778997097695 0.36667373979538331 0 0.067581756187310715 0.37219749919818068 0 0.073230414910189001 0.35792494426836863 0 0.067581756187310715 0.37219749919818068 0 0.060230419130225137 0.36291959268209328 0 0.049574167188610588 0.37191388163458577 0 0.060230419130225137 0.36291959268209328 0 0.050535338234787917 0.349642045627234 0 0.067581756187310715 0.37219749919818068 0 0.049574167188610588 0.37191388163458577 0 0.060230419130225137 0.36291959268209328 0 0.073230414910189001 0.35792494426836863 0 0.050535338234787917 0.349642045627234 0 0.073230414910189001 0.35792494426836863 0 0.060230419130225137 0.36291959268209328 0 0.050535338234787917 0.349642045627234 0 0.066892704216812315 0.34112508456218782 0 0.050535338234787917 0.349642045627234 0 0.050535338234787917 0.349642045627234 0 0.031111443784629891 0.34255301256300902 0 0.050535338234787917 0.349642045627234 0 0.030791954022628121 0.35992204026770391 0 0.031111443784629891 0.34255301256300902 0 0.050535338234787917 0.349642045627234 0 0.030791954022628121 0.35992204026770391 0 0.049574167188610588 0.37191388163458577 0 0.050535338234787917 0.349642045627234 0 0.030791954022628121 0.35992204026770391 0 0.02928782431774048 0.38155907420421231 0 0.049574167188610588 0.37191388163458577 0 0.030791954022628121 0.35992204026770391 0 0.02928782431774048 0.38155907420421231 0 0.030791954022628121 0.35992204026770391 0 0.0110485698104664 0.37020203490817022 0 0.030791954022628121 0.35992204026770391 0 0.020566722179648139 0.35104650284176669 0 0.0110485698104664 0.37020203490817022 0 0.030791954022628121 0.35992204026770391 0 0.0110485698104664 0.37020203490817022 0 0.030791954022628121 0.35992204026770391 0 0.020566722179648139 0.35104650284176669 0 0.031111443784629891 0.34255301256300902 0 0.020566722179648139 0.35104650284176669 0 0.0075496215121450732 0.35125409775595628 0 0.0110485698104664 0.37020203490817022 0 0.020566722179648139 0.35104650284176669 0 0.0075496215121450732 0.35125409775595628 0 0.011687549334469371 0.33546397949879081 0 -0.0037159310536072801 0.34554266446969478 0 0.0075496215121450732 0.35125409775595628 0 0.011687549334469371 0.33546397949879081 0 0.0075496215121450732 0.35125409775595628 0 0.0011584182775674981 0.35598493204216519 0 0.0110485698104664 0.37020203490817022 0 -0.0037159310536072801 0.34554266446969478 0 0.0075496215121450732 0.35125409775595628 0 0.0011584182775674981 0.35598493204216519 0 -0.010248587158733309 0.35694093103483832 0 0.0011584182775674981 0.35598493204216519 0 0.0110485698104664 0.37020203490817022 0 -0.0069912071363726069 0.37959499451103501 0 0.0110485698104664 0.37020203490817022 0 -0.010248587158733309 0.35694093103483832 0 0.0110485698104664 0.37020203490817022 0 -0.0010507322556096851 0.36898430484526562 0 -0.0069912071363726069 0.37959499451103501 0 0.0110485698104664 0.37020203490817022 0 0.0058365437179024784 0.32056342995326098 0 0.011687549334469371 0.33546397949879081 0 0.027747473245249059 0.32339682401128711 0 -0.01097707269742047 0.33176609503759752 0 0.0058365437179024784 0.32056342995326098 0 0.011687549334469371 0.33546397949879081 0 0.020566722179648139 0.35104650284176669 0 0.011687549334469371 0.33546397949879081 0 0.031111443784629891 0.34255301256300902 0 0.011687549334469371 0.33546397949879081 0 0.031111443784629891 0.34255301256300902 0 0.011687549334469371 0.33546397949879081 0 0.031111443784629891 0.34255301256300902 0 0.027747473245249059 0.32339682401128711 0 0.0058365437179024784 0.32056342995326098 0 0.027747473245249059 0.32339682401128711 0 0.014850983715421999 0.30739751617113081 0 0.027747473245249059 0.32339682401128711 0 0.048667156019367309 0.32163477827052428 0 0.036392170711023332 0.3059471770637352 0 0.027747473245249059 0.32339682401128711 0 0.044398710554399111 0.33630118185955282 0 0.048667156019367309 0.32163477827052428 0 0.031111443784629891 0.34255301256300902 0 0.027747473245249059 0.32339682401128711 0 0.044398710554399111 0.33630118185955282 0 0.050535338234787917 0.349642045627234 0 0.031111443784629891 0.34255301256300902 0 0.044398710554399111 0.33630118185955282 0 0.066892704216812315 0.34112508456218782 0 0.050535338234787917 0.349642045627234 0 0.056709191557820303 0.33261810404757741 0 0.050535338234787917 0.349642045627234 0 0.044398710554399111 0.33630118185955282 0 0.056709191557820303 0.33261810404757741 0 0.044398710554399111 0.33630118185955282 0 0.056709191557820303 0.33261810404757741 0 0.048667156019367309 0.32163477827052428 0 0.068030586914267069 0.32166274834729808 0 0.056709191557820303 0.33261810404757741 0 0.048667156019367309 0.32163477827052428 0 0.068030586914267069 0.32166274834729808 0 0.048667156019367309 0.32163477827052428 0 0.055623167629837482 0.30960632920808789 0 0.048667156019367309 0.32163477827052428 0 0.055623167629837482 0.30960632920808789 0 0.036392170711023332 0.3059471770637352 0 0.055623167629837482 0.30960632920808789 0 0.05300789145915575 0.29487294005080877 0 0.0724018543213924 0.3029441950469231 0 0.055623167629837482 0.30960632920808789 0 0.05300789145915575 0.29487294005080877 0 0.036392170711023332 0.3059471770637352 0 0.060414687732021577 0.28780314112514022 0 0.05300789145915575 0.29487294005080877 0 0.073169496873429149 0.30100458052462392 0 0.060414687732021577 0.28780314112514022 0 0.049991635655489239 0.28555490054880039 0 0.060362120670906599 0.27277868942214401 0 0.060414687732021577 0.28780314112514022 0 0.05300789145915575 0.29487294005080877 0 0.049991635655489239 0.28555490054880039 0 0.05300789145915575 0.29487294005080877 0 0.032846286044882177 0.28874129957699379 0 0.05300789145915575 0.29487294005080877 0 0.049991635655489239 0.28555490054880039 0 0.032846286044882177 0.28874129957699379 0 0.049991635655489239 0.28555490054880039 0 0.032846286044882177 0.28874129957699379 0 0.035812098662578749 0.27765709704069608 0 0.05300789145915575 0.29487294005080877 0 0.032846286044882177 0.28874129957699379 0 0.036392170711023332 0.3059471770637352 0 0.036392170711023332 0.3059471770637352 0 0.020303143330373259 0.29441260389177359 0 0.014850983715421999 0.30739751617113081 0 0.027747473245249059 0.32339682401128711 0 0.036392170711023332 0.3059471770637352 0 0.014850983715421999 0.30739751617113081 0 0.032846286044882177 0.28874129957699379 0 0.016582379474260039 0.28290155121740801 0 0.032846286044882177 0.28874129957699379 0 0.016582379474260039 0.28290155121740801 0 0.0248466678442999 0.27697906031594061 0 0.032846286044882177 0.28874129957699379 0 0.020303143330373259 0.29441260389177359 0 0.01118984795193308 0.28215504369107142 0 0.032846286044882177 0.28874129957699379 0 0.01118984795193308 0.28215504369107142 0 0.032846286044882177 0.28874129957699379 0 0.016582379474260039 0.28290155121740801 0 0.01118984795193308 0.28215504369107142 0 0.032846286044882177 0.28874129957699379 0 0.036392170711023332 0.3059471770637352 0 0.020303143330373259 0.29441260389177359 0 0.020303143330373259 0.29441260389177359 0 0.0079897030218612653 0.29341606875966952 0 0.01118984795193308 0.28215504369107142 0 0.0079897030218612653 0.29341606875966952 0 0.01118984795193308 0.28215504369107142 0 0.0010718695852379181 0.28551473104180147 0 -0.0044254824918266633 0.29091902391131591 0 0.0079897030218612653 0.29341606875966952 0 0.0010718695852379181 0.28551473104180147 0 -0.0088036474365049203 0.30899849761532328 0 0.0079897030218612653 0.29341606875966952 0 0.014850983715421999 0.30739751617113081 0 -0.0088036474365049203 0.30899849761532328 0 0.0058365437179024784 0.32056342995326098 0 0.014850983715421999 0.30739751617113081 0 0.020303143330373259 0.29441260389177359 0 0.0079897030218612653 0.29341606875966952 0 0.014850983715421999 0.30739751617113081 0 0.0074148653282896868 0.25533980714694521 0 0.0025876402662879292 0.27154251029758097 0 0.018626449421274512 0.26685675153591493 0 0.0025876402662879292 0.27154251029758097 0 0.014836052168708929 0.27566624598731859 0 0.018626449421274512 0.26685675153591493 0 -0.010466590141016009 0.27556878780514932 0 0.01118984795193308 0.28215504369107142 0 -0.010466590141016009 0.27556878780514932 0 0.01118984795193308 0.28215504369107142 0 0.0010718695852379181 0.28551473104180147 0 -0.010466590141016009 0.27556878780514932 0 0.01118984795193308 0.28215504369107142 0 0.0025876402662879292 0.27154251029758097 0 0.01118984795193308 0.28215504369107142 0 0.0025876402662879292 0.27154251029758097 0 0.014836052168708929 0.27566624598731859 0 0.016582379474260039 0.28290155121740801 0 0.01118984795193308 0.28215504369107142 0 0.014836052168708929 0.27566624598731859 0 0.014836052168708929 0.27566624598731859 0 0.018626449421274512 0.26685675153591493 0 0.0248466678442999 0.27697906031594061 0 0.016582379474260039 0.28290155121740801 0 0.014836052168708929 0.27566624598731859 0 0.0248466678442999 0.27697906031594061 0 0.032846286044882177 0.28874129957699379 0 0.0248466678442999 0.27697906031594061 0 0.035812098662578749 0.27765709704069608 0 0.0248466678442999 0.27697906031594061 0 0.030376741294094942 0.27005141653731207 0 0.035812098662578749 0.27765709704069608 0 0.018626449421274512 0.26685675153591493 0 0.0248466678442999 0.27697906031594061 0 0.030376741294094942 0.27005141653731207 0 0.0074148653282896868 0.25533980714694521 0 0.032355045176006542 0.25130317147106829 0 0.018626449421274512 0.26685675153591493 0 0.030376741294094942 0.27005141653731207 0 0.032355045176006542 0.25130317147106829 0 0.0074148653282896868 0.25533980714694521 0 0.018626449421274512 0.26685675153591493 0 0.032355045176006542 0.25130317147106829 0 0.030376741294094942 0.27005141653731207 0 0.032355045176006542 0.25130317147106829 0 0.03956951402187292 0.26846578252061309 0 0.032355045176006542 0.25130317147106829 0 0.03956951402187292 0.26846578252061309 0 0.04931204932119515 0.25776232700518847 0 0.049991635655489239 0.28555490054880039 0 0.035812098662578749 0.27765709704069608 0 0.03956951402187292 0.26846578252061309 0 0.049991635655489239 0.28555490054880039 0 0.03956951402187292 0.26846578252061309 0 0.04931204932119515 0.25776232700518847 0 0.030376741294094942 0.27005141653731207 0 0.035812098662578749 0.27765709704069608 0 0.03956951402187292 0.26846578252061309 0 0.049991635655489239 0.28555490054880039 0 0.04931204932119515 0.25776232700518847 0 0.049991635655489239 0.28555490054880039 0 0.060362120670906599 0.27277868942214401 0 0.04931204932119515 0.25776232700518847 0 0.060362120670906599 0.27277868942214401 0 0.04931204932119515 0.25776232700518847 0 0.064679514925013504 0.25672124119556489 0 0.075532211598518292 0.24513001871690099 0 0.064679514925013504 0.25672124119556489 0 0.082336374557758968 0.27135062790320852 0 0.075532211598518292 0.24513001871690099 0 0.082336374557758968 0.27135062790320852 0 0.099291887912012641 0.25448972756623273 0 0.075532211598518292 0.24513001871690099 0 0.082336374557758968 0.27135062790320852 0 0.082336374557758968 0.27135062790320852 0 0.099291887912012641 0.25448972756623273 0 0.096244038914466354 0.27715165413600512 0 0.060362120670906599 0.27277868942214401 0 0.064679514925013504 0.25672124119556489 0 0.082336374557758968 0.27135062790320852 0 0.060362120670906599 0.27277868942214401 0 0.082336374557758968 0.27135062790320852 0 0.069315929107764018 0.28453304263648488 0 0.060414687732021577 0.28780314112514022 0 0.069315929107764018 0.28453304263648488 0 0.073169496873429149 0.30100458052462392 0 0.069315929107764018 0.28453304263648488 0 0.073169496873429149 0.30100458052462392 0 0.078490584513987965 0.28861487203845843 0 0.082336374557758968 0.27135062790320852 0 0.069315929107764018 0.28453304263648488 0 0.078490584513987965 0.28861487203845843 0 0.060414687732021577 0.28780314112514022 0 0.060362120670906599 0.27277868942214401 0 0.069315929107764018 0.28453304263648488 0 0.05300789145915575 0.29487294005080877 0 0.0724018543213924 0.3029441950469231 0 0.05300789145915575 0.29487294005080877 0 0.073169496873429149 0.30100458052462392 0 0.0724018543213924 0.3029441950469231 0 0.05300789145915575 0.29487294005080877 0 0.073169496873429149 0.30100458052462392 0 0.068030586914267069 0.32166274834729808 0 0.0724018543213924 0.3029441950469231 0 0.09217963845964755 0.3100456427818874 0 0.068030586914267069 0.32166274834729808 0 0.055623167629837482 0.30960632920808789 0 0.0724018543213924 0.3029441950469231 0 0.0724018543213924 0.3029441950469231 0 0.09217963845964755 0.3100456427818874 0 0.073169496873429149 0.30100458052462392 0 0.093331102287702347 0.30713622099843962 0 0.073169496873429149 0.30100458052462392 0 0.089140537516999685 0.29757123708951622 0 0.093331102287702347 0.30713622099843962 0 0.073169496873429149 0.30100458052462392 0 0.0724018543213924 0.3029441950469231 0 0.09217963845964755 0.3100456427818874 0 0.073169496873429149 0.30100458052462392 0 0.093331102287702347 0.30713622099843962 0 0.09217963845964755 0.3100456427818874 0 0.093331102287702347 0.30713622099843962 0 0.09217963845964755 0.3100456427818874 0 0.073169496873429149 0.30100458052462392 0 0.089140537516999685 0.29757123708951622 0 0.078490584513987965 0.28861487203845843 0 0.082336374557758968 0.27135062790320852 0 0.089140537516999685 0.29757123708951622 0 0.096244038914466354 0.27715165413600512 0 0.082336374557758968 0.27135062790320852 0 0.089140537516999685 0.29757123708951622 0 0.078490584513987965 0.28861487203845843 0 0.082336374557758968 0.27135062790320852 0 0.089140537516999685 0.29757123708951622 0 0.089140537516999685 0.29757123708951622 0 0.099363422842462648 0.291894261677488 0 0.096244038914466354 0.27715165413600512 0 0.099363422842462648 0.291894261677488 0 0.1101392541057291 0.28298243693087288 0 0.1094511200570276 0.29387364612578359 0 0.099363422842462648 0.291894261677488 0 0.10745559460559551 0.30235885350038422 0 0.1094511200570276 0.29387364612578359 0 0.099363422842462648 0.291894261677488 0 0.1101392541057291 0.28298243693087288 0 0.096244038914466354 0.27715165413600512 0 0.1125413153204573 0.31735674411723258 0 0.093331102287702347 0.30713622099843962 0 0.09217963845964755 0.3100456427818874 0 0.1178495081892303 0.31459287174078809 0 0.093331102287702347 0.30713622099843962 0 0.10745559460559551 0.30235885350038422 0 0.1178495081892303 0.31459287174078809 0 0.093331102287702347 0.30713622099843962 0 0.093331102287702347 0.30713622099843962 0 0.099363422842462648 0.291894261677488 0 0.10745559460559551 0.30235885350038422 0 0.089140537516999685 0.29757123708951622 0 0.093331102287702347 0.30713622099843962 0 0.099363422842462648 0.291894261677488 0 0.093331102287702347 0.30713622099843962 0 0.099363422842462648 0.291894261677488 0 0.1178495081892303 0.31459287174078809 0 0.10745559460559551 0.30235885350038422 0 0.1172828196515532 0.3042972669594205 0 0.1172828196515532 0.3042972669594205 0 0.1094511200570276 0.29387364612578359 0 0.11970772717714009 0.29317966610405782 0 0.10745559460559551 0.30235885350038422 0 0.1172828196515532 0.3042972669594205 0 0.1094511200570276 0.29387364612578359 0 0.1172828196515532 0.3042972669594205 0 0.11970772717714009 0.29317966610405782 0 0.1272186647604133 0.30314794920483862 0 0.119825138903894 0.31356419940477948 0 0.1172828196515532 0.3042972669594205 0 0.1217752679739595 0.30804699475861658 0 0.1172828196515532 0.3042972669594205 0 0.1217752679739595 0.30804699475861658 0 0.1272186647604133 0.30314794920483862 0 0.1178495081892303 0.31459287174078809 0 0.119825138903894 0.31356419940477948 0 0.1172828196515532 0.3042972669594205 0 0.1217752679739595 0.30804699475861658 0 0.12568209524432369 0.3095757034189579 0 0.1272186647604133 0.30314794920483862 0 0.119825138903894 0.31356419940477948 0 0.1217752679739595 0.30804699475861658 0 0.12568209524432369 0.3095757034189579 0 0.1101392541057291 0.28298243693087288 0 0.11970772717714009 0.29317966610405782 0 0.13525718957574401 0.27747841001555251 0 0.1101392541057291 0.28298243693087288 0 0.1094511200570276 0.29387364612578359 0 0.11970772717714009 0.29317966610405782 0 0.11256619349644249 0.26867511312866299 0 0.1238201153911186 0.25476429287071212 0 0.13525718957574401 0.27747841001555251 0 0.1101392541057291 0.28298243693087288 0 0.11256619349644249 0.26867511312866299 0 0.13525718957574401 0.27747841001555251 0 0.11256619349644249 0.26867511312866299 0 0.1238201153911186 0.25476429287071212 0 0.099291887912012641 0.25448972756623273 0 0.1101392541057291 0.28298243693087288 0 0.11256619349644249 0.26867511312866299 0 0.096244038914466354 0.27715165413600512 0 0.11256619349644249 0.26867511312866299 0 0.099291887912012641 0.25448972756623273 0 0.096244038914466354 0.27715165413600512 0 0.153027937286699 0.27270085527932642 0 0.1429516111893297 0.2536596858764289 0 0.13525718957574401 0.27747841001555251 0 0.153027937286699 0.27270085527932642 0 0.13525718957574401 0.27747841001555251 0 0.15476433929073211 0.29021105298507238 0 0.16027138273763461 0.24852049756823641 0 0.153027937286699 0.27270085527932642 0 0.1429516111893297 0.2536596858764289 0 0.1238201153911186 0.25476429287071212 0 0.1429516111893297 0.2536596858764289 0 0.13525718957574401 0.27747841001555251 0 0.1429516111893297 0.2536596858764289 0 0.13525718957574401 0.27747841001555251 0 0.13525718957574401 0.27747841001555251 0 0.13064866747540921 0.2931565656180769 0 0.14041108838833929 0.29882023714785882 0 0.11970772717714009 0.29317966610405782 0 0.13525718957574401 0.27747841001555251 0 0.13064866747540921 0.2931565656180769 0 0.11970772717714009 0.29317966610405782 0 0.13064866747540921 0.2931565656180769 0 0.1272186647604133 0.30314794920483862 0 0.119825138903894 0.31356419940477948 0 0.12568209524432369 0.3095757034189579 0 0.13390930933902809 0.31354367030759722 0 0.12568209524432369 0.3095757034189579 0 0.1272186647604133 0.30314794920483862 0 0.13390930933902809 0.31354367030759722 0 0.13064866747540921 0.2931565656180769 0 0.1272186647604133 0.30314794920483862 0 0.14041108838833929 0.29882023714785882 0 0.14041108838833929 0.29882023714785882 0 0.1458526299430106 0.31045332304059758 0 0.13390930933902809 0.31354367030759722 0 0.1272186647604133 0.30314794920483862 0 0.14041108838833929 0.29882023714785882 0 0.13390930933902809 0.31354367030759722 0 0.14041108838833929 0.29882023714785882 0 0.1458526299430106 0.31045332304059758 0 0.154189434102915 0.30294098931348179 0 0.14041108838833929 0.29882023714785882 0 0.154189434102915 0.30294098931348179 0 0.15476433929073211 0.29021105298507238 0 0.1458526299430106 0.31045332304059758 0 0.154189434102915 0.30294098931348179 0 0.15486731341250121 0.31758217444256143 0 0.13525718957574401 0.27747841001555251 0 0.14041108838833929 0.29882023714785882 0 0.15476433929073211 0.29021105298507238 0 0.153027937286699 0.27270085527932642 0 0.15476433929073211 0.29021105298507238 0 0.16707257133420239 0.28151172981926431 0 0.15476433929073211 0.29021105298507238 0 0.16581495485090009 0.29668375460833918 0 0.16707257133420239 0.28151172981926431 0 0.154189434102915 0.30294098931348179 0 0.15476433929073211 0.29021105298507238 0 0.16581495485090009 0.29668375460833918 0 0.16581495485090009 0.29668375460833918 0 0.16707257133420239 0.28151172981926431 0 0.17922692163556109 0.29124211088952562 0 0.154189434102915 0.30294098931348179 0 0.1651926977233453 0.30986941492970499 0 0.15486731341250121 0.31758217444256143 0 0.154189434102915 0.30294098931348179 0 0.16581495485090009 0.29668375460833918 0 0.1651926977233453 0.30986941492970499 0 0.16581495485090009 0.29668375460833918 0 0.1651926977233453 0.30986941492970499 0 0.17444376501864459 0.30432722971298592 0 0.1860312289866653 0.30575375025263368 0 0.17922692163556109 0.29124211088952562 0 0.19530821561712661 0.2966276519550442 0 0.1651926977233453 0.30986941492970499 0 0.17444376501864459 0.30432722971298592 0 0.17719842914388589 0.3161403537372216 0 0.17444376501864459 0.30432722971298592 0 0.1860312289866653 0.30575375025263368 0 0.17719842914388589 0.3161403537372216 0 0.16581495485090009 0.29668375460833918 0 0.17444376501864459 0.30432722971298592 0 0.17922692163556109 0.29124211088952562 0 0.17444376501864459 0.30432722971298592 0 0.1860312289866653 0.30575375025263368 0 0.17922692163556109 0.29124211088952562 0 0.1860312289866653 0.30575375025263368 0 0.18748252318939609 0.3144556647215328 0 0.17719842914388589 0.3161403537372216 0 0.16707257133420239 0.28151172981926431 0 0.17922692163556109 0.29124211088952562 0 0.18286201578129169 0.27158397726513528 0 0.17922692163556109 0.29124211088952562 0 0.18286201578129169 0.27158397726513528 0 0.19518101930004589 0.28288299333580491 0 0.16707257133420239 0.28151172981926431 0 0.18286201578129169 0.27158397726513528 0 0.1679846664071652 0.264701863740683 0 0.153027937286699 0.27270085527932642 0 0.16707257133420239 0.28151172981926431 0 0.1679846664071652 0.264701863740683 0 0.16027138273763461 0.24852049756823641 0 0.1679846664071652 0.264701863740683 0 0.17975598754895639 0.25190851587712321 0 0.16027138273763461 0.24852049756823641 0 0.153027937286699 0.27270085527932642 0 0.1679846664071652 0.264701863740683 0 0.18286201578129169 0.27158397726513528 0 0.1679846664071652 0.264701863740683 0 0.17975598754895639 0.25190851587712321 0 0.18286201578129169 0.27158397726513528 0 0.17975598754895639 0.25190851587712321 0 0.19426584872998251 0.25955356177138039 0 0.19598785628627599 0.24272005074547559 0 0.17975598754895639 0.25190851587712321 0 0.19426584872998251 0.25955356177138039 0 0.19598785628627599 0.24272005074547559 0 0.19426584872998251 0.25955356177138039 0 0.21150090408747679 0.25988131833756462 0 0.19426584872998251 0.25955356177138039 0 0.20995341030257181 0.27815448037902479 0 0.19426584872998251 0.25955356177138039 0 0.19556557352847301 0.2730437531878363 0 0.20995341030257181 0.27815448037902479 0 0.18286201578129169 0.27158397726513528 0 0.19556557352847301 0.2730437531878363 0 0.19518101930004589 0.28288299333580491 0 0.18286201578129169 0.27158397726513528 0 0.19426584872998251 0.25955356177138039 0 0.19556557352847301 0.2730437531878363 0 0.19556557352847301 0.2730437531878363 0 0.20995341030257181 0.27815448037902479 0 0.19518101930004589 0.28288299333580491 0 0.19426584872998251 0.25955356177138039 0 0.20995341030257181 0.27815448037902479 0 0.20934033470669439 0.26700013536084111 0 0.20995341030257181 0.27815448037902479 0 0.20934033470669439 0.26700013536084111 0 0.21491496939863211 0.27023165793791792 0 0.20934033470669439 0.26700013536084111 0 0.21491496939863211 0.27023165793791792 0 0.2135325097406712 0.26491504000050342 0 0.21491496939863211 0.27023165793791792 0 0.2135325097406712 0.26491504000050342 0 0.21772669209547141 0.26391056310340938 0 0.20995341030257181 0.27815448037902479 0 0.21491496939863211 0.27023165793791792 0 0.22415354781568519 0.27666086919088179 0 0.19426584872998251 0.25955356177138039 0 0.20934033470669439 0.26700013536084111 0 0.21150090408747679 0.25988131833756462 0 0.19598785628627599 0.24272005074547559 0 0.21481155722116249 0.26106895731912361 0 0.19598785628627599 0.24272005074547559 0 0.21150090408747679 0.25988131833756462 0 0.21481155722116249 0.26106895731912361 0 0.19598785628627599 0.24272005074547559 0 0.21051771893646759 0.25000570199699779 0 0.21481155722116249 0.26106895731912361 0 0.21150090408747679 0.25988131833756462 0 0.21481155722116249 0.26106895731912361 0 0.21150090408747679 0.25988131833756462 0 0.21481155722116249 0.26106895731912361 0 0.2135325097406712 0.26491504000050342 0 0.20934033470669439 0.26700013536084111 0 0.21150090408747679 0.25988131833756462 0 0.2135325097406712 0.26491504000050342 0 0.21481155722116249 0.26106895731912361 0 0.2135325097406712 0.26491504000050342 0 0.21772669209547141 0.26391056310340938 0 0.21481155722116249 0.26106895731912361 0 0.21772669209547141 0.26391056310340938 0 0.21051771893646759 0.25000570199699779 0 0.21481155722116249 0.26106895731912361 0 0.21907377066557479 0.25114941779199362 0 0.21481155722116249 0.26106895731912361 0 0.21772669209547141 0.26391056310340938 0 0.2392154417651785 0.26982342461473668 0 0.21481155722116249 0.26106895731912361 0 0.21907377066557479 0.25114941779199362 0 0.23194065142920089 0.2521963531798696 0 0.21481155722116249 0.26106895731912361 0 0.23194065142920089 0.2521963531798696 0 0.2392154417651785 0.26982342461473668 0 0.21481155722116249 0.26106895731912361 0 0.2392154417651785 0.26982342461473668 0 0.21772669209547141 0.26391056310340938 0 0.22415354781568519 0.27666086919088179 0 0.2392154417651785 0.26982342461473668 0 0.21491496939863211 0.27023165793791792 0 0.21772669209547141 0.26391056310340938 0 0.22415354781568519 0.27666086919088179 0 0.22415354781568519 0.27666086919088179 0 0.2392154417651785 0.26982342461473668 0 0.23517122014118169 0.27933771856810552 0 0.2392154417651785 0.26982342461473668 0 0.24583514532629411 0.28195063267321319 0 0.26361932630919471 0.27857789191034887 0 0.2392154417651785 0.26982342461473668 0 0.23517122014118169 0.27933771856810552 0 0.24583514532629411 0.28195063267321319 0 0.23194065142920089 0.2521963531798696 0 0.2392154417651785 0.26982342461473668 0 0.25041249206326122 0.25574829785010778 0 0.2392154417651785 0.26982342461473668 0 0.25041249206326122 0.25574829785010778 0 0.25752762839395538 0.26561904713861689 0 0.2424161037481318 0.30021893965415047 0 0.22564097187516119 0.29675539898666919 0 0.2413285334477506 0.3153563175943136 0 0.2424161037481318 0.30021893965415047 0 0.2413285334477506 0.3153563175943136 0 0.2537091289638907 0.30533104555518092 0 0.23148074565756899 0.28891594779359042 0 0.26059283031444391 0.29350402674889292 0 0.24583514532629411 0.28195063267321319 0 0.23148074565756899 0.28891594779359042 0 0.26059283031444391 0.29350402674889292 0 0.2424161037481318 0.30021893965415047 0 0.23148074565756899 0.28891594779359042 0 0.26059283031444391 0.29350402674889292 0 0.23517122014118169 0.27933771856810552 0 0.24583514532629411 0.28195063267321319 0 0.23148074565756899 0.28891594779359042 0 0.2424161037481318 0.30021893965415047 0 0.23148074565756899 0.28891594779359042 0 0.22564097187516119 0.29675539898666919 0 0.22415354781568519 0.27666086919088179 0 0.23148074565756899 0.28891594779359042 0 0.22564097187516119 0.29675539898666919 0 0.20995341030257181 0.27815448037902479 0 0.22415354781568519 0.27666086919088179 0 0.22564097187516119 0.29675539898666919 0 0.22415354781568519 0.27666086919088179 0 0.23517122014118169 0.27933771856810552 0 0.23148074565756899 0.28891594779359042 0 0.22564097187516119 0.29675539898666919 0 0.21549816648562731 0.30487336475881222 0 0.2155555358353172 0.29595330375358991 0 0.22564097187516119 0.29675539898666919 0 0.22860942517437061 0.31070836057280399 0 0.2413285334477506 0.3153563175943136 0 0.22564097187516119 0.29675539898666919 0 0.2413285334477506 0.3153563175943136 0 0.22564097187516119 0.29675539898666919 0 0.22860942517437061 0.31070836057280399 0 0.21549816648562731 0.30487336475881222 0 0.22860942517437061 0.31070836057280399 0 0.21549816648562731 0.30487336475881222 0 0.20951606522016561 0.31742470924449262 0 0.21549816648562731 0.30487336475881222 0 0.20559790109563689 0.29774352364729778 0 0.2155555358353172 0.29595330375358991 0 0.21549816648562731 0.30487336475881222 0 0.20559790109563689 0.29774352364729778 0 0.2062842282068777 0.30783749868060811 0 0.2062842282068777 0.30783749868060811 0 0.19627772936107299 0.31178749698009472 0 0.20951606522016561 0.31742470924449262 0 0.21549816648562731 0.30487336475881222 0 0.2062842282068777 0.30783749868060811 0 0.20951606522016561 0.31742470924449262 0 0.20995341030257181 0.27815448037902479 0 0.22564097187516119 0.29675539898666919 0 0.20995341030257181 0.27815448037902479 0 0.2155555358353172 0.29595330375358991 0 0.2056642292412624 0.2896880441586025 0 0.20995341030257181 0.27815448037902479 0 0.22564097187516119 0.29675539898666919 0 0.2155555358353172 0.29595330375358991 0 0.20559790109563689 0.29774352364729778 0 0.2155555358353172 0.29595330375358991 0 0.2056642292412624 0.2896880441586025 0 0.20995341030257181 0.27815448037902479 0 0.2056642292412624 0.2896880441586025 0 0.19518101930004589 0.28288299333580491 0 0.17922692163556109 0.29124211088952562 0 0.19530821561712661 0.2966276519550442 0 0.19518101930004589 0.28288299333580491 0 0.20559790109563689 0.29774352364729778 0 0.2056642292412624 0.2896880441586025 0 0.19530821561712661 0.2966276519550442 0 0.2056642292412624 0.2896880441586025 0 0.19530821561712661 0.2966276519550442 0 0.19518101930004589 0.28288299333580491 0 0.2062842282068777 0.30783749868060811 0 0.19530821561712661 0.2966276519550442 0 0.19627772936107299 0.31178749698009472 0 0.20559790109563689 0.29774352364729778 0 0.2062842282068777 0.30783749868060811 0 0.19530821561712661 0.2966276519550442 0 0.1860312289866653 0.30575375025263368 0 0.19627772936107299 0.31178749698009472 0 0.18748252318939609 0.3144556647215328 0 0.1860312289866653 0.30575375025263368 0 0.19530821561712661 0.2966276519550442 0 0.19627772936107299 0.31178749698009472 0 0.19627772936107299 0.31178749698009472 0 0.1904227052659605 0.32414105791618131 0 0.18748252318939609 0.3144556647215328 0 0.19627772936107299 0.31178749698009472 0 0.1904227052659605 0.32414105791618131 0 0.20951606522016561 0.31742470924449262 0 0.1904227052659605 0.32414105791618131 0 0.20951606522016561 0.31742470924449262 0 0.1904227052659605 0.32414105791618131 0 0.20297255149785881 0.32932034003295418 0 0.20951606522016561 0.31742470924449262 0 0.1896087146167526 0.33641661273059509 0 0.2078880839217499 0.34197581887332562 0 0.19729996311596201 0.35147504856633982 0 0.1896087146167526 0.33641661273059509 0 0.2078880839217499 0.34197581887332562 0 0.1896087146167526 0.33641661273059509 0 0.20297255149785881 0.32932034003295418 0 0.2078880839217499 0.34197581887332562 0 0.1904227052659605 0.32414105791618131 0 0.1896087146167526 0.33641661273059509 0 0.20297255149785881 0.32932034003295418 0 0.2125735831834617 0.33553070230835891 0 0.21776176889077059 0.32440255820875441 0 0.2216719284234675 0.34642409211840153 0 0.20297255149785881 0.32932034003295418 0 0.2078880839217499 0.34197581887332562 0 0.2125735831834617 0.33553070230835891 0 0.20297255149785881 0.32932034003295418 0 0.2125735831834617 0.33553070230835891 0 0.21776176889077059 0.32440255820875441 0 0.2078880839217499 0.34197581887332562 0 0.2125735831834617 0.33553070230835891 0 0.2216719284234675 0.34642409211840153 0 0.22860942517437061 0.31070836057280399 0 0.20951606522016561 0.31742470924449262 0 0.21776176889077059 0.32440255820875441 0 0.20297255149785881 0.32932034003295418 0 0.20951606522016561 0.31742470924449262 0 0.21776176889077059 0.32440255820875441 0 0.22860942517437061 0.31070836057280399 0 0.21776176889077059 0.32440255820875441 0 0.22936916137237151 0.32252644671405362 0 0.22860942517437061 0.31070836057280399 0 0.20951606522016561 0.31742470924449262 0 0.22860942517437061 0.31070836057280399 0 0.22936916137237151 0.32252644671405362 0 0.2413285334477506 0.3153563175943136 0 0.21776176889077059 0.32440255820875441 0 0.22936916137237151 0.32252644671405362 0 0.22617767079526119 0.33168823013107351 0 0.21776176889077059 0.32440255820875441 0 0.2216719284234675 0.34642409211840153 0 0.2359078244944354 0.33339982348308439 0 0.2412990914882514 0.35120143111500279 0 0.2216719284234675 0.34642409211840153 0 0.21776176889077059 0.32440255820875441 0 0.22617767079526119 0.33168823013107351 0 0.2216719284234675 0.34642409211840153 0 0.22617767079526119 0.33168823013107351 0 0.2359078244944354 0.33339982348308439 0 0.2216719284234675 0.34642409211840153 0 0.22936916137237151 0.32252644671405362 0 0.22617767079526119 0.33168823013107351 0 0.2359078244944354 0.33339982348308439 0 0.2359078244944354 0.33339982348308439 0 0.2412990914882514 0.35120143111500279 0 0.25701609502034017 0.33395723620195777 0 0.2412990914882514 0.35120143111500279 0 0.25701609502034017 0.33395723620195777 0 0.2359078244944354 0.33339982348308439 0 0.2413285334477506 0.3153563175943136 0 0.25701609502034017 0.33395723620195777 0 0.22936916137237151 0.32252644671405362 0 0.2359078244944354 0.33339982348308439 0 0.2413285334477506 0.3153563175943136 0 0.2413285334477506 0.3153563175943136 0 0.25701609502034017 0.33395723620195777 0 0.24014234576893151 0.36845825997798543 0 0.2412990914882514 0.35120143111500279 0 0.22558208795616361 0.36844562602804881 0 0.24014234576893151 0.36845825997798543 0 0.24444972153630939 0.38311779761697501 0 0.26339358377937949 0.36879902999698327 0 0.24014234576893151 0.36845825997798543 0 0.22598724408455209 0.37072741513291729 0 0.24444972153630939 0.38311779761697501 0 0.24014234576893151 0.36845825997798543 0 0.2412990914882514 0.35120143111500279 0 0.26339358377937949 0.36879902999698327 0 0.2412990914882514 0.35120143111500279 0 0.2216719284234675 0.34642409211840153 0 0.22558208795616361 0.36844562602804881 0 0.2216719284234675 0.34642409211840153 0 0.22558208795616361 0.36844562602804881 0 0.21087270929301941 0.36058387575013412 0 0.2216719284234675 0.34642409211840153 0 0.22558208795616361 0.36844562602804881 0 0.2412990914882514 0.35120143111500279 0 0.22558208795616361 0.36844562602804881 0 0.24014234576893151 0.36845825997798543 0 0.22558208795616361 0.36844562602804881 0 0.22598724408455209 0.37072741513291729 0 0.22558208795616361 0.36844562602804881 0 0.21642798475041591 0.37848921605535402 0 0.22558208795616361 0.36844562602804881 0 0.22598724408455209 0.37072741513291729 0 0.21642798475041591 0.37848921605535402 0 0.22558208795616361 0.36844562602804881 0 0.22598724408455209 0.37072741513291729 0 0.22558208795616361 0.36844562602804881 0 0.21075959133370481 0.37038601357339218 0 0.21642798475041591 0.37848921605535402 0 0.22558208795616361 0.36844562602804881 0 0.21087270929301941 0.36058387575013412 0 0.21075959133370481 0.37038601357339218 0 0.22558208795616361 0.36844562602804881 0 0.21087270929301941 0.36058387575013412 0 0.21087270929301941 0.36058387575013412 0 0.21075959133370481 0.37038601357339218 0 0.2015205946293209 0.36465010387739932 0 0.21075959133370481 0.37038601357339218 0 0.2015205946293209 0.36465010387739932 0 0.20387815303948939 0.37774808935426157 0 0.2078880839217499 0.34197581887332562 0 0.2216719284234675 0.34642409211840153 0 0.21087270929301941 0.36058387575013412 0 0.2078880839217499 0.34197581887332562 0 0.21087270929301941 0.36058387575013412 0 0.19729996311596201 0.35147504856633982 0 0.21087270929301941 0.36058387575013412 0 0.19729996311596201 0.35147504856633982 0 0.21087270929301941 0.36058387575013412 0 0.19729996311596201 0.35147504856633982 0 0.2015205946293209 0.36465010387739932 0 0.1896087146167526 0.33641661273059509 0 0.19729996311596201 0.35147504856633982 0 0.18146164405683551 0.34675916687282798 0 0.19729996311596201 0.35147504856633982 0 0.1847925563644289 0.36305749214286842 0 0.18146164405683551 0.34675916687282798 0 0.2015205946293209 0.36465010387739932 0 0.1847925563644289 0.36305749214286842 0 0.20387815303948939 0.37774808935426157 0 0.19729996311596201 0.35147504856633982 0 0.2015205946293209 0.36465010387739932 0 0.1847925563644289 0.36305749214286842 0 0.1847925563644289 0.36305749214286842 0 0.18757748849221231 0.37853883725050619 0 0.20387815303948939 0.37774808935426157 0 0.1847925563644289 0.36305749214286842 0 0.20387815303948939 0.37774808935426157 0 0.1847925563644289 0.36305749214286842 0 0.1714155597174804 0.37680764288041441 0 0.18757748849221231 0.37853883725050619 0 0.1847925563644289 0.36305749214286842 0 0.16673980197220101 0.36429352109669749 0 0.1714155597174804 0.37680764288041441 0 0.16673980197220101 0.36429352109669749 0 0.15623899053102169 0.37368350073778989 0 0.1714155597174804 0.37680764288041441 0 0.16673980197220101 0.36429352109669749 0 0.15623899053102169 0.37368350073778989 0 0.15586787055097551 0.36184193595926062 0 0.16673980197220101 0.36429352109669749 0 0.1657069596893686 0.34836689493147532 0 0.15586787055097551 0.36184193595926062 0 0.1847925563644289 0.36305749214286842 0 0.1657069596893686 0.34836689493147532 0 0.1847925563644289 0.36305749214286842 0 0.1657069596893686 0.34836689493147532 0 0.18146164405683551 0.34675916687282798 0 0.1847925563644289 0.36305749214286842 0 0.16673980197220101 0.36429352109669749 0 0.1657069596893686 0.34836689493147532 0 0.1896087146167526 0.33641661273059509 0 0.18146164405683551 0.34675916687282798 0 0.17132934531175451 0.33085740658786711 0 0.1896087146167526 0.33641661273059509 0 0.17132934531175451 0.33085740658786711 0 0.1904227052659605 0.32414105791618131 0 0.1896087146167526 0.33641661273059509 0 0.17132934531175451 0.33085740658786711 0 0.1657069596893686 0.34836689493147532 0 0.18146164405683551 0.34675916687282798 0 0.17132934531175451 0.33085740658786711 0 0.1904227052659605 0.32414105791618131 0 0.17132934531175451 0.33085740658786711 0 0.1904227052659605 0.32414105791618131 0 0.17719842914388589 0.3161403537372216 0 0.17132934531175451 0.33085740658786711 0 0.1904227052659605 0.32414105791618131 0 0.18748252318939609 0.3144556647215328 0 0.17719842914388589 0.3161403537372216 0 0.17719842914388589 0.3161403537372216 0 0.1671469463978717 0.31861233742433881 0 0.17132934531175451 0.33085740658786711 0 0.17132934531175451 0.33085740658786711 0 0.15486731341250121 0.31758217444256143 0 0.14458942675049299 0.3227251391643251 0 0.1671469463978717 0.31861233742433881 0 0.17132934531175451 0.33085740658786711 0 0.15486731341250121 0.31758217444256143 0 0.17132934531175451 0.33085740658786711 0 0.14458942675049299 0.3227251391643251 0 0.1651926977233453 0.30986941492970499 0 0.17719842914388589 0.3161403537372216 0 0.1671469463978717 0.31861233742433881 0 0.1651926977233453 0.30986941492970499 0 0.1671469463978717 0.31861233742433881 0 0.15486731341250121 0.31758217444256143 0 0.17132934531175451 0.33085740658786711 0 0.15469937748755469 0.33670722362238797 0 0.14458942675049299 0.3227251391643251 0 0.17132934531175451 0.33085740658786711 0 0.15469937748755469 0.33670722362238797 0 0.1657069596893686 0.34836689493147532 0 0.17132934531175451 0.33085740658786711 0 0.15469937748755469 0.33670722362238797 0 0.1657069596893686 0.34836689493147532 0 0.1466213630143082 0.33367629772008223 0 0.14222603886475119 0.34469463166537712 0 0.1657069596893686 0.34836689493147532 0 0.15469937748755469 0.33670722362238797 0 0.1466213630143082 0.33367629772008223 0 0.1657069596893686 0.34836689493147532 0 0.1466213630143082 0.33367629772008223 0 0.15469937748755469 0.33670722362238797 0 0.1466213630143082 0.33367629772008223 0 0.14458942675049299 0.3227251391643251 0 0.1466213630143082 0.33367629772008223 0 0.14458942675049299 0.3227251391643251 0 0.1382690321755739 0.32954419684240271 0 0.1466213630143082 0.33367629772008223 0 0.13333023971779409 0.33735718067811221 0 0.14222603886475119 0.34469463166537712 0 0.1458526299430106 0.31045332304059758 0 0.14458942675049299 0.3227251391643251 0 0.13390930933902809 0.31354367030759722 0 0.1458526299430106 0.31045332304059758 0 0.15486731341250121 0.31758217444256143 0 0.14458942675049299 0.3227251391643251 0 0.1178495081892303 0.31459287174078809 0 0.14458942675049299 0.3227251391643251 0 0.13390930933902809 0.31354367030759722 0 0.1178495081892303 0.31459287174078809 0 0.14458942675049299 0.3227251391643251 0 0.13058597441058231 0.32383589276846259 0 0.1178495081892303 0.31459287174078809 0 0.14458942675049299 0.3227251391643251 0 0.14458942675049299 0.3227251391643251 0 0.13058597441058231 0.32383589276846259 0 0.1382690321755739 0.32954419684240271 0 0.13333023971779409 0.33735718067811221 0 0.1255955125629282 0.34704084004977581 0 0.14222603886475119 0.34469463166537712 0 0.13058597441058231 0.32383589276846259 0 0.13333023971779409 0.33735718067811221 0 0.1382690321755739 0.32954419684240271 0 0.1466213630143082 0.33367629772008223 0 0.13333023971779409 0.33735718067811221 0 0.1382690321755739 0.32954419684240271 0 0.1240675302768615 0.3350351489434979 0 0.13058597441058231 0.32383589276846259 0 0.13333023971779409 0.33735718067811221 0 0.1240675302768615 0.3350351489434979 0 0.13333023971779409 0.33735718067811221 0 0.1255955125629282 0.34704084004977581 0 0.1205517780632667 0.36291387531152092 0 0.1255955125629282 0.34704084004977581 0 0.1333406618337272 0.3596969599631949 0 0.1255955125629282 0.34704084004977581 0 0.1333406618337272 0.3596969599631949 0 0.14222603886475119 0.34469463166537712 0 0.1205517780632667 0.36291387531152092 0 0.1333406618337272 0.3596969599631949 0 0.12662500232711851 0.37688587143617253 0 0.1333406618337272 0.3596969599631949 0 0.14366387521360069 0.36770781284556692 0 0.12662500232711851 0.37688587143617253 0 0.1333406618337272 0.3596969599631949 0 0.14366387521360069 0.36770781284556692 0 0.1469897253486856 0.35515795018477342 0 0.14366387521360069 0.36770781284556692 0 0.15623899053102169 0.37368350073778989 0 0.14361457322240601 0.38298252353538192 0 0.14366387521360069 0.36770781284556692 0 0.15623899053102169 0.37368350073778989 0 0.15586787055097551 0.36184193595926062 0 0.14366387521360069 0.36770781284556692 0 0.15586787055097551 0.36184193595926062 0 0.1469897253486856 0.35515795018477342 0 0.1657069596893686 0.34836689493147532 0 0.14222603886475119 0.34469463166537712 0 0.1469897253486856 0.35515795018477342 0 0.1657069596893686 0.34836689493147532 0 0.15586787055097551 0.36184193595926062 0 0.1469897253486856 0.35515795018477342 0 0.1333406618337272 0.3596969599631949 0 0.14222603886475119 0.34469463166537712 0 0.1469897253486856 0.35515795018477342 0 0.14442209792773911 0.39608038152251301 0 0.15410804512188711 0.40440626911678013 0 0.13873659738259411 0.41076625703484809 0 0.14442209792773911 0.39608038152251301 0 0.15410804512188711 0.40440626911678013 0 0.15922105911417839 0.38969971534064468 0 0.15623899053102169 0.37368350073778989 0 0.14361457322240601 0.38298252353538192 0 0.15922105911417839 0.38969971534064468 0 0.14442209792773911 0.39608038152251301 0 0.14361457322240601 0.38298252353538192 0 0.15922105911417839 0.38969971534064468 0 0.11947874349952591 0.39062430912746088 0 0.12662500232711851 0.37688587143617253 0 0.13151641422077751 0.39383785932960408 0 0.14366387521360069 0.36770781284556692 0 0.14361457322240601 0.38298252353538192 0 0.12662500232711851 0.37688587143617253 0 0.14361457322240601 0.38298252353538192 0 0.12662500232711851 0.37688587143617253 0 0.13151641422077751 0.39383785932960408 0 0.14442209792773911 0.39608038152251301 0 0.13151641422077751 0.39383785932960408 0 0.13873659738259411 0.41076625703484809 0 0.12007696768576211 0.40459465373442299 0 0.13151641422077751 0.39383785932960408 0 0.13873659738259411 0.41076625703484809 0 0.14442209792773911 0.39608038152251301 0 0.14361457322240601 0.38298252353538192 0 0.13151641422077751 0.39383785932960408 0 0.122062438569231 0.42088052023847522 0 0.12007696768576211 0.40459465373442299 0 0.13873659738259411 0.41076625703484809 0 0.117941283131712 0.43676093648858377 0 0.122062438569231 0.42088052023847522 0 0.14327711709286001 0.43771067679944869 0 0.122062438569231 0.42088052023847522 0 0.13873659738259411 0.41076625703484809 0 0.14327711709286001 0.43771067679944869 0 0.15718982254159861 0.41861001561874012 0 0.14327711709286001 0.43771067679944869 0 0.13873659738259411 0.41076625703484809 0 0.15718982254159861 0.41861001561874012 0 0.14327711709286001 0.43771067679944869 0 0.15410804512188711 0.40440626911678013 0 0.13873659738259411 0.41076625703484809 0 0.15718982254159861 0.41861001561874012 0 0.15718982254159861 0.41861001561874012 0 0.16824144196992361 0.40329710457670959 0 0.15718982254159861 0.41861001561874012 0 0.1864845164000227 0.41824078442546919 0 0.15410804512188711 0.40440626911678013 0 0.15718982254159861 0.41861001561874012 0 0.16824144196992361 0.40329710457670959 0 0.15718982254159861 0.41861001561874012 0 0.1864845164000227 0.41824078442546919 0 0.16824144196992361 0.40329710457670959 0 0.15718982254159861 0.41861001561874012 0 0.1720837962743941 0.43799269780173472 0 0.14327711709286001 0.43771067679944869 0 0.15718982254159861 0.41861001561874012 0 0.1864845164000227 0.41824078442546919 0 0.1720837962743941 0.43799269780173472 0 0.1864845164000227 0.41824078442546919 0 0.2012700720711437 0.43717913281290532 0 0.1720837962743941 0.43799269780173472 0 0.1864845164000227 0.41824078442546919 0 0.18605301318597711 0.40105723000827842 0 0.16824144196992361 0.40329710457670959 0 0.18605301318597711 0.40105723000827842 0 0.16824144196992361 0.40329710457670959 0 0.17933020273991379 0.38801113664054743 0 0.18605301318597711 0.40105723000827842 0 0.17933020273991379 0.38801113664054743 0 0.19444658070508899 0.39030130399430618 0 0.16824144196992361 0.40329710457670959 0 0.17933020273991379 0.38801113664054743 0 0.16824144196992361 0.40329710457670959 0 0.15922105911417839 0.38969971534064468 0 0.17933020273991379 0.38801113664054743 0 0.15410804512188711 0.40440626911678013 0 0.16824144196992361 0.40329710457670959 0 0.15922105911417839 0.38969971534064468 0 0.15922105911417839 0.38969971534064468 0 0.1714155597174804 0.37680764288041441 0 0.17933020273991379 0.38801113664054743 0 0.15623899053102169 0.37368350073778989 0 0.15922105911417839 0.38969971534064468 0 0.1714155597174804 0.37680764288041441 0 0.1714155597174804 0.37680764288041441 0 0.17933020273991379 0.38801113664054743 0 0.18757748849221231 0.37853883725050619 0 0.17933020273991379 0.38801113664054743 0 0.18757748849221231 0.37853883725050619 0 0.19444658070508899 0.39030130399430618 0 0.18757748849221231 0.37853883725050619 0 0.19444658070508899 0.39030130399430618 0 0.20387815303948939 0.37774808935426157 0 0.19444658070508899 0.39030130399430618 0 0.20810521341092991 0.39233460440991719 0 0.20387815303948939 0.37774808935426157 0 0.18605301318597711 0.40105723000827842 0 0.19444658070508899 0.39030130399430618 0 0.20170850260908721 0.40280003220029448 0 0.19444658070508899 0.39030130399430618 0 0.20170850260908721 0.40280003220029448 0 0.20810521341092991 0.39233460440991719 0 0.20170850260908721 0.40280003220029448 0 0.20810521341092991 0.39233460440991719 0 0.21488385319536649 0.40073167150583888 0 0.20810521341092991 0.39233460440991719 0 0.21488385319536649 0.40073167150583888 0 0.22296374971454991 0.39243868656565489 0 0.20810521341092991 0.39233460440991719 0 0.20387815303948939 0.37774808935426157 0 0.22296374971454991 0.39243868656565489 0 0.20387815303948939 0.37774808935426157 0 0.22296374971454991 0.39243868656565489 0 0.20387815303948939 0.37774808935426157 0 0.21642798475041591 0.37848921605535402 0 0.22296374971454991 0.39243868656565489 0 0.21075959133370481 0.37038601357339218 0 0.20387815303948939 0.37774808935426157 0 0.21642798475041591 0.37848921605535402 0 0.22598724408455209 0.37072741513291729 0 0.2300679330917581 0.39370934990960782 0 0.22598724408455209 0.37072741513291729 0 0.22296374971454991 0.39243868656565489 0 0.2300679330917581 0.39370934990960782 0 0.22598724408455209 0.37072741513291729 0 0.21642798475041591 0.37848921605535402 0 0.22296374971454991 0.39243868656565489 0 0.22598724408455209 0.37072741513291729 0 0.2300679330917581 0.39370934990960782 0 0.23508457114960241 0.38546124993792902 0 0.22490257122504431 0.40241857713478851 0 0.2300679330917581 0.39370934990960782 0 0.23416057814595109 0.41763987392427132 0 0.2300679330917581 0.39370934990960782 0 0.23416057814595109 0.41763987392427132 0 0.22296374971454991 0.39243868656565489 0 0.22490257122504431 0.40241857713478851 0 0.2300679330917581 0.39370934990960782 0 0.2300679330917581 0.39370934990960782 0 0.23610704898293891 0.40168112182392679 0 0.23416057814595109 0.41763987392427132 0 0.21488385319536649 0.40073167150583888 0 0.22296374971454991 0.39243868656565489 0 0.22490257122504431 0.40241857713478851 0 0.21488385319536649 0.40073167150583888 0 0.22490257122504431 0.40241857713478851 0 0.2224486980245835 0.40852189300654218 0 0.2300679330917581 0.39370934990960782 0 0.23907910919033409 0.39359058581027068 0 0.23610704898293891 0.40168112182392679 0 0.2300679330917581 0.39370934990960782 0 0.23907910919033409 0.39359058581027068 0 0.23508457114960241 0.38546124993792902 0 0.23907910919033409 0.39359058581027068 0 0.2411325315507003 0.40273326688953082 0 0.23610704898293891 0.40168112182392679 0 0.24872500074723769 0.3974812430383749 0 0.24608380884993791 0.40909379172907018 0 0.25441959360159738 0.40685119695269722 0 0.2411325315507003 0.40273326688953082 0 0.24872500074723769 0.3974812430383749 0 0.24608380884993791 0.40909379172907018 0 0.23907910919033409 0.39359058581027068 0 0.24872500074723769 0.3974812430383749 0 0.24444972153630939 0.38311779761697501 0 0.23907910919033409 0.39359058581027068 0 0.2411325315507003 0.40273326688953082 0 0.24872500074723769 0.3974812430383749 0 0.22598724408455209 0.37072741513291729 0 0.24444972153630939 0.38311779761697501 0 0.23508457114960241 0.38546124993792902 0 0.22598724408455209 0.37072741513291729 0 0.24444972153630939 0.38311779761697501 0 0.23907910919033409 0.39359058581027068 0 0.24444972153630939 0.38311779761697501 0 0.23508457114960241 0.38546124993792902 0 0.24133261195975181 0.42953986077644868 0 0.2450739041168708 0.41750232203892751 0 0.2302455910305363 0.42724097355777091 0 0.24133261195975181 0.42953986077644868 0 0.24623972287212009 0.4373901105229524 0 0.23243412288361079 0.44009936500365882 0 0.24133261195975181 0.42953986077644868 0 0.2302455910305363 0.42724097355777091 0 0.23243412288361079 0.44009936500365882 0 0.24133261195975181 0.42953986077644868 0 0.24623972287212009 0.4373901105229524 0 0.25178025415180533 0.42874150640751629 0 0.24133261195975181 0.42953986077644868 0 0.2450739041168708 0.41750232203892751 0 0.25178025415180533 0.42874150640751629 0 0.2411325315507003 0.40273326688953082 0 0.23610704898293891 0.40168112182392679 0 0.23416057814595109 0.41763987392427132 0 0.2450739041168708 0.41750232203892751 0 0.24608380884993791 0.40909379172907018 0 0.25441959360159738 0.40685119695269722 0 0.2411325315507003 0.40273326688953082 0 0.24608380884993791 0.40909379172907018 0 0.23416057814595109 0.41763987392427132 0 0.2450739041168708 0.41750232203892751 0 0.23416057814595109 0.41763987392427132 0 0.2450739041168708 0.41750232203892751 0 0.24608380884993791 0.40909379172907018 0 0.23416057814595109 0.41763987392427132 0 0.2450739041168708 0.41750232203892751 0 0.23416057814595109 0.41763987392427132 0 0.2302455910305363 0.42724097355777091 0 0.23416057814595109 0.41763987392427132 0 0.21577921025844679 0.41787155323219838 0 0.23416057814595109 0.41763987392427132 0 0.2224486980245835 0.40852189300654218 0 0.21577921025844679 0.41787155323219838 0 0.23416057814595109 0.41763987392427132 0 0.2302455910305363 0.42724097355777091 0 0.21577921025844679 0.41787155323219838 0 0.22490257122504431 0.40241857713478851 0 0.23416057814595109 0.41763987392427132 0 0.2224486980245835 0.40852189300654218 0 0.2302455910305363 0.42724097355777091 0 0.21885507969522719 0.43396222775004362 0 0.21577921025844679 0.41787155323219838 0 0.2302455910305363 0.42724097355777091 0 0.21885507969522719 0.43396222775004362 0 0.23243412288361079 0.44009936500365882 0 0.21885507969522719 0.43396222775004362 0 0.21577921025844679 0.41787155323219838 0 0.2012700720711437 0.43717913281290532 0 0.20170850260908721 0.40280003220029448 0 0.21488385319536649 0.40073167150583888 0 0.21577921025844679 0.41787155323219838 0 0.21488385319536649 0.40073167150583888 0 0.2224486980245835 0.40852189300654218 0 0.21577921025844679 0.41787155323219838 0 0.1864845164000227 0.41824078442546919 0 0.20170850260908721 0.40280003220029448 0 0.21577921025844679 0.41787155323219838 0 0.1864845164000227 0.41824078442546919 0 0.21577921025844679 0.41787155323219838 0 0.1864845164000227 0.41824078442546919 0 0.18605301318597711 0.40105723000827842 0 0.20170850260908721 0.40280003220029448 0 0.1864845164000227 0.41824078442546919 0 0.21577921025844679 0.41787155323219838 0 0.2012700720711437 0.43717913281290532 0 0.2012700720711437 0.43717913281290532 0 0.18871276050333169 0.4543636699089395 0 0.20778857034855391 0.45973537676050791 0 0.18871276050333169 0.4543636699089395 0 0.20778857034855391 0.45973537676050791 0 0.18886386578949729 0.47660156902703688 0 0.20778857034855391 0.45973537676050791 0 0.2300465213966571 0.46008887828476919 0 0.2166312790650963 0.47969054820382567 0 0.20778857034855391 0.45973537676050791 0 0.21802006160315821 0.44753025999911822 0 0.2300465213966571 0.46008887828476919 0 0.2012700720711437 0.43717913281290532 0 0.20778857034855391 0.45973537676050791 0 0.21802006160315821 0.44753025999911822 0 0.21885507969522719 0.43396222775004362 0 0.2012700720711437 0.43717913281290532 0 0.21802006160315821 0.44753025999911822 0 0.21885507969522719 0.43396222775004362 0 0.21802006160315821 0.44753025999911822 0 0.23243412288361079 0.44009936500365882 0 0.21802006160315821 0.44753025999911822 0 0.23243412288361079 0.44009936500365882 0 0.2300465213966571 0.46008887828476919 0 0.2300465213966571 0.46008887828476919 0 0.24181541500971351 0.48166039239621489 0 0.25090601031089588 0.46117239009210292 0 0.2300465213966571 0.46008887828476919 0 0.2443279425364728 0.44882629490681691 0 0.25090601031089588 0.46117239009210292 0 0.23243412288361079 0.44009936500365882 0 0.2300465213966571 0.46008887828476919 0 0.2443279425364728 0.44882629490681691 0 0.24623972287212009 0.4373901105229524 0 0.23243412288361079 0.44009936500365882 0 0.2443279425364728 0.44882629490681691 0 0.24181541500971351 0.48166039239621489 0 0.22892914501865849 0.5 0 0.25834428386249808 0.5 0 0.24181541500971351 0.48166039239621489 0 0.25697965267103662 0.47612805052319568 0 0.25090601031089588 0.46117239009210292 0 0.2300465213966571 0.46008887828476919 0 0.24181541500971351 0.48166039239621489 0 0.2166312790650963 0.47969054820382567 0 0.24181541500971351 0.48166039239621489 0 0.22892914501865849 0.5 0 0.2166312790650963 0.47969054820382567 0 0.22892914501865849 0.5 0 0.2166312790650963 0.47969054820382567 0 0.19951400617481879 0.5 0 0.20778857034855391 0.45973537676050791 0 0.2166312790650963 0.47969054820382567 0 0.18886386578949729 0.47660156902703688 0 0.2166312790650963 0.47969054820382567 0 0.18886386578949729 0.47660156902703688 0 0.19951400617481879 0.5 0 0.18886386578949729 0.47660156902703688 0 0.19951400617481879 0.5 0 0.1700988673309792 0.5 0 0.18886386578949729 0.47660156902703688 0 0.1700988673309792 0.5 0 0.16347957297401269 0.48220988385877472 0 0.1700988673309792 0.5 0 0.16347957297401269 0.48220988385877472 0 0.1406837284871397 0.5 0 0.16347957297401269 0.48220988385877472 0 0.1716047251769541 0.46243220092769421 0 0.1461466780854932 0.47201564933914258 0 0.18886386578949729 0.47660156902703688 0 0.16347957297401269 0.48220988385877472 0 0.1716047251769541 0.46243220092769421 0 0.18871276050333169 0.4543636699089395 0 0.18886386578949729 0.47660156902703688 0 0.1716047251769541 0.46243220092769421 0 0.18871276050333169 0.4543636699089395 0 0.1720837962743941 0.43799269780173472 0 0.1716047251769541 0.46243220092769421 0 0.2012700720711437 0.43717913281290532 0 0.18871276050333169 0.4543636699089395 0 0.1720837962743941 0.43799269780173472 0 0.1720837962743941 0.43799269780173472 0 0.1716047251769541 0.46243220092769421 0 0.1527582948821723 0.45483007168929429 0 0.1716047251769541 0.46243220092769421 0 0.1527582948821723 0.45483007168929429 0 0.1461466780854932 0.47201564933914258 0 0.1527582948821723 0.45483007168929429 0 0.12940155298578651 0.45683828108602542 0 0.1461466780854932 0.47201564933914258 0 0.1527582948821723 0.45483007168929429 0 0.14327711709286001 0.43771067679944869 0 0.12940155298578651 0.45683828108602542 0 0.1720837962743941 0.43799269780173472 0 0.1527582948821723 0.45483007168929429 0 0.14327711709286001 0.43771067679944869 0 0.117941283131712 0.43676093648858377 0 0.14327711709286001 0.43771067679944869 0 0.12940155298578651 0.45683828108602542 0 0.14327711709286001 0.43771067679944869 0 0.12940155298578651 0.45683828108602542 0 0.11805385294840549 0.47394573846252008 0 0.12940155298578651 0.45683828108602542 0 0.1461466780854932 0.47201564933914258 0 0.11805385294840549 0.47394573846252008 0 0.1406837284871397 0.5 0 0.1461466780854932 0.47201564933914258 0 0.16347957297401269 0.48220988385877472 0 0.1406837284871397 0.5 0 0.1461466780854932 0.47201564933914258 0 0.3457111908122939 0.5 0 0.36214122073924332 0.47948473646354178 0 0.38352314359405237 0.5 0 0.36214122073924332 0.47948473646354178 0 0.35128627118415268 0.46520657725031261 0 0.33776972071383549 0.48108187943403402 0 0.3457111908122939 0.5 0 0.36214122073924332 0.47948473646354178 0 0.33776972071383549 0.48108187943403402 0 0.36214122073924332 0.47948473646354178 0 0.36829402711433962 0.45952442118189191 0 0.38526262550558699 0.47101952891944437 0 0.36214122073924332 0.47948473646354178 0 0.36829402711433962 0.45952442118189191 0 0.35128627118415268 0.46520657725031261 0 0.3743094794027777 0.44141886908352918 0 0.34750201812642278 0.44619675257846347 0 0.36829402711433962 0.45952442118189191 0 0.3743094794027777 0.44141886908352918 0 0.34750201812642278 0.44619675257846347 0 0.3743094794027777 0.44141886908352918 0 0.34750201812642278 0.44619675257846347 0 0.36073274538358902 0.42524122214578952 0 0.36829402711433962 0.45952442118189191 0 0.34750201812642278 0.44619675257846347 0 0.35128627118415268 0.46520657725031261 0 0.34750201812642278 0.44619675257846347 0 0.35128627118415268 0.46520657725031261 0 0.33617710118896799 0.46351613811959108 0 0.34750201812642278 0.44619675257846347 0 0.35128627118415268 0.46520657725031261 0 0.34750201812642278 0.44619675257846347 0 0.33617710118896799 0.46351613811959108 0 0.32515438879956648 0.45017976194332088 0 0.34750201812642278 0.44619675257846347 0 0.32515438879956648 0.45017976194332088 0 0.34750201812642278 0.44619675257846347 0 0.33308432255951842 0.43759594912358157 0 0.32515438879956648 0.45017976194332088 0 0.32515438879956648 0.45017976194332088 0 0.30280675947270957 0.45416277130817673 0 0.33308432255951842 0.43759594912358157 0 0.32515438879956648 0.45017976194332088 0 0.3165085502756052 0.44131008079446998 0 0.32515438879956648 0.45017976194332088 0 0.3165085502756052 0.44131008079446998 0 0.30280675947270957 0.45416277130817673 0 0.33617710118896799 0.46351613811959108 0 0.32515438879956648 0.45017976194332088 0 0.31917310712086228 0.47491571939182481 0 0.32515438879956648 0.45017976194332088 0 0.31917310712086228 0.47491571939182481 0 0.30695839197183078 0.4670859551235873 0 0.33617710118896799 0.46351613811959108 0 0.31917310712086228 0.47491571939182481 0 0.33776972071383549 0.48108187943403402 0 0.35128627118415268 0.46520657725031261 0 0.33617710118896799 0.46351613811959108 0 0.33776972071383549 0.48108187943403402 0 0.3457111908122939 0.5 0 0.33776972071383549 0.48108187943403402 0 0.31717456155017743 0.50000000000000122 0 0.31917310712086228 0.47491571939182481 0 0.33776972071383549 0.48108187943403402 0 0.31717456155017743 0.50000000000000122 0 0.31717456155017743 0.50000000000000122 0 0.29508504447041661 0.48705746336403583 0 0.31717456155017743 0.50000000000000122 0 0.29508504447041661 0.48705746336403583 0 0.28775942270633781 0.5 0 0.31917310712086228 0.47491571939182481 0 0.31717456155017743 0.50000000000000122 0 0.29508504447041661 0.48705746336403583 0 0.29257265999559873 0.46911405961057812 0 0.29508504447041661 0.48705746336403583 0 0.30695839197183078 0.4670859551235873 0 0.31917310712086228 0.47491571939182481 0 0.29508504447041661 0.48705746336403583 0 0.30695839197183078 0.4670859551235873 0 0.29508504447041661 0.48705746336403583 0 0.28018404378420758 0.48716778945454842 0 0.27299552739065619 0.47411492672806937 0 0.29508504447041661 0.48705746336403583 0 0.27299552739065619 0.47411492672806937 0 0.29257265999559873 0.46911405961057812 0 0.27299552739065619 0.47411492672806937 0 0.28041692604931362 0.46530049357702302 0 0.29257265999559873 0.46911405961057812 0 0.29508504447041661 0.48705746336403583 0 0.27299552739065619 0.47411492672806937 0 0.29508504447041661 0.48705746336403583 0 0.28775942270633781 0.5 0 0.28018404378420758 0.48716778945454842 0 0.28775942270633781 0.5 0 0.28018404378420758 0.48716778945454842 0 0.25834428386249808 0.5 0 0.28018404378420758 0.48716778945454842 0 0.26712587692709971 0.4843526916764534 0 0.25834428386249808 0.5 0 0.27299552739065619 0.47411492672806937 0 0.26712587692709971 0.4843526916764534 0 0.25697965267103662 0.47612805052319568 0 0.28018404378420758 0.48716778945454842 0 0.27299552739065619 0.47411492672806937 0 0.26712587692709971 0.4843526916764534 0 0.27299552739065619 0.47411492672806937 0 0.25697965267103662 0.47612805052319568 0 0.25090601031089588 0.46117239009210292 0 0.26712587692709971 0.4843526916764534 0 0.25697965267103662 0.47612805052319568 0 0.25834428386249808 0.5 0 0.24181541500971351 0.48166039239621489 0 0.25697965267103662 0.47612805052319568 0 0.25834428386249808 0.5 0 0.24623972287212009 0.4373901105229524 0 0.2443279425364728 0.44882629490681691 0 0.26201333521907999 0.44538073063060102 0 0.2443279425364728 0.44882629490681691 0 0.26201333521907999 0.44538073063060102 0 0.25090601031089588 0.46117239009210292 0 0.26201333521907999 0.44538073063060102 0 0.25090601031089588 0.46117239009210292 0 0.26420296248606251 0.46555050736351411 0 0.27299552739065619 0.47411492672806937 0 0.25090601031089588 0.46117239009210292 0 0.26420296248606251 0.46555050736351411 0 0.27299552739065619 0.47411492672806937 0 0.25090601031089588 0.46117239009210292 0 0.26420296248606251 0.46555050736351411 0 0.28041692604931362 0.46530049357702302 0 0.28357021262751991 0.4533903909739686 0 0.26420296248606251 0.46555050736351411 0 0.28357021262751991 0.4533903909739686 0 0.26201333521907999 0.44538073063060102 0 0.26420296248606251 0.46555050736351411 0 0.28357021262751991 0.4533903909739686 0 0.27299552739065619 0.47411492672806937 0 0.26420296248606251 0.46555050736351411 0 0.28041692604931362 0.46530049357702302 0 0.26201333521907999 0.44538073063060102 0 0.28357021262751991 0.4533903909739686 0 0.27342239730516088 0.43286394374295412 0 0.28357021262751991 0.4533903909739686 0 0.30280675947270957 0.45416277130817673 0 0.30293746276897721 0.4412302745844231 0 0.28357021262751991 0.4533903909739686 0 0.30293746276897721 0.4412302745844231 0 0.28766779881245341 0.43659946608072048 0 0.28357021262751991 0.4533903909739686 0 0.28766779881245341 0.43659946608072048 0 0.27342239730516088 0.43286394374295412 0 0.28357021262751991 0.4533903909739686 0 0.30293746276897721 0.4412302745844231 0 0.29257265999559873 0.46911405961057812 0 0.28041692604931362 0.46530049357702302 0 0.28357021262751991 0.4533903909739686 0 0.29257265999559873 0.46911405961057812 0 0.28357021262751991 0.4533903909739686 0 0.30280675947270957 0.45416277130817673 0 0.32515438879956648 0.45017976194332088 0 0.30280675947270957 0.45416277130817673 0 0.30695839197183078 0.4670859551235873 0 0.29257265999559873 0.46911405961057812 0 0.30280675947270957 0.45416277130817673 0 0.30695839197183078 0.4670859551235873 0 0.3165085502756052 0.44131008079446998 0 0.30280675947270957 0.45416277130817673 0 0.30293746276897721 0.4412302745844231 0 0.30293746276897721 0.4412302745844231 0 0.30608759016190129 0.42461676814035021 0 0.32230471291043439 0.4290701581948777 0 0.30293746276897721 0.4412302745844231 0 0.30608759016190129 0.42461676814035021 0 0.29496712084355042 0.42834831413111768 0 0.30608759016190129 0.42461676814035021 0 0.2931471689791324 0.41543354328631149 0 0.29496712084355042 0.42834831413111768 0 0.30492026956544538 0.41344295786826052 0 0.31318580580843902 0.4005582955029735 0 0.31522422600011518 0.41754718941588959 0 0.30608759016190129 0.42461676814035021 0 0.30492026956544538 0.41344295786826052 0 0.31522422600011518 0.41754718941588959 0 0.30608759016190129 0.42461676814035021 0 0.30492026956544538 0.41344295786826052 0 0.2931471689791324 0.41543354328631149 0 0.30492026956544538 0.41344295786826052 0 0.2931471689791324 0.41543354328631149 0 0.29938044690406268 0.40182233676021062 0 0.2931471689791324 0.41543354328631149 0 0.28293972927991079 0.40803746101862343 0 0.28890013010477522 0.39860806351054628 0 0.2931471689791324 0.41543354328631149 0 0.28534862941913203 0.4259260645042291 0 0.27753866115536352 0.41638505528004172 0 0.2931471689791324 0.41543354328631149 0 0.28293972927991079 0.40803746101862343 0 0.27753866115536352 0.41638505528004172 0 0.29496712084355042 0.42834831413111768 0 0.28534862941913203 0.4259260645042291 0 0.28766779881245341 0.43659946608072048 0 0.30293746276897721 0.4412302745844231 0 0.29496712084355042 0.42834831413111768 0 0.28766779881245341 0.43659946608072048 0 0.2931471689791324 0.41543354328631149 0 0.29496712084355042 0.42834831413111768 0 0.28534862941913203 0.4259260645042291 0 0.28534862941913203 0.4259260645042291 0 0.28766779881245341 0.43659946608072048 0 0.27342239730516088 0.43286394374295412 0 0.26201333521907999 0.44538073063060102 0 0.27342239730516088 0.43286394374295412 0 0.26246276710357308 0.42044445536581648 0 0.28534862941913203 0.4259260645042291 0 0.27342239730516088 0.43286394374295412 0 0.27753866115536352 0.41638505528004172 0 0.27342239730516088 0.43286394374295412 0 0.27753866115536352 0.41638505528004172 0 0.26246276710357308 0.42044445536581648 0 0.27753866115536352 0.41638505528004172 0 0.26246276710357308 0.42044445536581648 0 0.27217295688037241 0.40172318199759388 0 0.28293972927991079 0.40803746101862343 0 0.27753866115536352 0.41638505528004172 0 0.27217295688037241 0.40172318199759388 0 0.26246276710357308 0.42044445536581648 0 0.26291219898806689 0.39550818010103223 0 0.26246276710357308 0.42044445536581648 0 0.25441959360159738 0.40685119695269722 0 0.26291219898806689 0.39550818010103223 0 0.2450739041168708 0.41750232203892751 0 0.26246276710357308 0.42044445536581648 0 0.25441959360159738 0.40685119695269722 0 0.2450739041168708 0.41750232203892751 0 0.26246276710357308 0.42044445536581648 0 0.25178025415180533 0.42874150640751629 0 0.24623972287212009 0.4373901105229524 0 0.26201333521907999 0.44538073063060102 0 0.25178025415180533 0.42874150640751629 0 0.26201333521907999 0.44538073063060102 0 0.26246276710357308 0.42044445536581648 0 0.25178025415180533 0.42874150640751629 0 0.26201333521907999 0.44538073063060102 0 0.26246276710357308 0.42044445536581648 0 0.24444972153630939 0.38311779761697501 0 0.26291219898806689 0.39550818010103223 0 0.26339358377937949 0.36879902999698327 0 0.26291219898806689 0.39550818010103223 0 0.26339358377937949 0.36879902999698327 0 0.24444972153630939 0.38311779761697501 0 0.26291219898806689 0.39550818010103223 0 0.24872500074723769 0.3974812430383749 0 0.24444972153630939 0.38311779761697501 0 0.26291219898806689 0.39550818010103223 0 0.24872500074723769 0.3974812430383749 0 0.25441959360159738 0.40685119695269722 0 0.26291219898806689 0.39550818010103223 0 0.27217295688037241 0.40172318199759388 0 0.27768455334976722 0.38455682591965362 0 0.28890013010477522 0.39860806351054628 0 0.26246276710357308 0.42044445536581648 0 0.26291219898806689 0.39550818010103223 0 0.27217295688037241 0.40172318199759388 0 0.26291219898806689 0.39550818010103223 0 0.27217295688037241 0.40172318199759388 0 0.27768455334976722 0.38455682591965362 0 0.26291219898806689 0.39550818010103223 0 0.27217295688037241 0.40172318199759388 0 0.26291219898806689 0.39550818010103223 0 0.27768455334976722 0.38455682591965362 0 0.26339358377937949 0.36879902999698327 0 0.27768455334976722 0.38455682591965362 0 0.29674886006252188 0.38106882363296091 0 0.28031191431660479 0.36157935176294842 0 0.27768455334976722 0.38455682591965362 0 0.29674886006252188 0.38106882363296091 0 0.28890013010477522 0.39860806351054628 0 0.2931471689791324 0.41543354328631149 0 0.28890013010477522 0.39860806351054628 0 0.29938044690406268 0.40182233676021062 0 0.29674886006252188 0.38106882363296091 0 0.28890013010477522 0.39860806351054628 0 0.29938044690406268 0.40182233676021062 0 0.28293972927991079 0.40803746101862343 0 0.27217295688037241 0.40172318199759388 0 0.28890013010477522 0.39860806351054628 0 0.29674886006252188 0.38106882363296091 0 0.29938044690406268 0.40182233676021062 0 0.31318580580843902 0.4005582955029735 0 0.29674886006252188 0.38106882363296091 0 0.31318580580843902 0.4005582955029735 0 0.30492026956544538 0.41344295786826052 0 0.29938044690406268 0.40182233676021062 0 0.31318580580843902 0.4005582955029735 0 0.29674886006252188 0.38106882363296091 0 0.31682324237024678 0.38305869718054197 0 0.31318580580843902 0.4005582955029735 0 0.29674886006252188 0.38106882363296091 0 0.31682324237024678 0.38305869718054197 0 0.31613702598528182 0.36550275225387657 0 0.31682324237024678 0.38305869718054197 0 0.33334975825481722 0.37510426093863192 0 0.32869692814592588 0.39417226949377587 0 0.33334975825481722 0.37510426093863192 0 0.33742451003099427 0.39557337747623023 0 0.32869692814592588 0.39417226949377587 0 0.33334975825481722 0.37510426093863192 0 0.33742451003099427 0.39557337747623023 0 0.33334975825481722 0.37510426093863192 0 0.33742451003099427 0.39557337747623023 0 0.35046653803769767 0.38496752075864138 0 0.33742451003099427 0.39557337747623023 0 0.33012039171832119 0.40545235033025961 0 0.34167196305189163 0.41691004180533209 0 0.33742451003099427 0.39557337747623023 0 0.34167196305189163 0.41691004180533209 0 0.33742451003099427 0.39557337747623023 0 0.32869692814592588 0.39417226949377587 0 0.33742451003099427 0.39557337747623023 0 0.32869692814592588 0.39417226949377587 0 0.33012039171832119 0.40545235033025961 0 0.32869692814592588 0.39417226949377587 0 0.33012039171832119 0.40545235033025961 0 0.31318580580843902 0.4005582955029735 0 0.31682324237024678 0.38305869718054197 0 0.32869692814592588 0.39417226949377587 0 0.31318580580843902 0.4005582955029735 0 0.31318580580843902 0.4005582955029735 0 0.32962275155435611 0.4200477673729861 0 0.33012039171832119 0.40545235033025961 0 0.31318580580843902 0.4005582955029735 0 0.32962275155435611 0.4200477673729861 0 0.31318580580843902 0.4005582955029735 0 0.31522422600011518 0.41754718941588959 0 0.32962275155435611 0.4200477673729861 0 0.30608759016190129 0.42461676814035021 0 0.31522422600011518 0.41754718941588959 0 0.32230471291043439 0.4290701581948777 0 0.3165085502756052 0.44131008079446998 0 0.30293746276897721 0.4412302745844231 0 0.32230471291043439 0.4290701581948777 0 0.33308432255951842 0.43759594912358157 0 0.3165085502756052 0.44131008079446998 0 0.32230471291043439 0.4290701581948777 0 0.30293746276897721 0.4412302745844231 0 0.32230471291043439 0.4290701581948777 0 0.31522422600011518 0.41754718941588959 0 0.32230471291043439 0.4290701581948777 0 0.32962275155435611 0.4200477673729861 0 0.33308432255951842 0.43759594912358157 0 0.32230471291043439 0.4290701581948777 0 0.34167196305189163 0.41691004180533209 0 0.32230471291043439 0.4290701581948777 0 0.34167196305189163 0.41691004180533209 0 0.34750201812642278 0.44619675257846347 0 0.33308432255951842 0.43759594912358157 0 0.34167196305189163 0.41691004180533209 0 0.32230471291043439 0.4290701581948777 0 0.32962275155435611 0.4200477673729861 0 0.34167196305189163 0.41691004180533209 0 0.33012039171832119 0.40545235033025961 0 0.32962275155435611 0.4200477673729861 0 0.34167196305189163 0.41691004180533209 0 0.34167196305189163 0.41691004180533209 0 0.35477101027879532 0.40868554231738807 0 0.36073274538358902 0.42524122214578952 0 0.34167196305189163 0.41691004180533209 0 0.35477101027879532 0.40868554231738807 0 0.33742451003099427 0.39557337747623023 0 0.34167196305189163 0.41691004180533209 0 0.35477101027879532 0.40868554231738807 0 0.34750201812642278 0.44619675257846347 0 0.34167196305189163 0.41691004180533209 0 0.36073274538358902 0.42524122214578952 0 0.34750201812642278 0.44619675257846347 0 0.34167196305189163 0.41691004180533209 0 0.3743094794027777 0.44141886908352918 0 0.36073274538358902 0.42524122214578952 0 0.3763592520470786 0.42479472203755991 0 0.36707907253383792 0.41217890445561312 0 0.37566229745402768 0.40171199294788501 0 0.3763592520470786 0.42479472203755991 0 0.35477101027879532 0.40868554231738807 0 0.36073274538358902 0.42524122214578952 0 0.36707907253383792 0.41217890445561312 0 0.36073274538358902 0.42524122214578952 0 0.36707907253383792 0.41217890445561312 0 0.3763592520470786 0.42479472203755991 0 0.35477101027879532 0.40868554231738807 0 0.36707907253383792 0.41217890445561312 0 0.36787005750569962 0.40046104282944489 0 0.36707907253383792 0.41217890445561312 0 0.36787005750569962 0.40046104282944489 0 0.37566229745402768 0.40171199294788501 0 0.36787005750569962 0.40046104282944489 0 0.37566229745402768 0.40171199294788501 0 0.36787005750569962 0.40046104282944489 0 0.37543805146477988 0.39570932605470122 0 0.37566229745402768 0.40171199294788501 0 0.36787005750569962 0.40046104282944489 0 0.35264728376834681 0.39801721015283831 0 0.35477101027879532 0.40868554231738807 0 0.36787005750569962 0.40046104282944489 0 0.36787005750569962 0.40046104282944489 0 0.36135913662598063 0.39309479253388929 0 0.35264728376834681 0.39801721015283831 0 0.36787005750569962 0.40046104282944489 0 0.36135913662598063 0.39309479253388929 0 0.37543805146477988 0.39570932605470122 0 0.36787005750569962 0.40046104282944489 0 0.37543805146477988 0.39570932605470122 0 0.36277520816600523 0.38145529184230259 0 0.37465817558104719 0.36845606293736999 0 0.37543805146477988 0.39570932605470122 0 0.36135913662598063 0.39309479253388929 0 0.36277520816600523 0.38145529184230259 0 0.37543805146477988 0.39570932605470122 0 0.36135913662598063 0.39309479253388929 0 0.36277520816600523 0.38145529184230259 0 0.35046653803769767 0.38496752075864138 0 0.36277520816600523 0.38145529184230259 0 0.35046653803769767 0.38496752075864138 0 0.35343257257533989 0.36896648994732129 0 0.33334975825481722 0.37510426093863192 0 0.35046653803769767 0.38496752075864138 0 0.35343257257533989 0.36896648994732129 0 0.33742451003099427 0.39557337747623023 0 0.35477101027879532 0.40868554231738807 0 0.35264728376834681 0.39801721015283831 0 0.33742451003099427 0.39557337747623023 0 0.35264728376834681 0.39801721015283831 0 0.33742451003099427 0.39557337747623023 0 0.35046653803769767 0.38496752075864138 0 0.35264728376834681 0.39801721015283831 0 0.35477101027879532 0.40868554231738807 0 0.36787005750569962 0.40046104282944489 0 0.35264728376834681 0.39801721015283831 0 0.36135913662598063 0.39309479253388929 0 0.35046653803769767 0.38496752075864138 0 0.35264728376834681 0.39801721015283831 0 0.35535158214149237 0.34711375910502462 0 0.34399417327098009 0.35670204410195733 0 0.35343257257533989 0.36896648994732129 0 0.35535158214149237 0.34711375910502462 0 0.34399417327098009 0.35670204410195733 0 0.33981281438998068 0.34280919752210243 0 0.35535158214149237 0.34711375910502462 0 0.35343257257533989 0.36896648994732129 0 0.37465817558104719 0.36845606293736999 0 0.36277520816600523 0.38145529184230259 0 0.35343257257533989 0.36896648994732129 0 0.37465817558104719 0.36845606293736999 0 0.35535158214149237 0.34711375910502462 0 0.37465817558104719 0.36845606293736999 0 0.35535158214149237 0.34711375910502462 0 0.37465817558104719 0.36845606293736999 0 0.37383050535097379 0.3410441082894427 0 0.37465817558104719 0.36845606293736999 0 0.37383050535097379 0.3410441082894427 0 0.35535158214149237 0.34711375910502462 0 0.37383050535097379 0.3410441082894427 0 0.36063790970900239 0.32745569680488718 0 0.3730028351209001 0.31363215364151559 0 0.36063790970900239 0.32745569680488718 0 0.3565919252299094 0.30835825190564969 0 0.37383050535097379 0.3410441082894427 0 0.3730028351209001 0.31363215364151559 0 0.36063790970900239 0.32745569680488718 0 0.37383050535097379 0.3410441082894427 0 0.3730028351209001 0.31363215364151559 0 0.36063790970900239 0.32745569680488718 0 0.34441270070173652 0.32713021108280321 0 0.3565919252299094 0.30835825190564969 0 0.34441270070173652 0.32713021108280321 0 0.34151845904840372 0.31006978665906237 0 0.3565919252299094 0.30835825190564969 0 0.35535158214149237 0.34711375910502462 0 0.36063790970900239 0.32745569680488718 0 0.34441270070173652 0.32713021108280321 0 0.35535158214149237 0.34711375910502462 0 0.34441270070173652 0.32713021108280321 0 0.33981281438998068 0.34280919752210243 0 0.34441270070173652 0.32713021108280321 0 0.33981281438998068 0.34280919752210243 0 0.32520025470246261 0.33416602786343541 0 0.34441270070173652 0.32713021108280321 0 0.32777100569102968 0.31572094815443869 0 0.32520025470246261 0.33416602786343541 0 0.34441270070173652 0.32713021108280321 0 0.32777100569102968 0.31572094815443869 0 0.34151845904840372 0.31006978665906237 0 0.32777100569102968 0.31572094815443869 0 0.32520025470246261 0.33416602786343541 0 0.31214421777747259 0.32018890094159819 0 0.32777100569102968 0.31572094815443869 0 0.31214421777747259 0.32018890094159819 0 0.31201484036567689 0.30160816099197929 0 0.32520025470246261 0.33416602786343541 0 0.31518734908151319 0.34752388608946611 0 0.30385453624060987 0.33533352401223621 0 0.32520025470246261 0.33416602786343541 0 0.30385453624060987 0.33533352401223621 0 0.31214421777747259 0.32018890094159819 0 0.32520025470246261 0.33416602786343541 0 0.31518734908151319 0.34752388608946611 0 0.32927500647863978 0.35463514440103372 0 0.31518734908151319 0.34752388608946611 0 0.32927500647863978 0.35463514440103372 0 0.31613702598528182 0.36550275225387657 0 0.32520025470246261 0.33416602786343541 0 0.32927500647863978 0.35463514440103372 0 0.33981281438998068 0.34280919752210243 0 0.32520025470246261 0.33416602786343541 0 0.32927500647863978 0.35463514440103372 0 0.34399417327098009 0.35670204410195733 0 0.33981281438998068 0.34280919752210243 0 0.32927500647863978 0.35463514440103372 0 0.33334975825481722 0.37510426093863192 0 0.34399417327098009 0.35670204410195733 0 0.32927500647863978 0.35463514440103372 0 0.33334975825481722 0.37510426093863192 0 0.32927500647863978 0.35463514440103372 0 0.33334975825481722 0.37510426093863192 0 0.34399417327098009 0.35670204410195733 0 0.35343257257533989 0.36896648994732129 0 0.31682324237024678 0.38305869718054197 0 0.33334975825481722 0.37510426093863192 0 0.31613702598528182 0.36550275225387657 0 0.33334975825481722 0.37510426093863192 0 0.32927500647863978 0.35463514440103372 0 0.31613702598528182 0.36550275225387657 0 0.29674886006252188 0.38106882363296091 0 0.31613702598528182 0.36550275225387657 0 0.30193813371596312 0.35482683554105038 0 0.30193813371596312 0.35482683554105038 0 0.29075329236966441 0.34594040916034119 0 0.30385453624060987 0.33533352401223621 0 0.31518734908151319 0.34752388608946611 0 0.30193813371596312 0.35482683554105038 0 0.30385453624060987 0.33533352401223621 0 0.31518734908151319 0.34752388608946611 0 0.31613702598528182 0.36550275225387657 0 0.30193813371596312 0.35482683554105038 0 0.30193813371596312 0.35482683554105038 0 0.29075329236966441 0.34594040916034119 0 0.28031191431660479 0.36157935176294842 0 0.29075329236966441 0.34594040916034119 0 0.28031191431660479 0.36157935176294842 0 0.27878222064571012 0.34339241433443612 0 0.29674886006252188 0.38106882363296091 0 0.28031191431660479 0.36157935176294842 0 0.29674886006252188 0.38106882363296091 0 0.30193813371596312 0.35482683554105038 0 0.28031191431660479 0.36157935176294842 0 0.27768455334976722 0.38455682591965362 0 0.28031191431660479 0.36157935176294842 0 0.26339358377937949 0.36879902999698327 0 0.28031191431660479 0.36157935176294842 0 0.26387496857068959 0.34208987989293421 0 0.28031191431660479 0.36157935176294842 0 0.26339358377937949 0.36879902999698327 0 0.26387496857068959 0.34208987989293421 0 0.28031191431660479 0.36157935176294842 0 0.26387496857068959 0.34208987989293421 0 0.27878222064571012 0.34339241433443612 0 0.26339358377937949 0.36879902999698327 0 0.26387496857068959 0.34208987989293421 0 0.2412990914882514 0.35120143111500279 0 0.26339358377937949 0.36879902999698327 0 0.26387496857068959 0.34208987989293421 0 0.2413285334477506 0.3153563175943136 0 0.25555803907619912 0.32094450093211668 0 0.25701609502034017 0.33395723620195777 0 0.26416286883252421 0.32611602395274408 0 0.26434765168145552 0.31586353376645659 0 0.25555803907619912 0.32094450093211668 0 0.26416286883252421 0.32611602395274408 0 0.26434765168145552 0.31586353376645659 0 0.26416286883252421 0.32611602395274408 0 0.25555803907619912 0.32094450093211668 0 0.25701609502034017 0.33395723620195777 0 0.26434765168145552 0.31586353376645659 0 0.25647272698764728 0.31295676160520902 0 0.25555803907619912 0.32094450093211668 0 0.2413285334477506 0.3153563175943136 0 0.25647272698764728 0.31295676160520902 0 0.25555803907619912 0.32094450093211668 0 0.26416286883252421 0.32611602395274408 0 0.26387496857068959 0.34208987989293421 0 0.2412990914882514 0.35120143111500279 0 0.25701609502034017 0.33395723620195777 0 0.26387496857068959 0.34208987989293421 0 0.26416286883252421 0.32611602395274408 0 0.25701609502034017 0.33395723620195777 0 0.26387496857068959 0.34208987989293421 0 0.25701609502034017 0.33395723620195777 0 0.26387496857068959 0.34208987989293421 0 0.26416286883252421 0.32611602395274408 0 0.25701609502034017 0.33395723620195777 0 0.26416286883252421 0.32611602395274408 0 0.2727483485509471 0.33398792057257798 0 0.27755399558281929 0.32549522384625662 0 0.26416286883252421 0.32611602395274408 0 0.26387496857068959 0.34208987989293421 0 0.2727483485509471 0.33398792057257798 0 0.26387496857068959 0.34208987989293421 0 0.2727483485509471 0.33398792057257798 0 0.27878222064571012 0.34339241433443612 0 0.2727483485509471 0.33398792057257798 0 0.27878222064571012 0.34339241433443612 0 0.28656393961817761 0.33166841440086697 0 0.2727483485509471 0.33398792057257798 0 0.27755399558281929 0.32549522384625662 0 0.28656393961817761 0.33166841440086697 0 0.26416286883252421 0.32611602395274408 0 0.27755399558281929 0.32549522384625662 0 0.2769338919019218 0.31210406482847119 0 0.26416286883252421 0.32611602395274408 0 0.26434765168145552 0.31586353376645659 0 0.2769338919019218 0.31210406482847119 0 0.26416286883252421 0.32611602395274408 0 0.2769338919019218 0.31210406482847119 0 0.27755399558281929 0.32549522384625662 0 0.28446658998433427 0.31846518564603488 0 0.2769338919019218 0.31210406482847119 0 0.28446658998433427 0.31846518564603488 0 0.28758278952955868 0.30969526030991068 0 0.2769338919019218 0.31210406482847119 0 0.29666117535458342 0.31586789236602042 0 0.28656393961817761 0.33166841440086697 0 0.30385453624060987 0.33533352401223621 0 0.28446658998433427 0.31846518564603488 0 0.29666117535458342 0.31586789236602042 0 0.28656393961817761 0.33166841440086697 0 0.27755399558281929 0.32549522384625662 0 0.28446658998433427 0.31846518564603488 0 0.28656393961817761 0.33166841440086697 0 0.28446658998433427 0.31846518564603488 0 0.29666117535458342 0.31586789236602042 0 0.28758278952955868 0.30969526030991068 0 0.29075329236966441 0.34594040916034119 0 0.28656393961817761 0.33166841440086697 0 0.30385453624060987 0.33533352401223621 0 0.29075329236966441 0.34594040916034119 0 0.27878222064571012 0.34339241433443612 0 0.28656393961817761 0.33166841440086697 0 0.29666117535458342 0.31586789236602042 0 0.30385453624060987 0.33533352401223621 0 0.31214421777747259 0.32018890094159819 0 0.29666117535458342 0.31586789236602042 0 0.31214421777747259 0.32018890094159819 0 0.31201484036567689 0.30160816099197929 0 0.31201484036567689 0.30160816099197929 0 0.28970491497131839 0.29809210570419742 0 0.29666117535458342 0.31586789236602042 0 0.31201484036567689 0.30160816099197929 0 0.28970491497131839 0.29809210570419742 0 0.31201484036567689 0.30160816099197929 0 0.29795693071551871 0.28903825726368843 0 0.28970491497131839 0.29809210570419742 0 0.30949603969682798 0.28775047303773321 0 0.3026213234079414 0.28080833482280693 0 0.31392201806032038 0.27683354186659481 0 0.31201484036567689 0.30160816099197929 0 0.30949603969682798 0.28775047303773321 0 0.29795693071551871 0.28903825726368843 0 0.30949603969682798 0.28775047303773321 0 0.29795693071551871 0.28903825726368843 0 0.3026213234079414 0.28080833482280693 0 0.29795693071551871 0.28903825726368843 0 0.29440212329779691 0.27993536284663789 0 0.3026213234079414 0.28080833482280693 0 0.29795693071551871 0.28903825726368843 0 0.28802321085321109 0.28733235920596112 0 0.29440212329779691 0.27993536284663789 0 0.29795693071551871 0.28903825726368843 0 0.28802321085321109 0.28733235920596112 0 0.28970491497131839 0.29809210570419742 0 0.29795693071551871 0.28903825726368843 0 0.28970491497131839 0.29809210570419742 0 0.28802321085321109 0.28733235920596112 0 0.28970491497131839 0.29809210570419742 0 0.27548507061204203 0.2893765958923501 0 0.28802321085321109 0.28733235920596112 0 0.28410499807395218 0.27711232515385747 0 0.29440212329779691 0.27993536284663789 0 0.29666117535458342 0.31586789236602042 0 0.28970491497131839 0.29809210570419742 0 0.28758278952955868 0.30969526030991068 0 0.28970491497131839 0.29809210570419742 0 0.28758278952955868 0.30969526030991068 0 0.2769338919019218 0.31210406482847119 0 0.28970491497131839 0.29809210570419742 0 0.2769338919019218 0.31210406482847119 0 0.28970491497131839 0.29809210570419742 0 0.26716000368233378 0.30569294653244622 0 0.26059283031444391 0.29350402674889292 0 0.28970491497131839 0.29809210570419742 0 0.2769338919019218 0.31210406482847119 0 0.26716000368233378 0.30569294653244622 0 0.26434765168145552 0.31586353376645659 0 0.2769338919019218 0.31210406482847119 0 0.26716000368233378 0.30569294653244622 0 0.28802321085321109 0.28733235920596112 0 0.27548507061204203 0.2893765958923501 0 0.26361932630919471 0.27857789191034887 0 0.28802321085321109 0.28733235920596112 0 0.26361932630919471 0.27857789191034887 0 0.28970491497131839 0.29809210570419742 0 0.26059283031444391 0.29350402674889292 0 0.28970491497131839 0.29809210570419742 0 0.27548507061204203 0.2893765958923501 0 0.26059283031444391 0.29350402674889292 0 0.27548507061204203 0.2893765958923501 0 0.26059283031444391 0.29350402674889292 0 0.26361932630919471 0.27857789191034887 0 0.24583514532629411 0.28195063267321319 0 0.26059283031444391 0.29350402674889292 0 0.26361932630919471 0.27857789191034887 0 0.2424161037481318 0.30021893965415047 0 0.26059283031444391 0.29350402674889292 0 0.2537091289638907 0.30533104555518092 0 0.2413285334477506 0.3153563175943136 0 0.25647272698764728 0.31295676160520902 0 0.2537091289638907 0.30533104555518092 0 0.26434765168145552 0.31586353376645659 0 0.25647272698764728 0.31295676160520902 0 0.26716000368233378 0.30569294653244622 0 0.25647272698764728 0.31295676160520902 0 0.26716000368233378 0.30569294653244622 0 0.2537091289638907 0.30533104555518092 0 0.26716000368233378 0.30569294653244622 0 0.26059283031444391 0.29350402674889292 0 0.2537091289638907 0.30533104555518092 0 0.25041249206326122 0.25574829785010778 0 0.25752762839395538 0.26561904713861689 0 0.26575778900563951 0.25703322659721539 0 0.25752762839395538 0.26561904713861689 0 0.26863309282650322 0.26691239472067568 0 0.26575778900563951 0.25703322659721539 0 0.25041249206326122 0.25574829785010778 0 0.26575778900563951 0.25703322659721539 0 0.25976050777435111 0.24576734106427381 0 0.2392154417651785 0.26982342461473668 0 0.25752762839395538 0.26561904713861689 0 0.26361932630919471 0.27857789191034887 0 0.2392154417651785 0.26982342461473668 0 0.26361932630919471 0.27857789191034887 0 0.25752762839395538 0.26561904713861689 0 0.26361932630919471 0.27857789191034887 0 0.26863309282650322 0.26691239472067568 0 0.26361932630919471 0.27857789191034887 0 0.26863309282650322 0.26691239472067568 0 0.27855708147723451 0.27093590348604218 0 0.26361932630919471 0.27857789191034887 0 0.27855708147723451 0.27093590348604218 0 0.28410499807395218 0.27711232515385747 0 0.28802321085321109 0.28733235920596112 0 0.26361932630919471 0.27857789191034887 0 0.28410499807395218 0.27711232515385747 0 0.26863309282650322 0.26691239472067568 0 0.27855708147723451 0.27093590348604218 0 0.27822125856673208 0.25929863320419089 0 0.27822125856673208 0.25929863320419089 0 0.26575778900563951 0.25703322659721539 0 0.27263286715883522 0.24000648952790221 0 0.26863309282650322 0.26691239472067568 0 0.27822125856673208 0.25929863320419089 0 0.26575778900563951 0.25703322659721539 0 0.27822125856673208 0.25929863320419089 0 0.28757910298446082 0.25063161196160949 0 0.29592324843232359 0.26878010832029742 0 0.28757910298446082 0.25063161196160949 0 0.29592324843232359 0.26878010832029742 0 0.30261345906331061 0.25083718957487988 0 0.27855708147723451 0.27093590348604218 0 0.27822125856673208 0.25929863320419089 0 0.29592324843232359 0.26878010832029742 0 0.27855708147723451 0.27093590348604218 0 0.28410499807395218 0.27711232515385747 0 0.29592324843232359 0.26878010832029742 0 0.28410499807395218 0.27711232515385747 0 0.29592324843232359 0.26878010832029742 0 0.29440212329779691 0.27993536284663789 0 0.29592324843232359 0.26878010832029742 0 0.3026213234079414 0.28080833482280693 0 0.31392201806032038 0.27683354186659481 0 0.29592324843232359 0.26878010832029742 0 0.31159755753193541 0.2623769876244838 0 0.31392201806032038 0.27683354186659481 0 0.29592324843232359 0.26878010832029742 0 0.29440212329779691 0.27993536284663789 0 0.3026213234079414 0.28080833482280693 0 0.29592324843232359 0.26878010832029742 0 0.30261345906331061 0.25083718957487988 0 0.31159755753193541 0.2623769876244838 0 0.30261345906331061 0.25083718957487988 0 0.31159755753193541 0.2623769876244838 0 0.32348851209837898 0.25147081585919329 0 0.31159755753193541 0.2623769876244838 0 0.32348851209837898 0.25147081585919329 0 0.3268700080894516 0.26570910160696382 0 0.33863288663720092 0.25539617700511791 0 0.3268700080894516 0.26570910160696382 0 0.34609529774343772 0.26742644750367239 0 0.32348851209837898 0.25147081585919329 0 0.33863288663720092 0.25539617700511791 0 0.3268700080894516 0.26570910160696382 0 0.3268700080894516 0.26570910160696382 0 0.33303601952777001 0.28130366063030132 0 0.34609529774343772 0.26742644750367239 0 0.33303601952777001 0.28130366063030132 0 0.34609529774343772 0.26742644750367239 0 0.34692560760573898 0.27872813819414849 0 0.3268700080894516 0.26570910160696382 0 0.31392201806032038 0.27683354186659481 0 0.33303601952777001 0.28130366063030132 0 0.31159755753193541 0.2623769876244838 0 0.3268700080894516 0.26570910160696382 0 0.31392201806032038 0.27683354186659481 0 0.31201484036567689 0.30160816099197929 0 0.32026195751622311 0.28961210485405531 0 0.33201484067704912 0.29871138399114422 0 0.30949603969682798 0.28775047303773321 0 0.31392201806032038 0.27683354186659481 0 0.32026195751622311 0.28961210485405531 0 0.31392201806032038 0.27683354186659481 0 0.32026195751622311 0.28961210485405531 0 0.33303601952777001 0.28130366063030132 0 0.31201484036567689 0.30160816099197929 0 0.30949603969682798 0.28775047303773321 0 0.32026195751622311 0.28961210485405531 0 0.32777100569102968 0.31572094815443869 0 0.31201484036567689 0.30160816099197929 0 0.33201484067704912 0.29871138399114422 0 0.32777100569102968 0.31572094815443869 0 0.33201484067704912 0.29871138399114422 0 0.34151845904840372 0.31006978665906237 0 0.33201484067704912 0.29871138399114422 0 0.34151845904840372 0.31006978665906237 0 0.34680182294229372 0.30042813816127611 0 0.32026195751622311 0.28961210485405531 0 0.33201484067704912 0.29871138399114422 0 0.33303601952777001 0.28130366063030132 0 0.33201484067704912 0.29871138399114422 0 0.33303601952777001 0.28130366063030132 0 0.34626017199919301 0.28865685454308682 0 0.33201484067704912 0.29871138399114422 0 0.34626017199919301 0.28865685454308682 0 0.34680182294229372 0.30042813816127611 0 0.33303601952777001 0.28130366063030132 0 0.34626017199919301 0.28865685454308682 0 0.34692560760573898 0.27872813819414849 0 0.34626017199919301 0.28865685454308682 0 0.35962591799383892 0.27898921328230958 0 0.34692560760573898 0.27872813819414849 0 0.34626017199919301 0.28865685454308682 0 0.35569738019816899 0.29281267738517441 0 0.34680182294229372 0.30042813816127611 0 0.34626017199919301 0.28865685454308682 0 0.35569738019816899 0.29281267738517441 0 0.35962591799383892 0.27898921328230958 0 0.34151845904840372 0.31006978665906237 0 0.34680182294229372 0.30042813816127611 0 0.3565919252299094 0.30835825190564969 0 0.35569738019816899 0.29281267738517441 0 0.34680182294229372 0.30042813816127611 0 0.3565919252299094 0.30835825190564969 0 0.3730028351209001 0.31363215364151559 0 0.3565919252299094 0.30835825190564969 0 0.36920706282560989 0.28763092903354981 0 0.3565919252299094 0.30835825190564969 0 0.36920706282560989 0.28763092903354981 0 0.35569738019816899 0.29281267738517441 0 0.3565919252299094 0.30835825190564969 0 0.36920706282560989 0.28763092903354981 0 0.36920706282560989 0.28763092903354981 0 0.35962591799383892 0.27898921328230958 0 0.35569738019816899 0.29281267738517441 0 0.36920706282560989 0.28763092903354981 0 0.35962591799383892 0.27898921328230958 0 0.35962591799383892 0.27898921328230958 0 0.36628644780012432 0.26365857909097229 0 0.37779200888188169 0.27352541909376582 0 0.36920706282560989 0.28763092903354981 0 0.37779200888188169 0.27352541909376582 0 0.36920706282560989 0.28763092903354981 0 0.35962591799383892 0.27898921328230958 0 0.37779200888188169 0.27352541909376582 0 0.36628644780012432 0.26365857909097229 0 0.38637695493815499 0.25941990915398272 0 0.36903074781378592 0.24910711006666461 0 0.36628644780012432 0.26365857909097229 0 0.35377940830817178 0.25117155191046769 0 0.36903074781378592 0.24910711006666461 0 0.36628644780012432 0.26365857909097229 0 0.35377940830817178 0.25117155191046769 0 0.34609529774343772 0.26742644750367239 0 0.33863288663720092 0.25539617700511791 0 0.35377940830817178 0.25117155191046769 0 0.34609529774343772 0.26742644750367239 0 0.35962591799383892 0.27898921328230958 0 0.36628644780012432 0.26365857909097229 0 0.34609529774343772 0.26742644750367239 0 0.35962591799383892 0.27898921328230958 0 0.34609529774343772 0.26742644750367239 0 0.34692560760573898 0.27872813819414849 0 0.39295410604281161 0.27991797473582941 0 0.40173473535597981 0.2631618539842342 0 0.40910091382271119 0.2810354167289863 0 0.39295410604281161 0.27991797473582941 0 0.40173473535597981 0.2631618539842342 0 0.38637695493815499 0.25941990915398272 0 0.40173473535597981 0.2631618539842342 0 0.38637695493815499 0.25941990915398272 0 0.40099805188613491 0.23539669142163061 0 0.36628644780012432 0.26365857909097229 0 0.38637695493815499 0.25941990915398272 0 0.37779200888188169 0.27352541909376582 0 0.38637695493815499 0.25941990915398272 0 0.37779200888188169 0.27352541909376582 0 0.39295410604281161 0.27991797473582941 0 0.38637695493815499 0.25941990915398272 0 0.37779200888188169 0.27352541909376582 0 0.39295410604281161 0.27991797473582941 0 0.38637695493815499 0.25941990915398272 0 0.39295410604281161 0.27991797473582941 0 0.37779200888188169 0.27352541909376582 0 0.38365269108614242 0.28886006462722108 0 0.36920706282560989 0.28763092903354981 0 0.38365269108614242 0.28886006462722108 0 0.38765773553886579 0.304272517466537 0 0.36920706282560989 0.28763092903354981 0 0.38765773553886579 0.304272517466537 0 0.36920706282560989 0.28763092903354981 0 0.37779200888188169 0.27352541909376582 0 0.38365269108614242 0.28886006462722108 0 0.38365269108614242 0.28886006462722108 0 0.38765773553886579 0.304272517466537 0 0.39094894745382169 0.29336664928681588 0 0.39295410604281161 0.27991797473582941 0 0.38365269108614242 0.28886006462722108 0 0.39094894745382169 0.29336664928681588 0 0.3730028351209001 0.31363215364151559 0 0.36920706282560989 0.28763092903354981 0 0.38765773553886579 0.304272517466537 0 0.39953125714746701 0.30041604031767632 0 0.40610840825212258 0.32091410589952329 0 0.38765773553886579 0.304272517466537 0 0.39953125714746701 0.30041604031767632 0 0.40610840825212258 0.32091410589952329 0 0.38765773553886579 0.304272517466537 0 0.39953125714746701 0.30041604031767632 0 0.39094894745382169 0.29336664928681588 0 0.39295410604281161 0.27991797473582941 0 0.39953125714746701 0.30041604031767632 0 0.40910091382271119 0.2810354167289863 0 0.39295410604281161 0.27991797473582941 0 0.39953125714746701 0.30041604031767632 0 0.39094894745382169 0.29336664928681588 0 0.39295410604281161 0.27991797473582941 0 0.39953125714746701 0.30041604031767632 0 0.39953125714746701 0.30041604031767632 0 0.41491528106109882 0.30124665649578541 0 0.40910091382271119 0.2810354167289863 0 0.41491528106109882 0.30124665649578541 0 0.42731952489306568 0.28700393953981018 0 0.40910091382271119 0.2810354167289863 0 0.39953125714746701 0.30041604031767632 0 0.41491528106109882 0.30124665649578541 0 0.40610840825212258 0.32091410589952329 0 0.41491528106109882 0.30124665649578541 0 0.42794995720493351 0.31313333537977928 0 0.40610840825212258 0.32091410589952329 0 0.42731952489306568 0.28700393953981018 0 0.4517944916645244 0.29383742443478011 0 0.42794995720493351 0.31313333537977928 0 0.41491528106109882 0.30124665649578541 0 0.42731952489306568 0.28700393953981018 0 0.42794995720493351 0.31313333537977928 0 0.42731952489306568 0.28700393953981018 0 0.41967314448458559 0.26137339942301852 0 0.44365727121153681 0.26913856854785922 0 0.40173473535597981 0.2631618539842342 0 0.40910091382271119 0.2810354167289863 0 0.41967314448458559 0.26137339942301852 0 0.42731952489306568 0.28700393953981018 0 0.40910091382271119 0.2810354167289863 0 0.41967314448458559 0.26137339942301852 0 0.40173473535597981 0.2631618539842342 0 0.41967314448458559 0.26137339942301852 0 0.40099805188613491 0.23539669142163061 0 0.41967314448458559 0.26137339942301852 0 0.44365727121153681 0.26913856854785922 0 0.4413598952759954 0.24779468791027959 0 0.44365727121153681 0.26913856854785922 0 0.46161573000890421 0.24915187884950349 0 0.4413598952759954 0.24779468791027959 0 0.44365727121153681 0.26913856854785922 0 0.46903814423185369 0.26915197434094579 0 0.4517944916645244 0.29383742443478011 0 0.44365727121153681 0.26913856854785922 0 0.46903814423185369 0.26915197434094579 0 0.46161573000890421 0.24915187884950349 0 0.48064470393997399 0.25127095226602758 0 0.46903814423185369 0.26915197434094579 0 0.46161573000890421 0.24915187884950349 0 0.48064470393997399 0.25127095226602758 0 0.46903814423185369 0.26915197434094579 0 0.5 0.27384605173693999 0 0.46903814423185369 0.26915197434094579 0 0.5 0.27384605173693999 0 0.47940607473669161 0.28872754719489502 0 0.48064470393997399 0.25127095226602758 0 0.5 0.27384605173693999 0 0.5 0.2451688668095211 0 0.5 0.27384605173693999 0 0.5 0.30252323666435887 0 0.47940607473669161 0.28872754719489502 0 0.5 0.30252323666435887 0 0.47940607473669161 0.28872754719489502 0 0.47289629276185768 0.30819784280368651 0 0.47940607473669161 0.28872754719489502 0 0.47289629276185768 0.30819784280368651 0 0.4517944916645244 0.29383742443478011 0 0.47289629276185768 0.30819784280368651 0 0.4517944916645244 0.29383742443478011 0 0.45320350996802489 0.32103436138729669 0 0.46903814423185369 0.26915197434094579 0 0.47940607473669161 0.28872754719489502 0 0.4517944916645244 0.29383742443478011 0 0.42731952489306568 0.28700393953981018 0 0.44365727121153681 0.26913856854785922 0 0.4517944916645244 0.29383742443478011 0 0.4517944916645244 0.29383742443478011 0 0.45320350996802489 0.32103436138729669 0 0.42794995720493351 0.31313333537977928 0 0.43925280470614869 0.33299891812292087 0 0.45320350996802489 0.32103436138729669 0 0.42794995720493351 0.31313333537977928 0 0.43925280470614869 0.33299891812292087 0 0.45402837792442469 0.34413674211450979 0 0.4388044436718842 0.35040430245235987 0 0.43925280470614869 0.33299891812292087 0 0.45320350996802489 0.32103436138729669 0 0.45402837792442469 0.34413674211450979 0 0.45320350996802489 0.32103436138729669 0 0.47265942848201431 0.3346557648660069 0 0.45402837792442469 0.34413674211450979 0 0.47289629276185768 0.30819784280368651 0 0.45320350996802489 0.32103436138729669 0 0.47265942848201431 0.3346557648660069 0 0.47289629276185768 0.30819784280368651 0 0.47265942848201431 0.3346557648660069 0 0.5 0.33120042159177793 0 0.47265942848201431 0.3346557648660069 0 0.5 0.33120042159177793 0 0.48395946234364778 0.34983604769266802 0 0.5 0.30252323666435887 0 0.47289629276185768 0.30819784280368651 0 0.5 0.33120042159177793 0 0.5 0.35987760651919681 0 0.48395946234364778 0.34983604769266802 0 0.48024505233399101 0.37551225533194482 0 0.5 0.35987760651919681 0 0.48024505233399101 0.37551225533194482 0 0.5 0.38855479144661581 0 0.5 0.33120042159177793 0 0.5 0.35987760651919681 0 0.48395946234364778 0.34983604769266802 0 0.47265942848201431 0.3346557648660069 0 0.48395946234364778 0.34983604769266802 0 0.46852770345819561 0.36079015969103517 0 0.48395946234364778 0.34983604769266802 0 0.46852770345819561 0.36079015969103517 0 0.48024505233399101 0.37551225533194482 0 0.46852770345819561 0.36079015969103517 0 0.4630237997018542 0.37557049090653383 0 0.48024505233399101 0.37551225533194482 0 0.46852770345819561 0.36079015969103517 0 0.45172237726028119 0.36493694616743982 0 0.4630237997018542 0.37557049090653383 0 0.46852770345819561 0.36079015969103517 0 0.45402837792442469 0.34413674211450979 0 0.45172237726028119 0.36493694616743982 0 0.47265942848201431 0.3346557648660069 0 0.46852770345819561 0.36079015969103517 0 0.45402837792442469 0.34413674211450979 0 0.45402837792442469 0.34413674211450979 0 0.4388044436718842 0.35040430245235987 0 0.45172237726028119 0.36493694616743982 0 0.45172237726028119 0.36493694616743982 0 0.4377277075150266 0.37476581205717219 0 0.44863478132652718 0.38519527907140472 0 0.4388044436718842 0.35040430245235987 0 0.45172237726028119 0.36493694616743982 0 0.4377277075150266 0.37476581205717219 0 0.4388044436718842 0.35040430245235987 0 0.4377277075150266 0.37476581205717219 0 0.42111942031742639 0.3676967789548386 0 0.42111942031742639 0.3676967789548386 0 0.40223294460293613 0.37344128327341969 0 0.41766604677866132 0.38290739676987279 0 0.42111942031742639 0.3676967789548386 0 0.4072293964864182 0.35900118582954188 0 0.40223294460293613 0.37344128327341969 0 0.42111942031742639 0.3676967789548386 0 0.41361391428477451 0.34430544242718097 0 0.42111942031742639 0.3676967789548386 0 0.41361391428477451 0.34430544242718097 0 0.4072293964864182 0.35900118582954188 0 0.41361391428477451 0.34430544242718097 0 0.4072293964864182 0.35900118582954188 0 0.40272203282004909 0.34943520115374938 0 0.4388044436718842 0.35040430245235987 0 0.42111942031742639 0.3676967789548386 0 0.41361391428477451 0.34430544242718097 0 0.4388044436718842 0.35040430245235987 0 0.42245642596200339 0.33565920417594147 0 0.43925280470614869 0.33299891812292087 0 0.4388044436718842 0.35040430245235987 0 0.42245642596200339 0.33565920417594147 0 0.4388044436718842 0.35040430245235987 0 0.41361391428477451 0.34430544242718097 0 0.42245642596200339 0.33565920417594147 0 0.43925280470614869 0.33299891812292087 0 0.42245642596200339 0.33565920417594147 0 0.42794995720493351 0.31313333537977928 0 0.42245642596200339 0.33565920417594147 0 0.42794995720493351 0.31313333537977928 0 0.40610840825212258 0.32091410589952329 0 0.41361391428477451 0.34430544242718097 0 0.42245642596200339 0.33565920417594147 0 0.40610840825212258 0.32091410589952329 0 0.42245642596200339 0.33565920417594147 0 0.40610840825212258 0.32091410589952329 0 0.41361391428477451 0.34430544242718097 0 0.40610840825212258 0.32091410589952329 0 0.41361391428477451 0.34430544242718097 0 0.40054054977446829 0.33703295097209401 0 0.40610840825212258 0.32091410589952329 0 0.41361391428477451 0.34430544242718097 0 0.40054054977446829 0.33703295097209401 0 0.40272203282004909 0.34943520115374938 0 0.40054054977446829 0.33703295097209401 0 0.38906327855269007 0.32602920593239199 0 0.39119511496270509 0.34448079944762378 0 0.40054054977446829 0.33703295097209401 0 0.40272203282004909 0.34943520115374938 0 0.39119511496270509 0.34448079944762378 0 0.38765773553886579 0.304272517466537 0 0.40610840825212258 0.32091410589952329 0 0.38906327855269007 0.32602920593239199 0 0.38765773553886579 0.304272517466537 0 0.40610840825212258 0.32091410589952329 0 0.40054054977446829 0.33703295097209401 0 0.40610840825212258 0.32091410589952329 0 0.38906327855269007 0.32602920593239199 0 0.37383050535097379 0.3410441082894427 0 0.3730028351209001 0.31363215364151559 0 0.38906327855269007 0.32602920593239199 0 0.3730028351209001 0.31363215364151559 0 0.38765773553886579 0.304272517466537 0 0.38906327855269007 0.32602920593239199 0 0.37383050535097379 0.3410441082894427 0 0.38906327855269007 0.32602920593239199 0 0.39119511496270509 0.34448079944762378 0 0.37465817558104719 0.36845606293736999 0 0.37383050535097379 0.3410441082894427 0 0.38466362928820841 0.35652659211571391 0 0.37383050535097379 0.3410441082894427 0 0.38466362928820841 0.35652659211571391 0 0.39119511496270509 0.34448079944762378 0 0.37465817558104719 0.36845606293736999 0 0.38466362928820841 0.35652659211571391 0 0.38833688501986652 0.36808388548367971 0 0.37465817558104719 0.36845606293736999 0 0.38599341498114681 0.38098650358950897 0 0.37465817558104719 0.36845606293736999 0 0.38833688501986652 0.36808388548367971 0 0.38599341498114681 0.38098650358950897 0 0.38466362928820841 0.35652659211571391 0 0.38833688501986652 0.36808388548367971 0 0.39645867040690469 0.36012722333852082 0 0.38833688501986652 0.36808388548367971 0 0.40223294460293613 0.37344128327341969 0 0.38599341498114681 0.38098650358950897 0 0.38833688501986652 0.36808388548367971 0 0.39645867040690469 0.36012722333852082 0 0.40223294460293613 0.37344128327341969 0 0.4072293964864182 0.35900118582954188 0 0.39645867040690469 0.36012722333852082 0 0.40223294460293613 0.37344128327341969 0 0.4072293964864182 0.35900118582954188 0 0.39645867040690469 0.36012722333852082 0 0.40272203282004909 0.34943520115374938 0 0.39645867040690469 0.36012722333852082 0 0.40272203282004909 0.34943520115374938 0 0.39119511496270509 0.34448079944762378 0 0.38466362928820841 0.35652659211571391 0 0.39645867040690469 0.36012722333852082 0 0.39119511496270509 0.34448079944762378 0 0.39732865438124693 0.39351694424164751 0 0.39608797409586732 0.40499108891819852 0 0.38667409366737082 0.39837478645289592 0 0.39732865438124693 0.39351694424164751 0 0.40786846525016268 0.40516808542324068 0 0.39732865438124693 0.39351694424164751 0 0.39608797409586732 0.40499108891819852 0 0.40786846525016268 0.40516808542324068 0 0.40223294460293613 0.37344128327341969 0 0.39732865438124693 0.39351694424164751 0 0.41766604677866132 0.38290739676987279 0 0.40223294460293613 0.37344128327341969 0 0.39732865438124693 0.39351694424164751 0 0.38599341498114681 0.38098650358950897 0 0.39732865438124693 0.39351694424164751 0 0.38599341498114681 0.38098650358950897 0 0.39732865438124693 0.39351694424164751 0 0.38599341498114681 0.38098650358950897 0 0.37739680810377219 0.38896587892551909 0 0.37465817558104719 0.36845606293736999 0 0.37739680810377219 0.38896587892551909 0 0.37543805146477988 0.39570932605470122 0 0.37465817558104719 0.36845606293736999 0 0.38599341498114681 0.38098650358950897 0 0.37739680810377219 0.38896587892551909 0 0.37465817558104719 0.36845606293736999 0 0.37543805146477988 0.39570932605470122 0 0.39608797409586732 0.40499108891819852 0 0.38667409366737082 0.39837478645289592 0 0.37566229745402768 0.40171199294788501 0 0.39732865438124693 0.39351694424164751 0 0.37739680810377219 0.38896587892551909 0 0.39608797409586732 0.40499108891819852 0 0.37566229745402768 0.40171199294788501 0 0.39732865438124693 0.39351694424164751 0 0.37739680810377219 0.38896587892551909 0 0.38667409366737082 0.39837478645289592 0 0.37739680810377219 0.38896587892551909 0 0.37543805146477988 0.39570932605470122 0 0.38667409366737082 0.39837478645289592 0 0.37543805146477988 0.39570932605470122 0 0.38667409366737082 0.39837478645289592 0 0.37566229745402768 0.40171199294788501 0 0.37543805146477988 0.39570932605470122 0 0.37566229745402768 0.40171199294788501 0 0.37566229745402768 0.40171199294788501 0 0.38652480140974432 0.41427291059062282 0 0.3763592520470786 0.42479472203755991 0 0.39608797409586732 0.40499108891819852 0 0.37566229745402768 0.40171199294788501 0 0.38652480140974432 0.41427291059062282 0 0.37566229745402768 0.40171199294788501 0 0.3763592520470786 0.42479472203755991 0 0.3743094794027777 0.44141886908352918 0 0.3763592520470786 0.42479472203755991 0 0.38849517872734401 0.42741192105664849 0 0.3743094794027777 0.44141886908352918 0 0.38849517872734401 0.42741192105664849 0 0.40111694067913228 0.43664098558859349 0 0.38652480140974432 0.41427291059062282 0 0.3763592520470786 0.42479472203755991 0 0.38849517872734401 0.42741192105664849 0 0.38849517872734401 0.42741192105664849 0 0.40111694067913228 0.43664098558859349 0 0.40416542009798723 0.41993211798293711 0 0.38652480140974432 0.41427291059062282 0 0.38849517872734401 0.42741192105664849 0 0.40416542009798723 0.41993211798293711 0 0.39608797409586732 0.40499108891819852 0 0.40416542009798723 0.41993211798293711 0 0.41651365073770691 0.40827018488851258 0 0.39608797409586732 0.40499108891819852 0 0.38652480140974432 0.41427291059062282 0 0.40416542009798723 0.41993211798293711 0 0.39608797409586732 0.40499108891819852 0 0.41651365073770691 0.40827018488851258 0 0.40416542009798723 0.41993211798293711 0 0.41651365073770691 0.40827018488851258 0 0.42792440195548648 0.43186310209365608 0 0.40111694067913228 0.43664098558859349 0 0.42792440195548648 0.43186310209365608 0 0.40111694067913228 0.43664098558859349 0 0.40416542009798723 0.41993211798293711 0 0.42792440195548648 0.43186310209365608 0 0.41651365073770691 0.40827018488851258 0 0.43693932737954638 0.41154928085882642 0 0.42782526478772898 0.40558139140442429 0 0.42792440195548648 0.43186310209365608 0 0.43693932737954638 0.41154928085882642 0 0.41651365073770691 0.40827018488851258 0 0.42792440195548648 0.43186310209365608 0 0.43693932737954638 0.41154928085882642 0 0.41651365073770691 0.40827018488851258 0 0.43693932737954638 0.41154928085882642 0 0.43693932737954638 0.41154928085882642 0 0.42782526478772898 0.40558139140442429 0 0.44056105045463428 0.40338825548716212 0 0.42782526478772898 0.40558139140442429 0 0.41894485241794072 0.39845259986440468 0 0.44056105045463428 0.40338825548716212 0 0.41894485241794072 0.39845259986440468 0 0.44056105045463428 0.40338825548716212 0 0.41894485241794072 0.39845259986440468 0 0.4324930616522944 0.38891984060109758 0 0.44056105045463428 0.40338825548716212 0 0.39608797409586732 0.40499108891819852 0 0.41651365073770691 0.40827018488851258 0 0.40786846525016268 0.40516808542324068 0 0.39732865438124693 0.39351694424164751 0 0.41894485241794072 0.39845259986440468 0 0.39732865438124693 0.39351694424164751 0 0.41894485241794072 0.39845259986440468 0 0.40786846525016268 0.40516808542324068 0 0.41651365073770691 0.40827018488851258 0 0.41894485241794072 0.39845259986440468 0 0.40786846525016268 0.40516808542324068 0 0.41651365073770691 0.40827018488851258 0 0.42782526478772898 0.40558139140442429 0 0.41894485241794072 0.39845259986440468 0 0.39732865438124693 0.39351694424164751 0 0.41894485241794072 0.39845259986440468 0 0.41766604677866132 0.38290739676987279 0 0.4377277075150266 0.37476581205717219 0 0.41766604677866132 0.38290739676987279 0 0.4324930616522944 0.38891984060109758 0 0.4377277075150266 0.37476581205717219 0 0.42111942031742639 0.3676967789548386 0 0.41766604677866132 0.38290739676987279 0 0.41894485241794072 0.39845259986440468 0 0.41766604677866132 0.38290739676987279 0 0.4324930616522944 0.38891984060109758 0 0.4377277075150266 0.37476581205717219 0 0.4324930616522944 0.38891984060109758 0 0.44863478132652718 0.38519527907140472 0 0.44056105045463428 0.40338825548716212 0 0.45323844230681509 0.39682967128229102 0 0.45776885331582329 0.40731733629975259 0 0.44056105045463428 0.40338825548716212 0 0.45776885331582329 0.40731733629975259 0 0.44863478132652718 0.38519527907140472 0 0.44056105045463428 0.40338825548716212 0 0.44863478132652718 0.38519527907140472 0 0.44056105045463428 0.40338825548716212 0 0.45323844230681509 0.39682967128229102 0 0.4324930616522944 0.38891984060109758 0 0.44863478132652718 0.38519527907140472 0 0.44056105045463428 0.40338825548716212 0 0.44863478132652718 0.38519527907140472 0 0.46598908413027568 0.39141781427084471 0 0.45323844230681509 0.39682967128229102 0 0.46598908413027568 0.39141781427084471 0 0.46777287143545798 0.40411865036420358 0 0.45776885331582329 0.40731733629975259 0 0.46598908413027568 0.39141781427084471 0 0.45323844230681509 0.39682967128229102 0 0.45776885331582329 0.40731733629975259 0 0.45172237726028119 0.36493694616743982 0 0.44863478132652718 0.38519527907140472 0 0.4630237997018542 0.37557049090653383 0 0.44863478132652718 0.38519527907140472 0 0.46598908413027568 0.39141781427084471 0 0.4630237997018542 0.37557049090653383 0 0.46598908413027568 0.39141781427084471 0 0.48024505233399101 0.37551225533194482 0 0.48208597206920972 0.40164562218457212 0 0.46598908413027568 0.39141781427084471 0 0.4630237997018542 0.37557049090653383 0 0.48024505233399101 0.37551225533194482 0 0.46598908413027568 0.39141781427084471 0 0.46777287143545798 0.40411865036420358 0 0.48208597206920972 0.40164562218457212 0 0.5 0.38855479144661581 0 0.49999999999999728 0.41723197637403459 0 0.49062623159033453 0.40890288451831058 0 0.48208597206920972 0.40164562218457212 0 0.5 0.38855479144661581 0 0.49062623159033453 0.40890288451831058 0 0.48024505233399101 0.37551225533194482 0 0.48208597206920972 0.40164562218457212 0 0.5 0.38855479144661581 0 0.49999999999999661 0.42167291108664678 0 0.49355582507350082 0.42063837654446029 0 0.47070726566748378 0.4507594903532256 0 0.49999999999999728 0.41723197637403459 0 0.49355582507350082 0.42063837654446029 0 0.49999999999999728 0.41723197637403459 0 0.49355582507350082 0.42063837654446029 0 0.49062623159033453 0.40890288451831058 0 0.49999999999999661 0.42167291108664678 0 0.49355582507350082 0.42063837654446029 0 0.49999999999999661 0.42167291108664678 0 0.49999999999999728 0.41723197637403459 0 0.49355582507350082 0.42063837654446029 0 0.48208597206920972 0.40164562218457212 0 0.49062623159033453 0.40890288451831058 0 0.46524757622652319 0.41609382870164491 0 0.46777287143545798 0.40411865036420358 0 0.48208597206920972 0.40164562218457212 0 0.46524757622652319 0.41609382870164491 0 0.49355582507350082 0.42063837654446029 0 0.48317418641471599 0.42201595429606498 0 0.46524757622652319 0.41609382870164491 0 0.49355582507350082 0.42063837654446029 0 0.49062623159033453 0.40890288451831058 0 0.46524757622652319 0.41609382870164491 0 0.49355582507350082 0.42063837654446029 0 0.46524757622652319 0.41609382870164491 0 0.49355582507350082 0.42063837654446029 0 0.48317418641471599 0.42201595429606498 0 0.46993327664339241 0.433125289751498 0 0.49355582507350082 0.42063837654446029 0 0.46993327664339241 0.433125289751498 0 0.47070726566748378 0.4507594903532256 0 0.48317418641471599 0.42201595429606498 0 0.46993327664339241 0.433125289751498 0 0.45554929418510143 0.42693952819486142 0 0.49355582507350082 0.42063837654446029 0 0.46993327664339241 0.433125289751498 0 0.48317418641471599 0.42201595429606498 0 0.45554929418510143 0.42693952819486142 0 0.46993327664339241 0.433125289751498 0 0.45554929418510143 0.42693952819486142 0 0.44631072821328571 0.44561220295853848 0 0.48317418641471599 0.42201595429606498 0 0.45554929418510143 0.42693952819486142 0 0.46524757622652319 0.41609382870164491 0 0.43693932737954638 0.41154928085882642 0 0.46524757622652319 0.41609382870164491 0 0.45776885331582329 0.40731733629975259 0 0.46777287143545798 0.40411865036420358 0 0.46524757622652319 0.41609382870164491 0 0.45776885331582329 0.40731733629975259 0 0.43693932737954638 0.41154928085882642 0 0.44056105045463428 0.40338825548716212 0 0.45776885331582329 0.40731733629975259 0 0.43693932737954638 0.41154928085882642 0 0.45554929418510143 0.42693952819486142 0 0.46524757622652319 0.41609382870164491 0 0.43693932737954638 0.41154928085882642 0 0.46524757622652319 0.41609382870164491 0 0.43693932737954638 0.41154928085882642 0 0.44056105045463428 0.40338825548716212 0 0.42792440195548648 0.43186310209365608 0 0.45554929418510143 0.42693952819486142 0 0.44631072821328571 0.44561220295853848 0 0.42792440195548648 0.43186310209365608 0 0.43693932737954638 0.41154928085882642 0 0.45554929418510143 0.42693952819486142 0 0.42792440195548648 0.43186310209365608 0 0.45554929418510143 0.42693952819486142 0 0.43878822374486243 0.45996908754586407 0 0.47070726566748378 0.4507594903532256 0 0.44636280599734712 0.47429856458557468 0 0.49999999999999661 0.42167291108664678 0 0.47070726566748378 0.4507594903532256 0 0.5 0.5 0 0.5 0.5 0 0.44636280599734712 0.47429856458557468 0 0.43362128830396363 0.5 0 0.44631072821328571 0.44561220295853848 0 0.43878822374486243 0.45996908754586407 0 0.47070726566748378 0.4507594903532256 0 0.46993327664339241 0.433125289751498 0 0.44631072821328571 0.44561220295853848 0 0.47070726566748378 0.4507594903532256 0 0.46993327664339241 0.433125289751498 0 0.44631072821328571 0.44561220295853848 0 0.47070726566748378 0.4507594903532256 0 0.5 0.5 0 0.44636280599734712 0.47429856458557468 0 0.43362128830396363 0.5 0 0.40633644901184779 0.47950240230375518 0 0.38352314359405237 0.5 0 0.40633644901184779 0.47950240230375518 0 0.42672603921713009 0.47288171737331758 0 0.41454327739081243 0.46201551706563188 0 0.43362128830396363 0.5 0 0.40633644901184779 0.47950240230375518 0 0.42672603921713009 0.47288171737331758 0 0.43878822374486243 0.45996908754586407 0 0.44636280599734712 0.47429856458557468 0 0.42672603921713009 0.47288171737331758 0 0.44636280599734712 0.47429856458557468 0 0.43362128830396363 0.5 0 0.42672603921713009 0.47288171737331758 0 0.43878822374486243 0.45996908754586407 0 0.42672603921713009 0.47288171737331758 0 0.42268817978317902 0.45809911616557902 0 0.44631072821328571 0.44561220295853848 0 0.43878822374486243 0.45996908754586407 0 0.42268817978317902 0.45809911616557902 0 0.44631072821328571 0.44561220295853848 0 0.42268817978317902 0.45809911616557902 0 0.44631072821328571 0.44561220295853848 0 0.42268817978317902 0.45809911616557902 0 0.42123383967314809 0.4469393095796434 0 0.42792440195548648 0.43186310209365608 0 0.44631072821328571 0.44561220295853848 0 0.42123383967314809 0.4469393095796434 0 0.42792440195548648 0.43186310209365608 0 0.42123383967314809 0.4469393095796434 0 0.40111694067913228 0.43664098558859349 0 0.42792440195548648 0.43186310209365608 0 0.42123383967314809 0.4469393095796434 0 0.40111694067913228 0.43664098558859349 0 0.42123383967314809 0.4469393095796434 0 0.40544545303259849 0.45152447025451009 0 0.40633644901184779 0.47950240230375518 0 0.41454327739081243 0.46201551706563188 0 0.40014641512149179 0.46271608975282269 0 0.42123383967314809 0.4469393095796434 0 0.41454327739081243 0.46201551706563188 0 0.40544545303259849 0.45152447025451009 0 0.42672603921713009 0.47288171737331758 0 0.42268817978317902 0.45809911616557902 0 0.41454327739081243 0.46201551706563188 0 0.42268817978317902 0.45809911616557902 0 0.42123383967314809 0.4469393095796434 0 0.41454327739081243 0.46201551706563188 0 0.42123383967314809 0.4469393095796434 0 0.41454327739081243 0.46201551706563188 0 0.41454327739081243 0.46201551706563188 0 0.40014641512149179 0.46271608975282269 0 0.40544545303259849 0.45152447025451009 0 0.40014641512149179 0.46271608975282269 0 0.40544545303259849 0.45152447025451009 0 0.38926254772785418 0.45382006279605991 0 0.40014641512149179 0.46271608975282269 0 0.38926254772785418 0.45382006279605991 0 0.38526262550558699 0.47101952891944437 0 0.40111694067913228 0.43664098558859349 0 0.40544545303259849 0.45152447025451009 0 0.38926254772785418 0.45382006279605991 0 0.3743094794027777 0.44141886908352918 0 0.40111694067913228 0.43664098558859349 0 0.3743094794027777 0.44141886908352918 0 0.40111694067913228 0.43664098558859349 0 0.38926254772785418 0.45382006279605991 0 0.36829402711433962 0.45952442118189191 0 0.3743094794027777 0.44141886908352918 0 0.38926254772785418 0.45382006279605991 0 0.36829402711433962 0.45952442118189191 0 0.38926254772785418 0.45382006279605991 0 0.38526262550558699 0.47101952891944437 0 0.36214122073924332 0.47948473646354178 0 0.38526262550558699 0.47101952891944437 0 0.38352314359405237 0.5 0 0.40633644901184779 0.47950240230375518 0 0.40014641512149179 0.46271608975282269 0 0.38526262550558699 0.47101952891944437 0 0.40633644901184779 0.47950240230375518 0 0.38526262550558699 0.47101952891944437 0 0.38352314359405237 0.5 0 0.33069832147319361 0.088220711972548771 0 0.34018981915291269 0.094638829867626534 0 0.34727757263655401 0.080169664491155826 0 0.33069832147319361 0.088220711972548771 0 0.34727757263655401 0.080169664491155826 0 0.33069832147319361 0.088220711972548771 0 0.33309319663259113 0.075433706211884832 0 0.34727757263655401 0.080169664491155826 0 0.33069832147319361 0.088220711972548771 0 0.33293641582235528 0.096018970512116622 0 0.34018981915291269 0.094638829867626534 0 0.33069832147319361 0.088220711972548771 0 0.34018981915291269 0.094638829867626534 0 0.33309319663259113 0.075433706211884832 0 0.34727757263655401 0.080169664491155826 0 0.33482447885409322 0.061568406975485053 0 0.33309319663259113 0.075433706211884832 0 0.33482447885409322 0.061568406975485053 0 0.30898782351504578 0.073540148360969476 0 0.33069832147319361 0.088220711972548771 0 0.30898782351504578 0.073540148360969476 0 0.33069832147319361 0.088220711972548771 0 0.31236998991084503 0.097121130104177528 0 0.33069832147319361 0.088220711972548771 0 0.30898782351504578 0.073540148360969476 0 0.31236998991084503 0.097121130104177528 0 0.33069832147319361 0.088220711972548771 0 0.33309319663259113 0.075433706211884832 0 0.30898782351504578 0.073540148360969476 0 0.31849378008115109 0.1038711397066467 0 0.32287645001962301 0.098028678934741598 0 0.31236998991084503 0.097121130104177528 0 0.33069832147319361 0.088220711972548771 0 0.32287645001962301 0.098028678934741598 0 0.31236998991084503 0.097121130104177528 0 0.31849378008115109 0.1038711397066467 0 0.31357710280326628 0.109255077495808 0 0.3251515775908701 0.1110796722918596 0 0.31849378008115109 0.1038711397066467 0 0.31357710280326628 0.109255077495808 0 0.31236998991084503 0.097121130104177528 0 0.31849378008115109 0.1038711397066467 0 0.32287645001962301 0.098028678934741598 0 0.3251515775908701 0.1110796722918596 0 0.31430519314945699 0.12026448582521029 0 0.32196356180792951 0.11817494330629209 0 0.32090591112176742 0.12658786441626249 0 0.31357710280326628 0.109255077495808 0 0.31430519314945699 0.12026448582521029 0 0.32196356180792951 0.11817494330629209 0 0.31357710280326628 0.109255077495808 0 0.3251515775908701 0.1110796722918596 0 0.32196356180792951 0.11817494330629209 0 0.3251515775908701 0.1110796722918596 0 0.32196356180792951 0.11817494330629209 0 0.32975487020087207 0.1177550785212486 0 0.32196356180792951 0.11817494330629209 0 0.32808671598134409 0.1241074812873634 0 0.32090591112176742 0.12658786441626249 0 0.32196356180792951 0.11817494330629209 0 0.32808671598134409 0.1241074812873634 0 0.32975487020087207 0.1177550785212486 0 0.33449752538983252 0.1217646342514237 0 0.32975487020087207 0.1177550785212486 0 0.33847309522437219 0.1133705459522989 0 0.32808671598134409 0.1241074812873634 0 0.33449752538983252 0.1217646342514237 0 0.32975487020087207 0.1177550785212486 0 0.32808671598134409 0.1241074812873634 0 0.33449752538983252 0.1217646342514237 0 0.33317264064135932 0.1269523288060988 0 0.3251515775908701 0.1110796722918596 0 0.32975487020087207 0.1177550785212486 0 0.33847309522437219 0.1133705459522989 0 0.33449752538983252 0.1217646342514237 0 0.33847309522437219 0.1133705459522989 0 0.33969685467387117 0.122017397807014 0 0.33969685467387117 0.122017397807014 0 0.34221385506368018 0.12622903337020999 0 0.33799053614611652 0.12661757629934589 0 0.33449752538983252 0.1217646342514237 0 0.33969685467387117 0.122017397807014 0 0.33799053614611652 0.12661757629934589 0 0.33069832147319361 0.088220711972548771 0 0.32287645001962301 0.098028678934741598 0 0.33293641582235528 0.096018970512116622 0 0.32287645001962301 0.098028678934741598 0 0.33293641582235528 0.096018970512116622 0 0.33740075439859951 0.10246057234130219 0 0.32287645001962301 0.098028678934741598 0 0.33847309522437219 0.1133705459522989 0 0.33740075439859951 0.10246057234130219 0 0.32287645001962301 0.098028678934741598 0 0.3251515775908701 0.1110796722918596 0 0.33847309522437219 0.1133705459522989 0 0.32287645001962301 0.098028678934741598 0 0.33847309522437219 0.1133705459522989 0 0.33847309522437219 0.1133705459522989 0 0.33740075439859951 0.10246057234130219 0 0.34746761667652848 0.1039056209505307 0 0.33293641582235528 0.096018970512116622 0 0.33740075439859951 0.10246057234130219 0 0.34018981915291269 0.094638829867626534 0 0.33740075439859951 0.10246057234130219 0 0.34018981915291269 0.094638829867626534 0 0.34746761667652848 0.1039056209505307 0 0.34018981915291269 0.094638829867626534 0 0.34746761667652848 0.1039056209505307 0 0.35441079738973519 0.092634449568220617 0 0.34746761667652848 0.1039056209505307 0 0.35303317588985311 0.1143754778860398 0 0.36071773975860599 0.10522676115544891 0 0.34746761667652848 0.1039056209505307 0 0.36071773975860599 0.10522676115544891 0 0.35441079738973519 0.092634449568220617 0 0.33847309522437219 0.1133705459522989 0 0.35406974042912159 0.12871241296985611 0 0.33847309522437219 0.1133705459522989 0 0.35303317588985311 0.1143754778860398 0 0.35406974042912159 0.12871241296985611 0 0.33847309522437219 0.1133705459522989 0 0.33969685467387117 0.122017397807014 0 0.35406974042912159 0.12871241296985611 0 0.33847309522437219 0.1133705459522989 0 0.34746761667652848 0.1039056209505307 0 0.35303317588985311 0.1143754778860398 0 0.35303317588985311 0.1143754778860398 0 0.36422873561600572 0.1165137090676714 0 0.36071773975860599 0.10522676115544891 0 0.35303317588985311 0.1143754778860398 0 0.36422873561600572 0.1165137090676714 0 0.35406974042912159 0.12871241296985611 0 0.36422873561600572 0.1165137090676714 0 0.37804489467616731 0.12603486610227391 0 0.37527812732628069 0.10821902722473881 0 0.36422873561600572 0.1165137090676714 0 0.35406974042912159 0.12871241296985611 0 0.37804489467616731 0.12603486610227391 0 0.36422873561600572 0.1165137090676714 0 0.36071773975860599 0.10522676115544891 0 0.37527812732628069 0.10821902722473881 0 0.36071773975860599 0.10522676115544891 0 0.37034666698836433 0.091751167320359484 0 0.35441079738973519 0.092634449568220617 0 0.36071773975860599 0.10522676115544891 0 0.37034666698836433 0.091751167320359484 0 0.37527812732628069 0.10821902722473881 0 0.37034666698836433 0.091751167320359484 0 0.35441079738973519 0.092634449568220617 0 0.36385682379991408 0.072118617009762465 0 0.37034666698836433 0.091751167320359484 0 0.36385682379991408 0.072118617009762465 0 0.37988336411254831 0.081091420387560953 0 0.35441079738973519 0.092634449568220617 0 0.34727757263655401 0.080169664491155826 0 0.36385682379991408 0.072118617009762465 0 0.34018981915291269 0.094638829867626534 0 0.35441079738973519 0.092634449568220617 0 0.34727757263655401 0.080169664491155826 0 0.34727757263655401 0.080169664491155826 0 0.36385682379991408 0.072118617009762465 0 0.34727757263655401 0.080169664491155826 0 0.36385682379991408 0.072118617009762465 0 0.35246920021243122 0.056279785492795303 0 0.34727757263655401 0.080169664491155826 0 0.35246920021243122 0.056279785492795303 0 0.33482447885409322 0.061568406975485053 0 0.36385682379991408 0.072118617009762465 0 0.36653169822137349 0.059582962855470177 0 0.35246920021243122 0.056279785492795303 0 0.36385682379991408 0.072118617009762465 0 0.36653169822137349 0.059582962855470177 0 0.3826975789222149 0.06625251606434801 0 0.36710318995093372 0.04368093285497493 0 0.3826975789222149 0.06625251606434801 0 0.36653169822137349 0.059582962855470177 0 0.36710318995093372 0.04368093285497493 0 0.35246920021243122 0.056279785492795303 0 0.36653169822137349 0.059582962855470177 0 0.36710318995093372 0.04368093285497493 0 0.3826975789222149 0.06625251606434801 0 0.36710318995093372 0.04368093285497493 0 0.36824447217576772 0.026219673568606099 0 0.38642315612184452 0.041257012126138408 0 0.35157431318735249 0.03773685165341549 0 0.35246920021243122 0.056279785492795303 0 0.33518778990551867 0.040558193462399778 0 0.36710318995093372 0.04368093285497493 0 0.35150880097965242 0.021109349645601849 0 0.36710318995093372 0.04368093285497493 0 0.35157431318735249 0.03773685165341549 0 0.35150880097965242 0.021109349645601849 0 0.36710318995093372 0.04368093285497493 0 0.35157431318735249 0.03773685165341549 0 0.35246920021243122 0.056279785492795303 0 0.36539959957297091 0.00025665030201435241 0 0.36311894113840482 0.013046370005318161 0 0.38024000320352302 0.01347976240939153 0 0.36539959957297091 0.00025665030201435241 0 0.36311894113840482 0.013046370005318161 0 0.35275398779750838 0.0013421146809626 0 0.36311894113840482 0.013046370005318161 0 0.36824447217576772 0.026219673568606099 0 0.35150880097965242 0.021109349645601849 0 0.36311894113840482 0.013046370005318161 0 0.36824447217576772 0.026219673568606099 0 0.38024000320352302 0.01347976240939153 0 0.36710318995093372 0.04368093285497493 0 0.36824447217576772 0.026219673568606099 0 0.35150880097965242 0.021109349645601849 0 0.35157431318735249 0.03773685165341549 0 0.35150880097965242 0.021109349645601849 0 0.33555110095694418 0.01954797994931454 0 0.36311894113840482 0.013046370005318161 0 0.35150880097965242 0.021109349645601849 0 0.35275398779750838 0.0013421146809626 0 0.35150880097965242 0.021109349645601849 0 0.35275398779750838 0.0013421146809626 0 0.33591441200837052 -0.001462233563770642 0 0.35150880097965242 0.021109349645601849 0 0.33555110095694418 0.01954797994931454 0 0.33591441200837052 -0.001462233563770642 0 0.33555110095694418 0.01954797994931454 0 0.32417315788731599 0.0066455270467149054 0 0.33591441200837052 -0.001462233563770642 0 0.33555110095694418 0.01954797994931454 0 0.33591441200837052 -0.001462233563770642 0 0.35150880097965242 0.021109349645601849 0 0.33591441200837052 -0.001462233563770642 0 0.33555110095694418 0.01954797994931454 0 0.33518778990551867 0.040558193462399778 0 0.32210079664050262 0.031605631840202028 0 0.33555110095694418 0.01954797994931454 0 0.33518778990551867 0.040558193462399778 0 0.31738127213802347 0.01816154311907919 0 0.32210079664050262 0.031605631840202028 0 0.30447301187860099 0.032240848192657018 0 0.33555110095694418 0.01954797994931454 0 0.31738127213802347 0.01816154311907919 0 0.32210079664050262 0.031605631840202028 0 0.31738127213802347 0.01816154311907919 0 0.32417315788731599 0.0066455270467149054 0 0.30935455551858998 0.00092920026984533166 0 0.33555110095694418 0.01954797994931454 0 0.31738127213802347 0.01816154311907919 0 0.32417315788731599 0.0066455270467149054 0 0.32417315788731599 0.0066455270467149054 0 0.30935455551858998 0.00092920026984533166 0 0.32266444881465178 -0.0039488545408938851 0 0.32417315788731599 0.0066455270467149054 0 0.33591441200837052 -0.001462233563770642 0 0.32266444881465178 -0.0039488545408938851 0 0.33482447885409322 0.061568406975485053 0 0.33518778990551867 0.040558193462399778 0 0.31791080832342589 0.047519594477559608 0 0.33482447885409322 0.061568406975485053 0 0.33518778990551867 0.040558193462399778 0 0.35246920021243122 0.056279785492795303 0 0.33482447885409322 0.061568406975485053 0 0.33518778990551867 0.040558193462399778 0 0.35157431318735249 0.03773685165341549 0 0.33555110095694418 0.01954797994931454 0 0.33518778990551867 0.040558193462399778 0 0.32210079664050262 0.031605631840202028 0 0.31791080832342589 0.047519594477559608 0 0.30447301187860099 0.032240848192657018 0 0.33518778990551867 0.040558193462399778 0 0.32210079664050262 0.031605631840202028 0 0.31791080832342589 0.047519594477559608 0 0.33482447885409322 0.061568406975485053 0 0.31791080832342589 0.047519594477559608 0 0.30898782351504578 0.073540148360969476 0 0.31791080832342589 0.047519594477559608 0 0.30100535601090872 0.050562180085844649 0 0.30898782351504578 0.073540148360969476 0 0.30100535601090872 0.050562180085844649 0 0.28727732555689739 0.058859584749390993 0 0.30898782351504578 0.073540148360969476 0 0.30100535601090872 0.050562180085844649 0 0.30447301187860099 0.032240848192657018 0 0.28637781078057323 0.04065072464864615 0 0.31791080832342589 0.047519594477559608 0 0.30100535601090872 0.050562180085844649 0 0.30447301187860099 0.032240848192657018 0 0.30447301187860099 0.032240848192657018 0 0.28637781078057323 0.04065072464864615 0 0.28939346510087438 0.025708484664577799 0 0.28637781078057323 0.04065072464864615 0 0.28939346510087438 0.025708484664577799 0 0.27714056336680398 0.031650778960011658 0 0.30100535601090872 0.050562180085844649 0 0.28637781078057323 0.04065072464864615 0 0.28727732555689739 0.058859584749390993 0 0.31738127213802347 0.01816154311907919 0 0.30935455551858998 0.00092920026984533166 0 0.30358652419674642 0.017093108922713152 0 0.29859271699854112 0.00606985476860104 0 0.30935455551858998 0.00092920026984533166 0 0.30358652419674642 0.017093108922713152 0 0.29859271699854112 0.00606985476860104 0 0.30358652419674642 0.017093108922713152 0 0.29216864694826361 0.013877146652498781 0 0.31738127213802347 0.01816154311907919 0 0.30447301187860099 0.032240848192657018 0 0.30358652419674642 0.017093108922713152 0 0.30447301187860099 0.032240848192657018 0 0.30358652419674642 0.017093108922713152 0 0.28939346510087438 0.025708484664577799 0 0.28939346510087438 0.025708484664577799 0 0.2808643738704788 0.023921019924946101 0 0.27714056336680398 0.031650778960011658 0 0.28939346510087438 0.025708484664577799 0 0.28208393177679542 0.017016823404301721 0 0.29216864694826361 0.013877146652498781 0 0.28939346510087438 0.025708484664577799 0 0.28208393177679542 0.017016823404301721 0 0.2808643738704788 0.023921019924946101 0 0.30358652419674642 0.017093108922713152 0 0.28939346510087438 0.025708484664577799 0 0.29216864694826361 0.013877146652498781 0 0.28208393177679542 0.017016823404301721 0 0.28597978939537938 0.0078711280340414032 0 0.28045909788205342 -0.003145913319501746 0 0.29216864694826361 0.013877146652498781 0 0.28597978939537938 0.0078711280340414032 0 0.28920748097440629 0.0037364553988672011 0 0.29859271699854112 0.00606985476860104 0 0.29216864694826361 0.013877146652498781 0 0.28920748097440629 0.0037364553988672011 0 0.28208393177679542 0.017016823404301721 0 0.29216864694826361 0.013877146652498781 0 0.28597978939537938 0.0078711280340414032 0 0.28597978939537938 0.0078711280340414032 0 0.28920748097440629 0.0037364553988672011 0 0.28045909788205342 -0.003145913319501746 0 0.29859271699854112 0.00606985476860104 0 0.28920748097440629 0.0037364553988672011 0 0.2856442190844608 -0.007099658999023606 0 0.27177722169426932 0.02444351486956297 0 0.28045909788205342 -0.003145913319501746 0 0.26372079827159839 0.0096173331281896503 0 0.28045909788205342 -0.003145913319501746 0 0.27177722169426932 0.02444351486956297 0 0.26372079827159839 0.0096173331281896503 0 0.28045909788205342 -0.003145913319501746 0 0.28208393177679542 0.017016823404301721 0 0.27177722169426932 0.02444351486956297 0 0.28045909788205342 -0.003145913319501746 0 0.26372079827159839 0.0096173331281896503 0 0.2649069725373544 -0.0061843696316094387 0 0.28045909788205342 -0.003145913319501746 0 0.28208393177679542 0.017016823404301721 0 0.27387543335900411 0.02399239665989461 0 0.27177722169426932 0.02444351486956297 0 0.28208393177679542 0.017016823404301721 0 0.27387543335900411 0.02399239665989461 0 0.2808643738704788 0.023921019924946101 0 0.27387543335900411 0.02399239665989461 0 0.27177722169426932 0.02444351486956297 0 0.27714056336680398 0.031650778960011658 0 0.27387543335900411 0.02399239665989461 0 0.2808643738704788 0.023921019924946101 0 0.27714056336680398 0.031650778960011658 0 0.27387543335900411 0.02399239665989461 0 0.27177722169426932 0.02444351486956297 0 0.24698249866114111 0.02238057957587794 0 0.24630853621431251 0.02991931504233921 0 0.27177722169426932 0.02444351486956297 0 0.24630853621431251 0.02991931504233921 0 0.27177722169426932 0.02444351486956297 0 0.24698249866114111 0.02238057957587794 0 0.27177722169426932 0.02444351486956297 0 0.26372079827159839 0.0096173331281896503 0 0.2472029391619103 0.019914800318815509 0 0.24698249866114111 0.02238057957587794 0 0.26372079827159839 0.0096173331281896503 0 0.24698249866114111 0.02238057957587794 0 0.26372079827159839 0.0096173331281896503 0 0.24630853621431251 0.02991931504233921 0 0.27177722169426932 0.02444351486956297 0 0.25759842244755138 0.038790813141363317 0 0.2483044514930087 0.01035146626751412 0 0.2472029391619103 0.019914800318815509 0 0.26372079827159839 0.0096173331281896503 0 0.26372079827159839 0.0096173331281896503 0 0.2649069725373544 -0.0061843696316094387 0 0.24656239287624979 -0.001609643027110886 0 0.2483044514930087 0.01035146626751412 0 0.26372079827159839 0.0096173331281896503 0 0.24656239287624979 -0.001609643027110886 0 0.28727732555689739 0.058859584749390993 0 0.26556682759875011 0.04417902113781115 0 0.27263382907757883 0.064155162888951817 0 0.28727732555689739 0.058859584749390993 0 0.26556682759875011 0.04417902113781115 0 0.26556682759875011 0.04417902113781115 0 0.25962894284638188 0.063048542129249416 0 0.27263382907757883 0.064155162888951817 0 0.28637781078057323 0.04065072464864615 0 0.28727732555689739 0.058859584749390993 0 0.26556682759875011 0.04417902113781115 0 0.27177722169426932 0.02444351486956297 0 0.26556682759875011 0.04417902113781115 0 0.28637781078057323 0.04065072464864615 0 0.27714056336680398 0.031650778960011658 0 0.26556682759875011 0.04417902113781115 0 0.27177722169426932 0.02444351486956297 0 0.27714056336680398 0.031650778960011658 0 0.26556682759875011 0.04417902113781115 0 0.26556682759875011 0.04417902113781115 0 0.25759842244755138 0.038790813141363317 0 0.25483882626874249 0.049685009769870697 0 0.24630853621431251 0.02991931504233921 0 0.25759842244755138 0.038790813141363317 0 0.25483882626874249 0.049685009769870697 0 0.26556682759875011 0.04417902113781115 0 0.25759842244755138 0.038790813141363317 0 0.27177722169426932 0.02444351486956297 0 0.26556682759875011 0.04417902113781115 0 0.25759842244755138 0.038790813141363317 0 0.26556682759875011 0.04417902113781115 0 0.25483882626874249 0.049685009769870697 0 0.25962894284638188 0.063048542129249416 0 0.26556682759875011 0.04417902113781115 0 0.25962894284638188 0.063048542129249416 0 0.24370138759444351 0.059082073085500092 0 0.25483882626874249 0.049685009769870697 0 0.25962894284638188 0.063048542129249416 0 0.25962894284638188 0.063048542129249416 0 0.25369105809401321 0.081918063120687543 0 0.25962894284638188 0.063048542129249416 0 0.25369105809401321 0.081918063120687543 0 0.26612041545577603 0.075224426199468106 0 0.24952890687735321 0.073073377366024511 0 0.24370138759444351 0.059082073085500092 0 0.25962894284638188 0.063048542129249416 0 0.24952890687735321 0.073073377366024511 0 0.25962894284638188 0.063048542129249416 0 0.25369105809401321 0.081918063120687543 0 0.25369105809401321 0.081918063120687543 0 0.26518364144449719 0.088557160549477099 0 0.25239177367054749 0.098507312554499224 0 0.25369105809401321 0.081918063120687543 0 0.26518364144449719 0.088557160549477099 0 0.26612041545577603 0.075224426199468106 0 0.26518364144449719 0.088557160549477099 0 0.27811959841807221 0.078174508119536551 0 0.27849158035673571 0.095086717079338773 0 0.26518364144449719 0.088557160549477099 0 0.27811959841807221 0.078174508119536551 0 0.26612041545577603 0.075224426199468106 0 0.28727732555689739 0.058859584749390993 0 0.27811959841807221 0.078174508119536551 0 0.27263382907757883 0.064155162888951817 0 0.25962894284638188 0.063048542129249416 0 0.27263382907757883 0.064155162888951817 0 0.26612041545577603 0.075224426199468106 0 0.27811959841807221 0.078174508119536551 0 0.27263382907757883 0.064155162888951817 0 0.26612041545577603 0.075224426199468106 0 0.28727732555689739 0.058859584749390993 0 0.27811959841807221 0.078174508119536551 0 0.29443676790723539 0.085705731065480378 0 0.27811959841807221 0.078174508119536551 0 0.29443676790723539 0.085705731065480378 0 0.27849158035673571 0.095086717079338773 0 0.29443676790723539 0.085705731065480378 0 0.30898782351504578 0.073540148360969476 0 0.31236998991084503 0.097121130104177528 0 0.28727732555689739 0.058859584749390993 0 0.29443676790723539 0.085705731065480378 0 0.30898782351504578 0.073540148360969476 0 0.28727732555689739 0.058859584749390993 0 0.30898782351504578 0.073540148360969476 0 0.31357710280326628 0.109255077495808 0 0.3045997524588191 0.1177320481728332 0 0.29404165834849633 0.1060215482358058 0 0.3045997524588191 0.1177320481728332 0 0.29404165834849633 0.1060215482358058 0 0.29452386970012728 0.1188365336502481 0 0.3045997524588191 0.1177320481728332 0 0.29452386970012728 0.1188365336502481 0 0.29997463010224951 0.1297385063248345 0 0.31430519314945699 0.12026448582521029 0 0.3045997524588191 0.1177320481728332 0 0.3111985336617063 0.1297988525326042 0 0.31357710280326628 0.109255077495808 0 0.31430519314945699 0.12026448582521029 0 0.3045997524588191 0.1177320481728332 0 0.29443676790723539 0.085705731065480378 0 0.31236998991084503 0.097121130104177528 0 0.29404165834849633 0.1060215482358058 0 0.31357710280326628 0.109255077495808 0 0.31236998991084503 0.097121130104177528 0 0.29404165834849633 0.1060215482358058 0 0.31236998991084503 0.097121130104177528 0 0.29404165834849633 0.1060215482358058 0 0.29404165834849633 0.1060215482358058 0 0.27400183332864031 0.11061633090072109 0 0.27849158035673571 0.095086717079338773 0 0.29443676790723539 0.085705731065480378 0 0.29404165834849633 0.1060215482358058 0 0.27849158035673571 0.095086717079338773 0 0.29404165834849633 0.1060215482358058 0 0.2836702182539419 0.11915709911980001 0 0.27400183332864031 0.11061633090072109 0 0.29404165834849633 0.1060215482358058 0 0.29452386970012728 0.1188365336502481 0 0.2836702182539419 0.11915709911980001 0 0.29452386970012728 0.1188365336502481 0 0.2836702182539419 0.11915709911980001 0 0.28572918961761973 0.1329170944376451 0 0.2836702182539419 0.11915709911980001 0 0.27400183332864031 0.11061633090072109 0 0.26927133576147438 0.1222117310414234 0 0.2836702182539419 0.11915709911980001 0 0.26927133576147438 0.1222117310414234 0 0.27635868845084632 0.12921023570980339 0 0.27400183332864031 0.11061633090072109 0 0.2644607173579851 0.1028799395572967 0 0.25932456482541649 0.1160216758140466 0 0.27400183332864031 0.11061633090072109 0 0.26927133576147438 0.1222117310414234 0 0.25932456482541649 0.1160216758140466 0 0.27400183332864031 0.11061633090072109 0 0.27849158035673571 0.095086717079338773 0 0.2644607173579851 0.1028799395572967 0 0.26518364144449719 0.088557160549477099 0 0.27849158035673571 0.095086717079338773 0 0.2644607173579851 0.1028799395572967 0 0.26518364144449719 0.088557160549477099 0 0.2644607173579851 0.1028799395572967 0 0.25239177367054749 0.098507312554499224 0 0.2644607173579851 0.1028799395572967 0 0.25616879334086712 0.10787107900152609 0 0.25932456482541649 0.1160216758140466 0 0.2644607173579851 0.1028799395572967 0 0.25616879334086712 0.10787107900152609 0 0.25239177367054749 0.098507312554499224 0 0.24849811750951931 0.11407538808026201 0 0.25616879334086712 0.10787107900152609 0 0.25239177367054749 0.098507312554499224 0 0.25932456482541649 0.1160216758140466 0 0.25612347435526028 0.12048692166749241 0 0.26159771130935677 0.12568357967466631 0 0.26927133576147438 0.1222117310414234 0 0.25932456482541649 0.1160216758140466 0 0.26159771130935677 0.12568357967466631 0 0.24849811750951931 0.11407538808026201 0 0.25932456482541649 0.1160216758140466 0 0.25612347435526028 0.12048692166749241 0 0.24849811750951931 0.11407538808026201 0 0.25616879334086712 0.10787107900152609 0 0.25932456482541649 0.1160216758140466 0 0.24849811750951931 0.11407538808026201 0 0.25612347435526028 0.12048692166749241 0 0.2550735037767487 0.12616704310099469 0 0.25612347435526028 0.12048692166749241 0 0.2550735037767487 0.12616704310099469 0 0.26159771130935677 0.12568357967466631 0 0.24849811750951931 0.11407538808026201 0 0.2550735037767487 0.12616704310099469 0 0.25590199604446479 0.13990594503186299 0 0.24849811750951931 0.11407538808026201 0 0.25590199604446479 0.13990594503186299 0 0.24849811750951931 0.11407538808026201 0 0.25015776659190792 0.1325905326178661 0 0.25590199604446479 0.13990594503186299 0 0.25691145229648021 0.13244330028865231 0 0.2550735037767487 0.12616704310099469 0 0.25590199604446479 0.13990594503186299 0 0.24452721965912369 0.1343388745907225 0 0.25215296059542641 0.1375486109728486 0 0.25339142914533358 0.14149739500770209 0 0.25215296059542641 0.1375486109728486 0 0.25590199604446479 0.13990594503186299 0 0.25339142914533358 0.14149739500770209 0 0.25015776659190792 0.1325905326178661 0 0.25215296059542641 0.1375486109728486 0 0.25590199604446479 0.13990594503186299 0 0.25691145229648021 0.13244330028865231 0 0.25590199604446479 0.13990594503186299 0 0.25886948059868858 0.13587252939961711 0 0.25590199604446479 0.13990594503186299 0 0.26071577526693918 0.13782842474913079 0 0.25886948059868858 0.13587252939961711 0 0.25590199604446479 0.13990594503186299 0 0.26071577526693918 0.13782842474913079 0 0.25922943950960842 0.14195023598582601 0 0.26071577526693918 0.13782842474913079 0 0.2644884905978353 0.14140747097940221 0 0.25922943950960842 0.14195023598582601 0 0.25691145229648021 0.13244330028865231 0 0.25886948059868858 0.13587252939961711 0 0.26194869878687038 0.1333124475288221 0 0.26071577526693918 0.13782842474913079 0 0.25886948059868858 0.13587252939961711 0 0.26194869878687038 0.1333124475288221 0 0.26194869878687038 0.1333124475288221 0 0.26830057210000291 0.13098899690431151 0 0.26582086673704269 0.13677721971570209 0 0.26071577526693918 0.13782842474913079 0 0.26194869878687038 0.1333124475288221 0 0.26582086673704269 0.13677721971570209 0 0.26071577526693918 0.13782842474913079 0 0.26582086673704269 0.13677721971570209 0 0.2644884905978353 0.14140747097940221 0 0.25691145229648021 0.13244330028865231 0 0.2550735037767487 0.12616704310099469 0 0.26159771130935677 0.12568357967466631 0 0.25691145229648021 0.13244330028865231 0 0.26194869878687038 0.1333124475288221 0 0.26159771130935677 0.12568357967466631 0 0.26194869878687038 0.1333124475288221 0 0.26159771130935677 0.12568357967466631 0 0.26830057210000291 0.13098899690431151 0 0.26927133576147438 0.1222117310414234 0 0.26159771130935677 0.12568357967466631 0 0.26830057210000291 0.13098899690431151 0 0.26927133576147438 0.1222117310414234 0 0.26830057210000291 0.13098899690431151 0 0.27635868845084632 0.12921023570980339 0 0.26830057210000291 0.13098899690431151 0 0.26582086673704269 0.13677721971570209 0 0.2714271605611106 0.13850028165120221 0 0.26830057210000291 0.13098899690431151 0 0.2714271605611106 0.13850028165120221 0 0.27635868845084632 0.12921023570980339 0 0.26582086673704269 0.13677721971570209 0 0.2714271605611106 0.13850028165120221 0 0.2644884905978353 0.14140747097940221 0 0.2714271605611106 0.13850028165120221 0 0.27908832667359562 0.1461789490049179 0 0.28572918961761973 0.1329170944376451 0 0.2714271605611106 0.13850028165120221 0 0.27635868845084632 0.12921023570980339 0 0.28572918961761973 0.1329170944376451 0 0.27444179872713498 0.15397218164320109 0 0.27908832667359562 0.1461789490049179 0 0.28459699757731299 0.15538423896819231 0 0.27444179872713498 0.15397218164320109 0 0.27908832667359562 0.1461789490049179 0 0.26683792646461019 0.14837990025365519 0 0.2714271605611106 0.13850028165120221 0 0.26683792646461019 0.14837990025365519 0 0.2644884905978353 0.14140747097940221 0 0.2714271605611106 0.13850028165120221 0 0.27908832667359562 0.1461789490049179 0 0.26683792646461019 0.14837990025365519 0 0.27444179872713498 0.15397218164320109 0 0.26683792646461019 0.14837990025365519 0 0.26662457718943822 0.15778151416775679 0 0.26683792646461019 0.14837990025365519 0 0.26089650559579908 0.15486419017557659 0 0.26662457718943822 0.15778151416775679 0 0.26683792646461019 0.14837990025365519 0 0.25977640181544343 0.149169821029005 0 0.26089650559579908 0.15486419017557659 0 0.25977640181544343 0.149169821029005 0 0.26089650559579908 0.15486419017557659 0 0.25542294251383568 0.15331304307014779 0 0.2644884905978353 0.14140747097940221 0 0.26157115942920139 0.14518369563361441 0 0.25922943950960842 0.14195023598582601 0 0.26683792646461019 0.14837990025365519 0 0.25977640181544343 0.149169821029005 0 0.26157115942920139 0.14518369563361441 0 0.26683792646461019 0.14837990025365519 0 0.2644884905978353 0.14140747097940221 0 0.26157115942920139 0.14518369563361441 0 0.25977640181544343 0.149169821029005 0 0.26157115942920139 0.14518369563361441 0 0.25752353875851008 0.1450110499201836 0 0.26157115942920139 0.14518369563361441 0 0.25922943950960842 0.14195023598582601 0 0.25752353875851008 0.1450110499201836 0 0.25590199604446479 0.13990594503186299 0 0.256187158095811 0.14263426027866269 0 0.25339142914533358 0.14149739500770209 0 0.25590199604446479 0.13990594503186299 0 0.25922943950960842 0.14195023598582601 0 0.256187158095811 0.14263426027866269 0 0.256187158095811 0.14263426027866269 0 0.25488938702113811 0.14480667544773879 0 0.25752353875851008 0.1450110499201836 0 0.25922943950960842 0.14195023598582601 0 0.256187158095811 0.14263426027866269 0 0.25752353875851008 0.1450110499201836 0 0.256187158095811 0.14263426027866269 0 0.25488938702113811 0.14480667544773879 0 0.25339142914533358 0.14149739500770209 0 0.25977640181544343 0.149169821029005 0 0.25752353875851008 0.1450110499201836 0 0.2558003852596657 0.14836793622187339 0 0.25488938702113811 0.14480667544773879 0 0.25752353875851008 0.1450110499201836 0 0.2558003852596657 0.14836793622187339 0 0.25488938702113811 0.14480667544773879 0 0.2558003852596657 0.14836793622187339 0 0.25196689509501241 0.14669168335688329 0 0.25488938702113811 0.14480667544773879 0 0.25196689509501241 0.14669168335688329 0 0.25339142914533358 0.14149739500770209 0 0.26089650559579908 0.15486419017557659 0 0.25542294251383568 0.15331304307014779 0 0.25566471950830538 0.16030891383176771 0 0.25977640181544343 0.149169821029005 0 0.2558003852596657 0.14836793622187339 0 0.25542294251383568 0.15331304307014779 0 0.2498315443611612 0.15128786641935449 0 0.2558003852596657 0.14836793622187339 0 0.25542294251383568 0.15331304307014779 0 0.2498315443611612 0.15128786641935449 0 0.2558003852596657 0.14836793622187339 0 0.25196689509501241 0.14669168335688329 0 0.24941040752394411 0.15784075768116751 0 0.2498315443611612 0.15128786641935449 0 0.25542294251383568 0.15331304307014779 0 0.24941040752394411 0.15784075768116751 0 0.25542294251383568 0.15331304307014779 0 0.25566471950830538 0.16030891383176771 0 0.25566471950830538 0.16030891383176771 0 0.25629020684623588 0.16910191447875961 0 0.26135754872468292 0.16273563689024589 0 0.24941040752394411 0.15784075768116751 0 0.25566471950830538 0.16030891383176771 0 0.25001721952960188 0.16429476609722601 0 0.24581064233554051 0.17128420309500381 0 0.25629020684623588 0.16910191447875961 0 0.25001721952960188 0.16429476609722601 0 0.25566471950830538 0.16030891383176771 0 0.25629020684623588 0.16910191447875961 0 0.25001721952960188 0.16429476609722601 0 0.25629020684623588 0.16910191447875961 0 0.26420146151640539 0.17747853166607289 0 0.266381367802212 0.1673662331343852 0 0.25629020684623588 0.16910191447875961 0 0.26135754872468292 0.16273563689024589 0 0.266381367802212 0.1673662331343852 0 0.26135754872468292 0.16273563689024589 0 0.26662457718943822 0.15778151416775679 0 0.266381367802212 0.1673662331343852 0 0.26089650559579908 0.15486419017557659 0 0.25566471950830538 0.16030891383176771 0 0.26135754872468292 0.16273563689024589 0 0.26089650559579908 0.15486419017557659 0 0.26135754872468292 0.16273563689024589 0 0.26662457718943822 0.15778151416775679 0 0.25296995519570942 0.17925300746053391 0 0.25025279213335572 0.18946103504802941 0 0.26003398527288007 0.1878904206233854 0 0.24581064233554051 0.17128420309500381 0 0.25629020684623588 0.16910191447875961 0 0.25296995519570942 0.17925300746053391 0 0.25629020684623588 0.16910191447875961 0 0.25296995519570942 0.17925300746053391 0 0.26420146151640539 0.17747853166607289 0 0.25296995519570942 0.17925300746053391 0 0.26420146151640539 0.17747853166607289 0 0.26003398527288007 0.1878904206233854 0 0.26420146151640539 0.17747853166607289 0 0.27366772588978999 0.1871244304375709 0 0.26003398527288007 0.1878904206233854 0 0.26420146151640539 0.17747853166607289 0 0.27505002316596028 0.17334651649597471 0 0.266381367802212 0.1673662331343852 0 0.26420146151640539 0.17747853166607289 0 0.27505002316596028 0.17334651649597471 0 0.27366772588978999 0.1871244304375709 0 0.27505002316596028 0.17334651649597471 0 0.27366772588978999 0.1871244304375709 0 0.28421087910005122 0.17986771865816581 0 0.26662457718943822 0.15778151416775679 0 0.266381367802212 0.1673662331343852 0 0.27506116573071809 0.16213630582148339 0 0.27444179872713498 0.15397218164320109 0 0.26662457718943822 0.15778151416775679 0 0.27506116573071809 0.16213630582148339 0 0.27505002316596028 0.17334651649597471 0 0.266381367802212 0.1673662331343852 0 0.27506116573071809 0.16213630582148339 0 0.27505002316596028 0.17334651649597471 0 0.27506116573071809 0.16213630582148339 0 0.28668116700402191 0.16756918442768659 0 0.27444179872713498 0.15397218164320109 0 0.27506116573071809 0.16213630582148339 0 0.28459699757731299 0.15538423896819231 0 0.27506116573071809 0.16213630582148339 0 0.28668116700402191 0.16756918442768659 0 0.28459699757731299 0.15538423896819231 0 0.28668116700402191 0.16756918442768659 0 0.30169312858409097 0.15774635084870881 0 0.28459699757731299 0.15538423896819231 0 0.28668116700402191 0.16756918442768659 0 0.29785878913612468 0.17734455539323421 0 0.30169312858409097 0.15774635084870881 0 0.28421087910005122 0.17986771865816581 0 0.29785878913612468 0.17734455539323421 0 0.28779669030435873 0.19395390653636249 0 0.27366772588978999 0.1871244304375709 0 0.28421087910005122 0.17986771865816581 0 0.28779669030435873 0.19395390653636249 0 0.27505002316596028 0.17334651649597471 0 0.28668116700402191 0.16756918442768659 0 0.28421087910005122 0.17986771865816581 0 0.28668116700402191 0.16756918442768659 0 0.28421087910005122 0.17986771865816581 0 0.29785878913612468 0.17734455539323421 0 0.29785878913612468 0.17734455539323421 0 0.30790116937915901 0.19341464792186491 0 0.31865135257189192 0.17236535813478041 0 0.29785878913612468 0.17734455539323421 0 0.30169312858409097 0.15774635084870881 0 0.31865135257189192 0.17236535813478041 0 0.30169312858409097 0.15774635084870881 0 0.30798143977420261 0.14018233031354041 0 0.31785949562385007 0.14949216956971639 0 0.30169312858409097 0.15774635084870881 0 0.30798143977420261 0.14018233031354041 0 0.29317728538817861 0.14369124498297309 0 0.30798143977420261 0.14018233031354041 0 0.3111985336617063 0.1297988525326042 0 0.29997463010224951 0.1297385063248345 0 0.3045997524588191 0.1177320481728332 0 0.3111985336617063 0.1297988525326042 0 0.29997463010224951 0.1297385063248345 0 0.30798143977420261 0.14018233031354041 0 0.29997463010224951 0.1297385063248345 0 0.29317728538817861 0.14369124498297309 0 0.29997463010224951 0.1297385063248345 0 0.28572918961761973 0.1329170944376451 0 0.29317728538817861 0.14369124498297309 0 0.29452386970012728 0.1188365336502481 0 0.29997463010224951 0.1297385063248345 0 0.28572918961761973 0.1329170944376451 0 0.2836702182539419 0.11915709911980001 0 0.27635868845084632 0.12921023570980339 0 0.28572918961761973 0.1329170944376451 0 0.30169312858409097 0.15774635084870881 0 0.28459699757731299 0.15538423896819231 0 0.29317728538817861 0.14369124498297309 0 0.27908832667359562 0.1461789490049179 0 0.28572918961761973 0.1329170944376451 0 0.29317728538817861 0.14369124498297309 0 0.27908832667359562 0.1461789490049179 0 0.28459699757731299 0.15538423896819231 0 0.29317728538817861 0.14369124498297309 0 0.26575778900563951 0.25703322659721539 0 0.27263286715883522 0.24000648952790221 0 0.25976050777435111 0.24576734106427381 0 0.27822125856673208 0.25929863320419089 0 0.28757910298446082 0.25063161196160949 0 0.27263286715883522 0.24000648952790221 0 0.24630761234628959 0.2408699076082205 0 0.25041249206326122 0.25574829785010778 0 0.25976050777435111 0.24576734106427381 0 0.24630761234628959 0.2408699076082205 0 0.25976050777435111 0.24576734106427381 0 0.25872589572734472 0.2350123524764241 0 0.27263286715883522 0.24000648952790221 0 0.25976050777435111 0.24576734106427381 0 0.25872589572734472 0.2350123524764241 0 0.24881397098779351 0.22519728049980481 0 0.26363157908426121 0.22313752805116929 0 0.25422107852046649 0.20926999077951919 0 0.27263286715883522 0.24000648952790221 0 0.25872589572734472 0.2350123524764241 0 0.26363157908426121 0.22313752805116929 0 0.24881397098779351 0.22519728049980481 0 0.24630761234628959 0.2408699076082205 0 0.25872589572734472 0.2350123524764241 0 0.24881397098779351 0.22519728049980481 0 0.25872589572734472 0.2350123524764241 0 0.26363157908426121 0.22313752805116929 0 0.26363157908426121 0.22313752805116929 0 0.27793633502366272 0.22429575507130811 0 0.26841662697890079 0.21083396313724981 0 0.27263286715883522 0.24000648952790221 0 0.26363157908426121 0.22313752805116929 0 0.27793633502366272 0.22429575507130811 0 0.27263286715883522 0.24000648952790221 0 0.27793633502366272 0.22429575507130811 0 0.29047298188840548 0.23622152399030319 0 0.27793633502366272 0.22429575507130811 0 0.28107363744068931 0.2086729362396417 0 0.26841662697890079 0.21083396313724981 0 0.28107363744068931 0.2086729362396417 0 0.26841662697890079 0.21083396313724981 0 0.27597179891960738 0.19798908335673629 0 0.26363157908426121 0.22313752805116929 0 0.26841662697890079 0.21083396313724981 0 0.25422107852046649 0.20926999077951919 0 0.26841662697890079 0.21083396313724981 0 0.25422107852046649 0.20926999077951919 0 0.26542795926360102 0.1996320002383887 0 0.25422107852046649 0.20926999077951919 0 0.26542795926360102 0.1996320002383887 0 0.25638837266739573 0.19648540327515429 0 0.24872883409279989 0.19966322007310511 0 0.25422107852046649 0.20926999077951919 0 0.25638837266739573 0.19648540327515429 0 0.25638837266739573 0.19648540327515429 0 0.25025279213335572 0.18946103504802941 0 0.26003398527288007 0.1878904206233854 0 0.24872883409279989 0.19966322007310511 0 0.25638837266739573 0.19648540327515429 0 0.25025279213335572 0.18946103504802941 0 0.26542795926360102 0.1996320002383887 0 0.25638837266739573 0.19648540327515429 0 0.26003398527288007 0.1878904206233854 0 0.27366772588978999 0.1871244304375709 0 0.26542795926360102 0.1996320002383887 0 0.27597179891960738 0.19798908335673629 0 0.27366772588978999 0.1871244304375709 0 0.26542795926360102 0.1996320002383887 0 0.26003398527288007 0.1878904206233854 0 0.26841662697890079 0.21083396313724981 0 0.26542795926360102 0.1996320002383887 0 0.27597179891960738 0.19798908335673629 0 0.27366772588978999 0.1871244304375709 0 0.27597179891960738 0.19798908335673629 0 0.28779669030435873 0.19395390653636249 0 0.28107363744068931 0.2086729362396417 0 0.27597179891960738 0.19798908335673629 0 0.28779669030435873 0.19395390653636249 0 0.28779669030435873 0.19395390653636249 0 0.30790116937915901 0.19341464792186491 0 0.29715098618642599 0.2144639377089495 0 0.29785878913612468 0.17734455539323421 0 0.28779669030435873 0.19395390653636249 0 0.30790116937915901 0.19341464792186491 0 0.30790116937915901 0.19341464792186491 0 0.29715098618642599 0.2144639377089495 0 0.30790116937915901 0.19341464792186491 0 0.29715098618642599 0.2144639377089495 0 0.31873817601849752 0.21563033159921841 0 0.28107363744068931 0.2086729362396417 0 0.28779669030435873 0.19395390653636249 0 0.29715098618642599 0.2144639377089495 0 0.27793633502366272 0.22429575507130811 0 0.28107363744068931 0.2086729362396417 0 0.29715098618642599 0.2144639377089495 0 0.27793633502366272 0.22429575507130811 0 0.29715098618642599 0.2144639377089495 0 0.29047298188840548 0.23622152399030319 0 0.29715098618642599 0.2144639377089495 0 0.30661935144435909 0.2355420896933921 0 0.31873817601849752 0.21563033159921841 0 0.29715098618642599 0.2144639377089495 0 0.30661935144435909 0.2355420896933921 0 0.29047298188840548 0.23622152399030319 0 0.30261345906331061 0.25083718957487988 0 0.32348851209837898 0.25147081585919329 0 0.30661935144435909 0.2355420896933921 0 0.30261345906331061 0.25083718957487988 0 0.30661935144435909 0.2355420896933921 0 0.29047298188840548 0.23622152399030319 0 0.28757910298446082 0.25063161196160949 0 0.27263286715883522 0.24000648952790221 0 0.29047298188840548 0.23622152399030319 0 0.28757910298446082 0.25063161196160949 0 0.30261345906331061 0.25083718957487988 0 0.29047298188840548 0.23622152399030319 0 0.32348851209837898 0.25147081585919329 0 0.33957931001457742 0.2418625264458828 0 0.32402747163689699 0.23441122946809209 0 0.32348851209837898 0.25147081585919329 0 0.33863288663720092 0.25539617700511791 0 0.33957931001457742 0.2418625264458828 0 0.32348851209837898 0.25147081585919329 0 0.30661935144435909 0.2355420896933921 0 0.32402747163689699 0.23441122946809209 0 0.32402747163689699 0.23441122946809209 0 0.33825690040605921 0.22517880743033261 0 0.31873817601849752 0.21563033159921841 0 0.30661935144435909 0.2355420896933921 0 0.32402747163689699 0.23441122946809209 0 0.31873817601849752 0.21563033159921841 0 0.33957931001457742 0.2418625264458828 0 0.32402747163689699 0.23441122946809209 0 0.33825690040605921 0.22517880743033261 0 0.33825690040605921 0.22517880743033261 0 0.33662536984488328 0.2044566360145402 0 0.31873817601849752 0.21563033159921841 0 0.33825690040605921 0.22517880743033261 0 0.33662536984488328 0.2044566360145402 0 0.35365208774202572 0.21123799274107721 0 0.33662536984488328 0.2044566360145402 0 0.31873817601849752 0.21563033159921841 0 0.3237314012427196 0.19406673901566571 0 0.30790116937915901 0.19341464792186491 0 0.31873817601849752 0.21563033159921841 0 0.3237314012427196 0.19406673901566571 0 0.33662536984488328 0.2044566360145402 0 0.34976920490632341 0.1938109975824073 0 0.33674093839916608 0.18446672140792469 0 0.33662536984488328 0.2044566360145402 0 0.3237314012427196 0.19406673901566571 0 0.33674093839916608 0.18446672140792469 0 0.34976920490632341 0.1938109975824073 0 0.36550683118884753 0.19437698121945751 0 0.35565273130338743 0.17920355647792699 0 0.34976920490632341 0.1938109975824073 0 0.36550683118884753 0.19437698121945751 0 0.35365208774202572 0.21123799274107721 0 0.36550683118884753 0.19437698121945751 0 0.37246353910528412 0.21605795719763229 0 0.37917873259577051 0.21542908841168229 0 0.36550683118884753 0.19437698121945751 0 0.37917873259577051 0.21542908841168229 0 0.36550683118884753 0.19437698121945751 0 0.37246353910528412 0.21605795719763229 0 0.36550683118884753 0.19437698121945751 0 0.37246353910528412 0.21605795719763229 0 0.35365208774202572 0.21123799274107721 0 0.33662536984488328 0.2044566360145402 0 0.34976920490632341 0.1938109975824073 0 0.35365208774202572 0.21123799274107721 0 0.33825690040605921 0.22517880743033261 0 0.35365208774202572 0.21123799274107721 0 0.35929068100075662 0.23354657700209339 0 0.33957931001457742 0.2418625264458828 0 0.33825690040605921 0.22517880743033261 0 0.35929068100075662 0.23354657700209339 0 0.37246353910528412 0.21605795719763229 0 0.35365208774202572 0.21123799274107721 0 0.35929068100075662 0.23354657700209339 0 0.37246353910528412 0.21605795719763229 0 0.35929068100075662 0.23354657700209339 0 0.37942024702172022 0.2377389331758073 0 0.35377940830817178 0.25117155191046769 0 0.35929068100075662 0.23354657700209339 0 0.36903074781378592 0.24910711006666461 0 0.35929068100075662 0.23354657700209339 0 0.36903074781378592 0.24910711006666461 0 0.37942024702172022 0.2377389331758073 0 0.35377940830817178 0.25117155191046769 0 0.33957931001457742 0.2418625264458828 0 0.35929068100075662 0.23354657700209339 0 0.33863288663720092 0.25539617700511791 0 0.35377940830817178 0.25117155191046769 0 0.33957931001457742 0.2418625264458828 0 0.32940153576462478 0.15131606834769601 0 0.34015171895735741 0.13026677856061131 0 0.32940153576462478 0.15131606834769601 0 0.34150029021377248 0.1433882486413485 0 0.34015171895735741 0.13026677856061131 0 0.32940153576462478 0.15131606834769601 0 0.34149512344954158 0.15431447707476861 0 0.34150029021377248 0.1433882486413485 0 0.34150029021377248 0.1433882486413485 0 0.34015171895735741 0.13026677856061131 0 0.34477047750063339 0.1297509552903085 0 0.32940153576462478 0.15131606834769601 0 0.34015171895735741 0.13026677856061131 0 0.32875071052067989 0.14005790737035281 0 0.34221385506368018 0.12622903337020999 0 0.34015171895735741 0.13026677856061131 0 0.34477047750063339 0.1297509552903085 0 0.34221385506368018 0.12622903337020999 0 0.34015171895735741 0.13026677856061131 0 0.33799053614611652 0.12661757629934589 0 0.34221385506368018 0.12622903337020999 0 0.34015171895735741 0.13026677856061131 0 0.34015171895735741 0.13026677856061131 0 0.34477047750063339 0.1297509552903085 0 0.34015171895735741 0.13026677856061131 0 0.33668764509695898 0.13065364656648121 0 0.33799053614611652 0.12661757629934589 0 0.34015171895735741 0.13026677856061131 0 0.33668764509695898 0.13065364656648121 0 0.33668764509695898 0.13065364656648121 0 0.33799053614611652 0.12661757629934589 0 0.33317264064135932 0.1269523288060988 0 0.33668764509695898 0.13065364656648121 0 0.33317264064135932 0.1269523288060988 0 0.32860078059254472 0.13161830562587989 0 0.33449752538983252 0.1217646342514237 0 0.33799053614611652 0.12661757629934589 0 0.33317264064135932 0.1269523288060988 0 0.32808671598134409 0.1241074812873634 0 0.33317264064135932 0.1269523288060988 0 0.32860078059254472 0.13161830562587989 0 0.33668764509695898 0.13065364656648121 0 0.32860078059254472 0.13161830562587989 0 0.32875071052067989 0.14005790737035281 0 0.34015171895735741 0.13026677856061131 0 0.33668764509695898 0.13065364656648121 0 0.32875071052067989 0.14005790737035281 0 0.32860078059254472 0.13161830562587989 0 0.32875071052067989 0.14005790737035281 0 0.32067880652761022 0.13528500240322 0 0.32860078059254472 0.13161830562587989 0 0.32067880652761022 0.13528500240322 0 0.32090591112176742 0.12658786441626249 0 0.32808671598134409 0.1241074812873634 0 0.32860078059254472 0.13161830562587989 0 0.32090591112176742 0.12658786441626249 0 0.3111985336617063 0.1297988525326042 0 0.32067880652761022 0.13528500240322 0 0.32090591112176742 0.12658786441626249 0 0.31430519314945699 0.12026448582521029 0 0.3111985336617063 0.1297988525326042 0 0.32090591112176742 0.12658786441626249 0 0.30798143977420261 0.14018233031354041 0 0.3111985336617063 0.1297988525326042 0 0.32067880652761022 0.13528500240322 0 0.30798143977420261 0.14018233031354041 0 0.32067880652761022 0.13528500240322 0 0.31785949562385007 0.14949216956971639 0 0.32875071052067989 0.14005790737035281 0 0.32067880652761022 0.13528500240322 0 0.31785949562385007 0.14949216956971639 0 0.32940153576462478 0.15131606834769601 0 0.32875071052067989 0.14005790737035281 0 0.31785949562385007 0.14949216956971639 0 0.30169312858409097 0.15774635084870881 0 0.31785949562385007 0.14949216956971639 0 0.31865135257189192 0.17236535813478041 0 0.32940153576462478 0.15131606834769601 0 0.31785949562385007 0.14949216956971639 0 0.31865135257189192 0.17236535813478041 0 0.32940153576462478 0.15131606834769601 0 0.31865135257189192 0.17236535813478041 0 0.33540521421707242 0.16843723272344421 0 0.32940153576462478 0.15131606834769601 0 0.31865135257189192 0.17236535813478041 0 0.30790116937915901 0.19341464792186491 0 0.3237314012427196 0.19406673901566571 0 0.31865135257189192 0.17236535813478041 0 0.30790116937915901 0.19341464792186491 0 0.31865135257189192 0.17236535813478041 0 0.3237314012427196 0.19406673901566571 0 0.31865135257189192 0.17236535813478041 0 0.33674093839916608 0.18446672140792469 0 0.31865135257189192 0.17236535813478041 0 0.33674093839916608 0.18446672140792469 0 0.33540521421707242 0.16843723272344421 0 0.33674093839916608 0.18446672140792469 0 0.33540521421707242 0.16843723272344421 0 0.34416178601669301 0.17626568317896529 0 0.33674093839916608 0.18446672140792469 0 0.34686548729548528 0.18372314349909499 0 0.34416178601669301 0.17626568317896529 0 0.32940153576462478 0.15131606834769601 0 0.34149512344954158 0.15431447707476861 0 0.33540521421707242 0.16843723272344421 0 0.33540521421707242 0.16843723272344421 0 0.34579863141792783 0.16403013173639619 0 0.34416178601669301 0.17626568317896529 0 0.34149512344954158 0.15431447707476861 0 0.33540521421707242 0.16843723272344421 0 0.34579863141792783 0.16403013173639619 0 0.35859471329277659 0.1728349725764077 0 0.35168259539670532 0.151292963933358 0 0.34579863141792783 0.16403013173639619 0 0.35859471329277659 0.1728349725764077 0 0.35168259539670532 0.151292963933358 0 0.34149512344954158 0.15431447707476861 0 0.34579863141792783 0.16403013173639619 0 0.35168259539670532 0.151292963933358 0 0.34579863141792783 0.16403013173639619 0 0.35565273130338743 0.17920355647792699 0 0.34686548729548528 0.18372314349909499 0 0.34416178601669301 0.17626568317896529 0 0.35565273130338743 0.17920355647792699 0 0.34976920490632341 0.1938109975824073 0 0.33674093839916608 0.18446672140792469 0 0.34686548729548528 0.18372314349909499 0 0.34976920490632341 0.1938109975824073 0 0.34686548729548528 0.18372314349909499 0 0.35565273130338743 0.17920355647792699 0 0.34579863141792783 0.16403013173639619 0 0.34416178601669301 0.17626568317896529 0 0.35565273130338743 0.17920355647792699 0 0.34579863141792783 0.16403013173639619 0 0.35859471329277659 0.1728349725764077 0 0.35565273130338743 0.17920355647792699 0 0.36550683118884753 0.19437698121945751 0 0.35859471329277659 0.1728349725764077 0 0.36550683118884753 0.19437698121945751 0 0.35859471329277659 0.1728349725764077 0 0.35565273130338743 0.17920355647792699 0 0.36550683118884753 0.19437698121945751 0 0.35859471329277659 0.1728349725764077 0 0.3815729930114497 0.18149179778908639 0 0.35859471329277659 0.1728349725764077 0 0.37178225152614019 0.16245438502400261 0 0.3815729930114497 0.18149179778908639 0 0.36550683118884753 0.19437698121945751 0 0.35565273130338743 0.17920355647792699 0 0.35859471329277659 0.1728349725764077 0 0.37178225152614019 0.16245438502400261 0 0.35168259539670532 0.151292963933358 0 0.37178225152614019 0.16245438502400261 0 0.37131694435819229 0.1456778760954727 0 0.35168259539670532 0.151292963933358 0 0.34150029021377248 0.1433882486413485 0 0.35168259539670532 0.151292963933358 0 0.34477047750063339 0.1297509552903085 0 0.37131694435819229 0.1456778760954727 0 0.35168259539670532 0.151292963933358 0 0.35406974042912159 0.12871241296985611 0 0.34149512344954158 0.15431447707476861 0 0.34150029021377248 0.1433882486413485 0 0.35168259539670532 0.151292963933358 0 0.35168259539670532 0.151292963933358 0 0.34477047750063339 0.1297509552903085 0 0.35406974042912159 0.12871241296985611 0 0.35168259539670532 0.151292963933358 0 0.34477047750063339 0.1297509552903085 0 0.34477047750063339 0.1297509552903085 0 0.35406974042912159 0.12871241296985611 0 0.33969685467387117 0.122017397807014 0 0.34221385506368018 0.12622903337020999 0 0.35406974042912159 0.12871241296985611 0 0.34221385506368018 0.12622903337020999 0 0.34477047750063339 0.1297509552903085 0 0.35406974042912159 0.12871241296985611 0 0.37131694435819229 0.1456778760954727 0 0.35406974042912159 0.12871241296985611 0 0.37131694435819229 0.1456778760954727 0 0.35406974042912159 0.12871241296985611 0 0.37804489467616731 0.12603486610227391 0 0.35406974042912159 0.12871241296985611 0 0.37804489467616731 0.12603486610227391 0 0.37131694435819229 0.1456778760954727 0 0.37804489467616731 0.12603486610227391 0 0.39338603486834628 0.14149031900233919 0 0.37804489467616731 0.12603486610227391 0 0.39338603486834628 0.14149031900233919 0 0.4020200489232128 0.12335731923469211 0 0.39338603486834628 0.14149031900233919 0 0.40903522114429952 0.13779348905388711 0 0.4020200489232128 0.12335731923469211 0 0.39338603486834628 0.14149031900233919 0 0.40903522114429952 0.13779348905388711 0 0.41480782833718638 0.15276989204448449 0 0.39338603486834628 0.14149031900233919 0 0.38856414828726299 0.1626433392210892 0 0.41480782833718638 0.15276989204448449 0 0.37131694435819229 0.1456778760954727 0 0.38856414828726299 0.1626433392210892 0 0.37131694435819229 0.1456778760954727 0 0.39338603486834628 0.14149031900233919 0 0.38856414828726299 0.1626433392210892 0 0.37178225152614019 0.16245438502400261 0 0.38856414828726299 0.1626433392210892 0 0.3815729930114497 0.18149179778908639 0 0.37178225152614019 0.16245438502400261 0 0.37131694435819229 0.1456778760954727 0 0.38856414828726299 0.1626433392210892 0 0.3815729930114497 0.18149179778908639 0 0.40581135221633391 0.1796088023467057 0 0.39453555678059271 0.19580264576254841 0 0.38856414828726299 0.1626433392210892 0 0.3815729930114497 0.18149179778908639 0 0.40581135221633391 0.1796088023467057 0 0.38856414828726299 0.1626433392210892 0 0.40581135221633391 0.1796088023467057 0 0.38856414828726299 0.1626433392210892 0 0.40581135221633391 0.1796088023467057 0 0.41480782833718638 0.15276989204448449 0 0.40581135221633391 0.1796088023467057 0 0.42295855698879331 0.16986615779578229 0 0.41480782833718638 0.15276989204448449 0 0.40581135221633391 0.1796088023467057 0 0.43024024578209802 0.18735025595692831 0 0.42295855698879331 0.16986615779578229 0 0.43024024578209802 0.18735025595692831 0 0.42295855698879331 0.16986615779578229 0 0.44486134273007988 0.16332703822457731 0 0.42295855698879331 0.16986615779578229 0 0.43048215133666751 0.15379874765217891 0 0.44486134273007988 0.16332703822457731 0 0.42295855698879331 0.16986615779578229 0 0.43048215133666751 0.15379874765217891 0 0.41480782833718638 0.15276989204448449 0 0.43048215133666751 0.15379874765217891 0 0.42809169148940401 0.13822898607722789 0 0.41480782833718638 0.15276989204448449 0 0.43048215133666751 0.15379874765217891 0 0.42809169148940401 0.13822898607722789 0 0.44169133713787412 0.1448016641188227 0 0.42809169148940401 0.13822898607722789 0 0.43852133154566802 0.1262762900130682 0 0.44169133713787412 0.1448016641188227 0 0.42595365039593941 0.1290069618818232 0 0.43852133154566802 0.1262762900130682 0 0.42599520317025841 0.1206797723671106 0 0.42595365039593941 0.1290069618818232 0 0.42809169148940401 0.13822898607722789 0 0.43852133154566802 0.1262762900130682 0 0.42595365039593941 0.1290069618818232 0 0.42809169148940401 0.13822898607722789 0 0.41842320174277919 0.13484277031441511 0 0.41873682403158741 0.12500699063729481 0 0.40903522114429952 0.13779348905388711 0 0.4020200489232128 0.12335731923469211 0 0.41842320174277919 0.13484277031441511 0 0.41873682403158741 0.12500699063729481 0 0.40903522114429952 0.13779348905388711 0 0.42595365039593941 0.1290069618818232 0 0.41842320174277919 0.13484277031441511 0 0.41873682403158741 0.12500699063729481 0 0.41842320174277919 0.13484277031441511 0 0.40903522114429952 0.13779348905388711 0 0.41480782833718638 0.15276989204448449 0 0.42809169148940401 0.13822898607722789 0 0.41842320174277919 0.13484277031441511 0 0.41480782833718638 0.15276989204448449 0 0.38637695493815499 0.25941990915398272 0 0.40099805188613491 0.23539669142163061 0 0.38637695493815499 0.25941990915398272 0 0.39285063400269399 0.23648119560390701 0 0.40099805188613491 0.23539669142163061 0 0.38637695493815499 0.25941990915398272 0 0.39285063400269399 0.23648119560390701 0 0.37942024702172022 0.2377389331758073 0 0.38637695493815499 0.25941990915398272 0 0.36903074781378592 0.24910711006666461 0 0.37942024702172022 0.2377389331758073 0 0.38637695493815499 0.25941990915398272 0 0.37942024702172022 0.2377389331758073 0 0.39285063400269399 0.23648119560390701 0 0.37942024702172022 0.2377389331758073 0 0.37917873259577051 0.21542908841168229 0 0.37246353910528412 0.21605795719763229 0 0.37942024702172022 0.2377389331758073 0 0.37917873259577051 0.21542908841168229 0 0.39285063400269399 0.23648119560390701 0 0.38955730270527972 0.22031315239077939 0 0.37917873259577051 0.21542908841168229 0 0.37246353910528412 0.21605795719763229 0 0.37942024702172022 0.2377389331758073 0 0.39285063400269399 0.23648119560390701 0 0.37917873259577051 0.21542908841168229 0 0.39285063400269399 0.23648119560390701 0 0.38955730270527972 0.22031315239077939 0 0.3965258132162387 0.21987005203628229 0 0.40099805188613491 0.23539669142163061 0 0.3965258132162387 0.21987005203628229 0 0.41561914883411638 0.21137347368927939 0 0.39285063400269399 0.23648119560390701 0 0.40099805188613491 0.23539669142163061 0 0.3965258132162387 0.21987005203628229 0 0.3965258132162387 0.21987005203628229 0 0.40119482604610912 0.20646957736847099 0 0.41561914883411638 0.21137347368927939 0 0.40119482604610912 0.20646957736847099 0 0.38967403100641579 0.20947227351124581 0 0.39453555678059271 0.19580264576254841 0 0.38955730270527972 0.22031315239077939 0 0.3965258132162387 0.21987005203628229 0 0.38967403100641579 0.20947227351124581 0 0.3965258132162387 0.21987005203628229 0 0.40119482604610912 0.20646957736847099 0 0.38967403100641579 0.20947227351124581 0 0.38955730270527972 0.22031315239077939 0 0.37917873259577051 0.21542908841168229 0 0.38967403100641579 0.20947227351124581 0 0.37917873259577051 0.21542908841168229 0 0.38967403100641579 0.20947227351124581 0 0.3820936289166153 0.19931455733880399 0 0.36550683118884753 0.19437698121945751 0 0.3815729930114497 0.18149179778908639 0 0.3820936289166153 0.19931455733880399 0 0.3815729930114497 0.18149179778908639 0 0.3820936289166153 0.19931455733880399 0 0.39453555678059271 0.19580264576254841 0 0.36550683118884753 0.19437698121945751 0 0.37917873259577051 0.21542908841168229 0 0.3820936289166153 0.19931455733880399 0 0.38967403100641579 0.20947227351124581 0 0.3820936289166153 0.19931455733880399 0 0.39453555678059271 0.19580264576254841 0 0.40581135221633391 0.1796088023467057 0 0.39453555678059271 0.19580264576254841 0 0.40961958039318158 0.19582944184299891 0 0.40119482604610912 0.20646957736847099 0 0.39453555678059271 0.19580264576254841 0 0.40961958039318158 0.19582944184299891 0 0.40581135221633391 0.1796088023467057 0 0.43024024578209802 0.18735025595692831 0 0.40961958039318158 0.19582944184299891 0 0.43024024578209802 0.18735025595692831 0 0.40961958039318158 0.19582944184299891 0 0.41561914883411638 0.21137347368927939 0 0.43024024578209802 0.18735025595692831 0 0.43345932317928848 0.2057704434907815 0 0.44850949595109368 0.18464668617111479 0 0.43024024578209802 0.18735025595692831 0 0.41561914883411638 0.21137347368927939 0 0.43024024578209802 0.18735025595692831 0 0.43345932317928848 0.2057704434907815 0 0.41561914883411638 0.21137347368927939 0 0.43345932317928848 0.2057704434907815 0 0.41561914883411638 0.21137347368927939 0 0.4363270924829003 0.22514926445170791 0 0.40119482604610912 0.20646957736847099 0 0.40961958039318158 0.19582944184299891 0 0.41561914883411638 0.21137347368927939 0 0.40099805188613491 0.23539669142163061 0 0.41561914883411638 0.21137347368927939 0 0.40099805188613491 0.23539669142163061 0 0.41561914883411638 0.21137347368927939 0 0.4232081473149592 0.24021966581360871 0 0.41561914883411638 0.21137347368927939 0 0.4363270924829003 0.22514926445170791 0 0.4232081473149592 0.24021966581360871 0 0.41967314448458559 0.26137339942301852 0 0.4232081473149592 0.24021966581360871 0 0.4413598952759954 0.24779468791027959 0 0.4363270924829003 0.22514926445170791 0 0.4232081473149592 0.24021966581360871 0 0.4413598952759954 0.24779468791027959 0 0.41967314448458559 0.26137339942301852 0 0.40099805188613491 0.23539669142163061 0 0.4232081473149592 0.24021966581360871 0 0.46161573000890421 0.24915187884950349 0 0.4413598952759954 0.24779468791027959 0 0.4568178416158386 0.22880591375432019 0 0.46161573000890421 0.24915187884950349 0 0.4568178416158386 0.22880591375432019 0 0.47796397707992228 0.23283715127968829 0 0.4363270924829003 0.22514926445170791 0 0.4413598952759954 0.24779468791027959 0 0.4568178416158386 0.22880591375432019 0 0.4363270924829003 0.22514926445170791 0 0.4568178416158386 0.22880591375432019 0 0.45215764917210732 0.20596633411765239 0 0.4568178416158386 0.22880591375432019 0 0.45215764917210732 0.20596633411765239 0 0.47147023930072379 0.21217593547192409 0 0.43345932317928848 0.2057704434907815 0 0.4363270924829003 0.22514926445170791 0 0.45215764917210732 0.20596633411765239 0 0.43345932317928848 0.2057704434907815 0 0.45215764917210732 0.20596633411765239 0 0.44850949595109368 0.18464668617111479 0 0.45215764917210732 0.20596633411765239 0 0.44850949595109368 0.18464668617111479 0 0.45215764917210732 0.20596633411765239 0 0.47049326907397621 0.19011089757866281 0 0.44850949595109368 0.18464668617111479 0 0.45215764917210732 0.20596633411765239 0 0.47049326907397621 0.19011089757866281 0 0.47147023930072379 0.21217593547192409 0 0.47049326907397621 0.19011089757866281 0 0.48624285895690911 0.2010945872195504 0 0.47147023930072379 0.21217593547192409 0 0.5 0.18781449695468361 0 0.48624285895690911 0.2010945872195504 0 0.5 0.2164916818821023 0 0.47049326907397621 0.19011089757866281 0 0.5 0.18781449695468361 0 0.48624285895690911 0.2010945872195504 0 0.48624285895690911 0.2010945872195504 0 0.5 0.2164916818821023 0 0.47147023930072379 0.21217593547192409 0 0.5 0.2164916818821023 0 0.47147023930072379 0.21217593547192409 0 0.47796397707992228 0.23283715127968829 0 0.4568178416158386 0.22880591375432019 0 0.47147023930072379 0.21217593547192409 0 0.47796397707992228 0.23283715127968829 0 0.5 0.2164916818821023 0 0.47796397707992228 0.23283715127968829 0 0.5 0.2451688668095211 0 0.48064470393997399 0.25127095226602758 0 0.47796397707992228 0.23283715127968829 0 0.5 0.2451688668095211 0 0.48064470393997399 0.25127095226602758 0 0.46161573000890421 0.24915187884950349 0 0.47796397707992228 0.23283715127968829 0 0.45675163239290911 0.1437906779578251 0 0.47484182734543079 0.13622432740761761 0 0.46864192205574051 0.1242543176910743 0 0.45675163239290911 0.1437906779578251 0 0.45380131765663739 0.1285379590899399 0 0.46864192205574051 0.1242543176910743 0 0.45675163239290911 0.1437906779578251 0 0.46864192205574051 0.1242543176910743 0 0.43852133154566802 0.1262762900130682 0 0.44169133713787412 0.1448016641188227 0 0.44769140468327212 0.13585164779491399 0 0.43852133154566802 0.1262762900130682 0 0.44169133713787412 0.1448016641188227 0 0.45675163239290911 0.1437906779578251 0 0.45380131765663739 0.1285379590899399 0 0.44769140468327212 0.13585164779491399 0 0.45380131765663739 0.1285379590899399 0 0.44769140468327212 0.13585164779491399 0 0.43852133154566802 0.1262762900130682 0 0.45675163239290911 0.1437906779578251 0 0.44169133713787412 0.1448016641188227 0 0.44486134273007988 0.16332703822457731 0 0.45675163239290911 0.1437906779578251 0 0.44486134273007988 0.16332703822457731 0 0.43048215133666751 0.15379874765217891 0 0.44169133713787412 0.1448016641188227 0 0.44486134273007988 0.16332703822457731 0 0.44169133713787412 0.1448016641188227 0 0.44486134273007988 0.16332703822457731 0 0.45675163239290911 0.1437906779578251 0 0.44769140468327212 0.13585164779491399 0 0.44169133713787412 0.1448016641188227 0 0.43024024578209802 0.18735025595692831 0 0.44486134273007988 0.16332703822457731 0 0.44486134273007988 0.16332703822457731 0 0.44850949595109368 0.18464668617111479 0 0.45902006979820908 0.17046394313513691 0 0.44486134273007988 0.16332703822457731 0 0.44850949595109368 0.18464668617111479 0 0.43024024578209802 0.18735025595692831 0 0.44486134273007988 0.16332703822457731 0 0.44850949595109368 0.18464668617111479 0 0.47049326907397621 0.19011089757866281 0 0.44850949595109368 0.18464668617111479 0 0.45902006979820908 0.17046394313513691 0 0.45675163239290911 0.1437906779578251 0 0.45902006979820908 0.17046394313513691 0 0.47709126532049367 0.16717387013564869 0 0.45675163239290911 0.1437906779578251 0 0.44486134273007988 0.16332703822457731 0 0.45902006979820908 0.17046394313513691 0 0.47049326907397621 0.19011089757866281 0 0.5 0.18781449695468361 0 0.47709126532049367 0.16717387013564869 0 0.47049326907397621 0.19011089757866281 0 0.45902006979820908 0.17046394313513691 0 0.47709126532049367 0.16717387013564869 0 0.47709126532049367 0.16717387013564869 0 0.5 0.1591373120272648 0 0.4792036496539504 0.14897404072731199 0 0.5 0.18781449695468361 0 0.47709126532049367 0.16717387013564869 0 0.5 0.1591373120272648 0 0.5 0.1591373120272648 0 0.4792036496539504 0.14897404072731199 0 0.48825743579971681 0.14036036962914061 0 0.5 0.1591373120272648 0 0.48825743579971681 0.14036036962914061 0 0.50000000000000133 0.130460127099846 0 0.45675163239290911 0.1437906779578251 0 0.47709126532049367 0.16717387013564869 0 0.4792036496539504 0.14897404072731199 0 0.45675163239290911 0.1437906779578251 0 0.4792036496539504 0.14897404072731199 0 0.47484182734543079 0.13622432740761761 0 0.4792036496539504 0.14897404072731199 0 0.47484182734543079 0.13622432740761761 0 0.48825743579971681 0.14036036962914061 0 0.47484182734543079 0.13622432740761761 0 0.48432096102787031 0.12735722239546321 0 0.46864192205574051 0.1242543176910743 0 0.48432096102787031 0.12735722239546321 0 0.46864192205574051 0.1242543176910743 0 0.47484182734543079 0.13622432740761761 0 0.48432096102787031 0.12735722239546321 0 0.48825743579971681 0.14036036962914061 0 0.48432096102787031 0.12735722239546321 0 0.50000000000000133 0.130460127099846 0 0.49063798140718062 0.1203594949734528 0 0.48432096102787031 0.12735722239546321 0 0.48825743579971681 0.14036036962914061 0 0.50000000000000133 0.130460127099846 0 0.48432096102787031 0.12735722239546321 0 0.50000000000000133 0.130460127099846 0 0.49063798140718062 0.1203594949734528 0 0.48985478897238938 0.1039546985431635 0 0.48226498229216158 0.1167143470442227 0 0.50000000000000133 0.1192524523306094 0 0.49063798140718062 0.1203594949734528 0 0.48985478897238938 0.1039546985431635 0 0.50000000000000133 0.130460127099846 0 0.50000000000000133 0.1192524523306094 0 0.49063798140718062 0.1203594949734528 0 0.48432096102787031 0.12735722239546321 0 0.49063798140718062 0.1203594949734528 0 0.48226498229216158 0.1167143470442227 0 0.50000000000000133 0.1192524523306094 0 0.48985478897238938 0.1039546985431635 0 0.50000000000000133 0.1192524523306094 0 0.5 0.097906441532220168 0 0.48985478897238938 0.1039546985431635 0 0.5 0.097906441532220168 0 0.48985478897238938 0.1039546985431635 0 0.49092026332857941 0.09242097700504813 0 0.48985478897238938 0.1039546985431635 0 0.47970957794477559 0.088656944755718864 0 0.48985478897238938 0.1039546985431635 0 0.49092026332857941 0.09242097700504813 0 0.47970957794477559 0.088656944755718864 0 0.47232501158218337 0.1033182383824048 0 0.47970957794477559 0.088656944755718864 0 0.45591591252942748 0.1028419827280926 0 0.48985478897238938 0.1039546985431635 0 0.47232501158218337 0.1033182383824048 0 0.47562626430276378 0.11173871920356949 0 0.48985478897238938 0.1039546985431635 0 0.47232501158218337 0.1033182383824048 0 0.47970957794477559 0.088656944755718864 0 0.47232501158218337 0.1033182383824048 0 0.47562626430276378 0.11173871920356949 0 0.46684389490172101 0.1110478929853855 0 0.47562626430276378 0.11173871920356949 0 0.47140852611138662 0.119708644281992 0 0.46684389490172101 0.1110478929853855 0 0.47562626430276378 0.11173871920356949 0 0.47140852611138662 0.119708644281992 0 0.48226498229216158 0.1167143470442227 0 0.48432096102787031 0.12735722239546321 0 0.47140852611138662 0.119708644281992 0 0.46864192205574051 0.1242543176910743 0 0.47140852611138662 0.119708644281992 0 0.46864192205574051 0.1242543176910743 0 0.48432096102787031 0.12735722239546321 0 0.47140852611138662 0.119708644281992 0 0.48226498229216158 0.1167143470442227 0 0.48985478897238938 0.1039546985431635 0 0.47562626430276378 0.11173871920356949 0 0.48226498229216158 0.1167143470442227 0 0.50000000000000089 0.076560430733830925 0 0.48576424198696028 0.06574764364737308 0 0.5 0.050953319546331088 0 0.50000000000000089 0.076560430733830925 0 0.48576424198696028 0.06574764364737308 0 0.47970957794477559 0.088656944755718864 0 0.50000000000000089 0.076560430733830925 0 0.47970957794477559 0.088656944755718864 0 0.5 0.097906441532220168 0 0.50000000000000089 0.076560430733830925 0 0.49092026332857941 0.09242097700504813 0 0.50000000000000089 0.076560430733830925 0 0.49092026332857941 0.09242097700504813 0 0.47970957794477559 0.088656944755718864 0 0.47970957794477559 0.088656944755718864 0 0.4696515341021637 0.073490628562901755 0 0.46704042657189598 0.079836029336488243 0 0.47970957794477559 0.088656944755718864 0 0.4696515341021637 0.073490628562901755 0 0.48576424198696028 0.06574764364737308 0 0.47970957794477559 0.088656944755718864 0 0.4696515341021637 0.073490628562901755 0 0.48576424198696028 0.06574764364737308 0 0.4696515341021637 0.073490628562901755 0 0.47976768940144288 0.048906784765711767 0 0.45731921476305498 0.072125858165414142 0 0.44529106943651381 0.061016009157672461 0 0.46086011867346149 0.06023423514679746 0 0.4696515341021637 0.073490628562901755 0 0.46086011867346149 0.06023423514679746 0 0.4696515341021637 0.073490628562901755 0 0.45731921476305498 0.072125858165414142 0 0.46086011867346149 0.06023423514679746 0 0.4696515341021637 0.073490628562901755 0 0.45731921476305498 0.072125858165414142 0 0.46704042657189598 0.079836029336488243 0 0.4696515341021637 0.073490628562901755 0 0.46704042657189598 0.079836029336488243 0 0.46704042657189598 0.079836029336488243 0 0.45261316027317727 0.084613935612944197 0 0.45591591252942748 0.1028419827280926 0 0.47970957794477559 0.088656944755718864 0 0.46704042657189598 0.079836029336488243 0 0.45591591252942748 0.1028419827280926 0 0.45731921476305498 0.072125858165414142 0 0.46704042657189598 0.079836029336488243 0 0.45261316027317727 0.084613935612944197 0 0.43960774625893972 0.090559379848231106 0 0.45261316027317727 0.084613935612944197 0 0.45591591252942748 0.1028419827280926 0 0.43960774625893972 0.090559379848231106 0 0.45261316027317727 0.084613935612944197 0 0.44345725836157102 0.076496435562910872 0 0.45731921476305498 0.072125858165414142 0 0.45261316027317727 0.084613935612944197 0 0.44345725836157102 0.076496435562910872 0 0.45731921476305498 0.072125858165414142 0 0.44345725836157102 0.076496435562910872 0 0.44529106943651381 0.061016009157672461 0 0.46864192205574051 0.1242543176910743 0 0.44171094251881932 0.11892463752080649 0 0.46000272878399812 0.115598367416783 0 0.46864192205574051 0.1242543176910743 0 0.44531225444440892 0.1185224427584219 0 0.45380131765663739 0.1285379590899399 0 0.46864192205574051 0.1242543176910743 0 0.44171094251881932 0.11892463752080649 0 0.46000272878399812 0.115598367416783 0 0.45591591252942748 0.1028419827280926 0 0.44531225444440892 0.1185224427584219 0 0.46000272878399812 0.115598367416783 0 0.46684389490172101 0.1110478929853855 0 0.45591591252942748 0.1028419827280926 0 0.47140852611138662 0.119708644281992 0 0.46000272878399812 0.115598367416783 0 0.46864192205574051 0.1242543176910743 0 0.47140852611138662 0.119708644281992 0 0.46000272878399812 0.115598367416783 0 0.46684389490172101 0.1110478929853855 0 0.47970957794477559 0.088656944755718864 0 0.45591591252942748 0.1028419827280926 0 0.47232501158218337 0.1033182383824048 0 0.46684389490172101 0.1110478929853855 0 0.45591591252942748 0.1028419827280926 0 0.45591591252942748 0.1028419827280926 0 0.43212224711407943 0.1170270207004665 0 0.43417744285564469 0.1021732071927136 0 0.43960774625893972 0.090559379848231106 0 0.45591591252942748 0.1028419827280926 0 0.43417744285564469 0.1021732071927136 0 0.45591591252942748 0.1028419827280926 0 0.44531225444440892 0.1185224427584219 0 0.44171094251881932 0.11892463752080649 0 0.45591591252942748 0.1028419827280926 0 0.44171094251881932 0.11892463752080649 0 0.43212224711407943 0.1170270207004665 0 0.46864192205574051 0.1242543176910743 0 0.44531225444440892 0.1185224427584219 0 0.44171094251881932 0.11892463752080649 0 0.45591591252942748 0.1028419827280926 0 0.43212224711407943 0.1170270207004665 0 0.45380131765663739 0.1285379590899399 0 0.43852133154566802 0.1262762900130682 0 0.44171094251881932 0.11892463752080649 0 0.44531225444440892 0.1185224427584219 0 0.44171094251881932 0.11892463752080649 0 0.44171094251881932 0.11892463752080649 0 0.42599520317025841 0.1206797723671106 0 0.43852133154566802 0.1262762900130682 0 0.44171094251881932 0.11892463752080649 0 0.42599520317025841 0.1206797723671106 0 0.44171094251881932 0.11892463752080649 0 0.43212224711407943 0.1170270207004665 0 0.44171094251881932 0.11892463752080649 0 0.43212224711407943 0.1170270207004665 0 0.42599520317025841 0.1206797723671106 0 0.42595365039593941 0.1290069618818232 0 0.41873682403158741 0.12500699063729481 0 0.42599520317025841 0.1206797723671106 0 0.43212224711407943 0.1170270207004665 0 0.42599520317025841 0.1206797723671106 0 0.41873682403158741 0.12500699063729481 0 0.42599520317025841 0.1206797723671106 0 0.43212224711407943 0.1170270207004665 0 0.40683055361130238 0.1120217576297482 0 0.42118944816073672 0.1058806634476651 0 0.42599520317025841 0.1206797723671106 0 0.4020200489232128 0.12335731923469211 0 0.43212224711407943 0.1170270207004665 0 0.40683055361130238 0.1120217576297482 0 0.42599520317025841 0.1206797723671106 0 0.40683055361130238 0.1120217576297482 0 0.4020200489232128 0.12335731923469211 0 0.41873682403158741 0.12500699063729481 0 0.42599520317025841 0.1206797723671106 0 0.4020200489232128 0.12335731923469211 0 0.43212224711407943 0.1170270207004665 0 0.42599520317025841 0.1206797723671106 0 0.40683055361130238 0.1120217576297482 0 0.41146428643502908 0.1020415071894378 0 0.42205186021504071 0.094556989239112932 0 0.40478492819813128 0.093297191763047724 0 0.40683055361130238 0.1120217576297482 0 0.41146428643502908 0.1020415071894378 0 0.42118944816073672 0.1058806634476651 0 0.41146428643502908 0.1020415071894378 0 0.42118944816073672 0.1058806634476651 0 0.42205186021504071 0.094556989239112932 0 0.43960774625893972 0.090559379848231106 0 0.42205186021504071 0.094556989239112932 0 0.43417744285564469 0.1021732071927136 0 0.42118944816073672 0.1058806634476651 0 0.42205186021504071 0.094556989239112932 0 0.43417744285564469 0.1021732071927136 0 0.43212224711407943 0.1170270207004665 0 0.42118944816073672 0.1058806634476651 0 0.43417744285564469 0.1021732071927136 0 0.43960774625893972 0.090559379848231106 0 0.42205186021504071 0.094556989239112932 0 0.42808201245738459 0.082498063058821403 0 0.43960774625893972 0.090559379848231106 0 0.44345725836157102 0.076496435562910872 0 0.42808201245738459 0.082498063058821403 0 0.44345725836157102 0.076496435562910872 0 0.42091212322300448 0.068812973388033175 0 0.44529106943651381 0.061016009157672461 0 0.44345725836157102 0.076496435562910872 0 0.42808201245738459 0.082498063058821403 0 0.42091212322300448 0.068812973388033175 0 0.42091212322300448 0.068812973388033175 0 0.41212538356691081 0.082014549490785349 0 0.40177713673143478 0.068156191229979041 0 0.42091212322300448 0.068812973388033175 0 0.40177713673143478 0.068156191229979041 0 0.40590564655178618 0.052233909358075231 0 0.42808201245738459 0.082498063058821403 0 0.42091212322300448 0.068812973388033175 0 0.41212538356691081 0.082014549490785349 0 0.42205186021504071 0.094556989239112932 0 0.41212538356691081 0.082014549490785349 0 0.40478492819813128 0.093297191763047724 0 0.42205186021504071 0.094556989239112932 0 0.42808201245738459 0.082498063058821403 0 0.41212538356691081 0.082014549490785349 0 0.40478492819813128 0.093297191763047724 0 0.39495489363035668 0.082858441886826062 0 0.38737033184129938 0.095351891242818787 0 0.41212538356691081 0.082014549490785349 0 0.40478492819813128 0.093297191763047724 0 0.39495489363035668 0.082858441886826062 0 0.41212538356691081 0.082014549490785349 0 0.39495489363035668 0.082858441886826062 0 0.40177713673143478 0.068156191229979041 0 0.40177713673143478 0.068156191229979041 0 0.3826975789222149 0.06625251606434801 0 0.39162215688676788 0.054807323047881162 0 0.39495489363035668 0.082858441886826062 0 0.40177713673143478 0.068156191229979041 0 0.3826975789222149 0.06625251606434801 0 0.36385682379991408 0.072118617009762465 0 0.3826975789222149 0.06625251606434801 0 0.37988336411254831 0.081091420387560953 0 0.39495489363035668 0.082858441886826062 0 0.3826975789222149 0.06625251606434801 0 0.37988336411254831 0.081091420387560953 0 0.37034666698836433 0.091751167320359484 0 0.37988336411254831 0.081091420387560953 0 0.38737033184129938 0.095351891242818787 0 0.39495489363035668 0.082858441886826062 0 0.37988336411254831 0.081091420387560953 0 0.38737033184129938 0.095351891242818787 0 0.38737033184129938 0.095351891242818787 0 0.37527812732628069 0.10821902722473881 0 0.389967681550491 0.1110603284778619 0 0.37034666698836433 0.091751167320359484 0 0.38737033184129938 0.095351891242818787 0 0.37527812732628069 0.10821902722473881 0 0.37804489467616731 0.12603486610227391 0 0.389967681550491 0.1110603284778619 0 0.4020200489232128 0.12335731923469211 0 0.37804489467616731 0.12603486610227391 0 0.4020200489232128 0.12335731923469211 0 0.37804489467616731 0.12603486610227391 0 0.37527812732628069 0.10821902722473881 0 0.389967681550491 0.1110603284778619 0 0.40683055361130238 0.1120217576297482 0 0.389967681550491 0.1110603284778619 0 0.4020200489232128 0.12335731923469211 0 0.40683055361130238 0.1120217576297482 0 0.41146428643502908 0.1020415071894378 0 0.39836199151042018 0.1034729095332597 0 0.40478492819813128 0.093297191763047724 0 0.38737033184129938 0.095351891242818787 0 0.39836199151042018 0.1034729095332597 0 0.38737033184129938 0.095351891242818787 0 0.389967681550491 0.1110603284778619 0 0.39836199151042018 0.1034729095332597 0 0.40683055361130238 0.1120217576297482 0 0.389967681550491 0.1110603284778619 0 0.39836199151042018 0.1034729095332597 0 0.41146428643502908 0.1020415071894378 0 0.40478492819813128 0.093297191763047724 0 0.39836199151042018 0.1034729095332597 0 0.39572685037492938 0.02113566092200413 0 0.40800440928008858 0.033741044289701122 0 0.41021036192093979 0.0131495331699796 0 0.39318398276154259 0.0020807259136632738 0 0.41021036192093979 0.0131495331699796 0 0.40495720902163562 -0.0065677526476344283 0 0.39572685037492938 0.02113566092200413 0 0.39318398276154259 0.0020807259136632738 0 0.41021036192093979 0.0131495331699796 0 0.39572685037492938 0.02113566092200413 0 0.39318398276154259 0.0020807259136632738 0 0.38024000320352302 0.01347976240939153 0 0.39318398276154259 0.0020807259136632738 0 0.38024000320352302 0.01347976240939153 0 0.37405685028520158 -0.014297487307355351 0 0.39572685037492938 0.02113566092200413 0 0.38024000320352302 0.01347976240939153 0 0.38642315612184452 0.041257012126138408 0 0.38024000320352302 0.01347976240939153 0 0.38642315612184452 0.041257012126138408 0 0.36824447217576772 0.026219673568606099 0 0.38024000320352302 0.01347976240939153 0 0.38642315612184452 0.041257012126138408 0 0.36710318995093372 0.04368093285497493 0 0.38642315612184452 0.041257012126138408 0 0.39162215688676788 0.054807323047881162 0 0.36710318995093372 0.04368093285497493 0 0.3826975789222149 0.06625251606434801 0 0.39162215688676788 0.054807323047881162 0 0.38642315612184452 0.041257012126138408 0 0.40590564655178618 0.052233909358075231 0 0.39162215688676788 0.054807323047881162 0 0.40177713673143478 0.068156191229979041 0 0.40590564655178618 0.052233909358075231 0 0.39162215688676788 0.054807323047881162 0 0.38642315612184452 0.041257012126138408 0 0.40590564655178618 0.052233909358075231 0 0.40800440928008858 0.033741044289701122 0 0.39572685037492938 0.02113566092200413 0 0.38642315612184452 0.041257012126138408 0 0.40800440928008858 0.033741044289701122 0 0.40800440928008858 0.033741044289701122 0 0.4296455157754655 0.047692580111181208 0 0.42292663199009323 0.026542322531001229 0 0.40590564655178618 0.052233909358075231 0 0.40800440928008858 0.033741044289701122 0 0.4296455157754655 0.047692580111181208 0 0.42091212322300448 0.068812973388033175 0 0.40590564655178618 0.052233909358075231 0 0.4296455157754655 0.047692580111181208 0 0.42091212322300448 0.068812973388033175 0 0.4296455157754655 0.047692580111181208 0 0.42091212322300448 0.068812973388033175 0 0.4296455157754655 0.047692580111181208 0 0.44529106943651381 0.061016009157672461 0 0.4296455157754655 0.047692580111181208 0 0.43837890832792642 0.026572186834329339 0 0.4296455157754655 0.047692580111181208 0 0.42292663199009323 0.026542322531001229 0 0.43837890832792642 0.026572186834329339 0 0.42292663199009323 0.026542322531001229 0 0.42839396464604579 0.011556268249814891 0 0.43837890832792642 0.026572186834329339 0 0.42292663199009323 0.026542322531001229 0 0.41021036192093979 0.0131495331699796 0 0.42839396464604579 0.011556268249814891 0 0.40800440928008858 0.033741044289701122 0 0.42292663199009323 0.026542322531001229 0 0.41021036192093979 0.0131495331699796 0 0.41021036192093979 0.0131495331699796 0 0.42839396464604579 0.011556268249814891 0 0.42086187445582329 -0.0031481087447322049 0 0.41021036192093979 0.0131495331699796 0 0.42086187445582329 -0.0031481087447322049 0 0.40495720902163562 -0.0065677526476344283 0 0.42839396464604579 0.011556268249814891 0 0.44711230088038628 0.0054517935574769994 0 0.43471563275645492 -0.00080994766190405727 0 0.42839396464604579 0.011556268249814891 0 0.42086187445582329 -0.0031481087447322049 0 0.43471563275645492 -0.00080994766190405727 0 0.42839396464604579 0.011556268249814891 0 0.44711230088038628 0.0054517935574769994 0 0.42839396464604579 0.011556268249814891 0 0.44711230088038628 0.0054517935574769994 0 0.43837890832792642 0.026572186834329339 0 0.44711230088038628 0.0054517935574769994 0 0.43837890832792642 0.026572186834329339 0 0.45322370254051719 0.019291678126187019 0 0.44711230088038628 0.0054517935574769994 0 0.43837890832792642 0.026572186834329339 0 0.43837890832792642 0.026572186834329339 0 0.45322370254051719 0.019291678126187019 0 0.45146544591415788 0.032587607716614238 0 0.45322370254051719 0.019291678126187019 0 0.46749553119943499 0.02229979753180994 0 0.45146544591415788 0.032587607716614238 0 0.45322370254051719 0.019291678126187019 0 0.46749553119943499 0.02229979753180994 0 0.46504138553296809 0.010539599252184961 0 0.44711230088038628 0.0054517935574769994 0 0.47355615044019439 -0.003172146539814858 0 0.44711230088038628 0.0054517935574769994 0 0.45322370254051719 0.019291678126187019 0 0.46504138553296809 0.010539599252184961 0 0.44711230088038628 0.0054517935574769994 0 0.46504138553296809 0.010539599252184961 0 0.47355615044019439 -0.003172146539814858 0 0.4296455157754655 0.047692580111181208 0 0.44529106943651381 0.061016009157672461 0 0.45206870324475928 0.046977841730693179 0 0.44529106943651381 0.061016009157672461 0 0.45206870324475928 0.046977841730693179 0 0.46086011867346149 0.06023423514679746 0 0.4296455157754655 0.047692580111181208 0 0.45206870324475928 0.046977841730693179 0 0.45146544591415788 0.032587607716614238 0 0.4296455157754655 0.047692580111181208 0 0.43837890832792642 0.026572186834329339 0 0.45146544591415788 0.032587607716614238 0 0.46749553119943499 0.02229979753180994 0 0.45146544591415788 0.032587607716614238 0 0.46692355552232973 0.039221534643358057 0 0.45206870324475928 0.046977841730693179 0 0.45146544591415788 0.032587607716614238 0 0.46692355552232973 0.039221534643358057 0 0.45206870324475928 0.046977841730693179 0 0.46692355552232973 0.039221534643358057 0 0.46086011867346149 0.06023423514679746 0 0.45206870324475928 0.046977841730693179 0 0.46086011867346149 0.06023423514679746 0 0.4696515341021637 0.073490628562901755 0 0.47976768940144288 0.048906784765711767 0 0.46692355552232973 0.039221534643358057 0 0.46086011867346149 0.06023423514679746 0 0.47976768940144288 0.048906784765711767 0 0.4696515341021637 0.073490628562901755 0 0.46086011867346149 0.06023423514679746 0 0.47976768940144288 0.048906784765711767 0 0.46692355552232973 0.039221534643358057 0 0.47976768940144288 0.048906784765711767 0 0.4898838447007221 0.02432294096852184 0 0.47976768940144288 0.048906784765711767 0 0.4898838447007221 0.02432294096852184 0 0.5 0.050953319546331088 0 0.4898838447007221 0.02432294096852184 0 0.5 0.025346208358831501 0 0.47976768940144288 0.048906784765711767 0 0.5 0.050953319546331088 0 0.4898838447007221 0.02432294096852184 0 0.48576424198696028 0.06574764364737308 0 0.47976768940144288 0.048906784765711767 0 0.5 0.050953319546331088 0 0.46749553119943499 0.02229979753180994 0 0.46504138553296809 0.010539599252184961 0 0.48381924260430798 0.0088268735852657272 0 0.46504138553296809 0.010539599252184961 0 0.48381924260430798 0.0088268735852657272 0 0.47355615044019439 -0.003172146539814858 0 0.46749553119943499 0.02229979753180994 0 0.46692355552232973 0.039221534643358057 0 0.4898838447007221 0.02432294096852184 0 0.46749553119943499 0.02229979753180994 0 0.48381924260430798 0.0088268735852657272 0 0.4898838447007221 0.02432294096852184 0 0.4898838447007221 0.02432294096852184 0 0.5 0.025346208358831501 0 0.50000000000000067 -0.000260902828668252 0 0.48381924260430798 0.0088268735852657272 0 0.4898838447007221 0.02432294096852184 0 0.50000000000000067 -0.000260902828668252 0 0.48381924260430798 0.0088268735852657272 0 0.50000000000000067 -0.000260902828668252 0 0.47355615044019439 -0.003172146539814858 0 0.4898838447007221 0.02432294096852184 0 0.50000000000000067 -0.000260902828668252 0 0.50000000000000266 -0.01179608663710586 0 0.47355615044019439 -0.003172146539814858 0 0.48175470846920437 -0.02288741869234039 0 0.50000000000000266 -0.01179608663710586 0 0.50000000000000067 -0.000260902828668252 0 0.47355615044019439 -0.003172146539814858 0 0.50000000000000266 -0.01179608663710586 0 0.47355615044019439 -0.003172146539814858 0 0.47355615044019439 -0.003172146539814858 0 0.48175470846920437 -0.02288741869234039 0 0.4689800602210451 -0.016637418236572801 0 0.48175470846920437 -0.02288741869234039 0 0.4689800602210451 -0.016637418236572801 0 0.46115747429045928 -0.02851434094070383 0 0.50000000000000266 -0.01179608663710586 0 0.48175470846920437 -0.02288741869234039 0 0.5 -0.040831483535300972 0 0.48175470846920437 -0.02288741869234039 0 0.5 -0.040831483535300972 0 0.47715400674707698 -0.049379065423207899 0 0.5 -0.040831483535300972 0 0.47715400674707698 -0.049379065423207899 0 0.5 -0.069866880433496092 0 0.48175470846920437 -0.02288741869234039 0 0.47715400674707698 -0.049379065423207899 0 0.46115747429045928 -0.02851434094070383 0 0.47715400674707698 -0.049379065423207899 0 0.45896810010217431 -0.046412917026793642 0 0.46115747429045928 -0.02851434094070383 0 0.45896810010217431 -0.046412917026793642 0 0.44457353658776982 -0.028653385559743189 0 0.46115747429045928 -0.02851434094070383 0 0.47715400674707698 -0.049379065423207899 0 0.45896810010217431 -0.046412917026793642 0 0.4589310571896652 -0.064612902872274308 0 0.45896810010217431 -0.046412917026793642 0 0.43755657284290289 -0.047932576697251567 0 0.4589310571896652 -0.064612902872274308 0 0.43755657284290289 -0.047932576697251567 0 0.4589310571896652 -0.064612902872274308 0 0.43907683551692178 -0.06868249559629043 0 0.45896810010217431 -0.046412917026793642 0 0.43755657284290289 -0.047932576697251567 0 0.44457353658776982 -0.028653385559743189 0 0.44457353658776982 -0.028653385559743189 0 0.45413488758542331 -0.011531273691613209 0 0.43220869815724661 -0.01493063707187758 0 0.45413488758542331 -0.011531273691613209 0 0.43471563275645492 -0.00080994766190405727 0 0.43220869815724661 -0.01493063707187758 0 0.44711230088038628 0.0054517935574769994 0 0.45413488758542331 -0.011531273691613209 0 0.44711230088038628 0.0054517935574769994 0 0.45413488758542331 -0.011531273691613209 0 0.43471563275645492 -0.00080994766190405727 0 0.44711230088038628 0.0054517935574769994 0 0.47355615044019439 -0.003172146539814858 0 0.45413488758542331 -0.011531273691613209 0 0.47355615044019439 -0.003172146539814858 0 0.4689800602210451 -0.016637418236572801 0 0.45413488758542331 -0.011531273691613209 0 0.44457353658776982 -0.028653385559743189 0 0.45413488758542331 -0.011531273691613209 0 0.46115747429045928 -0.02851434094070383 0 0.45413488758542331 -0.011531273691613209 0 0.46115747429045928 -0.02851434094070383 0 0.4689800602210451 -0.016637418236572801 0 0.45413488758542331 -0.011531273691613209 0 0.46115747429045928 -0.02851434094070383 0 0.48391606276584082 -0.1173417323638061 0 0.469934991859984 -0.1028294330690226 0 0.46442706568376207 -0.1198048948405015 0 0.48391606276584082 -0.1173417323638061 0 0.46442706568376207 -0.1198048948405015 0 0.47373384400779239 -0.13369072138897181 0 0.48391606276584082 -0.1173417323638061 0 0.5 -0.098902277331691213 0 0.5 -0.12793767422988631 0 0.48391606276584082 -0.1173417323638061 0 0.5 -0.098902277331691213 0 0.469934991859984 -0.1028294330690226 0 0.5 -0.098902277331691213 0 0.469934991859984 -0.1028294330690226 0 0.47637193940147449 -0.078803081445854753 0 0.5 -0.098902277331691213 0 0.47637193940147449 -0.078803081445854753 0 0.5 -0.069866880433496092 0 0.47715400674707698 -0.049379065423207899 0 0.47637193940147449 -0.078803081445854753 0 0.5 -0.069866880433496092 0 0.47715400674707698 -0.049379065423207899 0 0.47637193940147449 -0.078803081445854753 0 0.4589310571896652 -0.064612902872274308 0 0.47637193940147449 -0.078803081445854753 0 0.4589310571896652 -0.064612902872274308 0 0.45221158061212069 -0.087227929545436483 0 0.4589310571896652 -0.064612902872274308 0 0.43907683551692178 -0.06868249559629043 0 0.45221158061212069 -0.087227929545436483 0 0.43907683551692178 -0.06868249559629043 0 0.45221158061212069 -0.087227929545436483 0 0.42539195251181677 -0.083891366035740392 0 0.45221158061212069 -0.087227929545436483 0 0.44072607172315992 -0.1097327843486752 0 0.42539195251181677 -0.083891366035740392 0 0.469934991859984 -0.1028294330690226 0 0.47637193940147449 -0.078803081445854753 0 0.45221158061212069 -0.087227929545436483 0 0.469934991859984 -0.1028294330690226 0 0.45221158061212069 -0.087227929545436483 0 0.44072607172315992 -0.1097327843486752 0 0.44072607172315992 -0.1097327843486752 0 0.45606019093450367 -0.13557420266160949 0 0.43839409269331708 -0.1271131320684511 0 0.44072607172315992 -0.1097327843486752 0 0.45606019093450367 -0.13557420266160949 0 0.44072607172315992 -0.1097327843486752 0 0.46442706568376207 -0.1198048948405015 0 0.45606019093450367 -0.13557420266160949 0 0.469934991859984 -0.1028294330690226 0 0.44072607172315992 -0.1097327843486752 0 0.46442706568376207 -0.1198048948405015 0 0.42072403496223282 -0.1038571164061219 0 0.40977361556113001 -0.106785673655395 0 0.42415855625244259 -0.12507454845041979 0 0.40639603939719848 -0.1229711193748627 0 0.39912779301009521 -0.11108366556949199 0 0.42415855625244259 -0.12507454845041979 0 0.39912779301009521 -0.11108366556949199 0 0.42415855625244259 -0.12507454845041979 0 0.40977361556113001 -0.106785673655395 0 0.39912779301009521 -0.11108366556949199 0 0.42415855625244259 -0.12507454845041979 0 0.44072607172315992 -0.1097327843486752 0 0.42415855625244259 -0.12507454845041979 0 0.43839409269331708 -0.1271131320684511 0 0.44072607172315992 -0.1097327843486752 0 0.42072403496223282 -0.1038571164061219 0 0.42415855625244259 -0.12507454845041979 0 0.44072607172315992 -0.1097327843486752 0 0.42539195251181677 -0.083891366035740392 0 0.44072607172315992 -0.1097327843486752 0 0.42072403496223282 -0.1038571164061219 0 0.42539195251181677 -0.083891366035740392 0 0.42072403496223282 -0.1038571164061219 0 0.40977361556113001 -0.106785673655395 0 0.40445427498848491 -0.092467791163946267 0 0.42072403496223282 -0.1038571164061219 0 0.42539195251181677 -0.083891366035740392 0 0.40445427498848491 -0.092467791163946267 0 0.42539195251181677 -0.083891366035740392 0 0.40460226163107432 -0.073823562117643862 0 0.40445427498848491 -0.092467791163946267 0 0.43907683551692178 -0.06868249559629043 0 0.42539195251181677 -0.083891366035740392 0 0.42129301442810352 -0.05974770283074942 0 0.42539195251181677 -0.083891366035740392 0 0.40460226163107432 -0.073823562117643862 0 0.42129301442810352 -0.05974770283074942 0 0.40460226163107432 -0.073823562117643862 0 0.42129301442810352 -0.05974770283074942 0 0.4010318514011999 -0.058136253205601493 0 0.40460226163107432 -0.073823562117643862 0 0.38993903591636642 -0.069430744358573993 0 0.4010318514011999 -0.058136253205601493 0 0.40460226163107432 -0.073823562117643862 0 0.38993903591636642 -0.069430744358573993 0 0.3928365148101316 -0.082514632318999442 0 0.38993903591636642 -0.069430744358573993 0 0.37815810463819649 -0.06703677336788634 0 0.38504622712882097 -0.05762446867462287 0 0.38993903591636642 -0.069430744358573993 0 0.37815810463819649 -0.06703677336788634 0 0.37981313965542951 -0.078905109309490878 0 0.38993903591636642 -0.069430744358573993 0 0.37981313965542951 -0.078905109309490878 0 0.3928365148101316 -0.082514632318999442 0 0.38444587293165811 -0.088962125669089995 0 0.36617726746017942 -0.077668852490302503 0 0.37981313965542951 -0.078905109309490878 0 0.38444587293165811 -0.088962125669089995 0 0.36617726746017942 -0.077668852490302503 0 0.37981313965542951 -0.078905109309490878 0 0.38444587293165811 -0.088962125669089995 0 0.3928365148101316 -0.082514632318999442 0 0.38444587293165811 -0.088962125669089995 0 0.39376450373777699 -0.091498461295251687 0 0.3928365148101316 -0.082514632318999442 0 0.38444587293165811 -0.088962125669089995 0 0.39376450373777699 -0.091498461295251687 0 0.39040360836247662 -0.098006788945071366 0 0.39376450373777699 -0.091498461295251687 0 0.3928365148101316 -0.082514632318999442 0 0.40445427498848491 -0.092467791163946267 0 0.40460226163107432 -0.073823562117643862 0 0.3928365148101316 -0.082514632318999442 0 0.40445427498848491 -0.092467791163946267 0 0.40977361556113001 -0.106785673655395 0 0.40445427498848491 -0.092467791163946267 0 0.40040341859239459 -0.10144524668699489 0 0.39376450373777699 -0.091498461295251687 0 0.40445427498848491 -0.092467791163946267 0 0.40040341859239459 -0.10144524668699489 0 0.40977361556113001 -0.106785673655395 0 0.40040341859239459 -0.10144524668699489 0 0.39912779301009521 -0.11108366556949199 0 0.39466681924950958 -0.10859021537722401 0 0.39040360836247662 -0.098006788945071366 0 0.39912779301009521 -0.11108366556949199 0 0.40040341859239459 -0.10144524668699489 0 0.39040360836247662 -0.098006788945071366 0 0.39912779301009521 -0.11108366556949199 0 0.39376450373777699 -0.091498461295251687 0 0.40040341859239459 -0.10144524668699489 0 0.39040360836247662 -0.098006788945071366 0 0.39466681924950958 -0.10859021537722401 0 0.39040360836247662 -0.098006788945071366 0 0.37409702976774778 -0.097092782688564305 0 0.39466681924950958 -0.10859021537722401 0 0.37409702976774778 -0.097092782688564305 0 0.39466681924950958 -0.10859021537722401 0 0.37920542432003229 -0.1096892947935698 0 0.37409702976774778 -0.097092782688564305 0 0.38444587293165811 -0.088962125669089995 0 0.39040360836247662 -0.098006788945071366 0 0.37409702976774778 -0.097092782688564305 0 0.39466681924950958 -0.10859021537722401 0 0.38417484191108481 -0.13255576966703439 0 0.39466681924950958 -0.10859021537722401 0 0.38225651972316321 -0.11769094407643541 0 0.38417484191108481 -0.13255576966703439 0 0.39466681924950958 -0.10859021537722401 0 0.37920542432003229 -0.1096892947935698 0 0.38225651972316321 -0.11769094407643541 0 0.37664669357380048 -0.11573157367898371 0 0.37920542432003229 -0.1096892947935698 0 0.38225651972316321 -0.11769094407643541 0 0.37664669357380048 -0.11573157367898371 0 0.38225651972316321 -0.11769094407643541 0 0.37929209382976392 -0.1250930192697868 0 0.37664669357380048 -0.11573157367898371 0 0.37236227426607521 -0.12679304760316701 0 0.37929209382976392 -0.1250930192697868 0 0.39466681924950958 -0.10859021537722401 0 0.39586104973499309 -0.1215566500555392 0 0.38417484191108481 -0.13255576966703439 0 0.39466681924950958 -0.10859021537722401 0 0.39586104973499309 -0.1215566500555392 0 0.39912779301009521 -0.11108366556949199 0 0.39466681924950958 -0.10859021537722401 0 0.39912779301009521 -0.11108366556949199 0 0.40639603939719848 -0.1229711193748627 0 0.39586104973499309 -0.1215566500555392 0 0.40073497230247102 -0.12874345614455471 0 0.40639603939719848 -0.1229711193748627 0 0.39586104973499309 -0.1215566500555392 0 0.39912779301009521 -0.11108366556949199 0 0.41165665751346397 -0.02026696942717696 0 0.4278211320511997 -0.030000692454697619 0 0.41301502097305348 -0.041227147826223859 0 0.41165665751346397 -0.02026696942717696 0 0.42086187445582329 -0.0031481087447322049 0 0.43220869815724661 -0.01493063707187758 0 0.41165665751346397 -0.02026696942717696 0 0.42086187445582329 -0.0031481087447322049 0 0.40495720902163562 -0.0065677526476344283 0 0.42086187445582329 -0.0031481087447322049 0 0.43471563275645492 -0.00080994766190405727 0 0.43220869815724661 -0.01493063707187758 0 0.44457353658776982 -0.028653385559743189 0 0.43220869815724661 -0.01493063707187758 0 0.4278211320511997 -0.030000692454697619 0 0.41165665751346397 -0.02026696942717696 0 0.43220869815724661 -0.01493063707187758 0 0.4278211320511997 -0.030000692454697619 0 0.43755657284290289 -0.047932576697251567 0 0.4278211320511997 -0.030000692454697619 0 0.41301502097305348 -0.041227147826223859 0 0.43755657284290289 -0.047932576697251567 0 0.44457353658776982 -0.028653385559743189 0 0.4278211320511997 -0.030000692454697619 0 0.43755657284290289 -0.047932576697251567 0 0.42129301442810352 -0.05974770283074942 0 0.41301502097305348 -0.041227147826223859 0 0.43755657284290289 -0.047932576697251567 0 0.43907683551692178 -0.06868249559629043 0 0.42129301442810352 -0.05974770283074942 0 0.42129301442810352 -0.05974770283074942 0 0.41301502097305348 -0.041227147826223859 0 0.4010318514011999 -0.058136253205601493 0 0.41301502097305348 -0.041227147826223859 0 0.39114023234298562 -0.046033305344888573 0 0.39240884751638461 -0.03116987811544698 0 0.41301502097305348 -0.041227147826223859 0 0.39114023234298562 -0.046033305344888573 0 0.4010318514011999 -0.058136253205601493 0 0.38993903591636642 -0.069430744358573993 0 0.4010318514011999 -0.058136253205601493 0 0.38504622712882097 -0.05762446867462287 0 0.39114023234298562 -0.046033305344888573 0 0.4010318514011999 -0.058136253205601493 0 0.38504622712882097 -0.05762446867462287 0 0.39114023234298562 -0.046033305344888573 0 0.38504622712882097 -0.05762446867462287 0 0.375095785018082 -0.051181509134385378 0 0.38504622712882097 -0.05762446867462287 0 0.375095785018082 -0.051181509134385378 0 0.37239806088762401 -0.06025611566404572 0 0.37815810463819649 -0.06703677336788634 0 0.38504622712882097 -0.05762446867462287 0 0.37239806088762401 -0.06025611566404572 0 0.39114023234298562 -0.046033305344888573 0 0.375095785018082 -0.051181509134385378 0 0.38024366202037241 -0.036860575113050867 0 0.39114023234298562 -0.046033305344888573 0 0.38024366202037241 -0.036860575113050867 0 0.39240884751638461 -0.03116987811544698 0 0.39240884751638461 -0.03116987811544698 0 0.39391262176302638 -0.01441536106440584 0 0.37405685028520158 -0.014297487307355351 0 0.38024366202037241 -0.036860575113050867 0 0.39240884751638461 -0.03116987811544698 0 0.37405685028520158 -0.014297487307355351 0 0.41165665751346397 -0.02026696942717696 0 0.39240884751638461 -0.03116987811544698 0 0.39391262176302638 -0.01441536106440584 0 0.41165665751346397 -0.02026696942717696 0 0.41301502097305348 -0.041227147826223859 0 0.39240884751638461 -0.03116987811544698 0 0.39318398276154259 0.0020807259136632738 0 0.39391262176302638 -0.01441536106440584 0 0.40495720902163562 -0.0065677526476344283 0 0.41165665751346397 -0.02026696942717696 0 0.39391262176302638 -0.01441536106440584 0 0.40495720902163562 -0.0065677526476344283 0 0.38024000320352302 0.01347976240939153 0 0.37405685028520158 -0.014297487307355351 0 0.39318398276154259 0.0020807259136632738 0 0.39391262176302638 -0.01441536106440584 0 0.37405685028520158 -0.014297487307355351 0 0.36539959957297091 0.00025665030201435241 0 0.38024000320352302 0.01347976240939153 0 0.37405685028520158 -0.014297487307355351 0 0.36539959957297091 0.00025665030201435241 0 0.37405685028520158 -0.014297487307355351 0 0.35682821544021681 -0.012287508278245171 0 0.38024366202037241 -0.036860575113050867 0 0.37405685028520158 -0.014297487307355351 0 0.36787369736688019 -0.042074737024102353 0 0.37405685028520158 -0.014297487307355351 0 0.35913220559209669 -0.031731232273784812 0 0.36787369736688019 -0.042074737024102353 0 0.37405685028520158 -0.014297487307355351 0 0.36787369736688019 -0.042074737024102353 0 0.37405685028520158 -0.014297487307355351 0 0.35682821544021681 -0.012287508278245171 0 0.35913220559209669 -0.031731232273784812 0 0.34636565004193459 -0.019664752908758489 0 0.35682821544021681 -0.012287508278245171 0 0.35913220559209669 -0.031731232273784812 0 0.34636565004193459 -0.019664752908758489 0 0.34608798868282098 -0.030788969227616061 0 0.35913220559209669 -0.031731232273784812 0 0.34636565004193459 -0.019664752908758489 0 0.34608798868282098 -0.030788969227616061 0 0.33959411106215398 -0.02635606235677403 0 0.35275398779750838 0.0013421146809626 0 0.34557664574349112 -0.0097085889701868169 0 0.33591441200837052 -0.001462233563770642 0 0.35275398779750838 0.0013421146809626 0 0.35682821544021681 -0.012287508278245171 0 0.34557664574349112 -0.0097085889701868169 0 0.36539959957297091 0.00025665030201435241 0 0.35275398779750838 0.0013421146809626 0 0.35682821544021681 -0.012287508278245171 0 0.34636565004193459 -0.019664752908758489 0 0.35682821544021681 -0.012287508278245171 0 0.34557664574349112 -0.0097085889701868169 0 0.33591441200837052 -0.001462233563770642 0 0.32596630539450411 -0.01586129188046052 0 0.32266444881465178 -0.0039488545408938851 0 0.33591441200837052 -0.001462233563770642 0 0.32596630539450411 -0.01586129188046052 0 0.33591441200837052 -0.001462233563770642 0 0.33618287249776702 -0.016987255937665039 0 0.32596630539450411 -0.01586129188046052 0 0.33591441200837052 -0.001462233563770642 0 0.33618287249776702 -0.016987255937665039 0 0.34636565004193459 -0.019664752908758489 0 0.34557664574349112 -0.0097085889701868169 0 0.33618287249776702 -0.016987255937665039 0 0.34557664574349112 -0.0097085889701868169 0 0.33591441200837052 -0.001462233563770642 0 0.33618287249776702 -0.016987255937665039 0 0.34636565004193459 -0.019664752908758489 0 0.33618287249776702 -0.016987255937665039 0 0.33959411106215398 -0.02635606235677403 0 0.33959411106215398 -0.02635606235677403 0 0.32968155427912998 -0.029064137554414171 0 0.33965248980911739 -0.035275196155416362 0 0.34608798868282098 -0.030788969227616061 0 0.33959411106215398 -0.02635606235677403 0 0.33965248980911739 -0.035275196155416362 0 0.33618287249776702 -0.016987255937665039 0 0.33959411106215398 -0.02635606235677403 0 0.32968155427912998 -0.029064137554414171 0 0.33618287249776702 -0.016987255937665039 0 0.32968155427912998 -0.029064137554414171 0 0.32596630539450411 -0.01586129188046052 0 0.32596630539450411 -0.01586129188046052 0 0.31601819878063259 -0.030260350197146801 0 0.32596630539450411 -0.01586129188046052 0 0.31601819878063259 -0.030260350197146801 0 0.31450132837943701 -0.01462296163473341 0 0.32968155427912998 -0.029064137554414171 0 0.32596630539450411 -0.01586129188046052 0 0.31601819878063259 -0.030260350197146801 0 0.30935455551858998 0.00092920026984533166 0 0.31450132837943701 -0.01462296163473341 0 0.32266444881465178 -0.0039488545408938851 0 0.32596630539450411 -0.01586129188046052 0 0.31450132837943701 -0.01462296163473341 0 0.32266444881465178 -0.0039488545408938851 0 0.31879909146930058 -0.048380646282499398 0 0.33335387672900069 -0.057378112797007198 0 0.32180095088297372 -0.064334437345904494 0 0.31879909146930058 -0.048380646282499398 0 0.32180095088297372 -0.064334437345904494 0 0.3121535764896825 -0.061210408730125593 0 0.31879909146930058 -0.048380646282499398 0 0.33335387672900069 -0.057378112797007198 0 0.32968155427912998 -0.029064137554414171 0 0.31601819878063259 -0.030260350197146801 0 0.33349595215927019 -0.043587443086807072 0 0.31601819878063259 -0.030260350197146801 0 0.3193927502551519 -0.040568491394656271 0 0.33349595215927019 -0.043587443086807072 0 0.31601819878063259 -0.030260350197146801 0 0.33349595215927019 -0.043587443086807072 0 0.31879909146930058 -0.048380646282499398 0 0.3193927502551519 -0.040568491394656271 0 0.30925775861140431 -0.04004552601217181 0 0.31601819878063259 -0.030260350197146801 0 0.3193927502551519 -0.040568491394656271 0 0.30925775861140431 -0.04004552601217181 0 0.31601819878063259 -0.030260350197146801 0 0.30925775861140431 -0.04004552601217181 0 0.31879909146930058 -0.048380646282499398 0 0.3193927502551519 -0.040568491394656271 0 0.33349595215927019 -0.043587443086807072 0 0.32968155427912998 -0.029064137554414171 0 0.33349595215927019 -0.043587443086807072 0 0.33965248980911739 -0.035275196155416362 0 0.33349595215927019 -0.043587443086807072 0 0.33965248980911739 -0.035275196155416362 0 0.34847247160287098 -0.041750677577505113 0 0.33349595215927019 -0.043587443086807072 0 0.35097370553790852 -0.056914535976466521 0 0.33349595215927019 -0.043587443086807072 0 0.33335387672900069 -0.057378112797007198 0 0.35097370553790852 -0.056914535976466521 0 0.31879909146930058 -0.048380646282499398 0 0.33349595215927019 -0.043587443086807072 0 0.33335387672900069 -0.057378112797007198 0 0.33335387672900069 -0.057378112797007198 0 0.34790866198870007 -0.06637557931151622 0 0.35097370553790852 -0.056914535976466521 0 0.34790866198870007 -0.06637557931151622 0 0.33349595215927019 -0.043587443086807072 0 0.35097370553790852 -0.056914535976466521 0 0.34847247160287098 -0.041750677577505113 0 0.33335387672900069 -0.057378112797007198 0 0.35097370553790852 -0.056914535976466521 0 0.34790866198870007 -0.06637557931151622 0 0.35097370553790852 -0.056914535976466521 0 0.36539342259666868 -0.067909822642978984 0 0.35097370553790852 -0.056914535976466521 0 0.35913220559209669 -0.031731232273784812 0 0.36787369736688019 -0.042074737024102353 0 0.35097370553790852 -0.056914535976466521 0 0.35913220559209669 -0.031731232273784812 0 0.35097370553790852 -0.056914535976466521 0 0.34847247160287098 -0.041750677577505113 0 0.35913220559209669 -0.031731232273784812 0 0.34608798868282098 -0.030788969227616061 0 0.33965248980911739 -0.035275196155416362 0 0.34847247160287098 -0.041750677577505113 0 0.34608798868282098 -0.030788969227616061 0 0.34847247160287098 -0.041750677577505113 0 0.35913220559209669 -0.031731232273784812 0 0.375095785018082 -0.051181509134385378 0 0.38024366202037241 -0.036860575113050867 0 0.36787369736688019 -0.042074737024102353 0 0.35097370553790852 -0.056914535976466521 0 0.36787369736688019 -0.042074737024102353 0 0.36547192845068061 -0.055464517012897473 0 0.35097370553790852 -0.056914535976466521 0 0.36547192845068061 -0.055464517012897473 0 0.36539342259666868 -0.067909822642978984 0 0.375095785018082 -0.051181509134385378 0 0.36787369736688019 -0.042074737024102353 0 0.36547192845068061 -0.055464517012897473 0 0.375095785018082 -0.051181509134385378 0 0.36547192845068061 -0.055464517012897473 0 0.37239806088762401 -0.06025611566404572 0 0.36547192845068061 -0.055464517012897473 0 0.37239806088762401 -0.06025611566404572 0 0.36539342259666868 -0.067909822642978984 0 0.36539342259666868 -0.067909822642978984 0 0.36617726746017942 -0.077668852490302503 0 0.34790866198870007 -0.06637557931151622 0 0.37815810463819649 -0.06703677336788634 0 0.37239806088762401 -0.06025611566404572 0 0.36539342259666868 -0.067909822642978984 0 0.37981313965542951 -0.078905109309490878 0 0.36539342259666868 -0.067909822642978984 0 0.36617726746017942 -0.077668852490302503 0 0.37981313965542951 -0.078905109309490878 0 0.36539342259666868 -0.067909822642978984 0 0.37815810463819649 -0.06703677336788634 0 0.37981313965542951 -0.078905109309490878 0 0.36539342259666868 -0.067909822642978984 0 0.36617726746017942 -0.077668852490302503 0 0.34906626652540051 -0.083101899807636562 0 0.37409702976774778 -0.097092782688564305 0 0.38444587293165811 -0.088962125669089995 0 0.36617726746017942 -0.077668852490302503 0 0.37409702976774778 -0.097092782688564305 0 0.34906626652540051 -0.083101899807636562 0 0.37409702976774778 -0.097092782688564305 0 0.34906626652540051 -0.083101899807636562 0 0.37409702976774778 -0.097092782688564305 0 0.35401147566409552 -0.096307558758280135 0 0.34906626652540051 -0.083101899807636562 0 0.34790866198870007 -0.06637557931151622 0 0.34001713101046832 -0.090734814463069385 0 0.34790866198870007 -0.06637557931151622 0 0.34001713101046832 -0.090734814463069385 0 0.34906626652540051 -0.083101899807636562 0 0.35401147566409552 -0.096307558758280135 0 0.34001713101046832 -0.090734814463069385 0 0.36617726746017942 -0.077668852490302503 0 0.34906626652540051 -0.083101899807636562 0 0.34790866198870007 -0.06637557931151622 0 0.36617726746017942 -0.077668852490302503 0 0.34790866198870007 -0.06637557931151622 0 0.35097370553790852 -0.056914535976466521 0 0.36539342259666868 -0.067909822642978984 0 0.34790866198870007 -0.06637557931151622 0 0.36832827627073278 -0.1190597956271514 0 0.35915174036031172 -0.11516322506607141 0 0.36173796880781889 -0.12829493676382239 0 0.37664669357380048 -0.11573157367898371 0 0.36832827627073278 -0.1190597956271514 0 0.37236227426607521 -0.12679304760316701 0 0.36832827627073278 -0.1190597956271514 0 0.37236227426607521 -0.12679304760316701 0 0.36173796880781889 -0.12829493676382239 0 0.37664669357380048 -0.11573157367898371 0 0.36832827627073278 -0.1190597956271514 0 0.36859033395221258 -0.1089289790956252 0 0.37664669357380048 -0.11573157367898371 0 0.37920542432003229 -0.1096892947935698 0 0.36859033395221258 -0.1089289790956252 0 0.36832827627073278 -0.1190597956271514 0 0.36859033395221258 -0.1089289790956252 0 0.35915174036031172 -0.11516322506607141 0 0.37409702976774778 -0.097092782688564305 0 0.35401147566409552 -0.096307558758280135 0 0.35886290797545839 -0.1037314498221794 0 0.36859033395221258 -0.1089289790956252 0 0.37409702976774778 -0.097092782688564305 0 0.35886290797545839 -0.1037314498221794 0 0.36859033395221258 -0.1089289790956252 0 0.35886290797545839 -0.1037314498221794 0 0.35915174036031172 -0.11516322506607141 0 0.37920542432003229 -0.1096892947935698 0 0.36859033395221258 -0.1089289790956252 0 0.37409702976774778 -0.097092782688564305 0 0.35401147566409552 -0.096307558758280135 0 0.34801404304140221 -0.106876847009951 0 0.34001713101046832 -0.090734814463069385 0 0.34801404304140221 -0.106876847009951 0 0.35886290797545839 -0.1037314498221794 0 0.35915174036031172 -0.11516322506607141 0 0.35401147566409552 -0.096307558758280135 0 0.34801404304140221 -0.106876847009951 0 0.35886290797545839 -0.1037314498221794 0 0.34801404304140221 -0.106876847009951 0 0.35915174036031172 -0.11516322506607141 0 0.34837000745965579 -0.12367349169611599 0 0.35915174036031172 -0.11516322506607141 0 0.34837000745965579 -0.12367349169611599 0 0.36173796880781889 -0.12829493676382239 0 0.34801404304140221 -0.106876847009951 0 0.34837000745965579 -0.12367349169611599 0 0.33212560003223679 -0.1150940496146228 0 0.34837000745965579 -0.12367349169611599 0 0.33212560003223679 -0.1150940496146228 0 0.33686333436234372 -0.12959799951515641 0 0.34801404304140221 -0.106876847009951 0 0.33212560003223679 -0.1150940496146228 0 0.34001713101046832 -0.090734814463069385 0 0.33212560003223679 -0.1150940496146228 0 0.32486783881012371 -0.099410810275282091 0 0.34001713101046832 -0.090734814463069385 0 0.33212560003223679 -0.1150940496146228 0 0.34001713101046832 -0.090734814463069385 0 0.33212560003223679 -0.1150940496146228 0 0.32486783881012371 -0.099410810275282091 0 0.31501231188189061 -0.10866030616172941 0 0.32486783881012371 -0.099410810275282091 0 0.32470216545264791 -0.088342653927208969 0 0.31248198567337498 -0.094222227209779852 0 0.32486783881012371 -0.099410810275282091 0 0.31501231188189061 -0.10866030616172941 0 0.31248198567337498 -0.094222227209779852 0 0.33212560003223679 -0.1150940496146228 0 0.31501231188189061 -0.10866030616172941 0 0.31881966292308639 -0.1239627840246275 0 0.31501231188189061 -0.10866030616172941 0 0.31881966292308639 -0.1239627840246275 0 0.30994830754998098 -0.1182415602296725 0 0.31881966292308639 -0.1239627840246275 0 0.30994830754998098 -0.1182415602296725 0 0.3092803028231399 -0.12856934063755959 0 0.34790866198870007 -0.06637557931151622 0 0.33715447718778602 -0.076271596375207862 0 0.34001713101046832 -0.090734814463069385 0 0.33115517428630198 -0.068184831959898634 0 0.33739304754794719 -0.067052530110907477 0 0.33715447718778602 -0.076271596375207862 0 0.33115517428630198 -0.068184831959898634 0 0.33715447718778602 -0.076271596375207862 0 0.32534777862562819 -0.077130825183131871 0 0.33335387672900069 -0.057378112797007198 0 0.33115517428630198 -0.068184831959898634 0 0.32180095088297372 -0.064334437345904494 0 0.33335387672900069 -0.057378112797007198 0 0.33115517428630198 -0.068184831959898634 0 0.33739304754794719 -0.067052530110907477 0 0.34790866198870007 -0.06637557931151622 0 0.33739304754794719 -0.067052530110907477 0 0.33715447718778602 -0.076271596375207862 0 0.33335387672900069 -0.057378112797007198 0 0.34790866198870007 -0.06637557931151622 0 0.33739304754794719 -0.067052530110907477 0 0.33715447718778602 -0.076271596375207862 0 0.34001713101046832 -0.090734814463069385 0 0.33180538806913262 -0.083119972487154511 0 0.32486783881012371 -0.099410810275282091 0 0.34001713101046832 -0.090734814463069385 0 0.32470216545264791 -0.088342653927208969 0 0.34001713101046832 -0.090734814463069385 0 0.33180538806913262 -0.083119972487154511 0 0.32470216545264791 -0.088342653927208969 0 0.33715447718778602 -0.076271596375207862 0 0.33180538806913262 -0.083119972487154511 0 0.32534777862562819 -0.077130825183131871 0 0.33180538806913262 -0.083119972487154511 0 0.32470216545264791 -0.088342653927208969 0 0.32534777862562819 -0.077130825183131871 0 0.32470216545264791 -0.088342653927208969 0 0.31589929327909971 -0.082893663469328943 0 0.32534777862562819 -0.077130825183131871 0 0.32470216545264791 -0.088342653927208969 0 0.31589929327909971 -0.082893663469328943 0 0.31248198567337498 -0.094222227209779852 0 0.31589929327909971 -0.082893663469328943 0 0.31269863360050948 -0.07261149385070291 0 0.32534777862562819 -0.077130825183131871 0 0.31269863360050948 -0.07261149385070291 0 0.32534777862562819 -0.077130825183131871 0 0.32180095088297372 -0.064334437345904494 0 0.33115517428630198 -0.068184831959898634 0 0.32534777862562819 -0.077130825183131871 0 0.32180095088297372 -0.064334437345904494 0 0.31269863360050948 -0.07261149385070291 0 0.32180095088297372 -0.064334437345904494 0 0.3121535764896825 -0.061210408730125593 0 0.31269863360050948 -0.07261149385070291 0 0.3009724056216877 -0.068333485517239764 0 0.3121535764896825 -0.061210408730125593 0 0.3009724056216877 -0.068333485517239764 0 0.3044485212423893 -0.082338962117857434 0 0.29084977886719482 -0.075611315055951284 0 0.31269863360050948 -0.07261149385070291 0 0.3009724056216877 -0.068333485517239764 0 0.3044485212423893 -0.082338962117857434 0 0.31589929327909971 -0.082893663469328943 0 0.31269863360050948 -0.07261149385070291 0 0.3044485212423893 -0.082338962117857434 0 0.31589929327909971 -0.082893663469328943 0 0.3044485212423893 -0.082338962117857434 0 0.31248198567337498 -0.094222227209779852 0 0.30419242587853018 -0.093133666709737703 0 0.3044485212423893 -0.082338962117857434 0 0.31248198567337498 -0.094222227209779852 0 0.30419242587853018 -0.093133666709737703 0 0.3044485212423893 -0.082338962117857434 0 0.29626631841744211 -0.093281921255538372 0 0.3044485212423893 -0.082338962117857434 0 0.29176080873535698 -0.085426979556111726 0 0.29626631841744211 -0.093281921255538372 0 0.3044485212423893 -0.082338962117857434 0 0.29176080873535698 -0.085426979556111726 0 0.29084977886719482 -0.075611315055951284 0 0.29176080873535698 -0.085426979556111726 0 0.29626631841744211 -0.093281921255538372 0 0.28896478051191132 -0.093327262684916312 0 0.29176080873535698 -0.085426979556111726 0 0.28179495951021249 -0.086934465492722726 0 0.28896478051191132 -0.093327262684916312 0 0.29176080873535698 -0.085426979556111726 0 0.28179495951021249 -0.086934465492722726 0 0.29084977886719482 -0.075611315055951284 0 0.28179495951021249 -0.086934465492722726 0 0.29084977886719482 -0.075611315055951284 0 0.27747042620330992 -0.068472871150574072 0 0.28866968865256848 -0.062994515740180737 0 0.29084977886719482 -0.075611315055951284 0 0.27747042620330992 -0.068472871150574072 0 0.3009724056216877 -0.068333485517239764 0 0.28866968865256848 -0.062994515740180737 0 0.29084977886719482 -0.075611315055951284 0 0.301274442849636 -0.1193541809974706 0 0.29567939529472381 -0.12306221019010211 0 0.30005833943886973 -0.1281528908806682 0 0.301274442849636 -0.1193541809974706 0 0.30994830754998098 -0.1182415602296725 0 0.3092803028231399 -0.12856934063755959 0 0.31501231188189061 -0.10866030616172941 0 0.30994830754998098 -0.1182415602296725 0 0.30492403505702997 -0.1104186093256182 0 0.301274442849636 -0.1193541809974706 0 0.30994830754998098 -0.1182415602296725 0 0.30492403505702997 -0.1104186093256182 0 0.301274442849636 -0.1193541809974706 0 0.29755825045946138 -0.1135807413468744 0 0.29217205763344101 -0.1173360627731565 0 0.301274442849636 -0.1193541809974706 0 0.30492403505702997 -0.1104186093256182 0 0.29755825045946138 -0.1135807413468744 0 0.30492403505702997 -0.1104186093256182 0 0.29755825045946138 -0.1135807413468744 0 0.29610459929270783 -0.103453034544325 0 0.30492403505702997 -0.1104186093256182 0 0.30529234940372452 -0.1009844836821167 0 0.29610459929270783 -0.103453034544325 0 0.31501231188189061 -0.10866030616172941 0 0.30492403505702997 -0.1104186093256182 0 0.30529234940372452 -0.1009844836821167 0 0.30419242587853018 -0.093133666709737703 0 0.31248198567337498 -0.094222227209779852 0 0.30529234940372452 -0.1009844836821167 0 0.31501231188189061 -0.10866030616172941 0 0.31248198567337498 -0.094222227209779852 0 0.30529234940372452 -0.1009844836821167 0 0.30419242587853018 -0.093133666709737703 0 0.29626631841744211 -0.093281921255538372 0 0.30529234940372452 -0.1009844836821167 0 0.29626631841744211 -0.093281921255538372 0 0.30529234940372452 -0.1009844836821167 0 0.29610459929270783 -0.103453034544325 0 0.28179495951021249 -0.086934465492722726 0 0.28611949281711418 -0.10539605983487151 0 0.28187256795949128 -0.1021373478600429 0 0.28179495951021249 -0.086934465492722726 0 0.28611949281711418 -0.10539605983487151 0 0.28179495951021249 -0.086934465492722726 0 0.28896478051191132 -0.093327262684916312 0 0.28611949281711418 -0.10539605983487151 0 0.29626631841744211 -0.093281921255538372 0 0.29147030580143962 -0.099651556881603265 0 0.29610459929270783 -0.103453034544325 0 0.29626631841744211 -0.093281921255538372 0 0.28896478051191132 -0.093327262684916312 0 0.29147030580143962 -0.099651556881603265 0 0.28896478051191132 -0.093327262684916312 0 0.29147030580143962 -0.099651556881603265 0 0.28611949281711418 -0.10539605983487151 0 0.28611949281711418 -0.10539605983487151 0 0.28187256795949128 -0.1021373478600429 0 0.28057776242327198 -0.10792099793604221 0 0.28611949281711418 -0.10539605983487151 0 0.28568217324725992 -0.1125301361413673 0 0.28057776242327198 -0.10792099793604221 0 0.28611949281711418 -0.10539605983487151 0 0.29198437850837827 -0.1097535537771151 0 0.28568217324725992 -0.1125301361413673 0 0.29755825045946138 -0.1135807413468744 0 0.29610459929270783 -0.103453034544325 0 0.29198437850837827 -0.1097535537771151 0 0.28611949281711418 -0.10539605983487151 0 0.29125003486210771 -0.1047583044363161 0 0.29198437850837827 -0.1097535537771151 0 0.29147030580143962 -0.099651556881603265 0 0.28611949281711418 -0.10539605983487151 0 0.29125003486210771 -0.1047583044363161 0 0.29147030580143962 -0.099651556881603265 0 0.29125003486210771 -0.1047583044363161 0 0.29610459929270783 -0.103453034544325 0 0.29125003486210771 -0.1047583044363161 0 0.29610459929270783 -0.103453034544325 0 0.29198437850837827 -0.1097535537771151 0 0.29755825045946138 -0.1135807413468744 0 0.29198437850837827 -0.1097535537771151 0 0.29217205763344101 -0.1173360627731565 0 0.29198437850837827 -0.1097535537771151 0 0.28568217324725992 -0.1125301361413673 0 0.29217205763344101 -0.1173360627731565 0 0.28568217324725992 -0.1125301361413673 0 0.28572932897454839 -0.1198819610885228 0 0.27700615144564639 -0.1142746700508472 0 0.28568217324725992 -0.1125301361413673 0 0.28572932897454839 -0.1198819610885228 0 0.29217205763344101 -0.1173360627731565 0 0.28572932897454839 -0.1198819610885228 0 0.27974511645652039 -0.1238914552583226 0 0.2902053545868048 -0.1270531978630095 0 0.28572932897454839 -0.1198819610885228 0 0.29217205763344101 -0.1173360627731565 0 0.2902053545868048 -0.1270531978630095 0 0.301274442849636 -0.1193541809974706 0 0.29567939529472381 -0.12306221019010211 0 0.29217205763344101 -0.1173360627731565 0 0.29567939529472381 -0.12306221019010211 0 0.29217205763344101 -0.1173360627731565 0 0.2902053545868048 -0.1270531978630095 0 0.27075346305188819 -0.12011745305083581 0 0.26113793940186769 -0.1212774742976742 0 0.27165160312922099 -0.12985183980036799 0 0.27075346305188819 -0.12011745305083581 0 0.27974511645652039 -0.1238914552583226 0 0.27165160312922099 -0.12985183980036799 0 0.27075346305188819 -0.12011745305083581 0 0.27974511645652039 -0.1238914552583226 0 0.27700615144564639 -0.1142746700508472 0 0.28572932897454839 -0.1198819610885228 0 0.27974511645652039 -0.1238914552583226 0 0.27700615144564639 -0.1142746700508472 0 0.28568217324725992 -0.1125301361413673 0 0.27700615144564639 -0.1142746700508472 0 0.28057776242327198 -0.10792099793604221 0 0.27075346305188819 -0.12011745305083581 0 0.27700615144564639 -0.1142746700508472 0 0.26422650482618559 -0.1112918258469669 0 0.261281407825879 -0.099241127575666332 0 0.26422650482618559 -0.1112918258469669 0 0.27153413109809188 -0.087665521419083486 0 0.27145140636206089 -0.1019828299662766 0 0.26422650482618559 -0.1112918258469669 0 0.27153413109809188 -0.087665521419083486 0 0.26422650482618559 -0.1112918258469669 0 0.27153413109809188 -0.087665521419083486 0 0.27145140636206089 -0.1019828299662766 0 0.26422650482618559 -0.1112918258469669 0 0.27700615144564639 -0.1142746700508472 0 0.27145140636206089 -0.1019828299662766 0 0.26422650482618559 -0.1112918258469669 0 0.27700615144564639 -0.1142746700508472 0 0.27145140636206089 -0.1019828299662766 0 0.28057776242327198 -0.10792099793604221 0 0.28187256795949128 -0.1021373478600429 0 0.27145140636206089 -0.1019828299662766 0 0.28057776242327198 -0.10792099793604221 0 0.28187256795949128 -0.1021373478600429 0 0.27145140636206089 -0.1019828299662766 0 0.27153413109809188 -0.087665521419083486 0 0.28187256795949128 -0.1021373478600429 0 0.27153413109809188 -0.087665521419083486 0 0.261281407825879 -0.099241127575666332 0 0.25402839497114488 -0.093857092198295577 0 0.26169611356532979 -0.092173502592603249 0 0.261281407825879 -0.099241127575666332 0 0.25402839497114488 -0.093857092198295577 0 0.25254718802103132 -0.10546850549454349 0 0.261281407825879 -0.099241127575666332 0 0.25254718802103132 -0.10546850549454349 0 0.26422650482618559 -0.1112918258469669 0 0.26422650482618559 -0.1112918258469669 0 0.2483435644377624 -0.13175635756617041 0 0.26422650482618559 -0.1112918258469669 0 0.26113793940186769 -0.1212774742976742 0 0.2483435644377624 -0.13175635756617041 0 0.26422650482618559 -0.1112918258469669 0 0.24821263709402919 -0.1162187856054635 0 0.2483435644377624 -0.13175635756617041 0 0.25254718802103132 -0.10546850549454349 0 0.26422650482618559 -0.1112918258469669 0 0.24821263709402919 -0.1162187856054635 0 0.26422650482618559 -0.1112918258469669 0 0.26113793940186769 -0.1212774742976742 0 0.27075346305188819 -0.12011745305083581 0 0.26422650482618559 -0.1112918258469669 0 0.26113793940186769 -0.1212774742976742 0 0.27747042620330992 -0.068472871150574072 0 0.27153413109809188 -0.087665521419083486 0 0.26854062155749392 -0.070248365135498161 0 0.27153413109809188 -0.087665521419083486 0 0.25944983944736238 -0.070749833508441939 0 0.26854062155749392 -0.070248365135498161 0 0.27290881163973979 -0.068874206235531352 0 0.27153413109809188 -0.087665521419083486 0 0.27290881163973979 -0.068874206235531352 0 0.27747042620330992 -0.068472871150574072 0 0.27153413109809188 -0.087665521419083486 0 0.28179495951021249 -0.086934465492722726 0 0.27747042620330992 -0.068472871150574072 0 0.26854062155749392 -0.070248365135498161 0 0.26380726807666149 -0.057570742404147703 0 0.27010547134515278 -0.060675756889857962 0 0.26854062155749392 -0.070248365135498161 0 0.27210838599832488 -0.06659750543809885 0 0.27010547134515278 -0.060675756889857962 0 0.27210838599832488 -0.06659750543809885 0 0.2770219087545151 -0.066558133395678717 0 0.27010547134515278 -0.060675756889857962 0 0.26854062155749392 -0.070248365135498161 0 0.27210838599832488 -0.06659750543809885 0 0.27290881163973979 -0.068874206235531352 0 0.27290881163973979 -0.068874206235531352 0 0.2770219087545151 -0.066558133395678717 0 0.27747042620330992 -0.068472871150574072 0 0.27210838599832488 -0.06659750543809885 0 0.27290881163973979 -0.068874206235531352 0 0.2770219087545151 -0.066558133395678717 0 0.2770219087545151 -0.066558133395678717 0 0.27747042620330992 -0.068472871150574072 0 0.28179495951021249 -0.086934465492722726 0 0.27747042620330992 -0.068472871150574072 0 0.27153413109809188 -0.087665521419083486 0 0.28179495951021249 -0.086934465492722726 0 0.28187256795949128 -0.1021373478600429 0 0.27153413109809188 -0.087665521419083486 0 0.27153413109809188 -0.087665521419083486 0 0.2587531670423977 -0.085055674013948104 0 0.25944983944736238 -0.070749833508441939 0 0.27153413109809188 -0.087665521419083486 0 0.25944983944736238 -0.070749833508441939 0 0.261281407825879 -0.099241127575666332 0 0.27153413109809188 -0.087665521419083486 0 0.26169611356532979 -0.092173502592603249 0 0.25402839497114488 -0.093857092198295577 0 0.2587531670423977 -0.085055674013948104 0 0.26169611356532979 -0.092173502592603249 0 0.27153413109809188 -0.087665521419083486 0 0.2587531670423977 -0.085055674013948104 0 0.26169611356532979 -0.092173502592603249 0 0.25402839497114488 -0.093857092198295577 0 0.2587531670423977 -0.085055674013948104 0 0.24638683794405891 -0.082697016457499467 0 0.2587531670423977 -0.085055674013948104 0 0.25944983944736238 -0.070749833508441939 0 0.24638683794405891 -0.082697016457499467 0 0.26854062155749392 -0.070248365135498161 0 0.25944983944736238 -0.070749833508441939 0 0.26380726807666149 -0.057570742404147703 0 0.25944983944736238 -0.070749833508441939 0 0.24736554779663281 -0.053834145597800601 0 0.25944983944736238 -0.070749833508441939 0 0.26380726807666149 -0.057570742404147703 0 0.24736554779663281 -0.053834145597800601 0 0.25735400521072421 -0.049324270471355493 0 0.26380726807666149 -0.057570742404147703 0 0.24736554779663281 -0.053834145597800601 0 0.25735400521072421 -0.049324270471355493 0 0.25275087365011317 -0.04370674236447121 0 0.24736554779663281 -0.053834145597800601 0 0.25735400521072421 -0.049324270471355493 0 0.26380726807666149 -0.057570742404147703 0 0.26549233131948902 -0.042185451519002423 0 0.26380726807666149 -0.057570742404147703 0 0.27010547134515278 -0.060675756889857962 0 0.26549233131948902 -0.042185451519002423 0 0.27747042620330992 -0.068472871150574072 0 0.28251914169518588 -0.052149856707504882 0 0.2770219087545151 -0.066558133395678717 0 0.27010547134515278 -0.060675756889857962 0 0.26549233131948902 -0.042185451519002423 0 0.2770219087545151 -0.066558133395678717 0 0.27274082669859068 -0.048282034068195957 0 0.26549233131948902 -0.042185451519002423 0 0.2770219087545151 -0.066558133395678717 0 0.26549233131948902 -0.042185451519002423 0 0.2770219087545151 -0.066558133395678717 0 0.27274082669859068 -0.048282034068195957 0 0.28251914169518588 -0.052149856707504882 0 0.2770219087545151 -0.066558133395678717 0 0.27747042620330992 -0.068472871150574072 0 0.28251914169518588 -0.052149856707504882 0 0.2770219087545151 -0.066558133395678717 0 0.27274082669859068 -0.048282034068195957 0 0.27274082669859068 -0.048282034068195957 0 0.26801122719387072 -0.028091196985818009 0 0.27274082669859068 -0.048282034068195957 0 0.26549233131948902 -0.042185451519002423 0 0.26801122719387072 -0.028091196985818009 0 0.27274082669859068 -0.048282034068195957 0 0.27795128604821512 -0.03900134176762108 0 0.26801122719387072 -0.028091196985818009 0 0.27795128604821512 -0.03900134176762108 0 0.26801122719387072 -0.028091196985818009 0 0.27891737746636602 -0.030656778812150561 0 0.27274082669859068 -0.048282034068195957 0 0.27795128604821512 -0.03900134176762108 0 0.28251914169518588 -0.052149856707504882 0 0.25735400521072421 -0.049324270471355493 0 0.26549233131948902 -0.042185451519002423 0 0.25275087365011317 -0.04370674236447121 0 0.26549233131948902 -0.042185451519002423 0 0.25275087365011317 -0.04370674236447121 0 0.25077728659984849 -0.033570913194676998 0 0.26549233131948902 -0.042185451519002423 0 0.25410602318806491 -0.017779209546496959 0 0.26801122719387072 -0.028091196985818009 0 0.26549233131948902 -0.042185451519002423 0 0.25077728659984849 -0.033570913194676998 0 0.25410602318806491 -0.017779209546496959 0 0.26549233131948902 -0.042185451519002423 0 0.25410602318806491 -0.017779209546496959 0 0.25410602318806491 -0.017779209546496959 0 0.2649069725373544 -0.0061843696316094387 0 0.24656239287624979 -0.001609643027110886 0 0.25410602318806491 -0.017779209546496959 0 0.24656239287624979 -0.001609643027110886 0 0.2649069725373544 -0.0061843696316094387 0 0.28045909788205342 -0.003145913319501746 0 0.28208276937236698 -0.0083056468858147426 0 0.25410602318806491 -0.017779209546496959 0 0.28208276937236698 -0.0083056468858147426 0 0.25410602318806491 -0.017779209546496959 0 0.2649069725373544 -0.0061843696316094387 0 0.28208276937236698 -0.0083056468858147426 0 0.25410602318806491 -0.017779209546496959 0 0.27555316073261088 -0.021363679727442429 0 0.28208276937236698 -0.0083056468858147426 0 0.25410602318806491 -0.017779209546496959 0 0.26801122719387072 -0.028091196985818009 0 0.27555316073261088 -0.021363679727442429 0 0.28123315559003781 -0.022160257963757712 0 0.27555316073261088 -0.021363679727442429 0 0.28208276937236698 -0.0083056468858147426 0 0.26801122719387072 -0.028091196985818009 0 0.27555316073261088 -0.021363679727442429 0 0.27891737746636602 -0.030656778812150561 0 0.28123315559003781 -0.022160257963757712 0 0.27555316073261088 -0.021363679727442429 0 0.27891737746636602 -0.030656778812150561 0 0.28123315559003781 -0.022160257963757712 0 0.28837931478880718 -0.02831492642962306 0 0.28208276937236698 -0.0083056468858147426 0 0.28123315559003781 -0.022160257963757712 0 0.27891737746636602 -0.030656778812150561 0 0.28837931478880718 -0.02831492642962306 0 0.28837931478880718 -0.02831492642962306 0 0.28986743308225571 -0.017133488821753098 0 0.28208276937236698 -0.0083056468858147426 0 0.28837931478880718 -0.02831492642962306 0 0.28208276937236698 -0.0083056468858147426 0 0.28837931478880718 -0.02831492642962306 0 0.29360211174250389 -0.022996632751891771 0 0.28986743308225571 -0.017133488821753098 0 0.29360211174250389 -0.022996632751891771 0 0.28986743308225571 -0.017133488821753098 0 0.30083120893254578 -0.01868000459808641 0 0.28837931478880718 -0.02831492642962306 0 0.29360211174250389 -0.022996632751891771 0 0.29725442378145422 -0.027425192047186561 0 0.28837931478880718 -0.02831492642962306 0 0.29725442378145422 -0.027425192047186561 0 0.29896706739958101 -0.036391175472459028 0 0.28920748097440629 0.0037364553988672011 0 0.28045909788205342 -0.003145913319501746 0 0.2856442190844608 -0.007099658999023606 0 0.28045909788205342 -0.003145913319501746 0 0.2856442190844608 -0.007099658999023606 0 0.28045909788205342 -0.003145913319501746 0 0.28208276937236698 -0.0083056468858147426 0 0.28045909788205342 -0.003145913319501746 0 0.2856442190844608 -0.007099658999023606 0 0.28208276937236698 -0.0083056468858147426 0 0.2856442190844608 -0.007099658999023606 0 0.28208276937236698 -0.0083056468858147426 0 0.28986743308225571 -0.017133488821753098 0 0.2856442190844608 -0.007099658999023606 0 0.28208276937236698 -0.0083056468858147426 0 0.2856442190844608 -0.007099658999023606 0 0.30083120893254578 -0.01868000459808641 0 0.28986743308225571 -0.017133488821753098 0 0.2856442190844608 -0.007099658999023606 0 0.30083120893254578 -0.01868000459808641 0 0.30935455551858998 0.00092920026984533166 0 0.2856442190844608 -0.007099658999023606 0 0.29859271699854112 0.00606985476860104 0 0.30935455551858998 0.00092920026984533166 0 0.2856442190844608 -0.007099658999023606 0 0.30935455551858998 0.00092920026984533166 0 0.2856442190844608 -0.007099658999023606 0 0.30083120893254578 -0.01868000459808641 0 0.30935455551858998 0.00092920026984533166 0 0.31450132837943701 -0.01462296163473341 0 0.30083120893254578 -0.01868000459808641 0 0.31601819878063259 -0.030260350197146801 0 0.31450132837943701 -0.01462296163473341 0 0.30083120893254578 -0.01868000459808641 0 0.29725442378145422 -0.027425192047186561 0 0.30448279345354051 -0.03055923085466801 0 0.30083120893254578 -0.01868000459808641 0 0.29360211174250389 -0.022996632751891771 0 0.29725442378145422 -0.027425192047186561 0 0.30083120893254578 -0.01868000459808641 0 0.31601819878063259 -0.030260350197146801 0 0.30448279345354051 -0.03055923085466801 0 0.30083120893254578 -0.01868000459808641 0 0.31601819878063259 -0.030260350197146801 0 0.30083120893254578 -0.01868000459808641 0 0.31601819878063259 -0.030260350197146801 0 0.30448279345354051 -0.03055923085466801 0 0.30925775861140431 -0.04004552601217181 0 0.29725442378145422 -0.027425192047186561 0 0.30448279345354051 -0.03055923085466801 0 0.29896706739958101 -0.036391175472459028 0 0.30448279345354051 -0.03055923085466801 0 0.29896706739958101 -0.036391175472459028 0 0.30925775861140431 -0.04004552601217181 0 0.29896706739958101 -0.036391175472459028 0 0.3021657703427269 -0.044127824928212711 0 0.29467586020524739 -0.048324205973431428 0 0.29896706739958101 -0.036391175472459028 0 0.3021657703427269 -0.044127824928212711 0 0.30925775861140431 -0.04004552601217181 0 0.3021657703427269 -0.044127824928212711 0 0.30925775861140431 -0.04004552601217181 0 0.30649680087394088 -0.052391980654281363 0 0.31879909146930058 -0.048380646282499398 0 0.30649680087394088 -0.052391980654281363 0 0.3121535764896825 -0.061210408730125593 0 0.3009724056216877 -0.068333485517239764 0 0.30649680087394088 -0.052391980654281363 0 0.3121535764896825 -0.061210408730125593 0 0.31879909146930058 -0.048380646282499398 0 0.30925775861140431 -0.04004552601217181 0 0.30649680087394088 -0.052391980654281363 0 0.3009724056216877 -0.068333485517239764 0 0.30649680087394088 -0.052391980654281363 0 0.29467586020524739 -0.048324205973431428 0 0.3009724056216877 -0.068333485517239764 0 0.29467586020524739 -0.048324205973431428 0 0.3021657703427269 -0.044127824928212711 0 0.30649680087394088 -0.052391980654281363 0 0.29467586020524739 -0.048324205973431428 0 0.28866968865256848 -0.062994515740180737 0 0.27747042620330992 -0.068472871150574072 0 0.28251914169518588 -0.052149856707504882 0 0.3009724056216877 -0.068333485517239764 0 0.28866968865256848 -0.062994515740180737 0 0.29467586020524739 -0.048324205973431428 0 0.28866968865256848 -0.062994515740180737 0 0.29467586020524739 -0.048324205973431428 0 0.28251914169518588 -0.052149856707504882 0 0.28837931478880718 -0.02831492642962306 0 0.29467586020524739 -0.048324205973431428 0 0.28837931478880718 -0.02831492642962306 0 0.29467586020524739 -0.048324205973431428 0 0.28756785718706251 -0.035826842264435992 0 0.28251914169518588 -0.052149856707504882 0 0.28756785718706251 -0.035826842264435992 0 0.28837931478880718 -0.02831492642962306 0 0.29896706739958101 -0.036391175472459028 0 0.29467586020524739 -0.048324205973431428 0 0.27795128604821512 -0.03900134176762108 0 0.28251914169518588 -0.052149856707504882 0 0.28756785718706251 -0.035826842264435992 0 0.29467586020524739 -0.048324205973431428 0 0.28251914169518588 -0.052149856707504882 0 0.28756785718706251 -0.035826842264435992 0 0.27795128604821512 -0.03900134176762108 0 0.27891737746636602 -0.030656778812150561 0 0.28756785718706251 -0.035826842264435992 0 0.27891737746636602 -0.030656778812150561 0 0.28837931478880718 -0.02831492642962306 0 0.28756785718706251 -0.035826842264435992 0 0.29378563319332363 -0.21478794514275459 0 0.29411540659415281 -0.1946289886826677 0 0.29378563319332363 -0.21478794514275459 0 0.27995450108460951 -0.2204287288096973 0 0.27833619816795718 -0.20444359562453671 0 0.29378563319332363 -0.21478794514275459 0 0.29411540659415281 -0.1946289886826677 0 0.27833619816795718 -0.20444359562453671 0 0.29411540659415281 -0.1946289886826677 0 0.28207917046213982 -0.18952254844639541 0 0.27833619816795718 -0.20444359562453671 0 0.30580831034807793 -0.18800174461847721 0 0.3098916833307912 -0.2059245490645919 0 0.31611764455475488 -0.1966226871681776 0 0.29378563319332363 -0.21478794514275459 0 0.30580831034807793 -0.18800174461847721 0 0.3098916833307912 -0.2059245490645919 0 0.29378563319332363 -0.21478794514275459 0 0.29411540659415281 -0.1946289886826677 0 0.30580831034807793 -0.18800174461847721 0 0.29378563319332363 -0.21478794514275459 0 0.30580831034807793 -0.18800174461847721 0 0.29378563319332363 -0.21478794514275459 0 0.3098916833307912 -0.2059245490645919 0 0.30743291539781531 -0.22363306372328071 0 0.29378563319332363 -0.21478794514275459 0 0.30743291539781531 -0.22363306372328071 0 0.29341996990583707 -0.23714084041248851 0 0.30743291539781531 -0.22363306372328071 0 0.30668376261471703 -0.23698648772250219 0 0.31824757756287508 -0.23096851266858551 0 0.30743291539781531 -0.22363306372328071 0 0.30668376261471703 -0.23698648772250219 0 0.29341996990583707 -0.23714084041248851 0 0.31241797885278638 -0.2439652852050857 0 0.30668376261471703 -0.23698648772250219 0 0.30161458852834999 -0.24881998460571919 0 0.31241797885278638 -0.2439652852050857 0 0.30161458852834999 -0.24881998460571919 0 0.31438996307151218 -0.25623913216874639 0 0.31241797885278638 -0.2439652852050857 0 0.30668376261471703 -0.23698648772250219 0 0.31824757756287508 -0.23096851266858551 0 0.30668376261471703 -0.23698648772250219 0 0.30161458852834999 -0.24881998460571919 0 0.29341996990583707 -0.23714084041248851 0 0.28994177072428989 -0.2486591454659004 0 0.28436082755959202 -0.2357861579665643 0 0.2749360219258602 -0.25678437079037397 0 0.30161458852834999 -0.24881998460571919 0 0.28994177072428989 -0.2486591454659004 0 0.29341996990583707 -0.23714084041248851 0 0.28994177072428989 -0.2486591454659004 0 0.29341996990583707 -0.23714084041248851 0 0.28436082755959202 -0.2357861579665643 0 0.29378563319332363 -0.21478794514275459 0 0.28436082755959202 -0.2357861579665643 0 0.27995450108460951 -0.2204287288096973 0 0.29378563319332363 -0.21478794514275459 0 0.29341996990583707 -0.23714084041248851 0 0.28436082755959202 -0.2357861579665643 0 0.29378563319332363 -0.21478794514275459 0 0.28436082755959202 -0.2357861579665643 0 0.29378563319332363 -0.21478794514275459 0 0.29341996990583707 -0.23714084041248851 0 0.27995450108460951 -0.2204287288096973 0 0.27356250222990758 -0.2305220716034477 0 0.26972734427226719 -0.21660387371118309 0 0.28436082755959202 -0.2357861579665643 0 0.27995450108460951 -0.2204287288096973 0 0.27356250222990758 -0.2305220716034477 0 0.28436082755959202 -0.2357861579665643 0 0.27356250222990758 -0.2305220716034477 0 0.26813652245768738 -0.24385156806268021 0 0.28436082755959202 -0.2357861579665643 0 0.26813652245768738 -0.24385156806268021 0 0.2749360219258602 -0.25678437079037397 0 0.28436082755959202 -0.2357861579665643 0 0.2749360219258602 -0.25678437079037397 0 0.26813652245768738 -0.24385156806268021 0 0.25786541817364328 -0.26063125026915729 0 0.24995784239943369 -0.23553398968385769 0 0.25786541817364328 -0.26063125026915729 0 0.24995784239943369 -0.23553398968385769 0 0.27356250222990758 -0.2305220716034477 0 0.26813652245768738 -0.24385156806268021 0 0.24995784239943369 -0.23553398968385769 0 0.27356250222990758 -0.2305220716034477 0 0.26972734427226719 -0.21660387371118309 0 0.24995784239943369 -0.23553398968385769 0 0.25741030546475419 -0.2066920726656192 0 0.26972734427226719 -0.21660387371118309 0 0.24995784239943369 -0.23553398968385769 0 0.27995450108460951 -0.2204287288096973 0 0.26972734427226719 -0.21660387371118309 0 0.27833619816795718 -0.20444359562453671 0 0.25741030546475419 -0.2066920726656192 0 0.26972734427226719 -0.21660387371118309 0 0.27833619816795718 -0.20444359562453671 0 0.25741030546475419 -0.2066920726656192 0 0.27833619816795718 -0.20444359562453671 0 0.26675915252389593 -0.19159853048427741 0 0.28207917046213982 -0.18952254844639541 0 0.27833619816795718 -0.20444359562453671 0 0.26675915252389593 -0.19159853048427741 0 0.25741030546475419 -0.2066920726656192 0 0.25092871208070161 -0.19041052172442141 0 0.24205026662522411 -0.2104367290985581 0 0.25741030546475419 -0.2066920726656192 0 0.26675915252389593 -0.19159853048427741 0 0.25092871208070161 -0.19041052172442141 0 0.25092871208070161 -0.19041052172442141 0 0.25993334479877928 -0.17841018302291581 0 0.2452765122205415 -0.16998614656189939 0 0.26675915252389593 -0.19159853048427741 0 0.25092871208070161 -0.19041052172442141 0 0.25993334479877928 -0.17841018302291581 0 0.25993334479877928 -0.17841018302291581 0 0.25621410032414671 -0.16830739098629871 0 0.2452765122205415 -0.16998614656189939 0 0.25621410032414671 -0.16830739098629871 0 0.25352755443688729 -0.1601169024326741 0 0.2452765122205415 -0.16998614656189939 0 0.25352755443688729 -0.1601169024326741 0 0.26611898984037852 -0.16471633192770571 0 0.26315433404213062 -0.15235687710342929 0 0.25621410032414671 -0.16830739098629871 0 0.25352755443688729 -0.1601169024326741 0 0.26611898984037852 -0.16471633192770571 0 0.25993334479877928 -0.17841018302291581 0 0.25621410032414671 -0.16830739098629871 0 0.26611898984037852 -0.16471633192770571 0 0.26611898984037852 -0.16471633192770571 0 0.27647889424614852 -0.17841260107234441 0 0.28175101203408842 -0.16483173261538431 0 0.26611898984037852 -0.16471633192770571 0 0.27693704269312081 -0.15224862209179649 0 0.28175101203408842 -0.16483173261538431 0 0.26611898984037852 -0.16471633192770571 0 0.26315433404213062 -0.15235687710342929 0 0.27693704269312081 -0.15224862209179649 0 0.25993334479877928 -0.17841018302291581 0 0.26611898984037852 -0.16471633192770571 0 0.27647889424614852 -0.17841260107234441 0 0.26675915252389593 -0.19159853048427741 0 0.25993334479877928 -0.17841018302291581 0 0.27647889424614852 -0.17841260107234441 0 0.28207917046213982 -0.18952254844639541 0 0.26675915252389593 -0.19159853048427741 0 0.27647889424614852 -0.17841260107234441 0 0.26113793940186769 -0.1212774742976742 0 0.260716975995126 -0.13257675041681419 0 0.27165160312922099 -0.12985183980036799 0 0.26113793940186769 -0.1212774742976742 0 0.260716975995126 -0.13257675041681419 0 0.2483435644377624 -0.13175635756617041 0 0.260716975995126 -0.13257675041681419 0 0.25630852418349009 -0.14074446118275979 0 0.2483435644377624 -0.13175635756617041 0 0.25630852418349009 -0.14074446118275979 0 0.2483435644377624 -0.13175635756617041 0 0.2471258885357954 -0.14370832591476229 0 0.260716975995126 -0.13257675041681419 0 0.25630852418349009 -0.14074446118275979 0 0.26781589830122449 -0.14215248818062659 0 0.25630852418349009 -0.14074446118275979 0 0.26315433404213062 -0.15235687710342929 0 0.26781589830122449 -0.14215248818062659 0 0.25630852418349009 -0.14074446118275979 0 0.25214313431266688 -0.15023369533696251 0 0.2471258885357954 -0.14370832591476229 0 0.25630852418349009 -0.14074446118275979 0 0.25214313431266688 -0.15023369533696251 0 0.26315433404213062 -0.15235687710342929 0 0.25352755443688729 -0.1601169024326741 0 0.25214313431266688 -0.15023369533696251 0 0.24789019007645899 -0.15533074058044111 0 0.25352755443688729 -0.1601169024326741 0 0.25214313431266688 -0.15023369533696251 0 0.26315433404213062 -0.15235687710342929 0 0.26315433404213062 -0.15235687710342929 0 0.27693704269312081 -0.15224862209179649 0 0.26781589830122449 -0.14215248818062659 0 0.27693704269312081 -0.15224862209179649 0 0.26781589830122449 -0.14215248818062659 0 0.27744600083758097 -0.13824774225764919 0 0.27693704269312081 -0.15224862209179649 0 0.27744600083758097 -0.13824774225764919 0 0.28794611240054591 -0.1417770549693633 0 0.260716975995126 -0.13257675041681419 0 0.26781589830122449 -0.14215248818062659 0 0.27165160312922099 -0.12985183980036799 0 0.26781589830122449 -0.14215248818062659 0 0.27744600083758097 -0.13824774225764919 0 0.27165160312922099 -0.12985183980036799 0 0.27744600083758097 -0.13824774225764919 0 0.27165160312922099 -0.12985183980036799 0 0.28365266792217719 -0.13209663594540311 0 0.27974511645652039 -0.1238914552583226 0 0.27165160312922099 -0.12985183980036799 0 0.28365266792217719 -0.13209663594540311 0 0.29567939529472381 -0.12306221019010211 0 0.2902053545868048 -0.1270531978630095 0 0.30005833943886973 -0.1281528908806682 0 0.2902053545868048 -0.1270531978630095 0 0.28365266792217719 -0.13209663594540311 0 0.2942775409903407 -0.13353655446437071 0 0.2902053545868048 -0.1270531978630095 0 0.2942775409903407 -0.13353655446437071 0 0.30005833943886973 -0.1281528908806682 0 0.27974511645652039 -0.1238914552583226 0 0.2902053545868048 -0.1270531978630095 0 0.28365266792217719 -0.13209663594540311 0 0.28365266792217719 -0.13209663594540311 0 0.2942775409903407 -0.13353655446437071 0 0.28794611240054591 -0.1417770549693633 0 0.27744600083758097 -0.13824774225764919 0 0.28365266792217719 -0.13209663594540311 0 0.28794611240054591 -0.1417770549693633 0 0.2942775409903407 -0.13353655446437071 0 0.28794611240054591 -0.1417770549693633 0 0.29912670996330393 -0.1404806540410127 0 0.27693704269312081 -0.15224862209179649 0 0.28794611240054591 -0.1417770549693633 0 0.29477495339581189 -0.154311075762494 0 0.28794611240054591 -0.1417770549693633 0 0.29477495339581189 -0.154311075762494 0 0.29912670996330393 -0.1404806540410127 0 0.29477495339581189 -0.154311075762494 0 0.30628446703802131 -0.14813589780372041 0 0.30586832560018612 -0.1579168608402462 0 0.30628446703802131 -0.14813589780372041 0 0.30586832560018612 -0.1579168608402462 0 0.31600604006928368 -0.15145175431823621 0 0.30628446703802131 -0.14813589780372041 0 0.30962080950257248 -0.138401902120833 0 0.31681002439274952 -0.14318264470093611 0 0.30628446703802131 -0.14813589780372041 0 0.29912670996330393 -0.1404806540410127 0 0.30962080950257248 -0.138401902120833 0 0.29477495339581189 -0.154311075762494 0 0.30628446703802131 -0.14813589780372041 0 0.29912670996330393 -0.1404806540410127 0 0.30331466919713829 -0.13394445171678729 0 0.29912670996330393 -0.1404806540410127 0 0.30962080950257248 -0.138401902120833 0 0.2942775409903407 -0.13353655446437071 0 0.30331466919713829 -0.13394445171678729 0 0.29912670996330393 -0.1404806540410127 0 0.30962080950257248 -0.138401902120833 0 0.3092803028231399 -0.12856934063755959 0 0.31583913018213522 -0.1347625072502979 0 0.30331466919713829 -0.13394445171678729 0 0.30962080950257248 -0.138401902120833 0 0.3092803028231399 -0.12856934063755959 0 0.301274442849636 -0.1193541809974706 0 0.3092803028231399 -0.12856934063755959 0 0.30005833943886973 -0.1281528908806682 0 0.2942775409903407 -0.13353655446437071 0 0.30331466919713829 -0.13394445171678729 0 0.30005833943886973 -0.1281528908806682 0 0.30331466919713829 -0.13394445171678729 0 0.3092803028231399 -0.12856934063755959 0 0.30005833943886973 -0.1281528908806682 0 0.27647889424614852 -0.17841260107234441 0 0.29444517999498238 -0.1744700322225809 0 0.28175101203408842 -0.16483173261538431 0 0.29411540659415281 -0.1946289886826677 0 0.28207917046213982 -0.18952254844639541 0 0.29444517999498238 -0.1744700322225809 0 0.28207917046213982 -0.18952254844639541 0 0.27647889424614852 -0.17841260107234441 0 0.29444517999498238 -0.1744700322225809 0 0.29411540659415281 -0.1946289886826677 0 0.29444517999498238 -0.1744700322225809 0 0.27693704269312081 -0.15224862209179649 0 0.29477495339581189 -0.154311075762494 0 0.28175101203408842 -0.16483173261538431 0 0.29477495339581189 -0.154311075762494 0 0.29444517999498238 -0.1744700322225809 0 0.28175101203408842 -0.16483173261538431 0 0.29477495339581189 -0.154311075762494 0 0.29444517999498238 -0.1744700322225809 0 0.29444517999498238 -0.1744700322225809 0 0.30586832560018612 -0.1579168608402462 0 0.31783098750283129 -0.1612155440941995 0 0.29477495339581189 -0.154311075762494 0 0.29444517999498238 -0.1744700322225809 0 0.30586832560018612 -0.1579168608402462 0 0.30580831034807793 -0.18800174461847721 0 0.29444517999498238 -0.1744700322225809 0 0.31783098750283129 -0.1612155440941995 0 0.30580831034807793 -0.18800174461847721 0 0.31783098750283129 -0.1612155440941995 0 0.29411540659415281 -0.1946289886826677 0 0.30580831034807793 -0.18800174461847721 0 0.29444517999498238 -0.1744700322225809 0 0.32220052401432708 -0.184593333027947 0 0.31783098750283129 -0.1612155440941995 0 0.30580831034807793 -0.18800174461847721 0 0.32220052401432708 -0.184593333027947 0 0.31783098750283129 -0.1612155440941995 0 0.32220052401432708 -0.184593333027947 0 0.31783098750283129 -0.1612155440941995 0 0.32821659995150182 -0.16582092477550359 0 0.31783098750283129 -0.1612155440941995 0 0.31600604006928368 -0.15145175431823621 0 0.30586832560018612 -0.1579168608402462 0 0.31783098750283129 -0.1612155440941995 0 0.31600604006928368 -0.15145175431823621 0 0.31783098750283129 -0.1612155440941995 0 0.32821659995150182 -0.16582092477550359 0 0.32451562524995858 -0.15621988375293211 0 0.32821659995150182 -0.16582092477550359 0 0.33836877956646477 -0.16289967122267979 0 0.33549029137494829 -0.1750395322902146 0 0.32821659995150182 -0.16582092477550359 0 0.33836877956646477 -0.16289967122267979 0 0.33169499019236071 -0.15501558205415339 0 0.32821659995150182 -0.16582092477550359 0 0.32451562524995858 -0.15621988375293211 0 0.33169499019236071 -0.15501558205415339 0 0.33836877956646477 -0.16289967122267979 0 0.33169499019236071 -0.15501558205415339 0 0.34031877909896152 -0.15279037756638419 0 0.33836877956646477 -0.16289967122267979 0 0.34031877909896152 -0.15279037756638419 0 0.34861929209714893 -0.1581462914130187 0 0.33836877956646477 -0.16289967122267979 0 0.33549029137494829 -0.1750395322902146 0 0.34779656034438011 -0.17072451393065621 0 0.32220052401432708 -0.184593333027947 0 0.34180384598641839 -0.18742683354440301 0 0.33549029137494829 -0.1750395322902146 0 0.34180384598641839 -0.18742683354440301 0 0.33549029137494829 -0.1750395322902146 0 0.34779656034438011 -0.17072451393065621 0 0.32220052401432708 -0.184593333027947 0 0.32821659995150182 -0.16582092477550359 0 0.33549029137494829 -0.1750395322902146 0 0.33212560003223679 -0.1150940496146228 0 0.31881966292308639 -0.1239627840246275 0 0.32423406905400531 -0.1394532847661763 0 0.31881966292308639 -0.1239627840246275 0 0.3092803028231399 -0.12856934063755959 0 0.31583913018213522 -0.1347625072502979 0 0.31881966292308639 -0.1239627840246275 0 0.31583913018213522 -0.1347625072502979 0 0.32423406905400531 -0.1394532847661763 0 0.30962080950257248 -0.138401902120833 0 0.31583913018213522 -0.1347625072502979 0 0.31681002439274952 -0.14318264470093611 0 0.31583913018213522 -0.1347625072502979 0 0.32423406905400531 -0.1394532847661763 0 0.31681002439274952 -0.14318264470093611 0 0.31783098750283129 -0.1612155440941995 0 0.32685344153243862 -0.14111375979547111 0 0.32451562524995858 -0.15621988375293211 0 0.31783098750283129 -0.1612155440941995 0 0.32685344153243862 -0.14111375979547111 0 0.31783098750283129 -0.1612155440941995 0 0.32685344153243862 -0.14111375979547111 0 0.31600604006928368 -0.15145175431823621 0 0.32423406905400531 -0.1394532847661763 0 0.32685344153243862 -0.14111375979547111 0 0.31681002439274952 -0.14318264470093611 0 0.30628446703802131 -0.14813589780372041 0 0.31681002439274952 -0.14318264470093611 0 0.31600604006928368 -0.15145175431823621 0 0.32685344153243862 -0.14111375979547111 0 0.31681002439274952 -0.14318264470093611 0 0.31600604006928368 -0.15145175431823621 0 0.32685344153243862 -0.14111375979547111 0 0.32451562524995858 -0.15621988375293211 0 0.32920107183679759 -0.14974911849672831 0 0.33169499019236071 -0.15501558205415339 0 0.34031877909896152 -0.15279037756638419 0 0.33374023037243272 -0.1466472483843565 0 0.33169499019236071 -0.15501558205415339 0 0.32920107183679759 -0.14974911849672831 0 0.33374023037243272 -0.1466472483843565 0 0.32451562524995858 -0.15621988375293211 0 0.33169499019236071 -0.15501558205415339 0 0.32920107183679759 -0.14974911849672831 0 0.34031877909896152 -0.15279037756638419 0 0.34225875332753819 -0.14372229179570889 0 0.34762693017061508 -0.1493219091274097 0 0.34031877909896152 -0.15279037756638419 0 0.34225875332753819 -0.14372229179570889 0 0.33374023037243272 -0.1466472483843565 0 0.34225875332753819 -0.14372229179570889 0 0.33374023037243272 -0.1466472483843565 0 0.33468814867901597 -0.13914338886639219 0 0.32685344153243862 -0.14111375979547111 0 0.32920107183679759 -0.14974911849672831 0 0.33374023037243272 -0.1466472483843565 0 0.32685344153243862 -0.14111375979547111 0 0.33374023037243272 -0.1466472483843565 0 0.33468814867901597 -0.13914338886639219 0 0.33212560003223679 -0.1150940496146228 0 0.32423406905400531 -0.1394532847661763 0 0.33686333436234372 -0.12959799951515641 0 0.33212560003223679 -0.1150940496146228 0 0.32423406905400531 -0.1394532847661763 0 0.32423406905400531 -0.1394532847661763 0 0.32685344153243862 -0.14111375979547111 0 0.33468814867901597 -0.13914338886639219 0 0.32423406905400531 -0.1394532847661763 0 0.33468814867901597 -0.13914338886639219 0 0.33686333436234372 -0.12959799951515641 0 0.33468814867901597 -0.13914338886639219 0 0.33686333436234372 -0.12959799951515641 0 0.34473104568078128 -0.1346537922885728 0 0.34225875332753819 -0.14372229179570889 0 0.33468814867901597 -0.13914338886639219 0 0.34473104568078128 -0.1346537922885728 0 0.34837000745965579 -0.12367349169611599 0 0.33686333436234372 -0.12959799951515641 0 0.34473104568078128 -0.1346537922885728 0 0.34837000745965579 -0.12367349169611599 0 0.35390359823335099 -0.13351062528665411 0 0.36173796880781889 -0.12829493676382239 0 0.34837000745965579 -0.12367349169611599 0 0.34473104568078128 -0.1346537922885728 0 0.35390359823335099 -0.13351062528665411 0 0.34225875332753819 -0.14372229179570889 0 0.34473104568078128 -0.1346537922885728 0 0.35093239310346402 -0.14191333147362059 0 0.34473104568078128 -0.1346537922885728 0 0.35390359823335099 -0.13351062528665411 0 0.35093239310346402 -0.14191333147362059 0 0.35390359823335099 -0.13351062528665411 0 0.35093239310346402 -0.14191333147362059 0 0.35957859262383002 -0.14037271761528339 0 0.35390359823335099 -0.13351062528665411 0 0.35957859262383002 -0.14037271761528339 0 0.36173796880781889 -0.12829493676382239 0 0.35093239310346402 -0.14191333147362059 0 0.35593484156242411 -0.1503595955849025 0 0.35957859262383002 -0.14037271761528339 0 0.35093239310346402 -0.14191333147362059 0 0.34762693017061508 -0.1493219091274097 0 0.35593484156242411 -0.1503595955849025 0 0.34225875332753819 -0.14372229179570889 0 0.35093239310346402 -0.14191333147362059 0 0.34762693017061508 -0.1493219091274097 0 0.34031877909896152 -0.15279037756638419 0 0.34762693017061508 -0.1493219091274097 0 0.34861929209714893 -0.1581462914130187 0 0.34762693017061508 -0.1493219091274097 0 0.35593484156242411 -0.1503595955849025 0 0.34861929209714893 -0.1581462914130187 0 0.37391313923893199 -0.1561093449058282 0 0.36871860504480408 -0.139134570540974 0 0.37569219085813199 -0.1359371503973581 0 0.36432582730266111 -0.14932179335550649 0 0.37391313923893199 -0.1561093449058282 0 0.36871860504480408 -0.139134570540974 0 0.36432582730266111 -0.14932179335550649 0 0.37391313923893199 -0.1561093449058282 0 0.35964731466640132 -0.16122983275810371 0 0.35593484156242411 -0.1503595955849025 0 0.36432582730266111 -0.14932179335550649 0 0.35964731466640132 -0.16122983275810371 0 0.35593484156242411 -0.1503595955849025 0 0.36432582730266111 -0.14932179335550649 0 0.35957859262383002 -0.14037271761528339 0 0.36432582730266111 -0.14932179335550649 0 0.35957859262383002 -0.14037271761528339 0 0.36871860504480408 -0.139134570540974 0 0.35957859262383002 -0.14037271761528339 0 0.36871860504480408 -0.139134570540974 0 0.36173796880781889 -0.12829493676382239 0 0.36871860504480408 -0.139134570540974 0 0.37236227426607521 -0.12679304760316701 0 0.37569219085813199 -0.1359371503973581 0 0.36871860504480408 -0.139134570540974 0 0.37236227426607521 -0.12679304760316701 0 0.36173796880781889 -0.12829493676382239 0 0.34180384598641839 -0.18742683354440301 0 0.34779656034438011 -0.17072451393065621 0 0.36365143656677928 -0.17966292014462201 0 0.34779656034438011 -0.17072451393065621 0 0.35964731466640132 -0.16122983275810371 0 0.36365143656677928 -0.17966292014462201 0 0.33836877956646477 -0.16289967122267979 0 0.34779656034438011 -0.17072451393065621 0 0.34861929209714893 -0.1581462914130187 0 0.34779656034438011 -0.17072451393065621 0 0.34861929209714893 -0.1581462914130187 0 0.35964731466640132 -0.16122983275810371 0 0.35593484156242411 -0.1503595955849025 0 0.34861929209714893 -0.1581462914130187 0 0.35964731466640132 -0.16122983275810371 0 0.37391313923893199 -0.1561093449058282 0 0.35964731466640132 -0.16122983275810371 0 0.36365143656677928 -0.17966292014462201 0 0.37391313923893199 -0.1561093449058282 0 0.36365143656677928 -0.17966292014462201 0 0.38378183928944248 -0.17856846617962421 0 0.37391313923893199 -0.1561093449058282 0 0.36365143656677928 -0.17966292014462201 0 0.36365143656677928 -0.17966292014462201 0 0.35338973389462658 -0.20321649538341591 0 0.37930036347389029 -0.20667565272525701 0 0.35338973389462658 -0.20321649538341591 0 0.36150495784070258 -0.22076426616525521 0 0.37930036347389029 -0.20667565272525701 0 0.35338973389462658 -0.20321649538341591 0 0.34312803122247387 -0.22677007062220969 0 0.35338973389462658 -0.20321649538341591 0 0.34312803122247387 -0.22677007062220969 0 0.36150495784070258 -0.22076426616525521 0 0.36365143656677928 -0.17966292014462201 0 0.35338973389462658 -0.20321649538341591 0 0.34180384598641839 -0.18742683354440301 0 0.36365143656677928 -0.17966292014462201 0 0.35338973389462658 -0.20321649538341591 0 0.32220052401432708 -0.184593333027947 0 0.34180384598641839 -0.18742683354440301 0 0.32657006052582338 -0.20797112196169429 0 0.34180384598641839 -0.18742683354440301 0 0.35338973389462658 -0.20321649538341591 0 0.32657006052582338 -0.20797112196169429 0 0.35338973389462658 -0.20321649538341591 0 0.32657006052582338 -0.20797112196169429 0 0.34312803122247387 -0.22677007062220969 0 0.3098916833307912 -0.2059245490645919 0 0.32657006052582338 -0.20797112196169429 0 0.31611764455475488 -0.1966226871681776 0 0.3098916833307912 -0.2059245490645919 0 0.30743291539781531 -0.22363306372328071 0 0.32657006052582338 -0.20797112196169429 0 0.32220052401432708 -0.184593333027947 0 0.32657006052582338 -0.20797112196169429 0 0.32220052401432708 -0.184593333027947 0 0.32657006052582338 -0.20797112196169429 0 0.31611764455475488 -0.1966226871681776 0 0.30580831034807793 -0.18800174461847721 0 0.32220052401432708 -0.184593333027947 0 0.31611764455475488 -0.1966226871681776 0 0.32323334198718268 -0.24176862602104279 0 0.31438996307151218 -0.25623913216874639 0 0.33286632855032122 -0.25032364586100347 0 0.32323334198718268 -0.24176862602104279 0 0.31824757756287508 -0.23096851266858551 0 0.33093959703731962 -0.23134891089544149 0 0.31241797885278638 -0.2439652852050857 0 0.32323334198718268 -0.24176862602104279 0 0.31438996307151218 -0.25623913216874639 0 0.31241797885278638 -0.2439652852050857 0 0.32323334198718268 -0.24176862602104279 0 0.31824757756287508 -0.23096851266858551 0 0.32657006052582338 -0.20797112196169429 0 0.31824757756287508 -0.23096851266858551 0 0.33093959703731962 -0.23134891089544149 0 0.30743291539781531 -0.22363306372328071 0 0.32657006052582338 -0.20797112196169429 0 0.31824757756287508 -0.23096851266858551 0 0.32657006052582338 -0.20797112196169429 0 0.33093959703731962 -0.23134891089544149 0 0.34312803122247387 -0.22677007062220969 0 0.32657006052582338 -0.20797112196169429 0 0.33093959703731962 -0.23134891089544149 0 0.34312803122247387 -0.22677007062220969 0 0.3548605642443674 -0.24455459009579009 0 0.33286632855032122 -0.25032364586100347 0 0.33093959703731962 -0.23134891089544149 0 0.34312803122247387 -0.22677007062220969 0 0.33286632855032122 -0.25032364586100347 0 0.32323334198718268 -0.24176862602104279 0 0.33093959703731962 -0.23134891089544149 0 0.33286632855032122 -0.25032364586100347 0 0.34312803122247387 -0.22677007062220969 0 0.33286632855032122 -0.25032364586100347 0 0.34312803122247387 -0.22677007062220969 0 0.3548605642443674 -0.24455459009579009 0 0.36150495784070258 -0.22076426616525521 0 0.36150495784070258 -0.22076426616525521 0 0.37481888765833832 -0.2347828392708898 0 0.37930036347389029 -0.20667565272525701 0 0.3548605642443674 -0.24455459009579009 0 0.36150495784070258 -0.22076426616525521 0 0.37481888765833832 -0.2347828392708898 0 0.37481888765833832 -0.2347828392708898 0 0.37033741184278612 -0.26289002581652271 0 0.3548605642443674 -0.24455459009579009 0 0.37481888765833832 -0.2347828392708898 0 0.37033741184278612 -0.26289002581652271 0 0.37481888765833832 -0.2347828392708898 0 0.39719002204490178 -0.22437014626418569 0 0.39169534483126017 -0.25405245963883588 0 0.39719002204490178 -0.22437014626418569 0 0.41325244514473097 -0.24230540048143009 0 0.39169534483126017 -0.25405245963883588 0 0.39719002204490178 -0.22437014626418569 0 0.41325244514473097 -0.24230540048143009 0 0.37481888765833832 -0.2347828392708898 0 0.37930036347389029 -0.20667565272525701 0 0.37481888765833832 -0.2347828392708898 0 0.39719002204490178 -0.22437014626418569 0 0.37930036347389029 -0.20667565272525701 0 0.36365143656677928 -0.17966292014462201 0 0.37930036347389029 -0.20667565272525701 0 0.38378183928944248 -0.17856846617962421 0 0.37930036347389029 -0.20667565272525701 0 0.39366423994717892 -0.18801517528055389 0 0.38378183928944248 -0.17856846617962421 0 0.37930036347389029 -0.20667565272525701 0 0.38378183928944248 -0.17856846617962421 0 0.37930036347389029 -0.20667565272525701 0 0.39366423994717892 -0.18801517528055389 0 0.40172257680023837 -0.1993846413058909 0 0.39366423994717892 -0.18801517528055389 0 0.40172257680023837 -0.1993846413058909 0 0.40702720833284067 -0.18419895946664699 0 0.39719002204490178 -0.22437014626418569 0 0.40172257680023837 -0.1993846413058909 0 0.4138098178705496 -0.21142954448032991 0 0.39719002204490178 -0.22437014626418569 0 0.37930036347389029 -0.20667565272525701 0 0.40172257680023837 -0.1993846413058909 0 0.4138098178705496 -0.21142954448032991 0 0.42076412661707141 -0.19496084736955169 0 0.42924465421355729 -0.21283798285485289 0 0.4138098178705496 -0.21142954448032991 0 0.42924465421355729 -0.21283798285485289 0 0.42012770967697932 -0.22559410460716861 0 0.40172257680023837 -0.1993846413058909 0 0.4138098178705496 -0.21142954448032991 0 0.42076412661707141 -0.19496084736955169 0 0.40172257680023837 -0.1993846413058909 0 0.42076412661707141 -0.19496084736955169 0 0.40702720833284067 -0.18419895946664699 0 0.42076412661707141 -0.19496084736955169 0 0.42924465421355729 -0.21283798285485289 0 0.44037486060878778 -0.19116296404857161 0 0.43415773608353669 -0.2345808694352054 0 0.41325244514473097 -0.24230540048143009 0 0.42012770967697932 -0.22559410460716861 0 0.42924465421355729 -0.21283798285485289 0 0.43415773608353669 -0.2345808694352054 0 0.42012770967697932 -0.22559410460716861 0 0.42924465421355729 -0.21283798285485289 0 0.43415773608353669 -0.2345808694352054 0 0.44907617021036778 -0.21664850980174419 0 0.43415773608353669 -0.2345808694352054 0 0.41325244514473097 -0.24230540048143009 0 0.42931486824456022 -0.26024065469867458 0 0.39719002204490178 -0.22437014626418569 0 0.41325244514473097 -0.24230540048143009 0 0.42012770967697932 -0.22559410460716861 0 0.39719002204490178 -0.22437014626418569 0 0.4138098178705496 -0.21142954448032991 0 0.42012770967697932 -0.22559410460716861 0 0.39426458722939223 -0.1347012470416232 0 0.38577427372047851 -0.14306457311608151 0 0.40920291279182019 -0.14056778296459069 0 0.40073497230247102 -0.12874345614455471 0 0.39426458722939223 -0.1347012470416232 0 0.40920291279182019 -0.14056778296459069 0 0.39586104973499309 -0.1215566500555392 0 0.3933625991195584 -0.128846822516993 0 0.38417484191108481 -0.13255576966703439 0 0.40073497230247102 -0.12874345614455471 0 0.39426458722939223 -0.1347012470416232 0 0.3933625991195584 -0.128846822516993 0 0.39586104973499309 -0.1215566500555392 0 0.40073497230247102 -0.12874345614455471 0 0.3933625991195584 -0.128846822516993 0 0.39426458722939223 -0.1347012470416232 0 0.3933625991195584 -0.128846822516993 0 0.38417484191108481 -0.13255576966703439 0 0.38225651972316321 -0.11769094407643541 0 0.38417484191108481 -0.13255576966703439 0 0.37929209382976392 -0.1250930192697868 0 0.38417484191108481 -0.13255576966703439 0 0.37929209382976392 -0.1250930192697868 0 0.37569219085813199 -0.1359371503973581 0 0.37236227426607521 -0.12679304760316701 0 0.37929209382976392 -0.1250930192697868 0 0.37569219085813199 -0.1359371503973581 0 0.39426458722939223 -0.1347012470416232 0 0.38417484191108481 -0.13255576966703439 0 0.38577427372047851 -0.14306457311608151 0 0.37391313923893199 -0.1561093449058282 0 0.38417484191108481 -0.13255576966703439 0 0.37569219085813199 -0.1359371503973581 0 0.38577427372047851 -0.14306457311608151 0 0.38826331510499462 -0.15046127963399139 0 0.39633048092032869 -0.150959736372165 0 0.37391313923893199 -0.1561093449058282 0 0.38417484191108481 -0.13255576966703439 0 0.38577427372047851 -0.14306457311608151 0 0.37391313923893199 -0.1561093449058282 0 0.38417484191108481 -0.13255576966703439 0 0.37391313923893199 -0.1561093449058282 0 0.38577427372047851 -0.14306457311608151 0 0.38826331510499462 -0.15046127963399139 0 0.38577427372047851 -0.14306457311608151 0 0.40920291279182019 -0.14056778296459069 0 0.38577427372047851 -0.14306457311608151 0 0.39633048092032869 -0.150959736372165 0 0.40920291279182019 -0.14056778296459069 0 0.39633048092032869 -0.150959736372165 0 0.40492817287378052 -0.15813202535922971 0 0.40920291279182019 -0.14056778296459069 0 0.38826331510499462 -0.15046127963399139 0 0.39633048092032869 -0.150959736372165 0 0.39348373011056997 -0.16257302078693189 0 0.40492817287378052 -0.15813202535922971 0 0.39326827446568202 -0.17282350758626769 0 0.4192749490864307 -0.16896132751280521 0 0.40492817287378052 -0.15813202535922971 0 0.39348373011056997 -0.16257302078693189 0 0.39326827446568202 -0.17282350758626769 0 0.39633048092032869 -0.150959736372165 0 0.40492817287378052 -0.15813202535922971 0 0.39348373011056997 -0.16257302078693189 0 0.37391313923893199 -0.1561093449058282 0 0.38826331510499462 -0.15046127963399139 0 0.38378183928944248 -0.17856846617962421 0 0.38826331510499462 -0.15046127963399139 0 0.39348373011056997 -0.16257302078693189 0 0.38378183928944248 -0.17856846617962421 0 0.38826331510499462 -0.15046127963399139 0 0.38378183928944248 -0.17856846617962421 0 0.39348373011056997 -0.16257302078693189 0 0.38378183928944248 -0.17856846617962421 0 0.39326827446568202 -0.17282350758626769 0 0.39366423994717892 -0.18801517528055389 0 0.38378183928944248 -0.17856846617962421 0 0.39326827446568202 -0.17282350758626769 0 0.39366423994717892 -0.18801517528055389 0 0.39326827446568202 -0.17282350758626769 0 0.40702720833284067 -0.18419895946664699 0 0.42076412661707141 -0.19496084736955169 0 0.40702720833284067 -0.18419895946664699 0 0.4192749490864307 -0.16896132751280521 0 0.39326827446568202 -0.17282350758626769 0 0.40702720833284067 -0.18419895946664699 0 0.4192749490864307 -0.16896132751280521 0 0.42076412661707141 -0.19496084736955169 0 0.4192749490864307 -0.16896132751280521 0 0.44037486060878778 -0.19116296404857161 0 0.4192749490864307 -0.16896132751280521 0 0.44528162370717939 -0.16509914743934259 0 0.44037486060878778 -0.19116296404857161 0 0.4192749490864307 -0.16896132751280521 0 0.41957485622018198 -0.15203829362421559 0 0.43183669448571721 -0.15445933947135251 0 0.4192749490864307 -0.16896132751280521 0 0.43183669448571721 -0.15445933947135251 0 0.44528162370717939 -0.16509914743934259 0 0.4192749490864307 -0.16896132751280521 0 0.44528162370717939 -0.16509914743934259 0 0.39326827446568202 -0.17282350758626769 0 0.4192749490864307 -0.16896132751280521 0 0.40492817287378052 -0.15813202535922971 0 0.4192749490864307 -0.16896132751280521 0 0.41957485622018198 -0.15203829362421559 0 0.40492817287378052 -0.15813202535922971 0 0.41957485622018198 -0.15203829362421559 0 0.40920291279182019 -0.14056778296459069 0 0.41957485622018198 -0.15203829362421559 0 0.43263155186316188 -0.13807099281310001 0 0.40920291279182019 -0.14056778296459069 0 0.43183669448571721 -0.15445933947135251 0 0.43263155186316188 -0.13807099281310001 0 0.44438386747321262 -0.1477401770557554 0 0.41957485622018198 -0.15203829362421559 0 0.43183669448571721 -0.15445933947135251 0 0.43263155186316188 -0.13807099281310001 0 0.43263155186316188 -0.13807099281310001 0 0.42415855625244259 -0.12507454845041979 0 0.41209782568599018 -0.12839727665430761 0 0.43263155186316188 -0.13807099281310001 0 0.42415855625244259 -0.12507454845041979 0 0.43839409269331708 -0.1271131320684511 0 0.43263155186316188 -0.13807099281310001 0 0.40920291279182019 -0.14056778296459069 0 0.41209782568599018 -0.12839727665430761 0 0.40639603939719848 -0.1229711193748627 0 0.42415855625244259 -0.12507454845041979 0 0.41209782568599018 -0.12839727665430761 0 0.43263155186316188 -0.13807099281310001 0 0.40920291279182019 -0.14056778296459069 0 0.40073497230247102 -0.12874345614455471 0 0.40920291279182019 -0.14056778296459069 0 0.41209782568599018 -0.12839727665430761 0 0.40639603939719848 -0.1229711193748627 0 0.40073497230247102 -0.12874345614455471 0 0.41209782568599018 -0.12839727665430761 0 0.45606019093450367 -0.13557420266160949 0 0.47373384400779239 -0.13369072138897181 0 0.45606019093450367 -0.13557420266160949 0 0.47234205406892049 -0.14563112819001481 0 0.47373384400779239 -0.13369072138897181 0 0.46442706568376207 -0.1198048948405015 0 0.45606019093450367 -0.13557420266160949 0 0.47373384400779239 -0.13369072138897181 0 0.43263155186316188 -0.13807099281310001 0 0.45606019093450367 -0.13557420266160949 0 0.43839409269331708 -0.1271131320684511 0 0.43263155186316188 -0.13807099281310001 0 0.45606019093450367 -0.13557420266160949 0 0.44438386747321262 -0.1477401770557554 0 0.43263155186316188 -0.13807099281310001 0 0.45606019093450367 -0.13557420266160949 0 0.44438386747321262 -0.1477401770557554 0 0.45444813385649929 -0.1515987562232575 0 0.44528162370717939 -0.16509914743934259 0 0.43183669448571721 -0.15445933947135251 0 0.44438386747321262 -0.1477401770557554 0 0.44528162370717939 -0.16509914743934259 0 0.45606019093450367 -0.13557420266160949 0 0.44438386747321262 -0.1477401770557554 0 0.45444813385649929 -0.1515987562232575 0 0.45606019093450367 -0.13557420266160949 0 0.45444813385649929 -0.1515987562232575 0 0.47128829832792779 -0.16123696736587859 0 0.45606019093450367 -0.13557420266160949 0 0.47128829832792779 -0.16123696736587859 0 0.45606019093450367 -0.13557420266160949 0 0.47128829832792779 -0.16123696736587859 0 0.47234205406892049 -0.14563112819001481 0 0.44528162370717939 -0.16509914743934259 0 0.47128829832792779 -0.16123696736587859 0 0.45444813385649929 -0.1515987562232575 0 0.44528162370717939 -0.16509914743934259 0 0.47128829832792779 -0.16123696736587859 0 0.45935133176480641 -0.1703486539883122 0 0.44528162370717939 -0.16509914743934259 0 0.47128829832792779 -0.16123696736587859 0 0.46781813912396869 -0.1709025239976493 0 0.45935133176480641 -0.1703486539883122 0 0.47128829832792779 -0.16123696736587859 0 0.44528162370717939 -0.16509914743934259 0 0.45822933719352482 -0.1829501442288213 0 0.44037486060878778 -0.19116296404857161 0 0.45935133176480641 -0.1703486539883122 0 0.44528162370717939 -0.16509914743934259 0 0.45822933719352482 -0.1829501442288213 0 0.46781813912396869 -0.1709025239976493 0 0.45935133176480641 -0.1703486539883122 0 0.45822933719352482 -0.1829501442288213 0 0.46781813912396869 -0.1709025239976493 0 0.45822933719352482 -0.1829501442288213 0 0.47363867421187072 -0.18396700538778479 0 0.46781813912396869 -0.1709025239976493 0 0.47363867421187072 -0.18396700538778479 0 0.47626759442576372 -0.17236426440516359 0 0.47363867421187072 -0.18396700538778479 0 0.47626759442576372 -0.17236426440516359 0 0.4862235606426209 -0.17524723772995571 0 0.47363867421187072 -0.18396700538778479 0 0.4862235606426209 -0.17524723772995571 0 0.48823137648605952 -0.1895644492400263 0 0.5 -0.18103459656972151 0 0.4862235606426209 -0.17524723772995571 0 0.48823137648605952 -0.1895644492400263 0 0.5 -0.18103459656972151 0 0.4862235606426209 -0.17524723772995571 0 0.49999999999999828 -0.15697307112808151 0 0.4862235606426209 -0.17524723772995571 0 0.49999999999999828 -0.15697307112808151 0 0.48136962131667638 -0.16601176077456389 0 0.49999999999999828 -0.15697307112808151 0 0.47128829832792779 -0.16123696736587859 0 0.49999999999999828 -0.15697307112808151 0 0.47128829832792779 -0.16123696736587859 0 0.4819260807799331 -0.15193960052287009 0 0.49999999999999828 -0.15697307112808151 0 0.48136962131667638 -0.16601176077456389 0 0.47128829832792779 -0.16123696736587859 0 0.47626759442576372 -0.17236426440516359 0 0.48136962131667638 -0.16601176077456389 0 0.47306865318706942 -0.1642372632437398 0 0.47626759442576372 -0.17236426440516359 0 0.4862235606426209 -0.17524723772995571 0 0.48136962131667638 -0.16601176077456389 0 0.46781813912396869 -0.1709025239976493 0 0.47626759442576372 -0.17236426440516359 0 0.47306865318706942 -0.1642372632437398 0 0.46781813912396869 -0.1709025239976493 0 0.47306865318706942 -0.1642372632437398 0 0.47128829832792779 -0.16123696736587859 0 0.48136962131667638 -0.16601176077456389 0 0.47306865318706942 -0.1642372632437398 0 0.47128829832792779 -0.16123696736587859 0 0.47306865318706942 -0.1642372632437398 0 0.47128829832792779 -0.16123696736587859 0 0.47128829832792779 -0.16123696736587859 0 0.47234205406892049 -0.14563112819001481 0 0.4819260807799331 -0.15193960052287009 0 0.47234205406892049 -0.14563112819001481 0 0.48407397072288388 -0.14391723540750581 0 0.4819260807799331 -0.15193960052287009 0 0.47234205406892049 -0.14563112819001481 0 0.48407397072288388 -0.14391723540750581 0 0.47373384400779239 -0.13369072138897181 0 0.49999999999999828 -0.15697307112808151 0 0.48407397072288388 -0.14391723540750581 0 0.4819260807799331 -0.15193960052287009 0 0.49999999999999828 -0.15697307112808151 0 0.48407397072288388 -0.14391723540750581 0 0.5 -0.12793767422988631 0 0.48391606276584082 -0.1173417323638061 0 0.5 -0.12793767422988631 0 0.47373384400779239 -0.13369072138897181 0 0.48407397072288388 -0.14391723540750581 0 0.5 -0.12793767422988631 0 0.47373384400779239 -0.13369072138897181 0 0.457599164080148 -0.23935492211030579 0 0.44907617021036778 -0.21664850980174419 0 0.47110505730716701 -0.22133725185017289 0 0.457599164080148 -0.23935492211030579 0 0.46476633555499719 -0.25390909394795308 0 0.44836440893637902 -0.25607232223834969 0 0.43415773608353669 -0.2345808694352054 0 0.457599164080148 -0.23935492211030579 0 0.44836440893637902 -0.25607232223834969 0 0.43415773608353669 -0.2345808694352054 0 0.457599164080148 -0.23935492211030579 0 0.44907617021036778 -0.21664850980174419 0 0.42924465421355729 -0.21283798285485289 0 0.44907617021036778 -0.21664850980174419 0 0.44037486060878778 -0.19116296404857161 0 0.44907617021036778 -0.21664850980174419 0 0.44037486060878778 -0.19116296404857161 0 0.46197554896901039 -0.20061706851135641 0 0.45822933719352482 -0.1829501442288213 0 0.47363867421187072 -0.18396700538778479 0 0.46197554896901039 -0.20061706851135641 0 0.45822933719352482 -0.1829501442288213 0 0.44037486060878778 -0.19116296404857161 0 0.46197554896901039 -0.20061706851135641 0 0.44907617021036778 -0.21664850980174419 0 0.46197554896901039 -0.20061706851135641 0 0.47110505730716701 -0.22133725185017289 0 0.46197554896901039 -0.20061706851135641 0 0.48129464757580559 -0.20247728450130789 0 0.47110505730716701 -0.22133725185017289 0 0.48129464757580559 -0.20247728450130789 0 0.49217560965982349 -0.22372955863649119 0 0.47110505730716701 -0.22133725185017289 0 0.47363867421187072 -0.18396700538778479 0 0.46197554896901039 -0.20061706851135641 0 0.48129464757580559 -0.20247728450130789 0 0.47363867421187072 -0.18396700538778479 0 0.48129464757580559 -0.20247728450130789 0 0.48823137648605952 -0.1895644492400263 0 0.48129464757580559 -0.20247728450130789 0 0.48823137648605952 -0.1895644492400263 0 0.50000000000000511 -0.20509612201136149 0 0.5 -0.18103459656972151 0 0.48823137648605952 -0.1895644492400263 0 0.50000000000000511 -0.20509612201136149 0 0.50000000000000511 -0.20509612201136149 0 0.5 -0.22657335900282499 0 0.49217560965982349 -0.22372955863649119 0 0.50000000000000511 -0.20509612201136149 0 0.49217560965982349 -0.22372955863649119 0 0.48129464757580559 -0.20247728450130789 0 0.50000000000000511 -0.20509612201136149 0 0.49217560965982349 -0.22372955863649119 0 0.49217560965982349 -0.22372955863649119 0 0.48435121931963759 -0.24236299526161911 0 0.5 -0.22657335900282499 0 0.49217560965982349 -0.22372955863649119 0 0.48435121931963759 -0.24236299526161911 0 0.49217560965982349 -0.22372955863649119 0 0.47110505730716701 -0.22133725185017289 0 0.48435121931963759 -0.24236299526161911 0 0.457599164080148 -0.23935492211030579 0 0.47110505730716701 -0.22133725185017289 0 0.48435121931963759 -0.24236299526161911 0 0.457599164080148 -0.23935492211030579 0 0.48435121931963759 -0.24236299526161911 0 0.46476633555499719 -0.25390909394795308 0 0.5 -0.22657335900282499 0 0.48435121931963759 -0.24236299526161911 0 0.49999999999999928 -0.2480505959942885 0 0.49999999999999928 -0.2480505959942885 0 0.47652682897945059 -0.26099643188674632 0 0.48435121931963759 -0.24236299526161911 0 0.49999999999999928 -0.2480505959942885 0 0.47652682897945059 -0.26099643188674632 0 0.49999999999999928 -0.2480505959942885 0 0.5 -0.27311348860364132 0 0.47652682897945059 -0.26099643188674632 0 0.5 -0.27311348860364132 0 0.48129052677411882 -0.28088594690192431 0 0.4883604886861912 -0.28973372804888581 0 0.5 -0.27311348860364132 0 0.48129052677411882 -0.28088594690192431 0 0.47652682897945059 -0.26099643188674632 0 0.47652682897945059 -0.26099643188674632 0 0.46577565958140232 -0.286599862303002 0 0.48129052677411882 -0.28088594690192431 0 0.47652682897945059 -0.26099643188674632 0 0.46577565958140232 -0.286599862303002 0 0.48435121931963759 -0.24236299526161911 0 0.47652682897945059 -0.26099643188674632 0 0.46476633555499719 -0.25390909394795308 0 0.48435121931963759 -0.24236299526161911 0 0.47652682897945059 -0.26099643188674632 0 0.46476633555499719 -0.25390909394795308 0 0.46095206016191898 -0.26958617040133342 0 0.44836440893637902 -0.25607232223834969 0 0.47652682897945059 -0.26099643188674632 0 0.46476633555499719 -0.25390909394795308 0 0.46095206016191898 -0.26958617040133342 0 0.47652682897945059 -0.26099643188674632 0 0.46095206016191898 -0.26958617040133342 0 0.47652682897945059 -0.26099643188674632 0 0.46095206016191898 -0.26958617040133342 0 0.46577565958140232 -0.286599862303002 0 0.46095206016191898 -0.26958617040133342 0 0.44848260412974938 -0.28164329200521659 0 0.46577565958140232 -0.286599862303002 0 0.46095206016191898 -0.26958617040133342 0 0.44537729134438758 -0.27817590891592081 0 0.46095206016191898 -0.26958617040133342 0 0.44537729134438758 -0.27817590891592081 0 0.44836440893637902 -0.25607232223834969 0 0.46095206016191898 -0.26958617040133342 0 0.44537729134438758 -0.27817590891592081 0 0.44848260412974938 -0.28164329200521659 0 0.44537729134438758 -0.27817590891592081 0 0.44848260412974938 -0.28164329200521659 0 0.44537729134438758 -0.27817590891592081 0 0.44836440893637902 -0.25607232223834969 0 0.42931486824456022 -0.26024065469867458 0 0.44869421847408653 -0.29865287997491319 0 0.4546495814819107 -0.29118863117425209 0 0.45502449018335378 -0.31220329271925751 0 0.44869421847408653 -0.29865287997491319 0 0.4455337112813279 -0.30777449391754308 0 0.45502449018335378 -0.31220329271925751 0 0.4455337112813279 -0.30777449391754308 0 0.45502449018335378 -0.31220329271925751 0 0.44024318443872051 -0.31681326975948171 0 0.4455337112813279 -0.30777449391754308 0 0.44024318443872051 -0.31681326975948171 0 0.43289745660490753 -0.30216608906981163 0 0.44869421847408653 -0.29865287997491319 0 0.4455337112813279 -0.30777449391754308 0 0.44072326416919833 -0.29450695684738748 0 0.4455337112813279 -0.30777449391754308 0 0.44072326416919833 -0.29450695684738748 0 0.43289745660490753 -0.30216608906981163 0 0.44072326416919833 -0.29450695684738748 0 0.44292364886697988 -0.28563236808569409 0 0.44688773251637542 -0.29024726798269351 0 0.44072326416919833 -0.29450695684738748 0 0.44292364886697988 -0.28563236808569409 0 0.43336242742218961 -0.28480230193588518 0 0.44537729134438758 -0.27817590891592081 0 0.44292364886697988 -0.28563236808569409 0 0.43336242742218961 -0.28480230193588518 0 0.44537729134438758 -0.27817590891592081 0 0.43336242742218961 -0.28480230193588518 0 0.44848260412974938 -0.28164329200521659 0 0.44688773251637542 -0.29024726798269351 0 0.4546495814819107 -0.29118863117425209 0 0.44292364886697988 -0.28563236808569409 0 0.44848260412974938 -0.28164329200521659 0 0.44688773251637542 -0.29024726798269351 0 0.44537729134438758 -0.27817590891592081 0 0.44292364886697988 -0.28563236808569409 0 0.44848260412974938 -0.28164329200521659 0 0.44869421847408653 -0.29865287997491319 0 0.44072326416919833 -0.29450695684738748 0 0.44688773251637542 -0.29024726798269351 0 0.44869421847408653 -0.29865287997491319 0 0.44688773251637542 -0.29024726798269351 0 0.4546495814819107 -0.29118863117425209 0 0.44848260412974938 -0.28164329200521659 0 0.4546495814819107 -0.29118863117425209 0 0.46577565958140232 -0.286599862303002 0 0.4546495814819107 -0.29118863117425209 0 0.46577565958140232 -0.286599862303002 0 0.45502449018335378 -0.31220329271925751 0 0.45502449018335378 -0.31220329271925751 0 0.48362698807550081 -0.30328277778953538 0 0.46682366405257519 -0.31370161545666092 0 0.46577565958140232 -0.286599862303002 0 0.45502449018335378 -0.31220329271925751 0 0.46577565958140232 -0.286599862303002 0 0.45502449018335378 -0.31220329271925751 0 0.47641994841029778 -0.29430591099622733 0 0.45502449018335378 -0.31220329271925751 0 0.48362698807550081 -0.30328277778953538 0 0.47641994841029778 -0.29430591099622733 0 0.45502449018335378 -0.31220329271925751 0 0.48362698807550081 -0.30328277778953538 0 0.48362698807550081 -0.30328277778953538 0 0.46682366405257519 -0.31370161545666092 0 0.48362698807550081 -0.30328277778953538 0 0.47641994841029778 -0.29430591099622733 0 0.48628326488145179 -0.29988487202147451 0 0.48129052677411882 -0.28088594690192431 0 0.46577565958140232 -0.286599862303002 0 0.47641994841029778 -0.29430591099622733 0 0.47641994841029778 -0.29430591099622733 0 0.4883604886861912 -0.28973372804888581 0 0.48628326488145179 -0.29988487202147451 0 0.48129052677411882 -0.28088594690192431 0 0.47641994841029778 -0.29430591099622733 0 0.4883604886861912 -0.28973372804888581 0 0.5 -0.27311348860364132 0 0.49611496809409489 -0.29553965289195488 0 0.499999999999996 -0.29817638121299422 0 0.5 -0.27311348860364132 0 0.4883604886861912 -0.28973372804888581 0 0.49611496809409489 -0.29553965289195488 0 0.4883604886861912 -0.28973372804888581 0 0.48923344282768633 -0.29671527869654429 0 0.48628326488145179 -0.29988487202147451 0 0.4883604886861912 -0.28973372804888581 0 0.48923344282768633 -0.29671527869654429 0 0.49611496809409489 -0.29553965289195488 0 0.48362698807550081 -0.30328277778953538 0 0.48617504964900748 -0.30170286182386252 0 0.48445096839680801 -0.33066701099397933 0 0.48617504964900748 -0.30170286182386252 0 0.499999999999996 -0.29817638121299422 0 0.5 -0.3199946958042445 0 0.49611496809409489 -0.29553965289195488 0 0.48617504964900748 -0.30170286182386252 0 0.48923344282768633 -0.29671527869654429 0 0.49611496809409489 -0.29553965289195488 0 0.48617504964900748 -0.30170286182386252 0 0.48362698807550081 -0.30328277778953538 0 0.48617504964900748 -0.30170286182386252 0 0.48628326488145179 -0.29988487202147451 0 0.48362698807550081 -0.30328277778953538 0 0.48617504964900748 -0.30170286182386252 0 0.48617504964900748 -0.30170286182386252 0 0.48628326488145179 -0.29988487202147451 0 0.48923344282768633 -0.29671527869654429 0 0.48617504964900748 -0.30170286182386252 0 0.48628326488145179 -0.29988487202147451 0 0.49611496809409489 -0.29553965289195488 0 0.48617504964900748 -0.30170286182386252 0 0.499999999999996 -0.29817638121299422 0 0.48617504964900748 -0.30170286182386252 0 0.499999999999996 -0.29817638121299422 0 0.48617504964900748 -0.30170286182386252 0 0.48445096839680801 -0.33066701099397933 0 0.48617504964900748 -0.30170286182386252 0 0.5 -0.3199946958042445 0 0.48445096839680801 -0.33066701099397933 0 0.5 -0.3199946958042445 0 0.5 -0.34181301039549478 0 0.48445096839680801 -0.33066701099397933 0 0.48445096839680801 -0.33066701099397933 0 0.47200393792228612 -0.34055019492587207 0 0.48277451178689629 -0.35883107766121458 0 0.48445096839680801 -0.33066701099397933 0 0.47200393792228612 -0.34055019492587207 0 0.46595552695995102 -0.32865388692125852 0 0.48445096839680801 -0.33066701099397933 0 0.46682366405257519 -0.31370161545666092 0 0.46595552695995102 -0.32865388692125852 0 0.48362698807550081 -0.30328277778953538 0 0.48445096839680801 -0.33066701099397933 0 0.46682366405257519 -0.31370161545666092 0 0.50000000000000133 -0.36363132498674522 0 0.48277451178689629 -0.35883107766121458 0 0.50000000000000133 -0.36363132498674522 0 0.4927348370104489 -0.37250341367453399 0 0.48277451178689629 -0.35883107766121458 0 0.50000000000000133 -0.36363132498674522 0 0.4927348370104489 -0.37250341367453399 0 0.49999999999999312 -0.38292905426403467 0 0.4927348370104489 -0.37250341367453399 0 0.48277451178689629 -0.35883107766121458 0 0.48206893362297198 -0.37068462062215152 0 0.5 -0.34181301039549478 0 0.50000000000000133 -0.36363132498674522 0 0.48277451178689629 -0.35883107766121458 0 0.5 -0.34181301039549478 0 0.48445096839680801 -0.33066701099397933 0 0.48277451178689629 -0.35883107766121458 0 0.47200393792228612 -0.34055019492587207 0 0.47155281552916561 -0.35570391419376007 0 0.48277451178689629 -0.35883107766121458 0 0.48445096839680801 -0.33066701099397933 0 0.48277451178689629 -0.35883107766121458 0 0.47155281552916561 -0.35570391419376007 0 0.48277451178689629 -0.35883107766121458 0 0.47155281552916561 -0.35570391419376007 0 0.48277451178689629 -0.35883107766121458 0 0.48206893362297198 -0.37068462062215152 0 0.47155281552916561 -0.35570391419376007 0 0.48206893362297198 -0.37068462062215152 0 0.48277451178689629 -0.35883107766121458 0 0.48206893362297198 -0.37068462062215152 0 0.47155281552916561 -0.35570391419376007 0 0.46971848670331851 -0.37002327500342552 0 0.48206893362297198 -0.37068462062215152 0 0.46971848670331851 -0.37002327500342552 0 0.48206893362297198 -0.37068462062215152 0 0.48135911397393238 -0.38260941950990901 0 0.45884653436190209 -0.36349664758953087 0 0.44812299883645612 -0.3603482605304531 0 0.4536094418365505 -0.38213359665372582 0 0.46971848670331851 -0.37002327500342552 0 0.45884653436190209 -0.36349664758953087 0 0.4536094418365505 -0.38213359665372582 0 0.47155281552916561 -0.35570391419376007 0 0.46971848670331851 -0.37002327500342552 0 0.45884653436190209 -0.36349664758953087 0 0.47155281552916561 -0.35570391419376007 0 0.45647872439843667 -0.3342301601059941 0 0.47155281552916561 -0.35570391419376007 0 0.45884653436190209 -0.36349664758953087 0 0.45227890825500788 -0.35033283148767508 0 0.47155281552916561 -0.35570391419376007 0 0.45227890825500788 -0.35033283148767508 0 0.45647872439843667 -0.3342301601059941 0 0.47155281552916561 -0.35570391419376007 0 0.45227890825500788 -0.35033283148767508 0 0.44196681658615672 -0.34329956001504008 0 0.43391329314266319 -0.3624786669062936 0 0.44812299883645612 -0.3603482605304531 0 0.44196681658615672 -0.34329956001504008 0 0.43391329314266319 -0.3624786669062936 0 0.45227890825500788 -0.35033283148767508 0 0.44812299883645612 -0.3603482605304531 0 0.44196681658615672 -0.34329956001504008 0 0.45884653436190209 -0.36349664758953087 0 0.45227890825500788 -0.35033283148767508 0 0.44812299883645612 -0.3603482605304531 0 0.44812299883645612 -0.3603482605304531 0 0.43391329314266319 -0.3624786669062936 0 0.4536094418365505 -0.38213359665372582 0 0.45502449018335378 -0.31220329271925751 0 0.46682366405257519 -0.31370161545666092 0 0.45002034002964958 -0.32412045312378651 0 0.46682366405257519 -0.31370161545666092 0 0.45002034002964958 -0.32412045312378651 0 0.46682366405257519 -0.31370161545666092 0 0.46595552695995102 -0.32865388692125852 0 0.45002034002964958 -0.32412045312378651 0 0.46595552695995102 -0.32865388692125852 0 0.45647872439843667 -0.3342301601059941 0 0.45002034002964958 -0.32412045312378651 0 0.47200393792228612 -0.34055019492587207 0 0.47155281552916561 -0.35570391419376007 0 0.45647872439843667 -0.3342301601059941 0 0.47200393792228612 -0.34055019492587207 0 0.46595552695995102 -0.32865388692125852 0 0.45647872439843667 -0.3342301601059941 0 0.44196681658615672 -0.34329956001504008 0 0.45002034002964958 -0.32412045312378651 0 0.45002034002964958 -0.32412045312378651 0 0.43319130766698771 -0.33455523114997548 0 0.44196681658615672 -0.34329956001504008 0 0.45002034002964958 -0.32412045312378651 0 0.43319130766698771 -0.33455523114997548 0 0.45647872439843667 -0.3342301601059941 0 0.44196681658615672 -0.34329956001504008 0 0.45002034002964958 -0.32412045312378651 0 0.45227890825500788 -0.35033283148767508 0 0.45647872439843667 -0.3342301601059941 0 0.44196681658615672 -0.34329956001504008 0 0.45002034002964958 -0.32412045312378651 0 0.44024318443872051 -0.31681326975948171 0 0.43319130766698771 -0.33455523114997548 0 0.45502449018335378 -0.31220329271925751 0 0.45002034002964958 -0.32412045312378651 0 0.45502449018335378 -0.31220329271925751 0 0.45002034002964958 -0.32412045312378651 0 0.44024318443872051 -0.31681326975948171 0 0.45502449018335378 -0.31220329271925751 0 0.44024318443872051 -0.31681326975948171 0 0.44024318443872051 -0.31681326975948171 0 0.42546187869408619 -0.3214232467997028 0 0.43319130766698771 -0.33455523114997548 0 0.44024318443872051 -0.31681326975948171 0 0.42546187869408619 -0.3214232467997028 0 0.43289745660490753 -0.30216608906981163 0 0.44024318443872051 -0.31681326975948171 0 0.42546187869408619 -0.3214232467997028 0 0.43319130766698771 -0.33455523114997548 0 0.41636227530432518 -0.34499000917616379 0 0.42546187869408619 -0.3214232467997028 0 0.43319130766698771 -0.33455523114997548 0 0.41636227530432518 -0.34499000917616379 0 0.43319130766698771 -0.33455523114997548 0 0.42900684051023408 -0.34892296483482271 0 0.41636227530432518 -0.34499000917616379 0 0.44196681658615672 -0.34329956001504008 0 0.43319130766698771 -0.33455523114997548 0 0.42900684051023408 -0.34892296483482271 0 0.41045224535721941 -0.32610443439304299 0 0.41636227530432518 -0.34499000917616379 0 0.40341799258960959 -0.34035338588209818 0 0.42546187869408619 -0.3214232467997028 0 0.41636227530432518 -0.34499000917616379 0 0.42546187869408619 -0.3214232467997028 0 0.41045224535721941 -0.32610443439304299 0 0.41636227530432518 -0.34499000917616379 0 0.42546187869408619 -0.3214232467997028 0 0.41045224535721941 -0.32610443439304299 0 0.41904663280320897 -0.30788209832664448 0 0.42546187869408619 -0.3214232467997028 0 0.41045224535721941 -0.32610443439304299 0 0.43391329314266319 -0.3624786669062936 0 0.41862399004561079 -0.37044943109215472 0 0.4258597696991685 -0.38165777379754651 0 0.43391329314266319 -0.3624786669062936 0 0.4258597696991685 -0.38165777379754651 0 0.43391329314266319 -0.3624786669062936 0 0.42121073482704291 -0.35911303062284561 0 0.41862399004561079 -0.37044943109215472 0 0.44196681658615672 -0.34329956001504008 0 0.43391329314266319 -0.3624786669062936 0 0.42900684051023408 -0.34892296483482271 0 0.43391329314266319 -0.3624786669062936 0 0.42900684051023408 -0.34892296483482271 0 0.42121073482704291 -0.35911303062284561 0 0.42900684051023408 -0.34892296483482271 0 0.41636227530432518 -0.34499000917616379 0 0.42121073482704291 -0.35911303062284561 0 0.41636227530432518 -0.34499000917616379 0 0.42121073482704291 -0.35911303062284561 0 0.40759140429430618 -0.36770539841612487 0 0.41636227530432518 -0.34499000917616379 0 0.40759140429430618 -0.36770539841612487 0 0.41636227530432518 -0.34499000917616379 0 0.40759140429430618 -0.36770539841612487 0 0.40264633095406949 -0.35349452872489667 0 0.41636227530432518 -0.34499000917616379 0 0.40264633095406949 -0.35349452872489667 0 0.40341799258960959 -0.34035338588209818 0 0.41636227530432518 -0.34499000917616379 0 0.40264633095406949 -0.35349452872489667 0 0.42121073482704291 -0.35911303062284561 0 0.40759140429430618 -0.36770539841612487 0 0.41862399004561079 -0.37044943109215472 0 0.40759140429430618 -0.36770539841612487 0 0.41862399004561079 -0.37044943109215472 0 0.40454474826487191 -0.38129228571796242 0 0.39630621791473869 -0.37459438830199487 0 0.3984266352754367 -0.36431021772748268 0 0.38740517319095003 -0.36930947341858089 0 0.39630621791473869 -0.37459438830199487 0 0.38740517319095003 -0.36930947341858089 0 0.38956674125043578 -0.3756125450227818 0 0.40759140429430618 -0.36770539841612487 0 0.39630621791473869 -0.37459438830199487 0 0.3984266352754367 -0.36431021772748268 0 0.40759140429430618 -0.36770539841612487 0 0.3984266352754367 -0.36431021772748268 0 0.40264633095406949 -0.35349452872489667 0 0.3984266352754367 -0.36431021772748268 0 0.38893038660381279 -0.36199904827362778 0 0.38740517319095003 -0.36930947341858089 0 0.3984266352754367 -0.36431021772748268 0 0.40264633095406949 -0.35349452872489667 0 0.38893038660381279 -0.36199904827362778 0 0.40264633095406949 -0.35349452872489667 0 0.38893038660381279 -0.36199904827362778 0 0.40264633095406949 -0.35349452872489667 0 0.39218649931208238 -0.34639233513000522 0 0.38893038660381279 -0.36199904827362778 0 0.40264633095406949 -0.35349452872489667 0 0.39218649931208238 -0.34639233513000522 0 0.40341799258960959 -0.34035338588209818 0 0.3813672279053873 -0.3468061325528275 0 0.37554828204147872 -0.35532175427973911 0 0.38023450369325218 -0.33744126278251402 0 0.37554828204147872 -0.35532175427973911 0 0.38023450369325218 -0.33744126278251402 0 0.37515302135564021 -0.34342257650347968 0 0.37554828204147872 -0.35532175427973911 0 0.38023450369325218 -0.33744126278251402 0 0.39218649931208238 -0.34639233513000522 0 0.38475786149980967 -0.34759779723840711 0 0.38395760332792589 -0.354503090585781 0 0.39218649931208238 -0.34639233513000522 0 0.38475786149980967 -0.34759779723840711 0 0.38653795229187138 -0.3414795674999585 0 0.38475786149980967 -0.34759779723840711 0 0.38140774369365038 -0.35105719366418869 0 0.38395760332792589 -0.354503090585781 0 0.38475786149980967 -0.34759779723840711 0 0.3813672279053873 -0.3468061325528275 0 0.38653795229187138 -0.3414795674999585 0 0.3813672279053873 -0.3468061325528275 0 0.38140774369365038 -0.35105719366418869 0 0.37554828204147872 -0.35532175427973911 0 0.38475786149980967 -0.34759779723840711 0 0.3813672279053873 -0.3468061325528275 0 0.38140774369365038 -0.35105719366418869 0 0.38140774369365038 -0.35105719366418869 0 0.37554828204147872 -0.35532175427973911 0 0.38395760332792589 -0.354503090585781 0 0.37554828204147872 -0.35532175427973911 0 0.38395760332792589 -0.354503090585781 0 0.38893038660381279 -0.36199904827362778 0 0.39218649931208238 -0.34639233513000522 0 0.38395760332792589 -0.354503090585781 0 0.38893038660381279 -0.36199904827362778 0 0.39218649931208238 -0.34639233513000522 0 0.38893038660381279 -0.36199904827362778 0 0.38893038660381279 -0.36199904827362778 0 0.38740517319095003 -0.36930947341858089 0 0.37086206038970743 -0.37320224577696492 0 0.38893038660381279 -0.36199904827362778 0 0.37086206038970743 -0.37320224577696492 0 0.38740517319095003 -0.36930947341858089 0 0.383790456209533 -0.37666259947608288 0 0.37086206038970743 -0.37320224577696492 0 0.37554828204147872 -0.35532175427973911 0 0.38893038660381279 -0.36199904827362778 0 0.37086206038970743 -0.37320224577696492 0 0.38893038660381279 -0.36199904827362778 0 0.38740517319095003 -0.36930947341858089 0 0.38740517319095003 -0.36930947341858089 0 0.38956674125043578 -0.3756125450227818 0 0.383790456209533 -0.37666259947608288 0 0.39544261202035241 -0.33078562198638273 0 0.38359047865512491 -0.32336087730701701 0 0.4012906035464584 -0.30275590238163919 0 0.41045224535721941 -0.32610443439304299 0 0.39544261202035241 -0.33078562198638273 0 0.4012906035464584 -0.30275590238163919 0 0.39544261202035241 -0.33078562198638273 0 0.4012906035464584 -0.30275590238163919 0 0.41045224535721941 -0.32610443439304299 0 0.40341799258960959 -0.34035338588209818 0 0.39544261202035241 -0.33078562198638273 0 0.41045224535721941 -0.32610443439304299 0 0.39544261202035241 -0.33078562198638273 0 0.39218649931208238 -0.34639233513000522 0 0.39544261202035241 -0.33078562198638273 0 0.38653795229187138 -0.3414795674999585 0 0.39218649931208238 -0.34639233513000522 0 0.39544261202035241 -0.33078562198638273 0 0.39218649931208238 -0.34639233513000522 0 0.40341799258960959 -0.34035338588209818 0 0.39544261202035241 -0.33078562198638273 0 0.39544261202035241 -0.33078562198638273 0 0.37816365235059768 -0.3361745645285803 0 0.38359047865512491 -0.32336087730701701 0 0.39544261202035241 -0.33078562198638273 0 0.38023450369325218 -0.33744126278251402 0 0.37816365235059768 -0.3361745645285803 0 0.39544261202035241 -0.33078562198638273 0 0.37816365235059768 -0.3361745645285803 0 0.39544261202035241 -0.33078562198638273 0 0.38653795229187138 -0.3414795674999585 0 0.38023450369325218 -0.33744126278251402 0 0.3813672279053873 -0.3468061325528275 0 0.38653795229187138 -0.3414795674999585 0 0.38023450369325218 -0.33744126278251402 0 0.37816365235059768 -0.3361745645285803 0 0.37594986319930818 -0.3389447772920941 0 0.37234941135960797 -0.33763178667611088 0 0.38023450369325218 -0.33744126278251402 0 0.37816365235059768 -0.3361745645285803 0 0.37737526014969958 -0.33899579527666712 0 0.37816365235059768 -0.3361745645285803 0 0.37594986319930818 -0.3389447772920941 0 0.37737526014969958 -0.33899579527666712 0 0.37594986319930818 -0.3389447772920941 0 0.37737526014969958 -0.33899579527666712 0 0.37515302135564021 -0.34342257650347968 0 0.38023450369325218 -0.33744126278251402 0 0.37737526014969958 -0.33899579527666712 0 0.37515302135564021 -0.34342257650347968 0 0.37816365235059768 -0.3361745645285803 0 0.38359047865512491 -0.32336087730701701 0 0.37336520597733591 -0.33101503145276501 0 0.38359047865512491 -0.32336087730701701 0 0.37208819252352332 -0.32395152259856441 0 0.37336520597733591 -0.33101503145276501 0 0.38359047865512491 -0.32336087730701701 0 0.37890533560778389 -0.30858497924094619 0 0.37208819252352332 -0.32395152259856441 0 0.37890533560778389 -0.30858497924094619 0 0.4012906035464584 -0.30275590238163919 0 0.38587053782134773 -0.28233446036949922 0 0.38359047865512491 -0.32336087730701701 0 0.37890533560778389 -0.30858497924094619 0 0.4012906035464584 -0.30275590238163919 0 0.4012906035464584 -0.30275590238163919 0 0.38587053782134773 -0.28233446036949922 0 0.40713859507256389 -0.27472618277689559 0 0.4012906035464584 -0.30275590238163919 0 0.40713859507256389 -0.27472618277689559 0 0.37890533560778389 -0.30858497924094619 0 0.38587053782134773 -0.28233446036949922 0 0.36585593602723399 -0.29099721236215548 0 0.41325244514473097 -0.24230540048143009 0 0.39169534483126017 -0.25405245963883588 0 0.40713859507256389 -0.27472618277689559 0 0.38587053782134773 -0.28233446036949922 0 0.39169534483126017 -0.25405245963883588 0 0.37033741184278612 -0.26289002581652271 0 0.37481888765833832 -0.2347828392708898 0 0.39169534483126017 -0.25405245963883588 0 0.37033741184278612 -0.26289002581652271 0 0.38587053782134773 -0.28233446036949922 0 0.39169534483126017 -0.25405245963883588 0 0.40713859507256389 -0.27472618277689559 0 0.41325244514473097 -0.24230540048143009 0 0.40713859507256389 -0.27472618277689559 0 0.42931486824456022 -0.26024065469867458 0 0.41325244514473097 -0.24230540048143009 0 0.42931486824456022 -0.26024065469867458 0 0.43415773608353669 -0.2345808694352054 0 0.44836440893637902 -0.25607232223834969 0 0.42931486824456022 -0.26024065469867458 0 0.40713859507256389 -0.27472618277689559 0 0.42931486824456022 -0.26024065469867458 0 0.43336242742218961 -0.28480230193588518 0 0.44537729134438758 -0.27817590891592081 0 0.42931486824456022 -0.26024065469867458 0 0.43336242742218961 -0.28480230193588518 0 0.44537729134438758 -0.27817590891592081 0 0.42931486824456022 -0.26024065469867458 0 0.43336242742218961 -0.28480230193588518 0 0.43289745660490753 -0.30216608906981163 0 0.41739444691005789 -0.29341878969299889 0 0.44072326416919833 -0.29450695684738748 0 0.43336242742218961 -0.28480230193588518 0 0.43289745660490753 -0.30216608906981163 0 0.42546187869408619 -0.3214232467997028 0 0.43289745660490753 -0.30216608906981163 0 0.41904663280320897 -0.30788209832664448 0 0.42546187869408619 -0.3214232467997028 0 0.43289745660490753 -0.30216608906981163 0 0.43289745660490753 -0.30216608906981163 0 0.41904663280320897 -0.30788209832664448 0 0.41739444691005789 -0.29341878969299889 0 0.41045224535721941 -0.32610443439304299 0 0.4012906035464584 -0.30275590238163919 0 0.41904663280320897 -0.30788209832664448 0 0.4012906035464584 -0.30275590238163919 0 0.41904663280320897 -0.30788209832664448 0 0.41739444691005789 -0.29341878969299889 0 0.4012906035464584 -0.30275590238163919 0 0.40713859507256389 -0.27472618277689559 0 0.41739444691005789 -0.29341878969299889 0 0.40713859507256389 -0.27472618277689559 0 0.43336242742218961 -0.28480230193588518 0 0.41739444691005789 -0.29341878969299889 0 0.46860939697479942 -0.47626196164799489 0 0.5 -0.5 0 0.43265000299211792 -0.5 0 0.44583091382790291 -0.47172236278734681 0 0.46860939697479942 -0.47626196164799489 0 0.43265000299211792 -0.5 0 0.46860939697479942 -0.47626196164799489 0 0.5 -0.5 0 0.5 -0.45613103713150122 0 0.5 -0.45613103713150122 0 0.46456606805397599 -0.45345640832112621 0 0.4742024657318864 -0.43128209631542758 0 0.46860939697479942 -0.47626196164799489 0 0.5 -0.45613103713150122 0 0.46456606805397599 -0.45345640832112621 0 0.46456606805397599 -0.45345640832112621 0 0.4742024657318864 -0.43128209631542758 0 0.46456606805397599 -0.45345640832112621 0 0.44828807328357861 -0.44926840652939959 0 0.44979122068496952 -0.43289377716370719 0 0.46456606805397599 -0.45345640832112621 0 0.44979122068496952 -0.43289377716370719 0 0.4742024657318864 -0.43128209631542758 0 0.44583091382790291 -0.47172236278734681 0 0.46860939697479942 -0.47626196164799489 0 0.46456606805397599 -0.45345640832112621 0 0.44583091382790291 -0.47172236278734681 0 0.46456606805397599 -0.45345640832112621 0 0.44828807328357861 -0.44926840652939959 0 0.44583091382790291 -0.47172236278734681 0 0.44828807328357861 -0.44926840652939959 0 0.43466773946961512 -0.45505678757010998 0 0.44828807328357861 -0.44926840652939959 0 0.44979122068496952 -0.43289377716370719 0 0.43177528156554712 -0.43839277541622551 0 0.44828807328357861 -0.44926840652939959 0 0.43177528156554712 -0.43839277541622551 0 0.43466773946961512 -0.45505678757010998 0 0.4502895958179024 -0.40052127773748247 0 0.43000576571788868 -0.41470799299043742 0 0.45485759058665332 -0.41603911289030099 0 0.4502895958179024 -0.40052127773748247 0 0.43000576571788868 -0.41470799299043742 0 0.44979122068496952 -0.43289377716370719 0 0.45485759058665332 -0.41603911289030099 0 0.43000576571788868 -0.41470799299043742 0 0.45485759058665332 -0.41603911289030099 0 0.47147185782763801 -0.41085430203794449 0 0.46539788516163721 -0.40052872467293987 0 0.45485759058665332 -0.41603911289030099 0 0.4742024657318864 -0.43128209631542758 0 0.47147185782763801 -0.41085430203794449 0 0.44979122068496952 -0.43289377716370719 0 0.45485759058665332 -0.41603911289030099 0 0.4742024657318864 -0.43128209631542758 0 0.5 -0.45613103713150122 0 0.48383886340979682 -0.40910778430972911 0 0.49999999999999928 -0.39622827075484401 0 0.5 -0.45613103713150122 0 0.4742024657318864 -0.43128209631542758 0 0.48383886340979682 -0.40910778430972911 0 0.48383886340979682 -0.40910778430972911 0 0.47147185782763801 -0.41085430203794449 0 0.48008050174758071 -0.404089796497689 0 0.4742024657318864 -0.43128209631542758 0 0.48383886340979682 -0.40910778430972911 0 0.47147185782763801 -0.41085430203794449 0 0.4742024657318864 -0.43128209631542758 0 0.48383886340979682 -0.40910778430972911 0 0.47273508120233032 -0.40270296713587961 0 0.47399008007246529 -0.39533904533494502 0 0.46539788516163721 -0.40052872467293987 0 0.47147185782763801 -0.41085430203794449 0 0.47273508120233032 -0.40270296713587961 0 0.48008050174758071 -0.404089796497689 0 0.48383886340979682 -0.40910778430972911 0 0.48008050174758071 -0.404089796497689 0 0.48585234168955899 -0.39118127034300998 0 0.48008050174758071 -0.404089796497689 0 0.48585234168955899 -0.39118127034300998 0 0.48135911397393238 -0.38260941950990901 0 0.47399008007246529 -0.39533904533494502 0 0.48008050174758071 -0.404089796497689 0 0.48135911397393238 -0.38260941950990901 0 0.47273508120233032 -0.40270296713587961 0 0.47399008007246529 -0.39533904533494502 0 0.48008050174758071 -0.404089796497689 0 0.48008050174758071 -0.404089796497689 0 0.48135911397393238 -0.38260941950990901 0 0.47147185782763801 -0.41085430203794449 0 0.47273508120233032 -0.40270296713587961 0 0.46539788516163721 -0.40052872467293987 0 0.47399008007246529 -0.39533904533494502 0 0.47057342591791612 -0.38633456248452758 0 0.46539788516163721 -0.40052872467293987 0 0.48383886340979682 -0.40910778430972911 0 0.49347526108770862 -0.38693347230403102 0 0.48383886340979682 -0.40910778430972911 0 0.49999999999999928 -0.39622827075484401 0 0.49347526108770862 -0.38693347230403102 0 0.48383886340979682 -0.40910778430972911 0 0.48585234168955899 -0.39118127034300998 0 0.49347526108770862 -0.38693347230403102 0 0.49999999999999928 -0.39622827075484401 0 0.49347526108770862 -0.38693347230403102 0 0.4927348370104489 -0.37250341367453399 0 0.49999999999999312 -0.38292905426403467 0 0.49523007785018991 -0.38289546394190987 0 0.4927348370104489 -0.37250341367453399 0 0.49523007785018991 -0.38289546394190987 0 0.49055050839908532 -0.38276702409442481 0 0.49999999999999312 -0.38292905426403467 0 0.49523007785018991 -0.38289546394190987 0 0.49999999999999928 -0.39622827075484401 0 0.49999999999999312 -0.38292905426403467 0 0.49347526108770862 -0.38693347230403102 0 0.49999999999999312 -0.38292905426403467 0 0.49347526108770862 -0.38693347230403102 0 0.49523007785018991 -0.38289546394190987 0 0.49347526108770862 -0.38693347230403102 0 0.49523007785018991 -0.38289546394190987 0 0.49347526108770862 -0.38693347230403102 0 0.49523007785018991 -0.38289546394190987 0 0.49055050839908532 -0.38276702409442481 0 0.49523007785018991 -0.38289546394190987 0 0.49055050839908532 -0.38276702409442481 0 0.48585234168955899 -0.39118127034300998 0 0.49055050839908532 -0.38276702409442481 0 0.48135911397393238 -0.38260941950990901 0 0.49347526108770862 -0.38693347230403102 0 0.49055050839908532 -0.38276702409442481 0 0.48585234168955899 -0.39118127034300998 0 0.49347526108770862 -0.38693347230403102 0 0.49055050839908532 -0.38276702409442481 0 0.4927348370104489 -0.37250341367453399 0 0.48206893362297198 -0.37068462062215152 0 0.49055050839908532 -0.38276702409442481 0 0.49055050839908532 -0.38276702409442481 0 0.48135911397393238 -0.38260941950990901 0 0.48206893362297198 -0.37068462062215152 0 0.49055050839908532 -0.38276702409442481 0 0.48135911397393238 -0.38260941950990901 0 0.48206893362297198 -0.37068462062215152 0 0.49055050839908532 -0.38276702409442481 0 0.48206893362297198 -0.37068462062215152 0 0.48135911397393238 -0.38260941950990901 0 0.47399008007246529 -0.39533904533494502 0 0.48135911397393238 -0.38260941950990901 0 0.47057342591791612 -0.38633456248452758 0 0.47057342591791612 -0.38633456248452758 0 0.4536094418365505 -0.38213359665372582 0 0.4502895958179024 -0.40052127773748247 0 0.48135911397393238 -0.38260941950990901 0 0.47057342591791612 -0.38633456248452758 0 0.4536094418365505 -0.38213359665372582 0 0.46971848670331851 -0.37002327500342552 0 0.48135911397393238 -0.38260941950990901 0 0.4536094418365505 -0.38213359665372582 0 0.48135911397393238 -0.38260941950990901 0 0.4536094418365505 -0.38213359665372582 0 0.47057342591791612 -0.38633456248452758 0 0.4502895958179024 -0.40052127773748247 0 0.47057342591791612 -0.38633456248452758 0 0.46539788516163721 -0.40052872467293987 0 0.4502895958179024 -0.40052127773748247 0 0.45485759058665332 -0.41603911289030099 0 0.46539788516163721 -0.40052872467293987 0 0.4502895958179024 -0.40052127773748247 0 0.4502895958179024 -0.40052127773748247 0 0.43555961717367531 -0.39586325934726108 0 0.43000576571788868 -0.41470799299043742 0 0.4536094418365505 -0.38213359665372582 0 0.4502895958179024 -0.40052127773748247 0 0.43555961717367531 -0.39586325934726108 0 0.43391329314266319 -0.3624786669062936 0 0.4536094418365505 -0.38213359665372582 0 0.4258597696991685 -0.38165777379754651 0 0.4536094418365505 -0.38213359665372582 0 0.4258597696991685 -0.38165777379754651 0 0.4536094418365505 -0.38213359665372582 0 0.4258597696991685 -0.38165777379754651 0 0.43555961717367531 -0.39586325934726108 0 0.43555961717367531 -0.39586325934726108 0 0.41803351279686463 -0.40029565555711277 0 0.43000576571788868 -0.41470799299043742 0 0.4258597696991685 -0.38165777379754651 0 0.41803351279686463 -0.40029565555711277 0 0.4258597696991685 -0.38165777379754651 0 0.43555961717367531 -0.39586325934726108 0 0.41803351279686463 -0.40029565555711277 0 0.4258597696991685 -0.38165777379754651 0 0.41803351279686463 -0.40029565555711277 0 0.41036786543559739 -0.39176682251349071 0 0.41803351279686463 -0.40029565555711277 0 0.41036786543559739 -0.39176682251349071 0 0.40363427787819628 -0.40862049928384031 0 0.4258597696991685 -0.38165777379754651 0 0.41036786543559739 -0.39176682251349071 0 0.40454474826487191 -0.38129228571796242 0 0.41862399004561079 -0.37044943109215472 0 0.4258597696991685 -0.38165777379754651 0 0.40454474826487191 -0.38129228571796242 0 0.4258597696991685 -0.38165777379754651 0 0.40454474826487191 -0.38129228571796242 0 0.40759140429430618 -0.36770539841612487 0 0.40454474826487191 -0.38129228571796242 0 0.39882053328428879 -0.39042078765608651 0 0.40759140429430618 -0.36770539841612487 0 0.39630621791473869 -0.37459438830199487 0 0.39882053328428879 -0.39042078765608651 0 0.39630621791473869 -0.37459438830199487 0 0.39882053328428879 -0.39042078765608651 0 0.39076511768652089 -0.38188371889446843 0 0.40759140429430618 -0.36770539841612487 0 0.39882053328428879 -0.39042078765608651 0 0.41036786543559739 -0.39176682251349071 0 0.40454474826487191 -0.38129228571796242 0 0.39882053328428879 -0.39042078765608651 0 0.39882053328428879 -0.39042078765608651 0 0.39076511768652089 -0.38188371889446843 0 0.3887417788110531 -0.39057831182590202 0 0.39630621791473869 -0.37459438830199487 0 0.39076511768652089 -0.38188371889446843 0 0.38956674125043578 -0.3756125450227818 0 0.39076511768652089 -0.38188371889446843 0 0.38956674125043578 -0.3756125450227818 0 0.383790456209533 -0.37666259947608288 0 0.39076511768652089 -0.38188371889446843 0 0.383790456209533 -0.37666259947608288 0 0.38297381219539761 -0.38614645617910509 0 0.39076511768652089 -0.38188371889446843 0 0.3887417788110531 -0.39057831182590202 0 0.38297381219539761 -0.38614645617910509 0 0.3887417788110531 -0.39057831182590202 0 0.38297381219539761 -0.38614645617910509 0 0.38322536965804438 -0.39469218724187249 0 0.38297381219539761 -0.38614645617910509 0 0.37699592955614408 -0.379080542527514 0 0.37972964624375771 -0.39294971659428518 0 0.383790456209533 -0.37666259947608288 0 0.37699592955614408 -0.379080542527514 0 0.37086206038970743 -0.37320224577696492 0 0.383790456209533 -0.37666259947608288 0 0.38297381219539761 -0.38614645617910509 0 0.37699592955614408 -0.379080542527514 0 0.37699592955614408 -0.379080542527514 0 0.37972964624375771 -0.39294971659428518 0 0.37143040012100131 -0.40374765356514891 0 0.37972964624375771 -0.39294971659428518 0 0.38402271968820062 -0.40108174345778552 0 0.37143040012100131 -0.40374765356514891 0 0.38297381219539761 -0.38614645617910509 0 0.37972964624375771 -0.39294971659428518 0 0.38322536965804438 -0.39469218724187249 0 0.37972964624375771 -0.39294971659428518 0 0.38322536965804438 -0.39469218724187249 0 0.38402271968820062 -0.40108174345778552 0 0.3887417788110531 -0.39057831182590202 0 0.38322536965804438 -0.39469218724187249 0 0.38402271968820062 -0.40108174345778552 0 0.39882053328428879 -0.39042078765608651 0 0.3887417788110531 -0.39057831182590202 0 0.38402271968820062 -0.40108174345778552 0 0.41036786543559739 -0.39176682251349071 0 0.39882053328428879 -0.39042078765608651 0 0.40363427787819628 -0.40862049928384031 0 0.39882053328428879 -0.39042078765608651 0 0.38402271968820062 -0.40108174345778552 0 0.39004966227427151 -0.41313617689604809 0 0.39882053328428879 -0.39042078765608651 0 0.39004966227427151 -0.41313617689604809 0 0.39882053328428879 -0.39042078765608651 0 0.40363427787819628 -0.40862049928384031 0 0.39004966227427151 -0.41313617689604809 0 0.40363427787819628 -0.40862049928384031 0 0.39004966227427151 -0.41313617689604809 0 0.39470361597328529 -0.42760481839712899 0 0.40363427787819628 -0.40862049928384031 0 0.39470361597328529 -0.42760481839712899 0 0.40972193561787512 -0.42889470824339221 0 0.38402271968820062 -0.40108174345778552 0 0.37644564056112079 -0.41694060943462458 0 0.37143040012100131 -0.40374765356514891 0 0.38402271968820062 -0.40108174345778552 0 0.39004966227427151 -0.41313617689604809 0 0.37644564056112079 -0.41694060943462458 0 0.39004966227427151 -0.41313617689604809 0 0.37644564056112079 -0.41694060943462458 0 0.37698658048928418 -0.42574331922421221 0 0.39004966227427151 -0.41313617689604809 0 0.38127879126425412 -0.43585156613600973 0 0.37698658048928418 -0.42574331922421221 0 0.39004966227427151 -0.41313617689604809 0 0.38127879126425412 -0.43585156613600973 0 0.39004966227427151 -0.41313617689604809 0 0.38127879126425412 -0.43585156613600973 0 0.39470361597328529 -0.42760481839712899 0 0.38127879126425412 -0.43585156613600973 0 0.37017428839378003 -0.44156763871841131 0 0.37357613270829421 -0.43289432217035417 0 0.38127879126425412 -0.43585156613600973 0 0.37698658048928418 -0.42574331922421221 0 0.37357613270829421 -0.43289432217035417 0 0.38127879126425412 -0.43585156613600973 0 0.39470361597328529 -0.42760481839712899 0 0.3894381055178614 -0.44308142349634699 0 0.39470361597328529 -0.42760481839712899 0 0.40972193561787512 -0.42889470824339221 0 0.3894381055178614 -0.44308142349634699 0 0.40972193561787512 -0.42889470824339221 0 0.3894381055178614 -0.44308142349634699 0 0.40972193561787512 -0.42889470824339221 0 0.43000576571788868 -0.41470799299043742 0 0.41803351279686463 -0.40029565555711277 0 0.40363427787819628 -0.40862049928384031 0 0.40972193561787512 -0.42889470824339221 0 0.41803351279686463 -0.40029565555711277 0 0.40972193561787512 -0.42889470824339221 0 0.43000576571788868 -0.41470799299043742 0 0.40972193561787512 -0.42889470824339221 0 0.43000576571788868 -0.41470799299043742 0 0.43177528156554712 -0.43839277541622551 0 0.44979122068496952 -0.43289377716370719 0 0.43000576571788868 -0.41470799299043742 0 0.43177528156554712 -0.43839277541622551 0 0.40055200592942652 -0.4795039643591113 0 0.43265000299211792 -0.5 0 0.36727508933559821 -0.48470388303239131 0 0.43265000299211792 -0.5 0 0.34971341565259428 -0.50000000000000444 0 0.36727508933559821 -0.48470388303239131 0 0.43177528156554712 -0.43839277541622551 0 0.43466773946961512 -0.45505678757010998 0 0.41713464445494991 -0.44989956886654497 0 0.43466773946961512 -0.45505678757010998 0 0.42563775404265258 -0.46469914573211463 0 0.41713464445494991 -0.44989956886654497 0 0.44583091382790291 -0.47172236278734681 0 0.43466773946961512 -0.45505678757010998 0 0.42563775404265258 -0.46469914573211463 0 0.41216443138764952 -0.46662975519372779 0 0.41713464445494991 -0.44989956886654497 0 0.40461586291777257 -0.45509422164354368 0 0.42563775404265258 -0.46469914573211463 0 0.41216443138764952 -0.46662975519372779 0 0.41713464445494991 -0.44989956886654497 0 0.41216443138764952 -0.46662975519372779 0 0.40461586291777257 -0.45509422164354368 0 0.40335594783261319 -0.46672259982616759 0 0.40972193561787512 -0.42889470824339221 0 0.43177528156554712 -0.43839277541622551 0 0.41713464445494991 -0.44989956886654497 0 0.40972193561787512 -0.42889470824339221 0 0.41713464445494991 -0.44989956886654497 0 0.40331061443959099 -0.4459428571131423 0 0.41713464445494991 -0.44989956886654497 0 0.40331061443959099 -0.4459428571131423 0 0.40461586291777257 -0.45509422164354368 0 0.39564252368949648 -0.45274436331588358 0 0.3894381055178614 -0.44308142349634699 0 0.38728690268591798 -0.45892666291356521 0 0.40972193561787512 -0.42889470824339221 0 0.40331061443959099 -0.4459428571131423 0 0.3894381055178614 -0.44308142349634699 0 0.40331061443959099 -0.4459428571131423 0 0.39564252368949648 -0.45274436331588358 0 0.40461586291777257 -0.45509422164354368 0 0.40331061443959099 -0.4459428571131423 0 0.39564252368949648 -0.45274436331588358 0 0.3894381055178614 -0.44308142349634699 0 0.3894381055178614 -0.44308142349634699 0 0.38071434581459512 -0.45650911161367119 0 0.38728690268591798 -0.45892666291356521 0 0.3894381055178614 -0.44308142349634699 0 0.37017428839378003 -0.44156763871841131 0 0.36731907827311738 -0.44969174466338441 0 0.38127879126425412 -0.43585156613600973 0 0.3894381055178614 -0.44308142349634699 0 0.37017428839378003 -0.44156763871841131 0 0.3894381055178614 -0.44308142349634699 0 0.36915427541784768 -0.457268138749302 0 0.3894381055178614 -0.44308142349634699 0 0.38071434581459512 -0.45650911161367119 0 0.36915427541784768 -0.457268138749302 0 0.3894381055178614 -0.44308142349634699 0 0.36915427541784768 -0.457268138749302 0 0.36731907827311738 -0.44969174466338441 0 0.37697809963675338 -0.46676022129547068 0 0.38071434581459512 -0.45650911161367119 0 0.36915427541784768 -0.457268138749302 0 0.37697809963675338 -0.46676022129547068 0 0.38071434581459512 -0.45650911161367119 0 0.38728690268591798 -0.45892666291356521 0 0.37697809963675338 -0.46676022129547068 0 0.38728690268591798 -0.45892666291356521 0 0.38831690764445892 -0.4679596659942058 0 0.38728690268591798 -0.45892666291356521 0 0.38831690764445892 -0.4679596659942058 0 0.39619766670165601 -0.46245164395689492 0 0.38831690764445892 -0.4679596659942058 0 0.39619766670165601 -0.46245164395689492 0 0.39840889841225929 -0.47283912732971861 0 0.39564252368949648 -0.45274436331588358 0 0.38728690268591798 -0.45892666291356521 0 0.39619766670165601 -0.46245164395689492 0 0.39564252368949648 -0.45274436331588358 0 0.39619766670165601 -0.46245164395689492 0 0.40461586291777257 -0.45509422164354368 0 0.39619766670165601 -0.46245164395689492 0 0.40335594783261319 -0.46672259982616759 0 0.39840889841225929 -0.47283912732971861 0 0.39619766670165601 -0.46245164395689492 0 0.40461586291777257 -0.45509422164354368 0 0.40335594783261319 -0.46672259982616759 0 0.40335594783261319 -0.46672259982616759 0 0.39840889841225929 -0.47283912732971861 0 0.40657446492701882 -0.47317654019031369 0 0.40055200592942652 -0.4795039643591113 0 0.38271297078570771 -0.4788206744753768 0 0.36727508933559821 -0.48470388303239131 0 0.40055200592942652 -0.4795039643591113 0 0.39840889841225929 -0.47283912732971861 0 0.38271297078570771 -0.4788206744753768 0 0.40055200592942652 -0.4795039643591113 0 0.39840889841225929 -0.47283912732971861 0 0.40657446492701882 -0.47317654019031369 0 0.40055200592942652 -0.4795039643591113 0 0.38271297078570771 -0.4788206744753768 0 0.39840889841225929 -0.47283912732971861 0 0.38271297078570771 -0.4788206744753768 0 0.38831690764445892 -0.4679596659942058 0 0.39840889841225929 -0.47283912732971861 0 0.38271297078570771 -0.4788206744753768 0 0.37697809963675338 -0.46676022129547068 0 0.38831690764445892 -0.4679596659942058 0 0.38271297078570771 -0.4788206744753768 0 0.40055200592942652 -0.4795039643591113 0 0.41839104107314529 -0.48018725424284309 0 0.43265000299211792 -0.5 0 0.40055200592942652 -0.4795039643591113 0 0.40657446492701882 -0.47317654019031369 0 0.41839104107314529 -0.48018725424284309 0 0.40055200592942652 -0.4795039643591113 0 0.41839104107314529 -0.48018725424284309 0 0.41216443138764952 -0.46662975519372779 0 0.40335594783261319 -0.46672259982616759 0 0.40657446492701882 -0.47317654019031369 0 0.41216443138764952 -0.46662975519372779 0 0.40657446492701882 -0.47317654019031369 0 0.41839104107314529 -0.48018725424284309 0 0.42563775404265258 -0.46469914573211463 0 0.41216443138764952 -0.46662975519372779 0 0.41839104107314529 -0.48018725424284309 0 0.44583091382790291 -0.47172236278734681 0 0.41839104107314529 -0.48018725424284309 0 0.43265000299211792 -0.5 0 0.44583091382790291 -0.47172236278734681 0 0.42563775404265258 -0.46469914573211463 0 0.41839104107314529 -0.48018725424284309 0 0.32713718871480491 -0.500000000000001 0 0.32561859209943661 -0.47663378426186842 0 0.31014845118612011 -0.48716364432395182 0 0.32561859209943661 -0.47663378426186842 0 0.35473381181557051 -0.4777489866780526 0 0.33968062082906952 -0.45536247354135162 0 0.32561859209943661 -0.47663378426186842 0 0.33657589342119371 -0.48765411245645679 0 0.35473381181557051 -0.4777489866780526 0 0.32561859209943661 -0.47663378426186842 0 0.35473381181557051 -0.4777489866780526 0 0.32713718871480491 -0.500000000000001 0 0.34971341565259428 -0.50000000000000444 0 0.35183720788548722 -0.49058709158940222 0 0.32713718871480491 -0.500000000000001 0 0.32561859209943661 -0.47663378426186842 0 0.33657589342119371 -0.48765411245645679 0 0.32713718871480491 -0.500000000000001 0 0.33657589342119371 -0.48765411245645679 0 0.35183720788548722 -0.49058709158940222 0 0.32713718871480491 -0.500000000000001 0 0.35183720788548722 -0.49058709158940222 0 0.34971341565259428 -0.50000000000000444 0 0.35183720788548722 -0.49058709158940222 0 0.36727508933559821 -0.48470388303239131 0 0.33657589342119371 -0.48765411245645679 0 0.35183720788548722 -0.49058709158940222 0 0.35473381181557051 -0.4777489866780526 0 0.34971341565259428 -0.50000000000000444 0 0.35183720788548722 -0.49058709158940222 0 0.35183720788548722 -0.49058709158940222 0 0.36727508933559821 -0.48470388303239131 0 0.38271297078570771 -0.4788206744753768 0 0.36727508933559821 -0.48470388303239131 0 0.35473381181557051 -0.4777489866780526 0 0.38271297078570771 -0.4788206744753768 0 0.35473381181557051 -0.4777489866780526 0 0.37697809963675338 -0.46676022129547068 0 0.38271297078570771 -0.4788206744753768 0 0.35473381181557051 -0.4777489866780526 0 0.38271297078570771 -0.4788206744753768 0 0.36727508933559821 -0.48470388303239131 0 0.35183720788548722 -0.49058709158940222 0 0.36727508933559821 -0.48470388303239131 0 0.35473381181557051 -0.4777489866780526 0 0.35183720788548722 -0.49058709158940222 0 0.35473381181557051 -0.4777489866780526 0 0.35473381181557051 -0.4777489866780526 0 0.3602993412507155 -0.45308187564041841 0 0.33968062082906952 -0.45536247354135162 0 0.35473381181557051 -0.4777489866780526 0 0.3602993412507155 -0.45308187564041841 0 0.37697809963675338 -0.46676022129547068 0 0.35473381181557051 -0.4777489866780526 0 0.36915427541784768 -0.457268138749302 0 0.35473381181557051 -0.4777489866780526 0 0.36915427541784768 -0.457268138749302 0 0.3602993412507155 -0.45308187564041841 0 0.36915427541784768 -0.457268138749302 0 0.36731907827311738 -0.44969174466338441 0 0.3602993412507155 -0.45308187564041841 0 0.37017428839378003 -0.44156763871841131 0 0.3602993412507155 -0.45308187564041841 0 0.36586487068585838 -0.4284147646027836 0 0.3602993412507155 -0.45308187564041841 0 0.36586487068585838 -0.4284147646027836 0 0.3602993412507155 -0.45308187564041841 0 0.35645297766912271 -0.43960349446705971 0 0.36586487068585838 -0.4284147646027836 0 0.37017428839378003 -0.44156763871841131 0 0.36731907827311738 -0.44969174466338441 0 0.3602993412507155 -0.45308187564041841 0 0.3602993412507155 -0.45308187564041841 0 0.34933028694095408 -0.44666999525154139 0 0.33968062082906952 -0.45536247354135162 0 0.35645297766912271 -0.43960349446705971 0 0.34933028694095408 -0.44666999525154139 0 0.3508240726510411 -0.43816052580076831 0 0.3602993412507155 -0.45308187564041841 0 0.35645297766912271 -0.43960349446705971 0 0.34933028694095408 -0.44666999525154139 0 0.34933028694095408 -0.44666999525154139 0 0.3508240726510411 -0.43816052580076831 0 0.34081349650090648 -0.43942052542397803 0 0.34081349650090648 -0.43942052542397803 0 0.33968062082906952 -0.45536247354135162 0 0.32595031591818308 -0.43981218461587379 0 0.34933028694095408 -0.44666999525154139 0 0.34081349650090648 -0.43942052542397803 0 0.33968062082906952 -0.45536247354135162 0 0.32561859209943661 -0.47663378426186842 0 0.33968062082906952 -0.45536247354135162 0 0.31098021536691373 -0.45703431801391831 0 0.32595031591818308 -0.43981218461587379 0 0.30796784693121038 -0.43767148130668448 0 0.31098021536691373 -0.45703431801391831 0 0.33968062082906952 -0.45536247354135162 0 0.32595031591818308 -0.43981218461587379 0 0.31098021536691373 -0.45703431801391831 0 0.32595031591818308 -0.43981218461587379 0 0.31809070272790863 -0.42670096069917518 0 0.33597003048420743 -0.42313952954805462 0 0.32595031591818308 -0.43981218461587379 0 0.31809070272790863 -0.42670096069917518 0 0.30796784693121038 -0.43767148130668448 0 0.31809070272790863 -0.42670096069917518 0 0.31931678052142942 -0.4107615890091581 0 0.30379897521024563 -0.4226237839597996 0 0.31809070272790863 -0.42670096069917518 0 0.31931678052142942 -0.4107615890091581 0 0.33597003048420743 -0.42313952954805462 0 0.31931678052142942 -0.4107615890091581 0 0.3367105252855046 -0.40952584689613503 0 0.33597003048420743 -0.42313952954805462 0 0.3367105252855046 -0.40952584689613503 0 0.33597003048420743 -0.42313952954805462 0 0.34910023809258112 -0.414457713246555 0 0.34081349650090648 -0.43942052542397803 0 0.32595031591818308 -0.43981218461587379 0 0.33597003048420743 -0.42313952954805462 0 0.34081349650090648 -0.43942052542397803 0 0.33597003048420743 -0.42313952954805462 0 0.34809083519146361 -0.42709389518911761 0 0.3508240726510411 -0.43816052580076831 0 0.34081349650090648 -0.43942052542397803 0 0.34809083519146361 -0.42709389518911761 0 0.34809083519146361 -0.42709389518911761 0 0.35594631681704431 -0.43169031103978672 0 0.35810678746757491 -0.42187056878354229 0 0.35645297766912271 -0.43960349446705971 0 0.3508240726510411 -0.43816052580076831 0 0.35594631681704431 -0.43169031103978672 0 0.3508240726510411 -0.43816052580076831 0 0.34809083519146361 -0.42709389518911761 0 0.35594631681704431 -0.43169031103978672 0 0.35645297766912271 -0.43960349446705971 0 0.35594631681704431 -0.43169031103978672 0 0.36586487068585838 -0.4284147646027836 0 0.35594631681704431 -0.43169031103978672 0 0.36586487068585838 -0.4284147646027836 0 0.35810678746757491 -0.42187056878354229 0 0.37698658048928418 -0.42574331922421221 0 0.36586487068585838 -0.4284147646027836 0 0.37357613270829421 -0.43289432217035417 0 0.37644564056112079 -0.41694060943462458 0 0.37698658048928418 -0.42574331922421221 0 0.36586487068585838 -0.4284147646027836 0 0.37017428839378003 -0.44156763871841131 0 0.36586487068585838 -0.4284147646027836 0 0.37357613270829421 -0.43289432217035417 0 0.35810678746757491 -0.42187056878354229 0 0.36448442392864011 -0.39753640728025319 0 0.36586487068585838 -0.4284147646027836 0 0.37143040012100131 -0.40374765356514891 0 0.35810678746757491 -0.42187056878354229 0 0.36448442392864011 -0.39753640728025319 0 0.37143040012100131 -0.40374765356514891 0 0.36586487068585838 -0.4284147646027836 0 0.35810678746757491 -0.42187056878354229 0 0.37143040012100131 -0.40374765356514891 0 0.37644564056112079 -0.41694060943462458 0 0.36586487068585838 -0.4284147646027836 0 0.37143040012100131 -0.40374765356514891 0 0.35810678746757491 -0.42187056878354229 0 0.34910023809258112 -0.414457713246555 0 0.36448442392864011 -0.39753640728025319 0 0.34809083519146361 -0.42709389518911761 0 0.35810678746757491 -0.42187056878354229 0 0.34910023809258112 -0.414457713246555 0 0.33597003048420743 -0.42313952954805462 0 0.34809083519146361 -0.42709389518911761 0 0.34910023809258112 -0.414457713246555 0 0.3367105252855046 -0.40952584689613503 0 0.34910023809258112 -0.414457713246555 0 0.34802927158397517 -0.40388330480462892 0 0.34910023809258112 -0.414457713246555 0 0.34802927158397517 -0.40388330480462892 0 0.36448442392864011 -0.39753640728025319 0 0.34802927158397517 -0.40388330480462892 0 0.35318886751368922 -0.39587086890632101 0 0.36448442392864011 -0.39753640728025319 0 0.34802927158397517 -0.40388330480462892 0 0.35318886751368922 -0.39587086890632101 0 0.33453763414648818 -0.39572506922923212 0 0.35318886751368922 -0.39587086890632101 0 0.35269984726809828 -0.38446365750309919 0 0.33453763414648818 -0.39572506922923212 0 0.35318886751368922 -0.39587086890632101 0 0.36448442392864011 -0.39753640728025319 0 0.35269984726809828 -0.38446365750309919 0 0.37699592955614408 -0.379080542527514 0 0.36448442392864011 -0.39753640728025319 0 0.37143040012100131 -0.40374765356514891 0 0.37699592955614408 -0.379080542527514 0 0.37143040012100131 -0.40374765356514891 0 0.37699592955614408 -0.379080542527514 0 0.36448442392864011 -0.39753640728025319 0 0.37086206038970743 -0.37320224577696492 0 0.35269984726809828 -0.38446365750309919 0 0.37086206038970743 -0.37320224577696492 0 0.35646586899398808 -0.37181700558251141 0 0.35269984726809828 -0.38446365750309919 0 0.37086206038970743 -0.37320224577696492 0 0.36448442392864011 -0.39753640728025319 0 0.37086206038970743 -0.37320224577696492 0 0.36448442392864011 -0.39753640728025319 0 0.35269984726809828 -0.38446365750309919 0 0.37086206038970743 -0.37320224577696492 0 0.35269984726809828 -0.38446365750309919 0 0.35646586899398808 -0.37181700558251141 0 0.33799684043091988 -0.36969393843950848 0 0.35269984726809828 -0.38446365750309919 0 0.33453763414648818 -0.39572506922923212 0 0.35269984726809828 -0.38446365750309919 0 0.33453763414648818 -0.39572506922923212 0 0.33799684043091988 -0.36969393843950848 0 0.33453763414648818 -0.39572506922923212 0 0.31946980792230828 -0.37593692878495383 0 0.33799684043091988 -0.36969393843950848 0 0.31931678052142942 -0.4107615890091581 0 0.3367105252855046 -0.40952584689613503 0 0.33453763414648818 -0.39572506922923212 0 0.3367105252855046 -0.40952584689613503 0 0.34802927158397517 -0.40388330480462892 0 0.33453763414648818 -0.39572506922923212 0 0.31931678052142942 -0.4107615890091581 0 0.33453763414648818 -0.39572506922923212 0 0.310774530402666 -0.39226371902443108 0 0.33453763414648818 -0.39572506922923212 0 0.31946980792230828 -0.37593692878495383 0 0.310774530402666 -0.39226371902443108 0 0.310774530402666 -0.39226371902443108 0 0.29342673385566642 -0.3886193554775435 0 0.3025917150655677 -0.37401872130811981 0 0.31946980792230828 -0.37593692878495383 0 0.310774530402666 -0.39226371902443108 0 0.3025917150655677 -0.37401872130811981 0 0.31931678052142942 -0.4107615890091581 0 0.310774530402666 -0.39226371902443108 0 0.2968536233616188 -0.40584847187560891 0 0.310774530402666 -0.39226371902443108 0 0.2968536233616188 -0.40584847187560891 0 0.29342673385566642 -0.3886193554775435 0 0.2831994401756639 -0.40421981314417138 0 0.2968536233616188 -0.40584847187560891 0 0.29342673385566642 -0.3886193554775435 0 0.2831994401756639 -0.40421981314417138 0 0.28165715031266181 -0.3844613871157927 0 0.29342673385566642 -0.3886193554775435 0 0.29342673385566642 -0.3886193554775435 0 0.3025917150655677 -0.37401872130811981 0 0.28793847415213131 -0.37417378650645428 0 0.28165715031266181 -0.3844613871157927 0 0.28793847415213131 -0.37417378650645428 0 0.27495069000738609 -0.37298353900312292 0 0.28165715031266181 -0.3844613871157927 0 0.29342673385566642 -0.3886193554775435 0 0.28793847415213131 -0.37417378650645428 0 0.25551344280990212 -0.39736928500348379 0 0.27343546730941759 -0.3945371440077034 0 0.26850815898576702 -0.36943568676840999 0 0.28165715031266181 -0.3844613871157927 0 0.27343546730941759 -0.3945371440077034 0 0.27495069000738609 -0.37298353900312292 0 0.27343546730941759 -0.3945371440077034 0 0.26850815898576702 -0.36943568676840999 0 0.27343546730941759 -0.3945371440077034 0 0.27495069000738609 -0.37298353900312292 0 0.27343546730941759 -0.3945371440077034 0 0.26850815898576702 -0.36943568676840999 0 0.27495069000738609 -0.37298353900312292 0 0.25551344280990212 -0.39736928500348379 0 0.26850815898576702 -0.36943568676840999 0 0.24785300684724021 -0.37650176038374927 0 0.25551344280990212 -0.39736928500348379 0 0.27343546730941759 -0.3945371440077034 0 0.27161227770058283 -0.42047148932211847 0 0.2831994401756639 -0.40421981314417138 0 0.28165715031266181 -0.3844613871157927 0 0.27343546730941759 -0.3945371440077034 0 0.27343546730941759 -0.3945371440077034 0 0.27782029480666282 -0.41687501139778338 0 0.2831994401756639 -0.40421981314417138 0 0.27343546730941759 -0.3945371440077034 0 0.27782029480666282 -0.41687501139778338 0 0.27343546730941759 -0.3945371440077034 0 0.27161227770058283 -0.42047148932211847 0 0.27343546730941759 -0.3945371440077034 0 0.27782029480666282 -0.41687501139778338 0 0.27161227770058283 -0.42047148932211847 0 0.27782029480666282 -0.41687501139778338 0 0.27161227770058283 -0.42047148932211847 0 0.27976258240180679 -0.42676971370045069 0 0.27782029480666282 -0.41687501139778338 0 0.27976258240180679 -0.42676971370045069 0 0.27782029480666282 -0.41687501139778338 0 0.27161227770058283 -0.42047148932211847 0 0.25551344280990212 -0.39736928500348379 0 0.27161227770058283 -0.42047148932211847 0 0.24409842683068261 -0.41292189683266017 0 0.27161227770058283 -0.42047148932211847 0 0.24547477527083761 -0.43561367544686003 0 0.24409842683068261 -0.41292189683266017 0 0.27161227770058283 -0.42047148932211847 0 0.25854958694620311 -0.43813043428176451 0 0.24547477527083761 -0.43561367544686003 0 0.27161227770058283 -0.42047148932211847 0 0.24547477527083761 -0.43561367544686003 0 0.27161227770058283 -0.42047148932211847 0 0.2704080459914423 -0.43760133738178758 0 0.25854958694620311 -0.43813043428176451 0 0.27161227770058283 -0.42047148932211847 0 0.2704080459914423 -0.43760133738178758 0 0.27161227770058283 -0.42047148932211847 0 0.27976258240180679 -0.42676971370045069 0 0.2704080459914423 -0.43760133738178758 0 0.27976258240180679 -0.42676971370045069 0 0.28215750238472881 -0.44208506055237601 0 0.2704080459914423 -0.43760133738178758 0 0.27976258240180679 -0.42676971370045069 0 0.29355920464660462 -0.43331717923456692 0 0.28215750238472881 -0.44208506055237601 0 0.29355920464660462 -0.43331717923456692 0 0.2910755042110596 -0.41941105319222549 0 0.30379897521024563 -0.4226237839597996 0 0.27976258240180679 -0.42676971370045069 0 0.29355920464660462 -0.43331717923456692 0 0.2910755042110596 -0.41941105319222549 0 0.27782029480666282 -0.41687501139778338 0 0.27976258240180679 -0.42676971370045069 0 0.2910755042110596 -0.41941105319222549 0 0.2831994401756639 -0.40421981314417138 0 0.2968536233616188 -0.40584847187560891 0 0.27782029480666282 -0.41687501139778338 0 0.2968536233616188 -0.40584847187560891 0 0.27782029480666282 -0.41687501139778338 0 0.2910755042110596 -0.41941105319222549 0 0.2968536233616188 -0.40584847187560891 0 0.27782029480666282 -0.41687501139778338 0 0.2968536233616188 -0.40584847187560891 0 0.2910755042110596 -0.41941105319222549 0 0.30379897521024563 -0.4226237839597996 0 0.31931678052142942 -0.4107615890091581 0 0.2968536233616188 -0.40584847187560891 0 0.30379897521024563 -0.4226237839597996 0 0.31809070272790863 -0.42670096069917518 0 0.30379897521024563 -0.4226237839597996 0 0.30796784693121038 -0.43767148130668448 0 0.29355920464660462 -0.43331717923456692 0 0.30379897521024563 -0.4226237839597996 0 0.30796784693121038 -0.43767148130668448 0 0.30796784693121038 -0.43767148130668448 0 0.31098021536691373 -0.45703431801391831 0 0.29595900843110151 -0.44664541234671062 0 0.29355920464660462 -0.43331717923456692 0 0.30796784693121038 -0.43767148130668448 0 0.29595900843110151 -0.44664541234671062 0 0.31098021536691373 -0.45703431801391831 0 0.28632227713278569 -0.45968777481213002 0 0.29595900843110151 -0.44664541234671062 0 0.31098021536691373 -0.45703431801391831 0 0.28632227713278569 -0.45968777481213002 0 0.29650337238330288 -0.47551858184568468 0 0.28632227713278569 -0.45968777481213002 0 0.29595900843110151 -0.44664541234671062 0 0.28215750238472881 -0.44208506055237601 0 0.29355920464660462 -0.43331717923456692 0 0.29595900843110151 -0.44664541234671062 0 0.28215750238472881 -0.44208506055237601 0 0.28632227713278569 -0.45968777481213002 0 0.28215750238472881 -0.44208506055237601 0 0.26920381428230422 -0.45473118544145691 0 0.2704080459914423 -0.43760133738178758 0 0.25854958694620311 -0.43813043428176451 0 0.26920381428230422 -0.45473118544145691 0 0.2704080459914423 -0.43760133738178758 0 0.26920381428230422 -0.45473118544145691 0 0.28215750238472881 -0.44208506055237601 0 0.2704080459914423 -0.43760133738178758 0 0.26920381428230422 -0.45473118544145691 0 0.25854958694620311 -0.43813043428176451 0 0.25528633834893999 -0.44907469287290641 0 0.26920381428230422 -0.45473118544145691 0 0.25528633834893999 -0.44907469287290641 0 0.25179674498503252 -0.44219165533779348 0 0.24734218738146721 -0.44546430940322829 0 0.25854958694620311 -0.43813043428176451 0 0.2511933329638904 -0.43937523157275787 0 0.24547477527083761 -0.43561367544686003 0 0.25854958694620311 -0.43813043428176451 0 0.25528633834893999 -0.44907469287290641 0 0.25179674498503252 -0.44219165533779348 0 0.25854958694620311 -0.43813043428176451 0 0.25179674498503252 -0.44219165533779348 0 0.2511933329638904 -0.43937523157275787 0 0.25179674498503252 -0.44219165533779348 0 0.2511933329638904 -0.43937523157275787 0 0.2476151994106125 -0.4408168378910598 0 0.25858268824475122 -0.46134752558046782 0 0.26738815266716892 -0.47440337942950378 0 0.24681399357595471 -0.46559983094736179 0 0.25858268824475122 -0.46134752558046782 0 0.26920381428230422 -0.45473118544145691 0 0.26738815266716892 -0.47440337942950378 0 0.25528633834893999 -0.44907469287290641 0 0.25858268824475122 -0.46134752558046782 0 0.2453593179134797 -0.45470109094295502 0 0.25858268824475122 -0.46134752558046782 0 0.2453593179134797 -0.45470109094295502 0 0.24681399357595471 -0.46559983094736179 0 0.25528633834893999 -0.44907469287290641 0 0.25858268824475122 -0.46134752558046782 0 0.26920381428230422 -0.45473118544145691 0 0.28632227713278569 -0.45968777481213002 0 0.26920381428230422 -0.45473118544145691 0 0.26738815266716892 -0.47440337942950378 0 0.26738815266716892 -0.47440337942950378 0 0.27404666763426327 -0.48672217850860111 0 0.287555038072633 -0.48303265815792368 0 0.26738815266716892 -0.47440337942950378 0 0.287555038072633 -0.48303265815792368 0 0.26738815266716892 -0.47440337942950378 0 0.26106424069378659 -0.48422749534601711 0 0.27404666763426327 -0.48672217850860111 0 0.26738815266716892 -0.47440337942950378 0 0.2465915143735459 -0.47360680425336737 0 0.26738815266716892 -0.47440337942950378 0 0.26106424069378659 -0.48422749534601711 0 0.2465915143735459 -0.47360680425336737 0 0.26738815266716892 -0.47440337942950378 0 0.2465915143735459 -0.47360680425336737 0 0.24681399357595471 -0.46559983094736179 0 0.26738815266716892 -0.47440337942950378 0 0.24681399357595471 -0.46559983094736179 0 0.26106424069378659 -0.48422749534601711 0 0.2476965816246261 -0.48640511453861601 0 0.2465915143735459 -0.47360680425336737 0 0.26959828716932882 -0.49999999999999972 0 0.2476965816246261 -0.48640511453861601 0 0.26106424069378659 -0.48422749534601711 0 0.26959828716932882 -0.49999999999999972 0 0.2476965816246261 -0.48640511453861601 0 0.25080264390788493 -0.5 0 0.26959828716932882 -0.49999999999999972 0 0.2476965816246261 -0.48640511453861601 0 0.26106424069378659 -0.48422749534601711 0 0.26959828716932882 -0.49999999999999972 0 0.27404666763426327 -0.48672217850860111 0 0.26959828716932882 -0.49999999999999972 0 0.27404666763426327 -0.48672217850860111 0 0.29836773794206678 -0.5 0 0.287555038072633 -0.48303265815792368 0 0.29836773794206678 -0.5 0 0.29872411366562918 -0.48724842682330588 0 0.27404666763426327 -0.48672217850860111 0 0.287555038072633 -0.48303265815792368 0 0.29836773794206678 -0.5 0 0.26738815266716892 -0.47440337942950378 0 0.287555038072633 -0.48303265815792368 0 0.29650337238330288 -0.47551858184568468 0 0.26738815266716892 -0.47440337942950378 0 0.29650337238330288 -0.47551858184568468 0 0.28632227713278569 -0.45968777481213002 0 0.26738815266716892 -0.47440337942950378 0 0.29650337238330288 -0.47551858184568468 0 0.287555038072633 -0.48303265815792368 0 0.29650337238330288 -0.47551858184568468 0 0.29872411366562918 -0.48724842682330588 0 0.32561859209943661 -0.47663378426186842 0 0.29650337238330288 -0.47551858184568468 0 0.31014845118612011 -0.48716364432395182 0 0.32561859209943661 -0.47663378426186842 0 0.31098021536691373 -0.45703431801391831 0 0.29650337238330288 -0.47551858184568468 0 0.32561859209943661 -0.47663378426186842 0 0.29650337238330288 -0.47551858184568468 0 0.29650337238330288 -0.47551858184568468 0 0.31014845118612011 -0.48716364432395182 0 0.29872411366562918 -0.48724842682330588 0 0.32713718871480491 -0.500000000000001 0 0.31014845118612011 -0.48716364432395182 0 0.29836773794206678 -0.5 0 0.31014845118612011 -0.48716364432395182 0 0.29836773794206678 -0.5 0 0.29872411366562918 -0.48724842682330588 0 0.33865975530529019 -0.28718288742315812 0 0.3401604976762399 -0.3062375331023352 0 0.31456381667188288 -0.29745867897294859 0 0.3401604976762399 -0.3062375331023352 0 0.31456381667188288 -0.29745867897294859 0 0.32642333008589342 -0.32548702161157772 0 0.33865975530529019 -0.28718288742315812 0 0.31456381667188288 -0.29745867897294859 0 0.32524809487201473 -0.2730582954395705 0 0.31456381667188288 -0.29745867897294859 0 0.32524809487201473 -0.2730582954395705 0 0.30777818642613969 -0.27196159482933552 0 0.32524809487201473 -0.2730582954395705 0 0.31438996307151218 -0.25623913216874639 0 0.30777818642613969 -0.27196159482933552 0 0.32524809487201473 -0.2730582954395705 0 0.31438996307151218 -0.25623913216874639 0 0.33286632855032122 -0.25032364586100347 0 0.32524809487201473 -0.2730582954395705 0 0.33286632855032122 -0.25032364586100347 0 0.34747043127907951 -0.26816271723878032 0 0.33865975530529019 -0.28718288742315812 0 0.32524809487201473 -0.2730582954395705 0 0.34747043127907951 -0.26816271723878032 0 0.3548605642443674 -0.24455459009579009 0 0.34747043127907951 -0.26816271723878032 0 0.37033741184278612 -0.26289002581652271 0 0.3548605642443674 -0.24455459009579009 0 0.33286632855032122 -0.25032364586100347 0 0.34747043127907951 -0.26816271723878032 0 0.37033741184278612 -0.26289002581652271 0 0.36585593602723399 -0.29099721236215548 0 0.34747043127907951 -0.26816271723878032 0 0.37033741184278612 -0.26289002581652271 0 0.36585593602723399 -0.29099721236215548 0 0.38587053782134773 -0.28233446036949922 0 0.37033741184278612 -0.26289002581652271 0 0.36585593602723399 -0.29099721236215548 0 0.33865975530529019 -0.28718288742315812 0 0.3401604976762399 -0.3062375331023352 0 0.36585593602723399 -0.29099721236215548 0 0.33865975530529019 -0.28718288742315812 0 0.34747043127907951 -0.26816271723878032 0 0.36585593602723399 -0.29099721236215548 0 0.3401604976762399 -0.3062375331023352 0 0.36585593602723399 -0.29099721236215548 0 0.36257440917282352 -0.31218632173485172 0 0.37890533560778389 -0.30858497924094619 0 0.36585593602723399 -0.29099721236215548 0 0.36257440917282352 -0.31218632173485172 0 0.37890533560778389 -0.30858497924094619 0 0.36257440917282352 -0.31218632173485172 0 0.37208819252352332 -0.32395152259856441 0 0.36257440917282352 -0.31218632173485172 0 0.37208819252352332 -0.32395152259856441 0 0.35586208402933672 -0.33116036137025728 0 0.37208819252352332 -0.32395152259856441 0 0.37336520597733591 -0.33101503145276501 0 0.36745596902046351 -0.3345671568283945 0 0.37208819252352332 -0.32395152259856441 0 0.36745596902046351 -0.3345671568283945 0 0.35586208402933672 -0.33116036137025728 0 0.37816365235059768 -0.3361745645285803 0 0.37336520597733591 -0.33101503145276501 0 0.37234941135960797 -0.33763178667611088 0 0.37336520597733591 -0.33101503145276501 0 0.36745596902046351 -0.3345671568283945 0 0.37234941135960797 -0.33763178667611088 0 0.36745596902046351 -0.3345671568283945 0 0.37234941135960797 -0.33763178667611088 0 0.36399934344924822 -0.34110319147209861 0 0.37515302135564021 -0.34342257650347968 0 0.37234941135960797 -0.33763178667611088 0 0.36399934344924822 -0.34110319147209861 0 0.37594986319930818 -0.3389447772920941 0 0.37515302135564021 -0.34342257650347968 0 0.37234941135960797 -0.33763178667611088 0 0.36745596902046351 -0.3345671568283945 0 0.36399934344924822 -0.34110319147209861 0 0.35586208402933672 -0.33116036137025728 0 0.36399934344924822 -0.34110319147209861 0 0.35586208402933672 -0.33116036137025728 0 0.34167293779364472 -0.34908158655167137 0 0.3401604976762399 -0.3062375331023352 0 0.36257440917282352 -0.31218632173485172 0 0.35586208402933672 -0.33116036137025728 0 0.37554828204147872 -0.35532175427973911 0 0.37086206038970743 -0.37320224577696492 0 0.37554828204147872 -0.35532175427973911 0 0.37086206038970743 -0.37320224577696492 0 0.36282461172786612 -0.36154140352593322 0 0.37086206038970743 -0.37320224577696492 0 0.36282461172786612 -0.36154140352593322 0 0.35646586899398808 -0.37181700558251141 0 0.37554828204147872 -0.35532175427973911 0 0.36282461172786612 -0.36154140352593322 0 0.37158358615129689 -0.35041233393117949 0 0.37554828204147872 -0.35532175427973911 0 0.37515302135564021 -0.34342257650347968 0 0.37158358615129689 -0.35041233393117949 0 0.37515302135564021 -0.34342257650347968 0 0.36399934344924822 -0.34110319147209861 0 0.37158358615129689 -0.35041233393117949 0 0.36399934344924822 -0.34110319147209861 0 0.37158358615129689 -0.35041233393117949 0 0.34167293779364472 -0.34908158655167137 0 0.36282461172786612 -0.36154140352593322 0 0.34936949745591889 -0.36308248225292911 0 0.34167293779364472 -0.34908158655167137 0 0.36282461172786612 -0.36154140352593322 0 0.37158358615129689 -0.35041233393117949 0 0.34167293779364472 -0.34908158655167137 0 0.37158358615129689 -0.35041233393117949 0 0.34167293779364472 -0.34908158655167137 0 0.34936949745591889 -0.36308248225292911 0 0.35646586899398808 -0.37181700558251141 0 0.33799684043091988 -0.36969393843950848 0 0.36282461172786612 -0.36154140352593322 0 0.34936949745591889 -0.36308248225292911 0 0.35646586899398808 -0.37181700558251141 0 0.34936949745591889 -0.36308248225292911 0 0.33799684043091988 -0.36969393843950848 0 0.34167293779364472 -0.34908158655167137 0 0.33799684043091988 -0.36969393843950848 0 0.34167293779364472 -0.34908158655167137 0 0.31176228943599271 -0.34775083917216321 0 0.34167293779364472 -0.34908158655167137 0 0.31176228943599271 -0.34775083917216321 0 0.31946980792230828 -0.37593692878495383 0 0.33799684043091988 -0.36969393843950848 0 0.31176228943599271 -0.34775083917216321 0 0.3401604976762399 -0.3062375331023352 0 0.35586208402933672 -0.33116036137025728 0 0.32642333008589342 -0.32548702161157772 0 0.35586208402933672 -0.33116036137025728 0 0.34167293779364472 -0.34908158655167137 0 0.32642333008589342 -0.32548702161157772 0 0.34167293779364472 -0.34908158655167137 0 0.32642333008589342 -0.32548702161157772 0 0.31176228943599271 -0.34775083917216321 0 0.32642333008589342 -0.32548702161157772 0 0.30263662026726301 -0.32199187750238972 0 0.31176228943599271 -0.34775083917216321 0 0.31456381667188288 -0.29745867897294859 0 0.32642333008589342 -0.32548702161157772 0 0.30263662026726301 -0.32199187750238972 0 0.30263662026726301 -0.32199187750238972 0 0.28927845366363047 -0.33415547490653669 0 0.31176228943599271 -0.34775083917216321 0 0.28927845366363047 -0.33415547490653669 0 0.31176228943599271 -0.34775083917216321 0 0.28185164107834071 -0.34642009179265498 0 0.28927845366363047 -0.33415547490653669 0 0.28185164107834071 -0.34642009179265498 0 0.27997716920974358 -0.33821267389639559 0 0.28927845366363047 -0.33415547490653669 0 0.28625415837484458 -0.32089498929318389 0 0.2745462372372216 -0.33005744704419132 0 0.28927845366363047 -0.33415547490653669 0 0.2745462372372216 -0.33005744704419132 0 0.27997716920974358 -0.33821267389639559 0 0.28625415837484458 -0.32089498929318389 0 0.27399607107672991 -0.31182711748299391 0 0.29276201160338627 -0.3052135532569914 0 0.30263662026726301 -0.32199187750238972 0 0.28625415837484458 -0.32089498929318389 0 0.29276201160338627 -0.3052135532569914 0 0.30263662026726301 -0.32199187750238972 0 0.28927845366363047 -0.33415547490653669 0 0.28625415837484458 -0.32089498929318389 0 0.31946980792230828 -0.37593692878495383 0 0.3025917150655677 -0.37401872130811981 0 0.31176228943599271 -0.34775083917216321 0 0.3025917150655677 -0.37401872130811981 0 0.31176228943599271 -0.34775083917216321 0 0.29261940964410882 -0.36339559076070871 0 0.31176228943599271 -0.34775083917216321 0 0.28912387642816878 -0.3543925451773004 0 0.29261940964410882 -0.36339559076070871 0 0.31176228943599271 -0.34775083917216321 0 0.28185164107834071 -0.34642009179265498 0 0.28912387642816878 -0.3543925451773004 0 0.31176228943599271 -0.34775083917216321 0 0.28185164107834071 -0.34642009179265498 0 0.28185164107834071 -0.34642009179265498 0 0.28912387642816878 -0.3543925451773004 0 0.27646591270535409 -0.35142993399854239 0 0.28912387642816878 -0.3543925451773004 0 0.28292012927704802 -0.36296627016243249 0 0.27646591270535409 -0.35142993399854239 0 0.28912387642816878 -0.3543925451773004 0 0.29261940964410882 -0.36339559076070871 0 0.28292012927704802 -0.36296627016243249 0 0.29261940964410882 -0.36339559076070871 0 0.28292012927704802 -0.36296627016243249 0 0.28793847415213131 -0.37417378650645428 0 0.28292012927704802 -0.36296627016243249 0 0.28793847415213131 -0.37417378650645428 0 0.27495069000738609 -0.37298353900312292 0 0.3025917150655677 -0.37401872130811981 0 0.29261940964410882 -0.36339559076070871 0 0.28793847415213131 -0.37417378650645428 0 0.28292012927704802 -0.36296627016243249 0 0.27495069000738609 -0.37298353900312292 0 0.27646591270535409 -0.35142993399854239 0 0.26850815898576702 -0.36943568676840999 0 0.27495069000738609 -0.37298353900312292 0 0.27646591270535409 -0.35142993399854239 0 0.27495069000738609 -0.37298353900312292 0 0.27646591270535409 -0.35142993399854239 0 0.26850815898576702 -0.36943568676840999 0 0.27646591270535409 -0.35142993399854239 0 0.26358085066211678 -0.34433422952911669 0 0.26850815898576702 -0.36943568676840999 0 0.26358085066211678 -0.34433422952911669 0 0.28185164107834071 -0.34642009179265498 0 0.27646591270535409 -0.35142993399854239 0 0.27423234485978187 -0.34221768184219958 0 0.27646591270535409 -0.35142993399854239 0 0.26358085066211678 -0.34433422952911669 0 0.27423234485978187 -0.34221768184219958 0 0.26850815898576702 -0.36943568676840999 0 0.26358085066211678 -0.34433422952911669 0 0.24168461307059361 -0.3567470164589775 0 0.26358085066211678 -0.34433422952911669 0 0.249191291268757 -0.33155788210724768 0 0.24168461307059361 -0.3567470164589775 0 0.26850815898576702 -0.36943568676840999 0 0.24168461307059361 -0.3567470164589775 0 0.24785300684724021 -0.37650176038374927 0 0.2745462372372216 -0.33005744704419132 0 0.2586535423384666 -0.31923277228982322 0 0.27399607107672991 -0.31182711748299391 0 0.28625415837484458 -0.32089498929318389 0 0.2745462372372216 -0.33005744704419132 0 0.27399607107672991 -0.31182711748299391 0 0.28185164107834071 -0.34642009179265498 0 0.27997716920974358 -0.33821267389639559 0 0.27423234485978187 -0.34221768184219958 0 0.2745462372372216 -0.33005744704419132 0 0.27997716920974358 -0.33821267389639559 0 0.27423234485978187 -0.34221768184219958 0 0.26358085066211678 -0.34433422952911669 0 0.2745462372372216 -0.33005744704419132 0 0.27423234485978187 -0.34221768184219958 0 0.26358085066211678 -0.34433422952911669 0 0.2745462372372216 -0.33005744704419132 0 0.2586535423384666 -0.31923277228982322 0 0.26358085066211678 -0.34433422952911669 0 0.2586535423384666 -0.31923277228982322 0 0.249191291268757 -0.33155788210724768 0 0.26358085066211678 -0.34433422952911669 0 0.2586535423384666 -0.31923277228982322 0 0.2586535423384666 -0.31923277228982322 0 0.2423174068266713 -0.31899396492131471 0 0.249191291268757 -0.33155788210724768 0 0.25372623401481742 -0.29413131505052947 0 0.26577299394785148 -0.28572851085445722 0 0.27399607107672991 -0.31182711748299391 0 0.2586535423384666 -0.31923277228982322 0 0.25372623401481742 -0.29413131505052947 0 0.27399607107672991 -0.31182711748299391 0 0.2586535423384666 -0.31923277228982322 0 0.25372623401481742 -0.29413131505052947 0 0.24123800548098531 -0.30284205052703372 0 0.2586535423384666 -0.31923277228982322 0 0.25372623401481742 -0.29413131505052947 0 0.25372623401481742 -0.29413131505052947 0 0.26577299394785148 -0.28572851085445722 0 0.24801406841138859 -0.26503151629225269 0 0.25372623401481742 -0.29413131505052947 0 0.26577299394785148 -0.28572851085445722 0 0.26577299394785148 -0.28572851085445722 0 0.28302299415590237 -0.29405675640541012 0 0.28091114302612319 -0.27516941419255092 0 0.26577299394785148 -0.28572851085445722 0 0.27399607107672991 -0.31182711748299391 0 0.26577299394785148 -0.28572851085445722 0 0.27399607107672991 -0.31182711748299391 0 0.28302299415590237 -0.29405675640541012 0 0.27399607107672991 -0.31182711748299391 0 0.29276201160338627 -0.3052135532569914 0 0.28302299415590237 -0.29405675640541012 0 0.29609840907369511 -0.28505189988502222 0 0.28302299415590237 -0.29405675640541012 0 0.28091114302612319 -0.27516941419255092 0 0.29276201160338627 -0.3052135532569914 0 0.29609840907369511 -0.28505189988502222 0 0.28302299415590237 -0.29405675640541012 0 0.31456381667188288 -0.29745867897294859 0 0.29609840907369511 -0.28505189988502222 0 0.30777818642613969 -0.27196159482933552 0 0.31456381667188288 -0.29745867897294859 0 0.29276201160338627 -0.3052135532569914 0 0.29609840907369511 -0.28505189988502222 0 0.31456381667188288 -0.29745867897294859 0 0.30263662026726301 -0.32199187750238972 0 0.29276201160338627 -0.3052135532569914 0 0.31438996307151218 -0.25623913216874639 0 0.30777818642613969 -0.27196159482933552 0 0.29604929210439501 -0.2646103175306449 0 0.30161458852834999 -0.24881998460571919 0 0.31438996307151218 -0.25623913216874639 0 0.29604929210439501 -0.2646103175306449 0 0.29609840907369511 -0.28505189988502222 0 0.30777818642613969 -0.27196159482933552 0 0.29604929210439501 -0.2646103175306449 0 0.29609840907369511 -0.28505189988502222 0 0.29604929210439501 -0.2646103175306449 0 0.28091114302612319 -0.27516941419255092 0 0.29604929210439501 -0.2646103175306449 0 0.28091114302612319 -0.27516941419255092 0 0.29604929210439501 -0.2646103175306449 0 0.2749360219258602 -0.25678437079037397 0 0.28091114302612319 -0.27516941419255092 0 0.28994177072428989 -0.2486591454659004 0 0.29604929210439501 -0.2646103175306449 0 0.2749360219258602 -0.25678437079037397 0 0.30161458852834999 -0.24881998460571919 0 0.28994177072428989 -0.2486591454659004 0 0.29604929210439501 -0.2646103175306449 0 0.26813652245768738 -0.24385156806268021 0 0.2749360219258602 -0.25678437079037397 0 0.25786541817364328 -0.26063125026915729 0 0.2749360219258602 -0.25678437079037397 0 0.26987139426836948 -0.26957838652663468 0 0.25786541817364328 -0.26063125026915729 0 0.2749360219258602 -0.25678437079037397 0 0.26987139426836948 -0.26957838652663468 0 0.28091114302612319 -0.27516941419255092 0 0.26577299394785148 -0.28572851085445722 0 0.26987139426836948 -0.26957838652663468 0 0.28091114302612319 -0.27516941419255092 0 0.26577299394785148 -0.28572851085445722 0 0.28091114302612319 -0.27516941419255092 0 0.25372623401481742 -0.29413131505052947 0 0.24801406841138859 -0.26503151629225269 0 0.26577299394785148 -0.28572851085445722 0 0.26987139426836948 -0.26957838652663468 0 0.25786541817364328 -0.26063125026915729 0 0.26577299394785148 -0.28572851085445722 0 0.25786541817364328 -0.26063125026915729 0 0.26577299394785148 -0.28572851085445722 0 0.25786541817364328 -0.26063125026915729 0 0.24801406841138859 -0.26503151629225269 0 0.25786541817364328 -0.26063125026915729 0 0.24801406841138859 -0.26503151629225269 0 0.24995784239943369 -0.23553398968385769 0 0.24801406841138859 -0.26503151629225269 0 0.24230190280796091 -0.23593171753397571 0 0.24801406841138859 -0.26503151629225269 0 0.2366288388485647 -0.25089574325935388 0 0.24230190280796091 -0.23593171753397571 0 0.24801406841138859 -0.26503151629225269 0 0.2367074909031382 -0.26199203883255362 0 0.2366288388485647 -0.25089574325935388 0 0.24801406841138859 -0.26503151629225269 0 0.23391283860817269 -0.27257407007477868 0 0.2422877637227121 -0.28129076702645223 0 0.23391283860817269 -0.27257407007477868 0 0.2335498407721591 -0.28868229294345288 0 0.2422877637227121 -0.28129076702645223 0 0.25372623401481742 -0.29413131505052947 0 0.24801406841138859 -0.26503151629225269 0 0.2422877637227121 -0.28129076702645223 0 0.24801406841138859 -0.26503151629225269 0 0.2367074909031382 -0.26199203883255362 0 0.23391283860817269 -0.27257407007477868 0 0.23391283860817269 -0.27257407007477868 0 0.2178940281527999 -0.27585896811883709 0 0.2335498407721591 -0.28868229294345288 0 0.23391283860817269 -0.27257407007477868 0 0.2178940281527999 -0.27585896811883709 0 0.23391283860817269 -0.27257407007477868 0 0.2254668719326709 -0.26284535668095388 0 0.2178940281527999 -0.27585896811883709 0 0.2367074909031382 -0.26199203883255362 0 0.23391283860817269 -0.27257407007477868 0 0.2254668719326709 -0.26284535668095388 0 0.22728837571761409 -0.25203792864756591 0 0.2254668719326709 -0.26284535668095388 0 0.21067109270918549 -0.25130096950976011 0 0.2367074909031382 -0.26199203883255362 0 0.2366288388485647 -0.25089574325935388 0 0.22728837571761409 -0.25203792864756591 0 0.2367074909031382 -0.26199203883255362 0 0.22728837571761409 -0.25203792864756591 0 0.2254668719326709 -0.26284535668095388 0 0.2254668719326709 -0.26284535668095388 0 0.21067109270918549 -0.25130096950976011 0 0.2178940281527999 -0.27585896811883709 0 0.21067109270918549 -0.25130096950976011 0 0.2178940281527999 -0.27585896811883709 0 0.19665932418103729 -0.26355421574235688 0 0.21067109270918549 -0.25130096950976011 0 0.2178940281527999 -0.27585896811883709 0 0.2178940281527999 -0.27585896811883709 0 0.20208083839744601 -0.27910170054534222 0 0.2178940281527999 -0.27585896811883709 0 0.20208083839744601 -0.27910170054534222 0 0.19665932418103729 -0.26355421574235688 0 0.20208083839744601 -0.27910170054534222 0 0.18857864201952801 -0.27011810016262799 0 0.18626764864209219 -0.28234443297184753 0 0.20208083839744601 -0.27910170054534222 0 0.18857864201952801 -0.27011810016262799 0 0.19665932418103729 -0.26355421574235688 0 0.20208083839744601 -0.27910170054534222 0 0.18626764864209219 -0.28234443297184753 0 0.19665932418103729 -0.26355421574235688 0 0.18219651191055711 -0.25957807581157388 0 0.18798798277450729 -0.24631021389562671 0 0.21067109270918549 -0.25130096950976011 0 0.19665932418103729 -0.26355421574235688 0 0.18798798277450729 -0.24631021389562671 0 0.18857864201952801 -0.27011810016262799 0 0.19665932418103729 -0.26355421574235688 0 0.18219651191055711 -0.25957807581157388 0 0.2038489395953588 -0.3094878674508561 0 0.18146470270705289 -0.31007757498585298 0 0.19505829411872511 -0.29591615021135209 0 0.2038489395953588 -0.3094878674508561 0 0.18146470270705289 -0.31007757498585298 0 0.19505829411872511 -0.29591615021135209 0 0.2038489395953588 -0.3094878674508561 0 0.19505829411872511 -0.29591615021135209 0 0.20697022876281421 -0.30157860807065429 0 0.2038489395953588 -0.3094878674508561 0 0.20208083839744601 -0.27910170054534222 0 0.19505829411872511 -0.29591615021135209 0 0.18626764864209219 -0.28234443297184753 0 0.19505829411872511 -0.29591615021135209 0 0.18626764864209219 -0.28234443297184753 0 0.2178940281527999 -0.27585896811883709 0 0.21241587013985799 -0.29249985450369742 0 0.22582422312539499 -0.3028216508988848 0 0.2178940281527999 -0.27585896811883709 0 0.20208083839744601 -0.27910170054534222 0 0.21241587013985799 -0.29249985450369742 0 0.20208083839744601 -0.27910170054534222 0 0.19505829411872511 -0.29591615021135209 0 0.21241587013985799 -0.29249985450369742 0 0.19505829411872511 -0.29591615021135209 0 0.21241587013985799 -0.29249985450369742 0 0.20697022876281421 -0.30157860807065429 0 0.21241587013985799 -0.29249985450369742 0 0.21471784442435021 -0.30320227650497422 0 0.20697022876281421 -0.30157860807065429 0 0.21241587013985799 -0.29249985450369742 0 0.21471784442435021 -0.30320227650497422 0 0.22582422312539499 -0.3028216508988848 0 0.2038489395953588 -0.3094878674508561 0 0.2105036344724808 -0.30931255105603128 0 0.21498400530544429 -0.31630922084376828 0 0.20697022876281421 -0.30157860807065429 0 0.2038489395953588 -0.3094878674508561 0 0.2105036344724808 -0.30931255105603128 0 0.21471784442435021 -0.30320227650497422 0 0.20697022876281421 -0.30157860807065429 0 0.2105036344724808 -0.30931255105603128 0 0.2038489395953588 -0.3094878674508561 0 0.2105036344724808 -0.30931255105603128 0 0.2105036344724808 -0.30931255105603128 0 0.21787526562120321 -0.3097987179956031 0 0.21498400530544429 -0.31630922084376828 0 0.21471784442435021 -0.30320227650497422 0 0.2105036344724808 -0.30931255105603128 0 0.21787526562120321 -0.3097987179956031 0 0.22582422312539499 -0.3028216508988848 0 0.22842067143845801 -0.31164958167004447 0 0.22279446485415369 -0.3186816778115581 0 0.21471784442435021 -0.30320227650497422 0 0.21787526562120321 -0.3097987179956031 0 0.22582422312539499 -0.3028216508988848 0 0.21787526562120321 -0.3097987179956031 0 0.22582422312539499 -0.3028216508988848 0 0.22279446485415369 -0.3186816778115581 0 0.22582422312539499 -0.3028216508988848 0 0.2340733577063126 -0.29918802270694889 0 0.22842067143845801 -0.31164958167004447 0 0.22582422312539499 -0.3028216508988848 0 0.2340733577063126 -0.29918802270694889 0 0.2335498407721591 -0.28868229294345288 0 0.22582422312539499 -0.3028216508988848 0 0.22842067143845801 -0.31164958167004447 0 0.2178940281527999 -0.27585896811883709 0 0.22582422312539499 -0.3028216508988848 0 0.2335498407721591 -0.28868229294345288 0 0.2178940281527999 -0.27585896811883709 0 0.22582422312539499 -0.3028216508988848 0 0.2335498407721591 -0.28868229294345288 0 0.2420762581130366 -0.29270549442495908 0 0.2422877637227121 -0.28129076702645223 0 0.2340733577063126 -0.29918802270694889 0 0.2335498407721591 -0.28868229294345288 0 0.2420762581130366 -0.29270549442495908 0 0.25372623401481742 -0.29413131505052947 0 0.2420762581130366 -0.29270549442495908 0 0.24123800548098531 -0.30284205052703372 0 0.25372623401481742 -0.29413131505052947 0 0.2420762581130366 -0.29270549442495908 0 0.2422877637227121 -0.28129076702645223 0 0.22842067143845801 -0.31164958167004447 0 0.24123800548098531 -0.30284205052703372 0 0.2423174068266713 -0.31899396492131471 0 0.22842067143845801 -0.31164958167004447 0 0.24123800548098531 -0.30284205052703372 0 0.2340733577063126 -0.29918802270694889 0 0.22842067143845801 -0.31164958167004447 0 0.24123800548098531 -0.30284205052703372 0 0.2340733577063126 -0.29918802270694889 0 0.2420762581130366 -0.29270549442495908 0 0.24123800548098531 -0.30284205052703372 0 0.25372623401481742 -0.29413131505052947 0 0.24123800548098531 -0.30284205052703372 0 0.2586535423384666 -0.31923277228982322 0 0.24123800548098531 -0.30284205052703372 0 0.2423174068266713 -0.31899396492131471 0 0.22842067143845801 -0.31164958167004447 0 0.2423174068266713 -0.31899396492131471 0 0.2337544180979943 -0.32978433367893117 0 0.2423174068266713 -0.31899396492131471 0 0.249191291268757 -0.33155788210724768 0 0.2337544180979943 -0.32978433367893117 0 0.249191291268757 -0.33155788210724768 0 0.2337544180979943 -0.32978433367893117 0 0.24168461307059361 -0.3567470164589775 0 0.2337544180979943 -0.32978433367893117 0 0.24168461307059361 -0.3567470164589775 0 0.2337544180979943 -0.32978433367893117 0 0.21989772198402499 -0.33426528990479382 0 0.2289972871151687 -0.34560554056288723 0 0.22842067143845801 -0.31164958167004447 0 0.2337544180979943 -0.32978433367893117 0 0.22842067143845801 -0.31164958167004447 0 0.2337544180979943 -0.32978433367893117 0 0.22279446485415369 -0.3186816778115581 0 0.2337544180979943 -0.32978433367893117 0 0.21989772198402499 -0.33426528990479382 0 0.22279446485415369 -0.3186816778115581 0 0.21989772198402499 -0.33426528990479382 0 0.22279446485415369 -0.3186816778115581 0 0.21498400530544429 -0.31630922084376828 0 0.24168461307059361 -0.3567470164589775 0 0.24785300684724021 -0.37650176038374927 0 0.22233335432609799 -0.37798141541904617 0 0.2337544180979943 -0.32978433367893117 0 0.24168461307059361 -0.3567470164589775 0 0.2289972871151687 -0.34560554056288723 0 0.24168461307059361 -0.3567470164589775 0 0.2289972871151687 -0.34560554056288723 0 0.21830553589029539 -0.3576058954310864 0 0.21989772198402499 -0.33426528990479382 0 0.2289972871151687 -0.34560554056288723 0 0.21830553589029539 -0.3576058954310864 0 0.24168461307059361 -0.3567470164589775 0 0.21830553589029539 -0.3576058954310864 0 0.22233335432609799 -0.37798141541904617 0 0.21830553589029539 -0.3576058954310864 0 0.19549067640987761 -0.36278287425853672 0 0.22233335432609799 -0.37798141541904617 0 0.21989772198402499 -0.33426528990479382 0 0.2055805085897752 -0.34501324556925378 0 0.21830553589029539 -0.3576058954310864 0 0.2055805085897752 -0.34501324556925378 0 0.21830553589029539 -0.3576058954310864 0 0.19549067640987761 -0.36278287425853672 0 0.19549067640987761 -0.36278287425853672 0 0.18847768955846661 -0.33643022462219452 0 0.2055805085897752 -0.34501324556925378 0 0.19549067640987761 -0.36278287425853672 0 0.18847768955846661 -0.33643022462219452 0 0.19549067640987761 -0.36278287425853672 0 0.18422424566791651 -0.37221445410021958 0 0.20250366326128849 -0.38913552389487871 0 0.2038489395953588 -0.3094878674508561 0 0.21989772198402499 -0.33426528990479382 0 0.2038489395953588 -0.3094878674508561 0 0.21989772198402499 -0.33426528990479382 0 0.21498400530544429 -0.31630922084376828 0 0.2038489395953588 -0.3094878674508561 0 0.21989772198402499 -0.33426528990479382 0 0.2022522920713965 -0.32715825059137499 0 0.21787526562120321 -0.3097987179956031 0 0.22279446485415369 -0.3186816778115581 0 0.21498400530544429 -0.31630922084376828 0 0.21989772198402499 -0.33426528990479382 0 0.2055805085897752 -0.34501324556925378 0 0.2022522920713965 -0.32715825059137499 0 0.2055805085897752 -0.34501324556925378 0 0.18847768955846661 -0.33643022462219452 0 0.2022522920713965 -0.32715825059137499 0 0.2038489395953588 -0.3094878674508561 0 0.2022522920713965 -0.32715825059137499 0 0.18146470270705289 -0.31007757498585298 0 0.18847768955846661 -0.33643022462219452 0 0.2022522920713965 -0.32715825059137499 0 0.18146470270705289 -0.31007757498585298 0 0.18847768955846661 -0.33643022462219452 0 0.18146470270705289 -0.31007757498585298 0 0.18847768955846661 -0.33643022462219452 0 0.16835498172552399 -0.33329293360066592 0 0.18146470270705289 -0.31007757498585298 0 0.18847768955846661 -0.33643022462219452 0 0.16835498172552399 -0.33329293360066592 0 0.1741827138147494 -0.35828064837631018 0 0.16835498172552399 -0.33329293360066592 0 0.1587937791903169 -0.3484323423137885 0 0.14945892030331329 -0.33389051907845818 0 0.16835498172552399 -0.33329293360066592 0 0.15345414645664121 -0.31081550660097979 0 0.18146470270705289 -0.31007757498585298 0 0.16835498172552399 -0.33329293360066592 0 0.14945892030331329 -0.33389051907845818 0 0.15345414645664121 -0.31081550660097979 0 0.19549067640987761 -0.36278287425853672 0 0.18422424566791651 -0.37221445410021958 0 0.1741827138147494 -0.35828064837631018 0 0.18422424566791651 -0.37221445410021958 0 0.1741827138147494 -0.35828064837631018 0 0.16194298884555841 -0.37578445269398048 0 0.19549067640987761 -0.36278287425853672 0 0.18847768955846661 -0.33643022462219452 0 0.1741827138147494 -0.35828064837631018 0 0.1741827138147494 -0.35828064837631018 0 0.1587937791903169 -0.3484323423137885 0 0.15430685605409469 -0.36049005484496482 0 0.16835498172552399 -0.33329293360066592 0 0.1741827138147494 -0.35828064837631018 0 0.1587937791903169 -0.3484323423137885 0 0.1741827138147494 -0.35828064837631018 0 0.15430685605409469 -0.36049005484496482 0 0.16194298884555841 -0.37578445269398048 0 0.15430685605409469 -0.36049005484496482 0 0.13692140812311579 -0.36491915479282833 0 0.16194298884555841 -0.37578445269398048 0 0.13692140812311579 -0.36491915479282833 0 0.16194298884555841 -0.37578445269398048 0 0.13692140812311579 -0.36491915479282833 0 0.16194298884555841 -0.37578445269398048 0 0.141996851725078 -0.37769783196538032 0 0.15430685605409469 -0.36049005484496482 0 0.1432163275273958 -0.34964883871595281 0 0.13692140812311579 -0.36491915479282833 0 0.1587937791903169 -0.3484323423137885 0 0.1432163275273958 -0.34964883871595281 0 0.14945892030331329 -0.33389051907845818 0 0.1587937791903169 -0.3484323423137885 0 0.15430685605409469 -0.36049005484496482 0 0.1432163275273958 -0.34964883871595281 0 0.12852770786045539 -0.34982988149690958 0 0.13692140812311579 -0.36491915479282833 0 0.1118998274006731 -0.35405385689167612 0 0.1432163275273958 -0.34964883871595281 0 0.12852770786045539 -0.34982988149690958 0 0.13305076224841009 -0.33763866110278562 0 0.1432163275273958 -0.34964883871595281 0 0.12852770786045539 -0.34982988149690958 0 0.13692140812311579 -0.36491915479282833 0 0.13692140812311579 -0.36491915479282833 0 0.141996851725078 -0.37769783196538032 0 0.11949025226253809 -0.36510105144343308 0 0.141996851725078 -0.37769783196538032 0 0.11949025226253809 -0.36510105144343308 0 0.141996851725078 -0.37769783196538032 0 0.12594528773928321 -0.3799724744331941 0 0.11949025226253809 -0.36510105144343308 0 0.14945892030331329 -0.33389051907845818 0 0.13603344381955851 -0.32443802430779128 0 0.15345414645664121 -0.31081550660097979 0 0.1432163275273958 -0.34964883871595281 0 0.14945892030331329 -0.33389051907845818 0 0.13305076224841009 -0.33763866110278562 0 0.13305076224841009 -0.33763866110278562 0 0.13603344381955851 -0.32443802430779128 0 0.11875979988319819 -0.32829199654062707 0 0.14945892030331329 -0.33389051907845818 0 0.13305076224841009 -0.33763866110278562 0 0.13603344381955851 -0.32443802430779128 0 0.12852770786045539 -0.34982988149690958 0 0.13305076224841009 -0.33763866110278562 0 0.1187904180368423 -0.34189859423343799 0 0.13603344381955851 -0.32443802430779128 0 0.1254435902062295 -0.31155343821610598 0 0.15345414645664121 -0.31081550660097979 0 0.13603344381955851 -0.32443802430779128 0 0.1254435902062295 -0.31155343821610598 0 0.11875979988319819 -0.32829199654062707 0 0.13922142153621869 -0.30177110416234282 0 0.1254435902062295 -0.31155343821610598 0 0.12603489230680259 -0.29469606569921131 0 0.1254435902062295 -0.31155343821610598 0 0.15345414645664121 -0.31081550660097979 0 0.13922142153621869 -0.30177110416234282 0 0.1254435902062295 -0.31155343821610598 0 0.15345414645664121 -0.31081550660097979 0 0.15345414645664121 -0.31081550660097979 0 0.15037484661320069 -0.28970479193913429 0 0.16483466268675201 -0.29837555813963618 0 0.13922142153621869 -0.30177110416234282 0 0.15345414645664121 -0.31081550660097979 0 0.15037484661320069 -0.28970479193913429 0 0.15037484661320069 -0.28970479193913429 0 0.14436025694228841 -0.28687335700798761 0 0.15994283239053861 -0.28221768823907128 0 0.15037484661320069 -0.28970479193913429 0 0.12603489230680259 -0.29469606569921131 0 0.13922142153621869 -0.30177110416234282 0 0.15037484661320069 -0.28970479193913429 0 0.12603489230680259 -0.29469606569921131 0 0.14436025694228841 -0.28687335700798761 0 0.12603489230680259 -0.29469606569921131 0 0.1313566917854731 -0.28178711457140659 0 0.15037484661320069 -0.28970479193913429 0 0.14436025694228841 -0.28687335700798761 0 0.12603489230680259 -0.29469606569921131 0 0.1313566917854731 -0.28178711457140659 0 0.13318625643233489 -0.26725487810420789 0 0.1224418610581141 -0.27245904586119069 0 0.14436025694228841 -0.28687335700798761 0 0.1313566917854731 -0.28178711457140659 0 0.14099272753432951 -0.27477879616733147 0 0.1313566917854731 -0.28178711457140659 0 0.13318625643233489 -0.26725487810420789 0 0.14099272753432951 -0.27477879616733147 0 0.13318625643233489 -0.26725487810420789 0 0.1144079934907305 -0.26236231150449613 0 0.1350684692576157 -0.24684669469283291 0 0.13318625643233489 -0.26725487810420789 0 0.15506770497722169 -0.26319983498572402 0 0.1350684692576157 -0.24684669469283291 0 0.15506770497722169 -0.26319983498572402 0 0.1513268151752192 -0.24698270925710791 0 0.1350684692576157 -0.24684669469283291 0 0.14436025694228841 -0.28687335700798761 0 0.15506770497722169 -0.26319983498572402 0 0.14436025694228841 -0.28687335700798761 0 0.15506770497722169 -0.26319983498572402 0 0.1611481607056531 -0.27239702511149638 0 0.14436025694228841 -0.28687335700798761 0 0.15506770497722169 -0.26319983498572402 0 0.14099272753432951 -0.27477879616733147 0 0.13318625643233489 -0.26725487810420789 0 0.15506770497722169 -0.26319983498572402 0 0.14099272753432951 -0.27477879616733147 0 0.14436025694228841 -0.28687335700798761 0 0.1611481607056531 -0.27239702511149638 0 0.15994283239053861 -0.28221768823907128 0 0.1611481607056531 -0.27239702511149638 0 0.16670973677654091 -0.27755181211588309 0 0.15994283239053861 -0.28221768823907128 0 0.17103315309037281 -0.27087901693390742 0 0.16738495856860519 -0.260455902424789 0 0.1756888869665072 -0.26601207574201902 0 0.1611481607056531 -0.27239702511149638 0 0.17103315309037281 -0.27087901693390742 0 0.16738495856860519 -0.260455902424789 0 0.17103315309037281 -0.27087901693390742 0 0.16670973677654091 -0.27755181211588309 0 0.1747148009195989 -0.28471351817905699 0 0.1611481607056531 -0.27239702511149638 0 0.17103315309037281 -0.27087901693390742 0 0.16670973677654091 -0.27755181211588309 0 0.15506770497722169 -0.26319983498572402 0 0.16738495856860519 -0.260455902424789 0 0.16577515301215501 -0.23952631296346041 0 0.15506770497722169 -0.26319983498572402 0 0.16577515301215501 -0.23952631296346041 0 0.16738495856860519 -0.260455902424789 0 0.17427845624665819 -0.25144174813813908 0 0.16577515301215501 -0.23952631296346041 0 0.15506770497722169 -0.26319983498572402 0 0.1611481607056531 -0.27239702511149638 0 0.16738495856860519 -0.260455902424789 0 0.17427845624665819 -0.25144174813813908 0 0.17488720342308189 -0.2593719505291302 0 0.18219651191055711 -0.25957807581157388 0 0.16738495856860519 -0.260455902424789 0 0.17427845624665819 -0.25144174813813908 0 0.17488720342308189 -0.2593719505291302 0 0.16738495856860519 -0.260455902424789 0 0.17488720342308189 -0.2593719505291302 0 0.1756888869665072 -0.26601207574201902 0 0.17488720342308189 -0.2593719505291302 0 0.18219651191055711 -0.25957807581157388 0 0.1756888869665072 -0.26601207574201902 0 0.18857864201952801 -0.27011810016262799 0 0.18219651191055711 -0.25957807581157388 0 0.1756888869665072 -0.26601207574201902 0 0.17427845624665819 -0.25144174813813908 0 0.18219651191055711 -0.25957807581157388 0 0.18798798277450729 -0.24631021389562671 0 0.1756888869665072 -0.26601207574201902 0 0.18626764864209219 -0.28234443297184753 0 0.18857864201952801 -0.27011810016262799 0 0.1756888869665072 -0.26601207574201902 0 0.18626764864209219 -0.28234443297184753 0 0.17103315309037281 -0.27087901693390742 0 0.1756888869665072 -0.26601207574201902 0 0.18626764864209219 -0.28234443297184753 0 0.17103315309037281 -0.27087901693390742 0 0.18626764864209219 -0.28234443297184753 0 0.1747148009195989 -0.28471351817905699 0 0.17103315309037281 -0.27087901693390742 0 0.1747148009195989 -0.28471351817905699 0 0.18626764864209219 -0.28234443297184753 0 0.1747148009195989 -0.28471351817905699 0 0.19505829411872511 -0.29591615021135209 0 0.18626764864209219 -0.28234443297184753 0 0.1747148009195989 -0.28471351817905699 0 0.1747148009195989 -0.28471351817905699 0 0.18146470270705289 -0.31007757498585298 0 0.19505829411872511 -0.29591615021135209 0 0.1747148009195989 -0.28471351817905699 0 0.18146470270705289 -0.31007757498585298 0 0.1747148009195989 -0.28471351817905699 0 0.18146470270705289 -0.31007757498585298 0 0.16483466268675201 -0.29837555813963618 0 0.15345414645664121 -0.31081550660097979 0 0.18146470270705289 -0.31007757498585298 0 0.16483466268675201 -0.29837555813963618 0 0.15345414645664121 -0.31081550660097979 0 0.18146470270705289 -0.31007757498585298 0 0.15037484661320069 -0.28970479193913429 0 0.1747148009195989 -0.28471351817905699 0 0.15994283239053861 -0.28221768823907128 0 0.15037484661320069 -0.28970479193913429 0 0.1747148009195989 -0.28471351817905699 0 0.16483466268675201 -0.29837555813963618 0 0.15037484661320069 -0.28970479193913429 0 0.1747148009195989 -0.28471351817905699 0 0.16670973677654091 -0.27755181211588309 0 0.1747148009195989 -0.28471351817905699 0 0.15994283239053861 -0.28221768823907128 0 0.19245178762371951 -0.5 0 0.19385701803124669 -0.48332844612782511 0 0.20977526174235031 -0.48574255139307609 0 0.19245178762371951 -0.5 0 0.19385701803124669 -0.48332844612782511 0 0.17748140804621981 -0.4842575454844299 0 0.19385701803124669 -0.48332844612782511 0 0.20512774961947991 -0.47201861460243433 0 0.20977526174235031 -0.48574255139307609 0 0.20512774961947991 -0.47201861460243433 0 0.19680783574402291 -0.46414549937239852 0 0.18546506619612299 -0.47126547338364311 0 0.19385701803124669 -0.48332844612782511 0 0.20512774961947991 -0.47201861460243433 0 0.18546506619612299 -0.47126547338364311 0 0.20512774961947991 -0.47201861460243433 0 0.18546506619612299 -0.47126547338364311 0 0.20512774961947991 -0.47201861460243433 0 0.2257948760799228 -0.47281022907723308 0 0.2108922145264607 -0.46355980899120031 0 0.20512774961947991 -0.47201861460243433 0 0.2257948760799228 -0.47281022907723308 0 0.20512774961947991 -0.47201861460243433 0 0.20977526174235031 -0.48574255139307609 0 0.2257948760799228 -0.47281022907723308 0 0.19245178762371951 -0.5 0 0.20977526174235031 -0.48574255139307609 0 0.2224007969332269 -0.49999999999999828 0 0.2224007969332269 -0.49999999999999828 0 0.23200700064644089 -0.49999999999999512 0 0.2257948760799228 -0.47281022907723308 0 0.23200700064644089 -0.49999999999999512 0 0.2257948760799228 -0.47281022907723308 0 0.20977526174235031 -0.48574255139307609 0 0.2224007969332269 -0.49999999999999828 0 0.2257948760799228 -0.47281022907723308 0 0.2224007969332269 -0.49999999999999828 0 0.2257948760799228 -0.47281022907723308 0 0.25080264390788493 -0.5 0 0.23200700064644089 -0.49999999999999512 0 0.2476965816246261 -0.48640511453861601 0 0.23200700064644089 -0.49999999999999512 0 0.2476965816246261 -0.48640511453861601 0 0.2257948760799228 -0.47281022907723308 0 0.2476965816246261 -0.48640511453861601 0 0.2465915143735459 -0.47360680425336737 0 0.2257948760799228 -0.47281022907723308 0 0.2465915143735459 -0.47360680425336737 0 0.2257948760799228 -0.47281022907723308 0 0.24681399357595471 -0.46559983094736179 0 0.2465915143735459 -0.47360680425336737 0 0.2257948760799228 -0.47281022907723308 0 0.2476965816246261 -0.48640511453861601 0 0.2257948760799228 -0.47281022907723308 0 0.2257948760799228 -0.47281022907723308 0 0.21977323464866841 -0.45402926657313691 0 0.22623983448474111 -0.4567962824652182 0 0.2257948760799228 -0.47281022907723308 0 0.21977323464866841 -0.45402926657313691 0 0.2108922145264607 -0.46355980899120031 0 0.2257948760799228 -0.47281022907723308 0 0.21977323464866841 -0.45402926657313691 0 0.2257948760799228 -0.47281022907723308 0 0.22623983448474111 -0.4567962824652182 0 0.24681399357595471 -0.46559983094736179 0 0.2257948760799228 -0.47281022907723308 0 0.22623983448474111 -0.4567962824652182 0 0.21977323464866841 -0.45402926657313691 0 0.22623983448474111 -0.4567962824652182 0 0.22673969822270529 -0.45117092156392041 0 0.22623983448474111 -0.4567962824652182 0 0.22673969822270529 -0.45117092156392041 0 0.21977323464866841 -0.45402926657313691 0 0.22623983448474111 -0.4567962824652182 0 0.22623983448474111 -0.4567962824652182 0 0.24681399357595471 -0.46559983094736179 0 0.22623983448474111 -0.4567962824652182 0 0.2453593179134797 -0.45470109094295502 0 0.24681399357595471 -0.46559983094736179 0 0.22623983448474111 -0.4567962824652182 0 0.2453593179134797 -0.45470109094295502 0 0.23789086544502361 -0.44992390438854862 0 0.2422767418259632 -0.44230132536922678 0 0.22265067176175141 -0.44883631691361969 0 0.24547477527083761 -0.43561367544686003 0 0.2422767418259632 -0.44230132536922678 0 0.2476151994106125 -0.4408168378910598 0 0.24734218738146721 -0.44546430940322829 0 0.2422767418259632 -0.44230132536922678 0 0.2476151994106125 -0.4408168378910598 0 0.24547477527083761 -0.43561367544686003 0 0.2511933329638904 -0.43937523157275787 0 0.2476151994106125 -0.4408168378910598 0 0.24547477527083761 -0.43561367544686003 0 0.25179674498503252 -0.44219165533779348 0 0.2476151994106125 -0.4408168378910598 0 0.24734218738146721 -0.44546430940322829 0 0.2453593179134797 -0.45470109094295502 0 0.24734218738146721 -0.44546430940322829 0 0.23789086544502361 -0.44992390438854862 0 0.25528633834893999 -0.44907469287290641 0 0.2453593179134797 -0.45470109094295502 0 0.24734218738146721 -0.44546430940322829 0 0.2422767418259632 -0.44230132536922678 0 0.24734218738146721 -0.44546430940322829 0 0.23789086544502361 -0.44992390438854862 0 0.2422767418259632 -0.44230132536922678 0 0.23789086544502361 -0.44992390438854862 0 0.22673969822270529 -0.45117092156392041 0 0.22265067176175141 -0.44883631691361969 0 0.2263264123649876 -0.43303222196702179 0 0.24547477527083761 -0.43561367544686003 0 0.22265067176175141 -0.44883631691361969 0 0.24547477527083761 -0.43561367544686003 0 0.2422767418259632 -0.44230132536922678 0 0.22673969822270529 -0.45117092156392041 0 0.22265067176175141 -0.44883631691361969 0 0.22623983448474111 -0.4567962824652182 0 0.23789086544502361 -0.44992390438854862 0 0.22673969822270529 -0.45117092156392041 0 0.21977323464866841 -0.45402926657313691 0 0.22673969822270529 -0.45117092156392041 0 0.22265067176175141 -0.44883631691361969 0 0.21977323464866841 -0.45402926657313691 0 0.22265067176175141 -0.44883631691361969 0 0.2127604070949238 -0.42767721552848342 0 0.21977323464866841 -0.45402926657313691 0 0.2127604070949238 -0.42767721552848342 0 0.21977323464866841 -0.45402926657313691 0 0.2085462329302146 -0.44922530576485892 0 0.2127604070949238 -0.42767721552848342 0 0.21977323464866841 -0.45402926657313691 0 0.2085462329302146 -0.44922530576485892 0 0.21977323464866841 -0.45402926657313691 0 0.2085462329302146 -0.44922530576485892 0 0.2108922145264607 -0.46355980899120031 0 0.2257948760799228 -0.47281022907723308 0 0.2108922145264607 -0.46355980899120031 0 0.20512774961947991 -0.47201861460243433 0 0.2108922145264607 -0.46355980899120031 0 0.19680783574402291 -0.46414549937239852 0 0.2108922145264607 -0.46355980899120031 0 0.19721574118029031 -0.45507051174093122 0 0.2085462329302146 -0.44922530576485892 0 0.2108922145264607 -0.46355980899120031 0 0.19721574118029031 -0.45507051174093122 0 0.2108922145264607 -0.46355980899120031 0 0.19721574118029031 -0.45507051174093122 0 0.19680783574402291 -0.46414549937239852 0 0.19680783574402291 -0.46414549937239852 0 0.18533840719776051 -0.45881308814378391 0 0.18546506619612299 -0.47126547338364311 0 0.19721574118029031 -0.45507051174093122 0 0.19680783574402291 -0.46414549937239852 0 0.18533840719776051 -0.45881308814378391 0 0.19721574118029031 -0.45507051174093122 0 0.18369160587602079 -0.44675904525892551 0 0.18533840719776051 -0.45881308814378391 0 0.2085462329302146 -0.44922530576485892 0 0.19721574118029031 -0.45507051174093122 0 0.19415008485090171 -0.43522371210340899 0 0.19721574118029031 -0.45507051174093122 0 0.19415008485090171 -0.43522371210340899 0 0.18369160587602079 -0.44675904525892551 0 0.2127604070949238 -0.42767721552848342 0 0.1854944253862352 -0.41691431925236272 0 0.19415008485090171 -0.43522371210340899 0 0.2127604070949238 -0.42767721552848342 0 0.1854944253862352 -0.41691431925236272 0 0.20951665011269799 -0.41548817353122119 0 0.18701005065015769 -0.4028913930092749 0 0.1854944253862352 -0.41691431925236272 0 0.20951665011269799 -0.41548817353122119 0 0.18701005065015769 -0.4028913930092749 0 0.20951665011269799 -0.41548817353122119 0 0.2127604070949238 -0.42767721552848342 0 0.1854944253862352 -0.41691431925236272 0 0.20951665011269799 -0.41548817353122119 0 0.22749571269176791 -0.42555092448904042 0 0.20951665011269799 -0.41548817353122119 0 0.2127604070949238 -0.42767721552848342 0 0.20951665011269799 -0.41548817353122119 0 0.2127604070949238 -0.42767721552848342 0 0.22749571269176791 -0.42555092448904042 0 0.2085462329302146 -0.44922530576485892 0 0.19415008485090171 -0.43522371210340899 0 0.2127604070949238 -0.42767721552848342 0 0.2127604070949238 -0.42767721552848342 0 0.2263264123649876 -0.43303222196702179 0 0.22265067176175141 -0.44883631691361969 0 0.2127604070949238 -0.42767721552848342 0 0.2263264123649876 -0.43303222196702179 0 0.2263264123649876 -0.43303222196702179 0 0.22749571269176791 -0.42555092448904042 0 0.24547477527083761 -0.43561367544686003 0 0.2127604070949238 -0.42767721552848342 0 0.2263264123649876 -0.43303222196702179 0 0.22749571269176791 -0.42555092448904042 0 0.22749571269176791 -0.42555092448904042 0 0.24547477527083761 -0.43561367544686003 0 0.22749571269176791 -0.42555092448904042 0 0.24547477527083761 -0.43561367544686003 0 0.24409842683068261 -0.41292189683266017 0 0.22749571269176791 -0.42555092448904042 0 0.24409842683068261 -0.41292189683266017 0 0.22384870371941931 -0.40230097126317488 0 0.20951665011269799 -0.41548817353122119 0 0.22749571269176791 -0.42555092448904042 0 0.22384870371941931 -0.40230097126317488 0 0.22384870371941931 -0.40230097126317488 0 0.2382141207196653 -0.39189631140593473 0 0.22233335432609799 -0.37798141541904617 0 0.25551344280990212 -0.39736928500348379 0 0.24409842683068261 -0.41292189683266017 0 0.2382141207196653 -0.39189631140593473 0 0.24409842683068261 -0.41292189683266017 0 0.22384870371941931 -0.40230097126317488 0 0.2382141207196653 -0.39189631140593473 0 0.25551344280990212 -0.39736928500348379 0 0.2382141207196653 -0.39189631140593473 0 0.24785300684724021 -0.37650176038374927 0 0.2382141207196653 -0.39189631140593473 0 0.24785300684724021 -0.37650176038374927 0 0.22233335432609799 -0.37798141541904617 0 0.22384870371941931 -0.40230097126317488 0 0.22233335432609799 -0.37798141541904617 0 0.20250366326128849 -0.38913552389487871 0 0.19549067640987761 -0.36278287425853672 0 0.22233335432609799 -0.37798141541904617 0 0.20250366326128849 -0.38913552389487871 0 0.20951665011269799 -0.41548817353122119 0 0.20250366326128849 -0.38913552389487871 0 0.20951665011269799 -0.41548817353122119 0 0.22384870371941931 -0.40230097126317488 0 0.20250366326128849 -0.38913552389487871 0 0.20250366326128849 -0.38913552389487871 0 0.18696456956800109 -0.38664975059513279 0 0.18701005065015769 -0.4028913930092749 0 0.20951665011269799 -0.41548817353122119 0 0.20250366326128849 -0.38913552389487871 0 0.18701005065015769 -0.4028913930092749 0 0.19549067640987761 -0.36278287425853672 0 0.20250366326128849 -0.38913552389487871 0 0.18422424566791651 -0.37221445410021958 0 0.20250366326128849 -0.38913552389487871 0 0.18696456956800109 -0.38664975059513279 0 0.18422424566791651 -0.37221445410021958 0 0.18696456956800109 -0.38664975059513279 0 0.16194298884555841 -0.37578445269398048 0 0.18696456956800109 -0.38664975059513279 0 0.16194298884555841 -0.37578445269398048 0 0.18701005065015769 -0.4028913930092749 0 0.16450345118761781 -0.39029461248732761 0 0.18696456956800109 -0.38664975059513279 0 0.18701005065015769 -0.4028913930092749 0 0.16450345118761781 -0.39029461248732761 0 0.18701005065015769 -0.4028913930092749 0 0.1738090927253895 -0.4040629369313013 0 0.16450345118761781 -0.39029461248732761 0 0.1738090927253895 -0.4040629369313013 0 0.1582284436775474 -0.40615142297624002 0 0.16450345118761781 -0.39029461248732761 0 0.1582284436775474 -0.40615142297624002 0 0.16450345118761781 -0.39029461248732761 0 0.14892280213977571 -0.39238309853226627 0 0.18696456956800109 -0.38664975059513279 0 0.16450345118761781 -0.39029461248732761 0 0.16194298884555841 -0.37578445269398048 0 0.16450345118761781 -0.39029461248732761 0 0.141996851725078 -0.37769783196538032 0 0.14892280213977571 -0.39238309853226627 0 0.16450345118761781 -0.39029461248732761 0 0.141996851725078 -0.37769783196538032 0 0.141996851725078 -0.37769783196538032 0 0.13096246196885949 -0.39538852670011732 0 0.14892280213977571 -0.39238309853226627 0 0.16450345118761781 -0.39029461248732761 0 0.16194298884555841 -0.37578445269398048 0 0.141996851725078 -0.37769783196538032 0 0.141996851725078 -0.37769783196538032 0 0.12594528773928321 -0.3799724744331941 0 0.13096246196885949 -0.39538852670011732 0 0.1582284436775474 -0.40615142297624002 0 0.13096246196885949 -0.39538852670011732 0 0.14892280213977571 -0.39238309853226627 0 0.1582284436775474 -0.40615142297624002 0 0.13096246196885949 -0.39538852670011732 0 0.1582284436775474 -0.40615142297624002 0 0.13096246196885949 -0.39538852670011732 0 0.1372796439041275 -0.42586165000970228 0 0.1582284436775474 -0.40615142297624002 0 0.1372796439041275 -0.42586165000970228 0 0.16933424904652469 -0.43374570645307409 0 0.13096246196885949 -0.39538852670011732 0 0.1372796439041275 -0.42586165000970228 0 0.11721273517753179 -0.4180819099583416 0 0.1372796439041275 -0.42586165000970228 0 0.12939361371275299 -0.44732313990454331 0 0.109603329286352 -0.43646428307321961 0 0.1582284436775474 -0.40615142297624002 0 0.1854944253862352 -0.41691431925236272 0 0.1582284436775474 -0.40615142297624002 0 0.16933424904652469 -0.43374570645307409 0 0.1854944253862352 -0.41691431925236272 0 0.1738090927253895 -0.4040629369313013 0 0.1582284436775474 -0.40615142297624002 0 0.1854944253862352 -0.41691431925236272 0 0.18701005065015769 -0.4028913930092749 0 0.1738090927253895 -0.4040629369313013 0 0.1854944253862352 -0.41691431925236272 0 0.19415008485090171 -0.43522371210340899 0 0.16933424904652469 -0.43374570645307409 0 0.1854944253862352 -0.41691431925236272 0 0.16933424904652469 -0.43374570645307409 0 0.17241954710462701 -0.45094220785342892 0 0.18369160587602079 -0.44675904525892551 0 0.19415008485090171 -0.43522371210340899 0 0.16933424904652469 -0.43374570645307409 0 0.18369160587602079 -0.44675904525892551 0 0.17241954710462701 -0.45094220785342892 0 0.18369160587602079 -0.44675904525892551 0 0.18533840719776051 -0.45881308814378391 0 0.18533840719776051 -0.45881308814378391 0 0.1719971287735286 -0.46627448910273661 0 0.18546506619612299 -0.47126547338364311 0 0.17241954710462701 -0.45094220785342892 0 0.18533840719776051 -0.45881308814378391 0 0.1719971287735286 -0.46627448910273661 0 0.17241954710462701 -0.45094220785342892 0 0.1719971287735286 -0.46627448910273661 0 0.1507095586281457 -0.45464727113351872 0 0.1719971287735286 -0.46627448910273661 0 0.1507095586281457 -0.45464727113351872 0 0.16056878546829559 -0.477721348617615 0 0.16933424904652469 -0.43374570645307409 0 0.17241954710462701 -0.45094220785342892 0 0.1507095586281457 -0.45464727113351872 0 0.1372796439041275 -0.42586165000970228 0 0.16933424904652469 -0.43374570645307409 0 0.1507095586281457 -0.45464727113351872 0 0.1372796439041275 -0.42586165000970228 0 0.12939361371275299 -0.44732313990454331 0 0.1507095586281457 -0.45464727113351872 0 0.12650833941158651 -0.46670820152949177 0 0.1507095586281457 -0.45464727113351872 0 0.14152797185423729 -0.48073537911949332 0 0.12939361371275299 -0.44732313990454331 0 0.12650833941158651 -0.46670820152949177 0 0.1507095586281457 -0.45464727113351872 0 0.1507095586281457 -0.45464727113351872 0 0.14152797185423729 -0.48073537911949332 0 0.16056878546829559 -0.477721348617615 0 0.12650833941158651 -0.46670820152949177 0 0.14152797185423729 -0.48073537911949332 0 0.1169860242836584 -0.48340482774418347 0 0.14152797185423729 -0.48073537911949332 0 0.13255376900470461 -0.5 0 0.1169860242836584 -0.48340482774418347 0 0.14152797185423729 -0.48073537911949332 0 0.16250277831421209 -0.5 0 0.16056878546829559 -0.477721348617615 0 0.14152797185423729 -0.48073537911949332 0 0.13255376900470461 -0.5 0 0.16250277831421209 -0.5 0 0.16250277831421209 -0.5 0 0.16056878546829559 -0.477721348617615 0 0.17748140804621981 -0.4842575454844299 0 0.1719971287735286 -0.46627448910273661 0 0.16056878546829559 -0.477721348617615 0 0.17748140804621981 -0.4842575454844299 0 0.1719971287735286 -0.46627448910273661 0 0.17748140804621981 -0.4842575454844299 0 0.18546506619612299 -0.47126547338364311 0 0.19385701803124669 -0.48332844612782511 0 0.17748140804621981 -0.4842575454844299 0 0.18546506619612299 -0.47126547338364311 0 0.19245178762371951 -0.5 0 0.16250277831421209 -0.5 0 0.17748140804621981 -0.4842575454844299 0 0.072655750385689832 -0.5 0 0.080958398250991437 -0.46562147053213321 0 0.059678517434535033 -0.47801244589505387 0 0.072655750385689832 -0.5 0 0.096165772891739471 -0.48146418057149237 0 0.080958398250991437 -0.46562147053213321 0 0.072655750385689832 -0.5 0 0.1026047596951972 -0.5 0 0.096165772891739471 -0.48146418057149237 0 0.1026047596951972 -0.5 0 0.1169860242836584 -0.48340482774418347 0 0.096165772891739471 -0.48146418057149237 0 0.13255376900470461 -0.5 0 0.1026047596951972 -0.5 0 0.1169860242836584 -0.48340482774418347 0 0.12650833941158651 -0.46670820152949177 0 0.1169860242836584 -0.48340482774418347 0 0.1063653349991175 -0.46040080125783289 0 0.096165772891739471 -0.48146418057149237 0 0.1063653349991175 -0.46040080125783289 0 0.080958398250991437 -0.46562147053213321 0 0.1169860242836584 -0.48340482774418347 0 0.096165772891739471 -0.48146418057149237 0 0.1063653349991175 -0.46040080125783289 0 0.12939361371275299 -0.44732313990454331 0 0.12650833941158651 -0.46670820152949177 0 0.1063653349991175 -0.46040080125783289 0 0.12939361371275299 -0.44732313990454331 0 0.1063653349991175 -0.46040080125783289 0 0.109603329286352 -0.43646428307321961 0 0.1063653349991175 -0.46040080125783289 0 0.083481832083276003 -0.44243280526361761 0 0.109603329286352 -0.43646428307321961 0 0.1063653349991175 -0.46040080125783289 0 0.083481832083276003 -0.44243280526361761 0 0.080958398250991437 -0.46562147053213321 0 0.080958398250991437 -0.46562147053213321 0 0.064680166255274646 -0.45382481150789172 0 0.059678517434535033 -0.47801244589505387 0 0.083481832083276003 -0.44243280526361761 0 0.080958398250991437 -0.46562147053213321 0 0.064680166255274646 -0.45382481150789172 0 0.083481832083276003 -0.44243280526361761 0 0.064680166255274646 -0.45382481150789172 0 0.063866106146673179 -0.43402271551751909 0 0.083481832083276003 -0.44243280526361761 0 0.063866106146673179 -0.43402271551751909 0 0.075659245366060654 -0.42030914723801321 0 0.063866106146673179 -0.43402271551751909 0 0.075659245366060654 -0.42030914723801321 0 0.058899603890085972 -0.41674006118725337 0 0.075659245366060654 -0.42030914723801321 0 0.065514589113316868 -0.40428051369252482 0 0.058899603890085972 -0.41674006118725337 0 0.075659245366060654 -0.42030914723801321 0 0.078478669421853761 -0.40488884738503422 0 0.065514589113316868 -0.40428051369252482 0 0.075659245366060654 -0.42030914723801321 0 0.088132299792409718 -0.41219974259787939 0 0.093525852595536224 -0.42466053330507508 0 0.075659245366060654 -0.42030914723801321 0 0.088132299792409718 -0.41219974259787939 0 0.078478669421853761 -0.40488884738503422 0 0.088132299792409718 -0.41219974259787939 0 0.10168607675070319 -0.40699865588780748 0 0.090575412261098706 -0.4003877445240665 0 0.083481832083276003 -0.44243280526361761 0 0.075659245366060654 -0.42030914723801321 0 0.093525852595536224 -0.42466053330507508 0 0.093525852595536224 -0.42466053330507508 0 0.109603329286352 -0.43646428307321961 0 0.11721273517753179 -0.4180819099583416 0 0.083481832083276003 -0.44243280526361761 0 0.093525852595536224 -0.42466053330507508 0 0.109603329286352 -0.43646428307321961 0 0.1372796439041275 -0.42586165000970228 0 0.109603329286352 -0.43646428307321961 0 0.11721273517753179 -0.4180819099583416 0 0.13096246196885949 -0.39538852670011732 0 0.11721273517753179 -0.4180819099583416 0 0.10168607675070319 -0.40699865588780748 0 0.088132299792409718 -0.41219974259787939 0 0.093525852595536224 -0.42466053330507508 0 0.10168607675070319 -0.40699865588780748 0 0.093525852595536224 -0.42466053330507508 0 0.11721273517753179 -0.4180819099583416 0 0.10168607675070319 -0.40699865588780748 0 0.10168607675070319 -0.40699865588780748 0 0.1036964802601716 -0.38462563042399461 0 0.090575412261098706 -0.4003877445240665 0 0.13096246196885949 -0.39538852670011732 0 0.10168607675070319 -0.40699865588780748 0 0.1036964802601716 -0.38462563042399461 0 0.12594528773928321 -0.3799724744331941 0 0.13096246196885949 -0.39538852670011732 0 0.1036964802601716 -0.38462563042399461 0 0.12594528773928321 -0.3799724744331941 0 0.1036964802601716 -0.38462563042399461 0 0.11949025226253809 -0.36510105144343308 0 0.13096246196885949 -0.39538852670011732 0 0.1036964802601716 -0.38462563042399461 0 0.1036964802601716 -0.38462563042399461 0 0.075499249917303807 -0.37659684329496618 0 0.0764304985514834 -0.37386273414787308 0 0.1036964802601716 -0.38462563042399461 0 0.080515413796957175 -0.39134895400091652 0 0.075499249917303807 -0.37659684329496618 0 0.1036964802601716 -0.38462563042399461 0 0.091553094345614372 -0.36814620520138441 0 0.0764304985514834 -0.37386273414787308 0 0.1036964802601716 -0.38462563042399461 0 0.0764304985514834 -0.37386273414787308 0 0.1036964802601716 -0.38462563042399461 0 0.090575412261098706 -0.4003877445240665 0 0.080515413796957175 -0.39134895400091652 0 0.090575412261098706 -0.4003877445240665 0 0.078478669421853761 -0.40488884738503422 0 0.080515413796957175 -0.39134895400091652 0 0.088132299792409718 -0.41219974259787939 0 0.090575412261098706 -0.4003877445240665 0 0.078478669421853761 -0.40488884738503422 0 0.078478669421853761 -0.40488884738503422 0 0.080515413796957175 -0.39134895400091652 0 0.072446098347832444 -0.39690098384656919 0 0.080515413796957175 -0.39134895400091652 0 0.072446098347832444 -0.39690098384656919 0 0.071983795224983493 -0.38604463944460882 0 0.078478669421853761 -0.40488884738503422 0 0.072446098347832444 -0.39690098384656919 0 0.065514589113316868 -0.40428051369252482 0 0.072446098347832444 -0.39690098384656919 0 0.062967941079731596 -0.39049688157766721 0 0.071983795224983493 -0.38604463944460882 0 0.072446098347832444 -0.39690098384656919 0 0.065514589113316868 -0.40428051369252482 0 0.062967941079731596 -0.39049688157766721 0 0.068202990365605981 -0.37900441936682872 0 0.060606266912539397 -0.37785480257624898 0 0.0764304985514834 -0.37386273414787308 0 0.062967941079731596 -0.39049688157766721 0 0.068202990365605981 -0.37900441936682872 0 0.071983795224983493 -0.38604463944460882 0 0.062967941079731596 -0.39049688157766721 0 0.068202990365605981 -0.37900441936682872 0 0.060606266912539397 -0.37785480257624898 0 0.068202990365605981 -0.37900441936682872 0 0.075499249917303807 -0.37659684329496618 0 0.0764304985514834 -0.37386273414787308 0 0.068202990365605981 -0.37900441936682872 0 0.075499249917303807 -0.37659684329496618 0 0.071983795224983493 -0.38604463944460882 0 0.075499249917303807 -0.37659684329496618 0 0.0764304985514834 -0.37386273414787308 0 0.080515413796957175 -0.39134895400091652 0 0.075499249917303807 -0.37659684329496618 0 0.071983795224983493 -0.38604463944460882 0 0.052678623240620691 -0.38790709831231768 0 0.060606266912539397 -0.37785480257624898 0 0.040949415155978323 -0.38199398822602099 0 0.052678623240620691 -0.38790709831231768 0 0.049027693029934337 -0.40098233363437258 0 0.040949415155978323 -0.38199398822602099 0 0.062967941079731596 -0.39049688157766721 0 0.052678623240620691 -0.38790709831231768 0 0.060606266912539397 -0.37785480257624898 0 0.062967941079731596 -0.39049688157766721 0 0.052678623240620691 -0.38790709831231768 0 0.049027693029934337 -0.40098233363437258 0 0.065514589113316868 -0.40428051369252482 0 0.062967941079731596 -0.39049688157766721 0 0.049027693029934337 -0.40098233363437258 0 0.049027693029934337 -0.40098233363437258 0 0.033437997923517773 -0.40278600031233819 0 0.040949415155978323 -0.38199398822602099 0 0.033437997923517773 -0.40278600031233819 0 0.040949415155978323 -0.38199398822602099 0 0.023255403030424861 -0.39151575450934711 0 0.02342160017485391 -0.37513277068529749 0 0.01282181127708438 -0.3821552008354504 0 0.023255403030424861 -0.39151575450934711 0 0.040949415155978323 -0.38199398822602099 0 0.02342160017485391 -0.37513277068529749 0 0.023255403030424861 -0.39151575450934711 0 -0.00075225153846593049 -0.38498931512111112 0 0.01282181127708438 -0.3821552008354504 0 0.0075592713510389299 -0.3666810191343462 0 0.01282181127708438 -0.3821552008354504 0 0.010697205983378619 -0.39447099340827069 0 0.023255403030424861 -0.39151575450934711 0 -0.00075225153846593049 -0.38498931512111112 0 0.01282181127708438 -0.3821552008354504 0 0.010697205983378619 -0.39447099340827069 0 -0.00075225153846593049 -0.38498931512111112 0 0.010697205983378619 -0.39447099340827069 0 0.0035198636644020588 -0.4085272073042775 0 -0.00075225153846593049 -0.38498931512111112 0 0.0035198636644020588 -0.4085272073042775 0 0.010697205983378619 -0.39447099340827069 0 0.01882938808714299 -0.40268601774801882 0 0.0035198636644020588 -0.4085272073042775 0 0.010697205983378619 -0.39447099340827069 0 0.01882938808714299 -0.40268601774801882 0 0.023255403030424861 -0.39151575450934711 0 0.033437997923517773 -0.40278600031233819 0 0.01882938808714299 -0.40268601774801882 0 0.023255403030424861 -0.39151575450934711 0 0.033437997923517773 -0.40278600031233819 0 0.01882938808714299 -0.40268601774801882 0 0.023236469833991611 -0.41613013320586051 0 -0.010791216498688611 -0.41548617836765311 0 0.0035198636644020588 -0.4085272073042775 0 0.0077919788672700272 -0.43206509948744382 0 0.0035198636644020588 -0.4085272073042775 0 0.0077919788672700272 -0.43206509948744382 0 0.01882938808714299 -0.40268601774801882 0 0.023236469833991611 -0.41613013320586051 0 0.0035198636644020588 -0.4085272073042775 0 0.023236469833991611 -0.41613013320586051 0 0.0035198636644020588 -0.4085272073042775 0 0.0077919788672700272 -0.43206509948744382 0 0.0077919788672700272 -0.43206509948744382 0 0.023516578198180919 -0.42972572538181181 0 0.0287416049066237 -0.44473399748097808 0 0.023516578198180919 -0.42972572538181181 0 0.036661589674262911 -0.42894293019570717 0 0.0287416049066237 -0.44473399748097808 0 0.023236469833991611 -0.41613013320586051 0 0.0077919788672700272 -0.43206509948744382 0 0.023516578198180919 -0.42972572538181181 0 0.023236469833991611 -0.41613013320586051 0 0.023516578198180919 -0.42972572538181181 0 0.036661589674262911 -0.42894293019570717 0 0.036661589674262911 -0.42894293019570717 0 0.05042645081977979 -0.42742495138880099 0 0.048957690024767422 -0.44205191962993029 0 0.036661589674262911 -0.42894293019570717 0 0.043747264363109509 -0.41536713041359491 0 0.05042645081977979 -0.42742495138880099 0 0.033437997923517773 -0.40278600031233819 0 0.023236469833991611 -0.41613013320586051 0 0.043747264363109509 -0.41536713041359491 0 0.023236469833991611 -0.41613013320586051 0 0.036661589674262911 -0.42894293019570717 0 0.043747264363109509 -0.41536713041359491 0 0.049027693029934337 -0.40098233363437258 0 0.033437997923517773 -0.40278600031233819 0 0.043747264363109509 -0.41536713041359491 0 0.065514589113316868 -0.40428051369252482 0 0.049027693029934337 -0.40098233363437258 0 0.058899603890085972 -0.41674006118725337 0 0.043747264363109509 -0.41536713041359491 0 0.058899603890085972 -0.41674006118725337 0 0.05042645081977979 -0.42742495138880099 0 0.049027693029934337 -0.40098233363437258 0 0.043747264363109509 -0.41536713041359491 0 0.058899603890085972 -0.41674006118725337 0 0.063866106146673179 -0.43402271551751909 0 0.058899603890085972 -0.41674006118725337 0 0.05042645081977979 -0.42742495138880099 0 0.063866106146673179 -0.43402271551751909 0 0.05042645081977979 -0.42742495138880099 0 0.048957690024767422 -0.44205191962993029 0 0.064680166255274646 -0.45382481150789172 0 0.048957690024767422 -0.44205191962993029 0 0.045817066248641611 -0.46163348419203531 0 0.064680166255274646 -0.45382481150789172 0 0.063866106146673179 -0.43402271551751909 0 0.048957690024767422 -0.44205191962993029 0 0.064680166255274646 -0.45382481150789172 0 0.045817066248641611 -0.46163348419203531 0 0.059678517434535033 -0.47801244589505387 0 0.045817066248641611 -0.46163348419203531 0 0.0287416049066237 -0.44473399748097808 0 0.027860568818995339 -0.46497161858602248 0 0.036661589674262911 -0.42894293019570717 0 0.048957690024767422 -0.44205191962993029 0 0.0287416049066237 -0.44473399748097808 0 0.048957690024767422 -0.44205191962993029 0 0.045817066248641611 -0.46163348419203531 0 0.0287416049066237 -0.44473399748097808 0 0.0077919788672700272 -0.43206509948744382 0 0.0287416049066237 -0.44473399748097808 0 0.01206409407013798 -0.45560299167060991 0 -0.01242457269279211 -0.44079437955385198 0 0.0077919788672700272 -0.43206509948744382 0 0.01206409407013798 -0.45560299167060991 0 0.0077919788672700272 -0.43206509948744382 0 0.01206409407013798 -0.45560299167060991 0 0.01206409407013798 -0.45560299167060991 0 0.016336209273005949 -0.47914088385377618 0 -0.0091240106075320768 -0.47139287809486929 0 0.01206409407013798 -0.45560299167060991 0 0.016336209273005949 -0.47914088385377618 0 0.01206409407013798 -0.45560299167060991 0 0.027860568818995339 -0.46497161858602248 0 0.016336209273005949 -0.47914088385377618 0 0.0287416049066237 -0.44473399748097808 0 0.01206409407013798 -0.45560299167060991 0 0.027860568818995339 -0.46497161858602248 0 0.027860568818995339 -0.46497161858602248 0 0.016336209273005949 -0.47914088385377618 0 0.035860850697740657 -0.48058278817521499 0 -0.0091240106075320768 -0.47139287809486929 0 0.016336209273005949 -0.47914088385377618 0 0.00082994801377117458 -0.48721722349962071 0 0.016336209273005949 -0.47914088385377618 0 0.012757731766675049 -0.5 0 0.00082994801377117458 -0.48721722349962071 0 0.016336209273005949 -0.47914088385377618 0 0.012757731766675049 -0.5 0 0.035860850697740657 -0.48058278817521499 0 0.012757731766675049 -0.5 0 0.042706741076182442 -0.5 0 0.035860850697740657 -0.48058278817521499 0 0.042706741076182442 -0.5 0 0.035860850697740657 -0.48058278817521499 0 0.059678517434535033 -0.47801244589505387 0 0.045817066248641611 -0.46163348419203531 0 0.027860568818995339 -0.46497161858602248 0 0.035860850697740657 -0.48058278817521499 0 0.045817066248641611 -0.46163348419203531 0 0.035860850697740657 -0.48058278817521499 0 0.059678517434535033 -0.47801244589505387 0 0.072655750385689832 -0.5 0 0.042706741076182442 -0.5 0 0.059678517434535033 -0.47801244589505387 0 0.092379187569030852 -0.2910919660498103 0 0.086102448709897042 -0.30288481393562838 0 0.07256205909594754 -0.29378779707999841 0 0.07256205909594754 -0.29378779707999841 0 0.093485026293338297 -0.27807505429224633 0 0.07256205909594754 -0.29378779707999841 0 0.078771134090361239 -0.27516597275597238 0 0.093485026293338297 -0.27807505429224633 0 0.092379187569030852 -0.2910919660498103 0 0.07256205909594754 -0.29378779707999841 0 0.093485026293338297 -0.27807505429224633 0 0.092379187569030852 -0.2910919660498103 0 0.086102448709897042 -0.30288481393562838 0 0.1016949380004042 -0.29968733945928677 0 0.086102448709897042 -0.30288481393562838 0 0.070090139413704622 -0.30720227205337891 0 0.075051863076671582 -0.31531610677023142 0 0.086102448709897042 -0.30288481393562838 0 0.070090139413704622 -0.30720227205337891 0 0.07256205909594754 -0.29378779707999841 0 0.070090139413704622 -0.30720227205337891 0 0.07256205909594754 -0.29378779707999841 0 0.051639091898556921 -0.30950053986775039 0 0.070090139413704622 -0.30720227205337891 0 0.075051863076671582 -0.31531610677023142 0 0.065095234287450066 -0.31452210261328561 0 0.07256205909594754 -0.29378779707999841 0 0.06710752728064126 -0.27706045509720129 0 0.078771134090361239 -0.27516597275597238 0 0.07256205909594754 -0.29378779707999841 0 0.06710752728064126 -0.27706045509720129 0 0.059596176102385039 -0.28660078850954329 0 0.07256205909594754 -0.29378779707999841 0 0.059596176102385039 -0.28660078850954329 0 0.056019320517306112 -0.29565413898851173 0 0.06710752728064126 -0.27706045509720129 0 0.073660071228273782 -0.26112792501632459 0 0.060418563735530277 -0.26621368990308097 0 0.06710752728064126 -0.27706045509720129 0 0.073660071228273782 -0.26112792501632459 0 0.078771134090361239 -0.27516597275597238 0 0.073660071228273782 -0.26112792501632459 0 0.058488264317407897 -0.25391178959215921 0 0.070149338801197697 -0.24724901346322811 0 0.073660071228273782 -0.26112792501632459 0 0.058488264317407897 -0.25391178959215921 0 0.060418563735530277 -0.26621368990308097 0 0.073660071228273782 -0.26112792501632459 0 0.083813498843482354 -0.25187838508517019 0 0.070149338801197697 -0.24724901346322811 0 0.073660071228273782 -0.26112792501632459 0 0.083813498843482354 -0.25187838508517019 0 0.087040986553605343 -0.26577863229409149 0 0.083813498843482354 -0.25187838508517019 0 0.087040986553605343 -0.26577863229409149 0 0.09607853130221819 -0.2559876905097338 0 0.073660071228273782 -0.26112792501632459 0 0.078771134090361239 -0.27516597275597238 0 0.087040986553605343 -0.26577863229409149 0 0.078771134090361239 -0.27516597275597238 0 0.087040986553605343 -0.26577863229409149 0 0.093485026293338297 -0.27807505429224633 0 0.087040986553605343 -0.26577863229409149 0 0.093485026293338297 -0.27807505429224633 0 0.099564491298894803 -0.2641779344617553 0 0.093485026293338297 -0.27807505429224633 0 0.1080514657455679 -0.28102482548189162 0 0.1144079934907305 -0.26236231150449613 0 0.093485026293338297 -0.27807505429224633 0 0.099564491298894803 -0.2641779344617553 0 0.1144079934907305 -0.26236231150449613 0 0.093485026293338297 -0.27807505429224633 0 0.1144079934907305 -0.26236231150449613 0 0.087040986553605343 -0.26577863229409149 0 0.09607853130221819 -0.2559876905097338 0 0.099564491298894803 -0.2641779344617553 0 0.09607853130221819 -0.2559876905097338 0 0.099564491298894803 -0.2641779344617553 0 0.10680991885458301 -0.25868598370821061 0 0.099564491298894803 -0.2641779344617553 0 0.10680991885458301 -0.25868598370821061 0 0.1144079934907305 -0.26236231150449613 0 0.09607853130221819 -0.2559876905097338 0 0.10680991885458301 -0.25868598370821061 0 0.1063655097886899 -0.2489096852722065 0 0.10680991885458301 -0.25868598370821061 0 0.11172644864104379 -0.25391861297179569 0 0.1063655097886899 -0.2489096852722065 0 0.1144079934907305 -0.26236231150449613 0 0.1350684692576157 -0.24684669469283291 0 0.11172644864104379 -0.25391861297179569 0 0.1144079934907305 -0.26236231150449613 0 0.1182199561475889 -0.2465358444625444 0 0.1144079934907305 -0.26236231150449613 0 0.1182199561475889 -0.2465358444625444 0 0.1350684692576157 -0.24684669469283291 0 0.10680991885458301 -0.25868598370821061 0 0.11172644864104379 -0.25391861297179569 0 0.1144079934907305 -0.26236231150449613 0 0.1080514657455679 -0.28102482548189162 0 0.1144079934907305 -0.26236231150449613 0 0.1080514657455679 -0.28102482548189162 0 0.1144079934907305 -0.26236231150449613 0 0.1224418610581141 -0.27245904586119069 0 0.1313566917854731 -0.28178711457140659 0 0.1080514657455679 -0.28102482548189162 0 0.1224418610581141 -0.27245904586119069 0 0.13318625643233489 -0.26725487810420789 0 0.1144079934907305 -0.26236231150449613 0 0.1224418610581141 -0.27245904586119069 0 0.12603489230680259 -0.29469606569921131 0 0.1313566917854731 -0.28178711457140659 0 0.1080514657455679 -0.28102482548189162 0 0.12603489230680259 -0.29469606569921131 0 0.1080514657455679 -0.28102482548189162 0 0.1016949380004042 -0.29968733945928677 0 0.092379187569030852 -0.2910919660498103 0 0.093485026293338297 -0.27807505429224633 0 0.1080514657455679 -0.28102482548189162 0 0.092379187569030852 -0.2910919660498103 0 0.1080514657455679 -0.28102482548189162 0 0.1016949380004042 -0.29968733945928677 0 0.1080514657455679 -0.28102482548189162 0 0.1016949380004042 -0.29968733945928677 0 0.1016949380004042 -0.29968733945928677 0 0.093995678603195534 -0.32229206044478731 0 0.1016949380004042 -0.29968733945928677 0 0.1150346219895127 -0.30610931292864751 0 0.1069650674446152 -0.31850040833998611 0 0.086102448709897042 -0.30288481393562838 0 0.1016949380004042 -0.29968733945928677 0 0.093995678603195534 -0.32229206044478731 0 0.086102448709897042 -0.30288481393562838 0 0.1016949380004042 -0.29968733945928677 0 0.12603489230680259 -0.29469606569921131 0 0.1016949380004042 -0.29968733945928677 0 0.12603489230680259 -0.29469606569921131 0 0.1016949380004042 -0.29968733945928677 0 0.1150346219895127 -0.30610931292864751 0 0.1254435902062295 -0.31155343821610598 0 0.12603489230680259 -0.29469606569921131 0 0.1150346219895127 -0.30610931292864751 0 0.1254435902062295 -0.31155343821610598 0 0.1150346219895127 -0.30610931292864751 0 0.1069650674446152 -0.31850040833998611 0 0.1254435902062295 -0.31155343821610598 0 0.11875979988319819 -0.32829199654062707 0 0.1069650674446152 -0.31850040833998611 0 0.11875979988319819 -0.32829199654062707 0 0.1027648206060483 -0.329438879139764 0 0.1069650674446152 -0.31850040833998611 0 0.11875979988319819 -0.32829199654062707 0 0.1027648206060483 -0.329438879139764 0 0.10773040834348439 -0.33910639652191421 0 0.13305076224841009 -0.33763866110278562 0 0.11875979988319819 -0.32829199654062707 0 0.1187904180368423 -0.34189859423343799 0 0.11875979988319819 -0.32829199654062707 0 0.1187904180368423 -0.34189859423343799 0 0.10773040834348439 -0.33910639652191421 0 0.1027648206060483 -0.329438879139764 0 0.10773040834348439 -0.33910639652191421 0 0.086878246678230811 -0.34318855899052297 0 0.1027648206060483 -0.329438879139764 0 0.093995678603195534 -0.32229206044478731 0 0.086878246678230811 -0.34318855899052297 0 0.093995678603195534 -0.32229206044478731 0 0.1069650674446152 -0.31850040833998611 0 0.1027648206060483 -0.329438879139764 0 0.093995678603195534 -0.32229206044478731 0 0.1069650674446152 -0.31850040833998611 0 0.1016949380004042 -0.29968733945928677 0 0.093995678603195534 -0.32229206044478731 0 0.1069650674446152 -0.31850040833998611 0 0.13692140812311579 -0.36491915479282833 0 0.11949025226253809 -0.36510105144343308 0 0.1118998274006731 -0.35405385689167612 0 0.13692140812311579 -0.36491915479282833 0 0.1118998274006731 -0.35405385689167612 0 0.11949025226253809 -0.36510105144343308 0 0.1118998274006731 -0.35405385689167612 0 0.096983652799998252 -0.35250427092148579 0 0.12852770786045539 -0.34982988149690958 0 0.1187904180368423 -0.34189859423343799 0 0.1118998274006731 -0.35405385689167612 0 0.1187904180368423 -0.34189859423343799 0 0.10773040834348439 -0.33910639652191421 0 0.1118998274006731 -0.35405385689167612 0 0.1118998274006731 -0.35405385689167612 0 0.086878246678230811 -0.34318855899052297 0 0.11949025226253809 -0.36510105144343308 0 0.096983652799998252 -0.35250427092148579 0 0.1118998274006731 -0.35405385689167612 0 0.096983652799998252 -0.35250427092148579 0 0.086878246678230811 -0.34318855899052297 0 0.10773040834348439 -0.33910639652191421 0 0.1118998274006731 -0.35405385689167612 0 0.086878246678230811 -0.34318855899052297 0 0.1036964802601716 -0.38462563042399461 0 0.10309534498431271 -0.36798914351032791 0 0.091553094345614372 -0.36814620520138441 0 0.11949025226253809 -0.36510105144343308 0 0.096983652799998252 -0.35250427092148579 0 0.10309534498431271 -0.36798914351032791 0 0.096983652799998252 -0.35250427092148579 0 0.10309534498431271 -0.36798914351032791 0 0.091553094345614372 -0.36814620520138441 0 0.1036964802601716 -0.38462563042399461 0 0.11949025226253809 -0.36510105144343308 0 0.10309534498431271 -0.36798914351032791 0 0.096983652799998252 -0.35250427092148579 0 0.091553094345614372 -0.36814620520138441 0 0.081654372614857113 -0.35852564656919811 0 0.091553094345614372 -0.36814620520138441 0 0.081654372614857113 -0.35852564656919811 0 0.0764304985514834 -0.37386273414787308 0 0.081654372614857113 -0.35852564656919811 0 0.0764304985514834 -0.37386273414787308 0 0.096983652799998252 -0.35250427092148579 0 0.081654372614857113 -0.35852564656919811 0 0.086878246678230811 -0.34318855899052297 0 0.081654372614857113 -0.35852564656919811 0 0.086878246678230811 -0.34318855899052297 0 0.081654372614857113 -0.35852564656919811 0 0.076488702585669199 -0.34610010896877619 0 0.086878246678230811 -0.34318855899052297 0 0.076488702585669199 -0.34610010896877619 0 0.066622343860921487 -0.34410410627278332 0 0.069492009749721945 -0.35205913576025272 0 0.066622343860921487 -0.34410410627278332 0 0.069492009749721945 -0.35205913576025272 0 0.058769278513772991 -0.35102275581510423 0 0.069492009749721945 -0.35205913576025272 0 0.068487655581382964 -0.36107737881401891 0 0.058769278513772991 -0.35102275581510423 0 0.081654372614857113 -0.35852564656919811 0 0.076488702585669199 -0.34610010896877619 0 0.069492009749721945 -0.35205913576025272 0 0.081654372614857113 -0.35852564656919811 0 0.069492009749721945 -0.35205913576025272 0 0.068487655581382964 -0.36107737881401891 0 0.068487655581382964 -0.36107737881401891 0 0.0764304985514834 -0.37386273414787308 0 0.0533884220708125 -0.36476717023979027 0 0.060606266912539397 -0.37785480257624898 0 0.0764304985514834 -0.37386273414787308 0 0.0533884220708125 -0.36476717023979027 0 0.0764304985514834 -0.37386273414787308 0 0.0533884220708125 -0.36476717023979027 0 0.081654372614857113 -0.35852564656919811 0 0.068487655581382964 -0.36107737881401891 0 0.0764304985514834 -0.37386273414787308 0 0.093995678603195534 -0.32229206044478731 0 0.067875957424558583 -0.32992826420079641 0 0.093995678603195534 -0.32229206044478731 0 0.067875957424558583 -0.32992826420079641 0 0.075051863076671582 -0.31531610677023142 0 0.086102448709897042 -0.30288481393562838 0 0.093995678603195534 -0.32229206044478731 0 0.075051863076671582 -0.31531610677023142 0 0.093995678603195534 -0.32229206044478731 0 0.086878246678230811 -0.34318855899052297 0 0.093995678603195534 -0.32229206044478731 0 0.086878246678230811 -0.34318855899052297 0 0.071875589729789774 -0.33667384919413629 0 0.076488702585669199 -0.34610010896877619 0 0.086878246678230811 -0.34318855899052297 0 0.071875589729789774 -0.33667384919413629 0 0.086878246678230811 -0.34318855899052297 0 0.071875589729789774 -0.33667384919413629 0 0.093995678603195534 -0.32229206044478731 0 0.071875589729789774 -0.33667384919413629 0 0.067875957424558583 -0.32992826420079641 0 0.076488702585669199 -0.34610010896877619 0 0.066622343860921487 -0.34410410627278332 0 0.071875589729789774 -0.33667384919413629 0 0.066622343860921487 -0.34410410627278332 0 0.066178496064886683 -0.33779183827620252 0 0.056929986521688403 -0.34097694962222819 0 0.066178496064886683 -0.33779183827620252 0 0.067875957424558583 -0.32992826420079641 0 0.056929986521688403 -0.34097694962222819 0 0.066622343860921487 -0.34410410627278332 0 0.071875589729789774 -0.33667384919413629 0 0.066178496064886683 -0.33779183827620252 0 0.071875589729789774 -0.33667384919413629 0 0.066178496064886683 -0.33779183827620252 0 0.067875957424558583 -0.32992826420079641 0 0.067875957424558583 -0.32992826420079641 0 0.066879688345543226 -0.32053600932213089 0 0.059495698593492713 -0.32237756370421022 0 0.067875957424558583 -0.32992826420079641 0 0.066879688345543226 -0.32053600932213089 0 0.075051863076671582 -0.31531610677023142 0 0.066879688345543226 -0.32053600932213089 0 0.075051863076671582 -0.31531610677023142 0 0.065095234287450066 -0.31452210261328561 0 0.066879688345543226 -0.32053600932213089 0 0.065095234287450066 -0.31452210261328561 0 0.059495698593492713 -0.32237756370421022 0 0.059495698593492713 -0.32237756370421022 0 0.043812724761174301 -0.3228920473228456 0 0.051639091898556921 -0.30950053986775039 0 0.065095234287450066 -0.31452210261328561 0 0.059495698593492713 -0.32237756370421022 0 0.051639091898556921 -0.30950053986775039 0 0.067875957424558583 -0.32992826420079641 0 0.056929986521688403 -0.34097694962222819 0 0.041756236245920328 -0.33756446795680078 0 0.067875957424558583 -0.32992826420079641 0 0.059495698593492713 -0.32237756370421022 0 0.041756236245920328 -0.33756446795680078 0 0.067875957424558583 -0.32992826420079641 0 0.041756236245920328 -0.33756446795680078 0 0.056929986521688403 -0.34097694962222819 0 0.041756236245920328 -0.33756446795680078 0 0.048322599996787667 -0.34440028011003548 0 0.059495698593492713 -0.32237756370421022 0 0.041756236245920328 -0.33756446795680078 0 0.03339998385148131 -0.33447680306391953 0 0.059495698593492713 -0.32237756370421022 0 0.03339998385148131 -0.33447680306391953 0 0.041756236245920328 -0.33756446795680078 0 0.036817398930978712 -0.34710078645987102 0 0.015636515067282149 -0.34520067171280527 0 0.041756236245920328 -0.33756446795680078 0 0.048322599996787667 -0.34440028011003548 0 0.036817398930978712 -0.34710078645987102 0 0.030716124701166279 -0.32521328265550242 0 0.035686144229634092 -0.31004452002865968 0 0.051639091898556921 -0.30950053986775039 0 0.043812724761174301 -0.3228920473228456 0 0.030716124701166279 -0.32521328265550242 0 0.051639091898556921 -0.30950053986775039 0 0.059495698593492713 -0.32237756370421022 0 0.03339998385148131 -0.33447680306391953 0 0.043812724761174301 -0.3228920473228456 0 0.03339998385148131 -0.33447680306391953 0 0.043812724761174301 -0.3228920473228456 0 0.030716124701166279 -0.32521328265550242 0 0.030716124701166279 -0.32521328265550242 0 0.051639091898556921 -0.30950053986775039 0 0.060606266912539397 -0.37785480257624898 0 0.040949415155978323 -0.38199398822602099 0 0.0533884220708125 -0.36476717023979027 0 0.0533884220708125 -0.36476717023979027 0 0.058769278513772991 -0.35102275581510423 0 0.046571752808541637 -0.3515936769600651 0 0.068487655581382964 -0.36107737881401891 0 0.0533884220708125 -0.36476717023979027 0 0.058769278513772991 -0.35102275581510423 0 0.066622343860921487 -0.34410410627278332 0 0.056929986521688403 -0.34097694962222819 0 0.058769278513772991 -0.35102275581510423 0 0.058769278513772991 -0.35102275581510423 0 0.048322599996787667 -0.34440028011003548 0 0.046571752808541637 -0.3515936769600651 0 0.056929986521688403 -0.34097694962222819 0 0.058769278513772991 -0.35102275581510423 0 0.048322599996787667 -0.34440028011003548 0 0.036817398930978712 -0.34710078645987102 0 0.046571752808541637 -0.3515936769600651 0 0.030346345590141158 -0.3556716063317088 0 0.0533884220708125 -0.36476717023979027 0 0.046571752808541637 -0.3515936769600651 0 0.030346345590141158 -0.3556716063317088 0 0.048322599996787667 -0.34440028011003548 0 0.036817398930978712 -0.34710078645987102 0 0.046571752808541637 -0.3515936769600651 0 0.040949415155978323 -0.38199398822602099 0 0.02342160017485391 -0.37513277068529749 0 0.030346345590141158 -0.3556716063317088 0 0.0533884220708125 -0.36476717023979027 0 0.030346345590141158 -0.3556716063317088 0 0.040949415155978323 -0.38199398822602099 0 0.0533884220708125 -0.36476717023979027 0 0.030346345590141158 -0.3556716063317088 0 0.02342160017485391 -0.37513277068529749 0 0.030346345590141158 -0.3556716063317088 0 0.0075592713510389299 -0.3666810191343462 0 0.036817398930978712 -0.34710078645987102 0 0.030346345590141158 -0.3556716063317088 0 0.015636515067282149 -0.34520067171280527 0 0.030346345590141158 -0.3556716063317088 0 0.0073042691094695146 -0.34657604242362822 0 0.030346345590141158 -0.3556716063317088 0 0.015636515067282149 -0.34520067171280527 0 0.0073042691094695146 -0.34657604242362822 0 -0.0076206109240504324 -0.35349594087154501 0 0.0073042691094695146 -0.34657604242362822 0 0.0075592713510389299 -0.3666810191343462 0 0.030346345590141158 -0.3556716063317088 0 0.0073042691094695146 -0.34657604242362822 0 0.0075592713510389299 -0.3666810191343462 0 0.02342160017485391 -0.37513277068529749 0 0.01282181127708438 -0.3821552008354504 0 0.0075592713510389299 -0.3666810191343462 0 0.019437830055239531 -0.32037414377030832 0 0.020006050866914 -0.33267322188543919 0 0.01008138781261313 -0.32610941047694791 0 0.019437830055239531 -0.32037414377030832 0 0.030716124701166279 -0.32521328265550242 0 0.020006050866914 -0.33267322188543919 0 0.019437830055239531 -0.32037414377030832 0 0.008911475033152684 -0.31551334743627502 0 0.020971788007254091 -0.30894521218658522 0 0.019437830055239531 -0.32037414377030832 0 0.026702971748323499 -0.31614428966026392 0 0.020971788007254091 -0.30894521218658522 0 0.026702971748323499 -0.31614428966026392 0 0.030716124701166279 -0.32521328265550242 0 0.035686144229634092 -0.31004452002865968 0 0.019437830055239531 -0.32037414377030832 0 0.026702971748323499 -0.31614428966026392 0 0.030716124701166279 -0.32521328265550242 0 0.03339998385148131 -0.33447680306391953 0 0.0073042691094695146 -0.34657604242362822 0 0.020006050866914 -0.33267322188543919 0 0.03339998385148131 -0.33447680306391953 0 0.030716124701166279 -0.32521328265550242 0 0.020006050866914 -0.33267322188543919 0 0.03339998385148131 -0.33447680306391953 0 0.0073042691094695146 -0.34657604242362822 0 0.041756236245920328 -0.33756446795680078 0 0.015636515067282149 -0.34520067171280527 0 0.03339998385148131 -0.33447680306391953 0 0.015636515067282149 -0.34520067171280527 0 0.0073042691094695146 -0.34657604242362822 0 0.041756236245920328 -0.33756446795680078 0 0.03339998385148131 -0.33447680306391953 0 0.015636515067282149 -0.34520067171280527 0 0.020006050866914 -0.33267322188543919 0 0.0047812935972586972 -0.33386408607992962 0 0.01008138781261313 -0.32610941047694791 0 -0.01206333993307738 -0.3389309273689578 0 0.0073042691094695146 -0.34657604242362822 0 0.0047812935972586972 -0.33386408607992962 0 0.0073042691094695146 -0.34657604242362822 0 0.020006050866914 -0.33267322188543919 0 0.0047812935972586972 -0.33386408607992962 0 -0.001421899869626134 -0.32503082824467561 0 0.0047812935972586972 -0.33386408607992962 0 0.01008138781261313 -0.32610941047694791 0 -0.001421899869626134 -0.32503082824467561 0 0.01008138781261313 -0.32610941047694791 0 0.008911475033152684 -0.31551334743627502 0 0.019437830055239531 -0.32037414377030832 0 0.01008138781261313 -0.32610941047694791 0 0.008911475033152684 -0.31551334743627502 0 -0.001421899869626134 -0.32503082824467561 0 -0.005843262978067601 -0.31295642949440799 0 0.008911475033152684 -0.31551334743627502 0 0.008911475033152684 -0.31551334743627502 0 0.009871486307794693 -0.29915250655904557 0 0.020971788007254091 -0.30894521218658522 0 -0.005843262978067601 -0.31295642949440799 0 0.008911475033152684 -0.31551334743627502 0 0.009871486307794693 -0.29915250655904557 0 -0.004544949104850809 -0.28998090514241193 0 0.009871486307794693 -0.29915250655904557 0 0.014043657630043919 -0.27390043358365912 0 0.009871486307794693 -0.29915250655904557 0 0.02479855918633574 -0.29239098218530418 0 0.014043657630043919 -0.27390043358365912 0 0.02479855918633574 -0.29239098218530418 0 0.020971788007254091 -0.30894521218658522 0 0.035686144229634092 -0.31004452002865968 0 0.009871486307794693 -0.29915250655904557 0 0.02479855918633574 -0.29239098218530418 0 0.020971788007254091 -0.30894521218658522 0 0.026702971748323499 -0.31614428966026392 0 0.020971788007254091 -0.30894521218658522 0 0.035686144229634092 -0.31004452002865968 0 0.035686144229634092 -0.31004452002865968 0 0.042821197224448319 -0.29771798797659232 0 0.051639091898556921 -0.30950053986775039 0 0.02479855918633574 -0.29239098218530418 0 0.035686144229634092 -0.31004452002865968 0 0.042821197224448319 -0.29771798797659232 0 0.02479855918633574 -0.29239098218530418 0 0.039255357909703248 -0.28597361280205441 0 0.033356611361010438 -0.27378627615624451 0 0.02479855918633574 -0.29239098218530418 0 0.042821197224448319 -0.29771798797659232 0 0.039255357909703248 -0.28597361280205441 0 0.042821197224448319 -0.29771798797659232 0 0.039255357909703248 -0.28597361280205441 0 0.050601606301815517 -0.28905163981455229 0 0.042821197224448319 -0.29771798797659232 0 0.050601606301815517 -0.28905163981455229 0 0.056019320517306112 -0.29565413898851173 0 0.039255357909703248 -0.28597361280205441 0 0.050601606301815517 -0.28905163981455229 0 0.051690367316214771 -0.27744991156745258 0 0.050601606301815517 -0.28905163981455229 0 0.059596176102385039 -0.28660078850954329 0 0.051690367316214771 -0.27744991156745258 0 0.050601606301815517 -0.28905163981455229 0 0.059596176102385039 -0.28660078850954329 0 0.056019320517306112 -0.29565413898851173 0 0.07256205909594754 -0.29378779707999841 0 0.056019320517306112 -0.29565413898851173 0 0.051639091898556921 -0.30950053986775039 0 0.070090139413704622 -0.30720227205337891 0 0.065095234287450066 -0.31452210261328561 0 0.051639091898556921 -0.30950053986775039 0 0.07256205909594754 -0.29378779707999841 0 0.051639091898556921 -0.30950053986775039 0 0.042821197224448319 -0.29771798797659232 0 0.056019320517306112 -0.29565413898851173 0 0.051639091898556921 -0.30950053986775039 0 0.058488264317407897 -0.25391178959215921 0 0.046093924582967273 -0.26218358574847211 0 0.040631407071609768 -0.24708988655124231 0 0.058488264317407897 -0.25391178959215921 0 0.060418563735530277 -0.26621368990308097 0 0.046093924582967273 -0.26218358574847211 0 0.06710752728064126 -0.27706045509720129 0 0.060418563735530277 -0.26621368990308097 0 0.051690367316214771 -0.27744991156745258 0 0.06710752728064126 -0.27706045509720129 0 0.059596176102385039 -0.28660078850954329 0 0.051690367316214771 -0.27744991156745258 0 0.060418563735530277 -0.26621368990308097 0 0.051690367316214771 -0.27744991156745258 0 0.046093924582967273 -0.26218358574847211 0 0.051690367316214771 -0.27744991156745258 0 0.033356611361010438 -0.27378627615624451 0 0.046093924582967273 -0.26218358574847211 0 0.039255357909703248 -0.28597361280205441 0 0.051690367316214771 -0.27744991156745258 0 0.033356611361010438 -0.27378627615624451 0 0.033356611361010438 -0.27378627615624451 0 0.046093924582967273 -0.26218358574847211 0 0.029235199821819258 -0.25995830318238577 0 0.046093924582967273 -0.26218358574847211 0 0.029235199821819258 -0.25995830318238577 0 0.040631407071609768 -0.24708988655124231 0 0.029235199821819258 -0.25995830318238577 0 0.015888243333647249 -0.24894573173826789 0 0.040631407071609768 -0.24708988655124231 0 0.029235199821819258 -0.25995830318238577 0 0.014043657630043919 -0.27390043358365912 0 0.015888243333647249 -0.24894573173826789 0 0.033356611361010438 -0.27378627615624451 0 0.029235199821819258 -0.25995830318238577 0 0.014043657630043919 -0.27390043358365912 0 0.02479855918633574 -0.29239098218530418 0 0.033356611361010438 -0.27378627615624451 0 0.014043657630043919 -0.27390043358365912 0 -0.004544949104850809 -0.28998090514241193 0 -0.0046324742147398424 -0.26898054404740518 0 0.014043657630043919 -0.27390043358365912 0 -0.0046324742147398424 -0.26898054404740518 0 -0.0090460024824604059 -0.24289386846019159 0 0.015888243333647249 -0.24894573173826789 0 -0.0046324742147398424 -0.26898054404740518 0 0.014043657630043919 -0.27390043358365912 0 0.015888243333647249 -0.24894573173826789 0 -0.0046324742147398424 -0.26898054404740518 0 0.015888243333647249 -0.24894573173826789 0 -0.0090460024824604059 -0.24289386846019159 0 0.01260452160890232 -0.2238950805729579 0 0.015888243333647249 -0.24894573173826789 0 0.01260452160890232 -0.2238950805729579 0 0.034819816802138977 -0.2122241602186283 0 0.036408960882034352 -0.2289109194291305 0 0.01260452160890232 -0.2238950805729579 0 0.015888243333647249 -0.24894573173826789 0 0.036408960882034352 -0.2289109194291305 0 0.015888243333647249 -0.24894573173826789 0 0.040631407071609768 -0.24708988655124231 0 0.036408960882034352 -0.2289109194291305 0 0.015888243333647249 -0.24894573173826789 0 0.036408960882034352 -0.2289109194291305 0 -0.0067790599756983854 -0.2058708852943793 0 0.0056573586955895282 -0.1894557141447514 0 0.017974101043380219 -0.203932501286124 0 -0.0067790599756983854 -0.2058708852943793 0 0.01260452160890232 -0.2238950805729579 0 -0.0067790599756983854 -0.2058708852943793 0 0.01260452160890232 -0.2238950805729579 0 0.017974101043380219 -0.203932501286124 0 0.01260452160890232 -0.2238950805729579 0 0.017974101043380219 -0.203932501286124 0 0.034819816802138977 -0.2122241602186283 0 0.017974101043380219 -0.203932501286124 0 0.034677498349791662 -0.1948296710728486 0 0.034819816802138977 -0.2122241602186283 0 0.0056573586955895282 -0.1894557141447514 0 0.017974101043380219 -0.203932501286124 0 0.024502341748460651 -0.184991215376589 0 0.017974101043380219 -0.203932501286124 0 0.034677498349791662 -0.1948296710728486 0 0.024502341748460651 -0.184991215376589 0 0.034677498349791662 -0.1948296710728486 0 0.034819816802138977 -0.2122241602186283 0 0.048954966708612567 -0.1940752212244172 0 0.034677498349791662 -0.1948296710728486 0 0.048954966708612567 -0.1940752212244172 0 0.047136265446365837 -0.17892525725848449 0 0.034819816802138977 -0.2122241602186283 0 0.056929678430421453 -0.20887610711999319 0 0.036408960882034352 -0.2289109194291305 0 0.034819816802138977 -0.2122241602186283 0 0.048954966708612567 -0.1940752212244172 0 0.034819816802138977 -0.2122241602186283 0 0.056929678430421453 -0.20887610711999319 0 0.048954966708612567 -0.1940752212244172 0 0.056929678430421453 -0.20887610711999319 0 0.061606289433232188 -0.1919297263463681 0 0.048954966708612567 -0.1940752212244172 0 0.040631407071609768 -0.24708988655124231 0 0.036408960882034352 -0.2289109194291305 0 0.047243481042216033 -0.23521941437737501 0 0.036408960882034352 -0.2289109194291305 0 0.054888427160204097 -0.2263947916085752 0 0.047243481042216033 -0.23521941437737501 0 0.056929678430421453 -0.20887610711999319 0 0.036408960882034352 -0.2289109194291305 0 0.056929678430421453 -0.20887610711999319 0 0.036408960882034352 -0.2289109194291305 0 0.054888427160204097 -0.2263947916085752 0 0.054888427160204097 -0.2263947916085752 0 0.057449948508795382 -0.23993924562370961 0 0.047243481042216033 -0.23521941437737501 0 0.056929678430421453 -0.20887610711999319 0 0.054888427160204097 -0.2263947916085752 0 0.06850456277281898 -0.22145490063879239 0 0.054888427160204097 -0.2263947916085752 0 0.057449948508795382 -0.23993924562370961 0 0.069741330075795249 -0.23481544294848911 0 0.040631407071609768 -0.24708988655124231 0 0.057449948508795382 -0.23993924562370961 0 0.047243481042216033 -0.23521941437737501 0 0.058488264317407897 -0.25391178959215921 0 0.040631407071609768 -0.24708988655124231 0 0.057449948508795382 -0.23993924562370961 0 0.058488264317407897 -0.25391178959215921 0 0.057449948508795382 -0.23993924562370961 0 0.070149338801197697 -0.24724901346322811 0 0.057449948508795382 -0.23993924562370961 0 0.070149338801197697 -0.24724901346322811 0 0.069741330075795249 -0.23481544294848911 0 0.070149338801197697 -0.24724901346322811 0 0.069741330075795249 -0.23481544294848911 0 0.081203074028855696 -0.2403082537426047 0 0.083813498843482354 -0.25187838508517019 0 0.070149338801197697 -0.24724901346322811 0 0.081203074028855696 -0.2403082537426047 0 0.081203074028855696 -0.2403082537426047 0 0.083469997341102053 -0.22682448409882619 0 0.094748991146743455 -0.24081879548503879 0 0.083813498843482354 -0.25187838508517019 0 0.09607853130221819 -0.2559876905097338 0 0.094748991146743455 -0.24081879548503879 0 0.083813498843482354 -0.25187838508517019 0 0.081203074028855696 -0.2403082537426047 0 0.094748991146743455 -0.24081879548503879 0 0.083469997341102053 -0.22682448409882619 0 0.093638225651538079 -0.2135312617410795 0 0.098918104619869579 -0.22701137368534999 0 0.083469997341102053 -0.22682448409882619 0 0.094748991146743455 -0.24081879548503879 0 0.098918104619869579 -0.22701137368534999 0 0.069741330075795249 -0.23481544294848911 0 0.081203074028855696 -0.2403082537426047 0 0.083469997341102053 -0.22682448409882619 0 0.083469997341102053 -0.22682448409882619 0 0.06850456277281898 -0.22145490063879239 0 0.077261361481702678 -0.20892294867024749 0 0.069741330075795249 -0.23481544294848911 0 0.083469997341102053 -0.22682448409882619 0 0.06850456277281898 -0.22145490063879239 0 0.054888427160204097 -0.2263947916085752 0 0.069741330075795249 -0.23481544294848911 0 0.06850456277281898 -0.22145490063879239 0 0.056929678430421453 -0.20887610711999319 0 0.06850456277281898 -0.22145490063879239 0 0.077261361481702678 -0.20892294867024749 0 0.056929678430421453 -0.20887610711999319 0 0.077261361481702678 -0.20892294867024749 0 0.077450395978808567 -0.18884129481085579 0 0.056929678430421453 -0.20887610711999319 0 0.077450395978808567 -0.18884129481085579 0 0.056929678430421453 -0.20887610711999319 0 0.061606289433232188 -0.1919297263463681 0 0.077450395978808567 -0.18884129481085579 0 0.077261361481702678 -0.20892294867024749 0 0.077450395978808567 -0.18884129481085579 0 0.088628474922843425 -0.2004826848029522 0 0.077450395978808567 -0.18884129481085579 0 0.088628474922843425 -0.2004826848029522 0 0.099661886689796142 -0.18993291432833651 0 0.077261361481702678 -0.20892294867024749 0 0.088628474922843425 -0.2004826848029522 0 0.093638225651538079 -0.2135312617410795 0 0.083469997341102053 -0.22682448409882619 0 0.077261361481702678 -0.20892294867024749 0 0.093638225651538079 -0.2135312617410795 0 0.088628474922843425 -0.2004826848029522 0 0.093638225651538079 -0.2135312617410795 0 0.1045413621146123 -0.2042132320085224 0 0.093638225651538079 -0.2135312617410795 0 0.1045413621146123 -0.2042132320085224 0 0.11291397209360141 -0.2179585981131307 0 0.088628474922843425 -0.2004826848029522 0 0.1045413621146123 -0.2042132320085224 0 0.099661886689796142 -0.18993291432833651 0 0.1045413621146123 -0.2042132320085224 0 0.099661886689796142 -0.18993291432833651 0 0.12302115919341799 -0.19443506945732031 0 0.099661886689796142 -0.18993291432833651 0 0.12302115919341799 -0.19443506945732031 0 0.1128670553641777 -0.17989115168217959 0 0.12302115919341799 -0.19443506945732031 0 0.11291397209360141 -0.2179585981131307 0 0.13316246479522881 -0.21658203162641121 0 0.1045413621146123 -0.2042132320085224 0 0.12302115919341799 -0.19443506945732031 0 0.11291397209360141 -0.2179585981131307 0 0.11291397209360141 -0.2179585981131307 0 0.1098193368663629 -0.23592372898867439 0 0.1274855240308167 -0.2325296626274608 0 0.11291397209360141 -0.2179585981131307 0 0.1274855240308167 -0.2325296626274608 0 0.13316246479522881 -0.21658203162641121 0 0.1182199561475889 -0.2465358444625444 0 0.1098193368663629 -0.23592372898867439 0 0.1274855240308167 -0.2325296626274608 0 0.1182199561475889 -0.2465358444625444 0 0.1098193368663629 -0.23592372898867439 0 0.1063655097886899 -0.2489096852722065 0 0.11172644864104379 -0.25391861297179569 0 0.1182199561475889 -0.2465358444625444 0 0.1063655097886899 -0.2489096852722065 0 0.1098193368663629 -0.23592372898867439 0 0.1063655097886899 -0.2489096852722065 0 0.094748991146743455 -0.24081879548503879 0 0.09607853130221819 -0.2559876905097338 0 0.1063655097886899 -0.2489096852722065 0 0.094748991146743455 -0.24081879548503879 0 0.1098193368663629 -0.23592372898867439 0 0.094748991146743455 -0.24081879548503879 0 0.098918104619869579 -0.22701137368534999 0 0.11291397209360141 -0.2179585981131307 0 0.1098193368663629 -0.23592372898867439 0 0.098918104619869579 -0.22701137368534999 0 0.093638225651538079 -0.2135312617410795 0 0.11291397209360141 -0.2179585981131307 0 0.098918104619869579 -0.22701137368534999 0 0.099983022393758114 -0.14717298873357509 0 0.1084468994748579 -0.1627128633291697 0 0.081613644944801639 -0.1521428495932742 0 0.099983022393758114 -0.14717298873357509 0 0.1001265179126045 -0.12837309799365679 0 0.1167415893248477 -0.14717061995885439 0 0.099983022393758114 -0.14717298873357509 0 0.1167415893248477 -0.14717061995885439 0 0.1084468994748579 -0.1627128633291697 0 0.099983022393758114 -0.14717298873357509 0 0.1001265179126045 -0.12837309799365679 0 0.081613644944801639 -0.1521428495932742 0 0.1001265179126045 -0.12837309799365679 0 0.1167415893248477 -0.14717061995885439 0 0.12658016042901951 -0.12222825348039409 0 0.1167415893248477 -0.14717061995885439 0 0.1084468994748579 -0.1627128633291697 0 0.135280154004914 -0.17328287706506551 0 0.1084468994748579 -0.1627128633291697 0 0.135280154004914 -0.17328287706506551 0 0.1128670553641777 -0.17989115168217959 0 0.1084468994748579 -0.1627128633291697 0 0.135280154004914 -0.17328287706506551 0 0.12302115919341799 -0.19443506945732031 0 0.1128670553641777 -0.17989115168217959 0 0.135280154004914 -0.17328287706506551 0 0.099661886689796142 -0.18993291432833651 0 0.1128670553641777 -0.17989115168217959 0 0.091187273073227507 -0.1710319744210396 0 0.1128670553641777 -0.17989115168217959 0 0.1084468994748579 -0.1627128633291697 0 0.091187273073227507 -0.1710319744210396 0 0.1084468994748579 -0.1627128633291697 0 0.081613644944801639 -0.1521428495932742 0 0.091187273073227507 -0.1710319744210396 0 0.077225266521559588 -0.1577773432359949 0 0.081613644944801639 -0.1521428495932742 0 0.1084468994748579 -0.1627128633291697 0 0.091187273073227507 -0.1710319744210396 0 0.081613644944801639 -0.1521428495932742 0 0.091187273073227507 -0.1710319744210396 0 0.07723826304717045 -0.17339422367452409 0 0.077225266521559588 -0.1577773432359949 0 0.091187273073227507 -0.1710319744210396 0 0.077225266521559588 -0.1577773432359949 0 0.077450395978808567 -0.18884129481085579 0 0.099661886689796142 -0.18993291432833651 0 0.091187273073227507 -0.1710319744210396 0 0.077450395978808567 -0.18884129481085579 0 0.091187273073227507 -0.1710319744210396 0 0.07723826304717045 -0.17339422367452409 0 0.061606289433232188 -0.1919297263463681 0 0.077450395978808567 -0.18884129481085579 0 0.06309011661508615 -0.17592628223020609 0 0.077450395978808567 -0.18884129481085579 0 0.07723826304717045 -0.17339422367452409 0 0.06309011661508615 -0.17592628223020609 0 0.06309011661508615 -0.17592628223020609 0 0.077225266521559588 -0.1577773432359949 0 0.06309011661508615 -0.17592628223020609 0 0.077225266521559588 -0.1577773432359949 0 0.061564252844814427 -0.15640097025773561 0 0.07723826304717045 -0.17339422367452409 0 0.06309011661508615 -0.17592628223020609 0 0.077225266521559588 -0.1577773432359949 0 0.072484710912865499 -0.14253238921860481 0 0.080055139733801961 -0.15152893146160329 0 0.079653943589484189 -0.13183345437051081 0 0.077225266521559588 -0.1577773432359949 0 0.059376210961525143 -0.14083259768140469 0 0.077225266521559588 -0.1577773432359949 0 0.072484710912865499 -0.14253238921860481 0 0.059376210961525143 -0.14083259768140469 0 0.077225266521559588 -0.1577773432359949 0 0.059376210961525143 -0.14083259768140469 0 0.061564252844814427 -0.15640097025773561 0 0.077225266521559588 -0.1577773432359949 0 0.072484710912865499 -0.14253238921860481 0 0.080055139733801961 -0.15152893146160329 0 0.077225266521559588 -0.1577773432359949 0 0.081613644944801639 -0.1521428495932742 0 0.080055139733801961 -0.15152893146160329 0 0.077225266521559588 -0.1577773432359949 0 0.081613644944801639 -0.1521428495932742 0 0.081613644944801639 -0.1521428495932742 0 0.080055139733801961 -0.15152893146160329 0 0.079653943589484189 -0.13183345437051081 0 0.081613644944801639 -0.1521428495932742 0 0.080055139733801961 -0.15152893146160329 0 0.1001265179126045 -0.12837309799365679 0 0.081613644944801639 -0.1521428495932742 0 0.1001265179126045 -0.12837309799365679 0 0.081613644944801639 -0.1521428495932742 0 0.079653943589484189 -0.13183345437051081 0 0.072484710912865499 -0.14253238921860481 0 0.079653943589484189 -0.13183345437051081 0 0.064442921209174608 -0.12911746395878379 0 0.072484710912865499 -0.14253238921860481 0 0.064442921209174608 -0.12911746395878379 0 0.059376210961525143 -0.14083259768140469 0 0.064442921209174608 -0.12911746395878379 0 0.059376210961525143 -0.14083259768140469 0 0.041527155401492107 -0.123887852126813 0 0.059376210961525143 -0.14083259768140469 0 0.049699269404751487 -0.14608671216878369 0 0.041527155401492107 -0.123887852126813 0 0.059376210961525143 -0.14083259768140469 0 0.041527155401492107 -0.123887852126813 0 0.059376210961525143 -0.14083259768140469 0 0.055553967377414359 -0.15037841096043211 0 0.049699269404751487 -0.14608671216878369 0 0.059376210961525143 -0.14083259768140469 0 0.055553967377414359 -0.15037841096043211 0 0.061564252844814427 -0.15640097025773561 0 0.055553967377414359 -0.15037841096043211 0 0.061564252844814427 -0.15640097025773561 0 0.048366648430550878 -0.16035751865379069 0 0.055553967377414359 -0.15037841096043211 0 0.049699269404751487 -0.14608671216878369 0 0.048366648430550878 -0.16035751865379069 0 0.049699269404751487 -0.14608671216878369 0 0.035194077724611542 -0.1557638093832166 0 0.0249574293710054 -0.14270947003967041 0 0.049699269404751487 -0.14608671216878369 0 0.0249574293710054 -0.14270947003967041 0 0.049699269404751487 -0.14608671216878369 0 0.035194077724611542 -0.1557638093832166 0 0.048366648430550878 -0.16035751865379069 0 0.049699269404751487 -0.14608671216878369 0 0.0249574293710054 -0.14270947003967041 0 0.041527155401492107 -0.123887852126813 0 0.048954966708612567 -0.1940752212244172 0 0.06309011661508615 -0.17592628223020609 0 0.047136265446365837 -0.17892525725848449 0 0.061606289433232188 -0.1919297263463681 0 0.048954966708612567 -0.1940752212244172 0 0.06309011661508615 -0.17592628223020609 0 0.06309011661508615 -0.17592628223020609 0 0.047136265446365837 -0.17892525725848449 0 0.055590118229503598 -0.16752536368423729 0 0.048954966708612567 -0.1940752212244172 0 0.06309011661508615 -0.17592628223020609 0 0.047136265446365837 -0.17892525725848449 0 0.055590118229503598 -0.16752536368423729 0 0.048366648430550878 -0.16035751865379069 0 0.06309011661508615 -0.17592628223020609 0 0.055590118229503598 -0.16752536368423729 0 0.061564252844814427 -0.15640097025773561 0 0.055590118229503598 -0.16752536368423729 0 0.061564252844814427 -0.15640097025773561 0 0.048366648430550878 -0.16035751865379069 0 0.047136265446365837 -0.17892525725848449 0 0.048366648430550878 -0.16035751865379069 0 0.03575310927105442 -0.1695913155059327 0 0.035194077724611542 -0.1557638093832166 0 0.048366648430550878 -0.16035751865379069 0 0.03575310927105442 -0.1695913155059327 0 0.034677498349791662 -0.1948296710728486 0 0.047136265446365837 -0.17892525725848449 0 0.024502341748460651 -0.184991215376589 0 0.047136265446365837 -0.17892525725848449 0 0.03575310927105442 -0.1695913155059327 0 0.024502341748460651 -0.184991215376589 0 0.03575310927105442 -0.1695913155059327 0 0.024502341748460651 -0.184991215376589 0 0.017193932145695499 -0.16007403054790531 0 0.035194077724611542 -0.1557638093832166 0 0.03575310927105442 -0.1695913155059327 0 0.017193932145695499 -0.16007403054790531 0 -0.002418015923269175 -0.1617067849051334 0 0.017193932145695499 -0.16007403054790531 0 0.003401792678531715 -0.1724930295959535 0 0.0056573586955895282 -0.1894557141447514 0 0.024502341748460651 -0.184991215376589 0 0.003401792678531715 -0.1724930295959535 0 0.024502341748460651 -0.184991215376589 0 0.017193932145695499 -0.16007403054790531 0 0.003401792678531715 -0.1724930295959535 0 0.0249574293710054 -0.14270947003967041 0 0.0095175965936030865 -0.12304605425239 0 0.041527155401492107 -0.123887852126813 0 0.035194077724611542 -0.1557638093832166 0 0.017193932145695499 -0.16007403054790531 0 0.0249574293710054 -0.14270947003967041 0 -0.002418015923269175 -0.1617067849051334 0 0.017193932145695499 -0.16007403054790531 0 0.0002155893372593129 -0.13933222791055699 0 0.017193932145695499 -0.16007403054790531 0 0.0249574293710054 -0.14270947003967041 0 0.0002155893372593129 -0.13933222791055699 0 0.0249574293710054 -0.14270947003967041 0 0.0002155893372593129 -0.13933222791055699 0 0.0249574293710054 -0.14270947003967041 0 0.0002155893372593129 -0.13933222791055699 0 0.0095175965936030865 -0.12304605425239 0 -0.006714885710061895 -0.11986792212527519 0 0.0002155893372593129 -0.13933222791055699 0 0.0095175965936030865 -0.12304605425239 0 -0.006714885710061895 -0.11986792212527519 0 0.0095175965936030865 -0.12304605425239 0 0.0060466925886505643 -0.1049605887765548 0 0.0095175965936030865 -0.12304605425239 0 0.023678099841459171 -0.10694310657222129 0 0.0060466925886505643 -0.1049605887765548 0 0.0095175965936030865 -0.12304605425239 0 0.023678099841459171 -0.10694310657222129 0 0.041527155401492107 -0.123887852126813 0 0.023678099841459171 -0.10694310657222129 0 0.01090641579337821 -0.093292384463203148 0 0.021796985322468671 -0.08206717754114895 0 0.023678099841459171 -0.10694310657222129 0 0.021796985322468671 -0.08206717754114895 0 0.042591397864371897 -0.10339159118551711 0 0.023678099841459171 -0.10694310657222129 0 0.0060466925886505643 -0.1049605887765548 0 0.01090641579337821 -0.093292384463203148 0 -0.001263811914146808 -0.091988355269103608 0 0.0060466925886505643 -0.1049605887765548 0 0.01090641579337821 -0.093292384463203148 0 -0.001263811914146808 -0.091988355269103608 0 0.0042741131284594726 -0.080502694156987076 0 0.01090641579337821 -0.093292384463203148 0 0.0042741131284594726 -0.080502694156987076 0 0.01090641579337821 -0.093292384463203148 0 0.021796985322468671 -0.08206717754114895 0 0.0042741131284594726 -0.080502694156987076 0 0.0086210651613012734 -0.066602068005781945 0 0.021796985322468671 -0.08206717754114895 0 -0.0075685770819698926 -0.068976070717414059 0 0.0042741131284594726 -0.080502694156987076 0 0.0086210651613012734 -0.066602068005781945 0 0.0086210651613012734 -0.066602068005781945 0 0.021796985322468671 -0.08206717754114895 0 0.0086210651613012734 -0.066602068005781945 0 0.028712771934947569 -0.067660167133776844 0 0.027302088738712989 -0.0639364142465733 0 0.0086210651613012734 -0.066602068005781945 0 0.028712771934947569 -0.067660167133776844 0 0.021796985322468671 -0.08206717754114895 0 0.028712771934947569 -0.067660167133776844 0 0.027302088738712989 -0.0639364142465733 0 0.028712771934947569 -0.067660167133776844 0 0.021796985322468671 -0.08206717754114895 0 0.048237336959609647 -0.085218720321579511 0 0.021796985322468671 -0.08206717754114895 0 0.048237336959609647 -0.085218720321579511 0 0.042591397864371897 -0.10339159118551711 0 0.027302088738712989 -0.0639364142465733 0 0.048237336959609647 -0.085218720321579511 0 0.028712771934947569 -0.067660167133776844 0 0.027302088738712989 -0.0639364142465733 0 0.048237336959609647 -0.085218720321579511 0 0.027302088738712989 -0.0639364142465733 0 0.048237336959609647 -0.085218720321579511 0 0.043687764766838513 -0.060212191689462187 0 0.048237336959609647 -0.085218720321579511 0 0.061231411511129402 -0.058485725423290461 0 0.070337773317301136 -0.078552325806240525 0 0.048237336959609647 -0.085218720321579511 0 0.043687764766838513 -0.060212191689462187 0 0.061231411511129402 -0.058485725423290461 0 0.048237336959609647 -0.085218720321579511 0 0.069172585180506133 -0.1065010263965859 0 0.048237336959609647 -0.085218720321579511 0 0.042591397864371897 -0.10339159118551711 0 0.069172585180506133 -0.1065010263965859 0 0.064442921209174608 -0.12911746395878379 0 0.041527155401492107 -0.123887852126813 0 0.069172585180506133 -0.1065010263965859 0 0.041527155401492107 -0.123887852126813 0 0.042591397864371897 -0.10339159118551711 0 0.069172585180506133 -0.1065010263965859 0 0.023678099841459171 -0.10694310657222129 0 0.041527155401492107 -0.123887852126813 0 0.023678099841459171 -0.10694310657222129 0 0.041527155401492107 -0.123887852126813 0 0.042591397864371897 -0.10339159118551711 0 0.01913511904158063 0.0086210074943256394 0 0.025868214287481921 -0.0103645310064698 0 0.01565328096706934 -0.0039403827831331287 0 0.01913511904158063 0.0086210074943256394 0 0.025868214287481921 -0.0103645310064698 0 0.031597608936509813 -0.0039279399428496231 0 0.01913511904158063 0.0086210074943256394 0 0.025868214287481921 -0.0103645310064698 0 0.025868214287481921 -0.0103645310064698 0 0.034210758108404953 -0.01315131280022184 0 0.031597608936509813 -0.0039279399428496231 0 0.025868214287481921 -0.0103645310064698 0 0.017575289542240441 -0.012343588802676079 0 0.020517136740299001 -0.021391388697694729 0 0.025868214287481921 -0.0103645310064698 0 0.017575289542240441 -0.012343588802676079 0 0.01565328096706934 -0.0039403827831331287 0 0.01008691607334981 0.0041923708565834994 0 0.01565328096706934 -0.0039403827831331287 0 0.0082625261741114814 -0.013678052723406669 0 0.017575289542240441 -0.012343588802676079 0 0.01565328096706934 -0.0039403827831331287 0 0.0082625261741114814 -0.013678052723406669 0 0.0082625261741114814 -0.013678052723406669 0 0.01875820577150043 -0.04138329321131734 0 -0.00075528267675825851 -0.03036709894775437 0 -0.0049491953562397877 -0.0175343341480187 0 0.0082625261741114814 -0.013678052723406669 0 -0.00075528267675825851 -0.03036709894775437 0 0.0082625261741114814 -0.013678052723406669 0 0.01875820577150043 -0.04138329321131734 0 0.017575289542240441 -0.012343588802676079 0 0.0082625261741114814 -0.013678052723406669 0 0.020517136740299001 -0.021391388697694729 0 0.025868214287481921 -0.0103645310064698 0 0.032601309533383208 -0.029350069507265208 0 0.025868214287481921 -0.0103645310064698 0 0.032601309533383208 -0.029350069507265208 0 0.034210758108404953 -0.01315131280022184 0 0.0082625261741114814 -0.013678052723406669 0 0.020517136740299001 -0.021391388697694729 0 0.01875820577150043 -0.04138329321131734 0 0.025868214287481921 -0.0103645310064698 0 0.020517136740299001 -0.021391388697694729 0 0.032601309533383208 -0.029350069507265208 0 0.020517136740299001 -0.021391388697694729 0 0.01875820577150043 -0.04138329321131734 0 0.032601309533383208 -0.029350069507265208 0 -0.00075528267675825851 -0.03036709894775437 0 0.01875820577150043 -0.04138329321131734 0 0.009148036929516639 -0.045481410368510708 0 -0.00075528267675825851 -0.03036709894775437 0 -0.00084959469947161318 -0.04078921980705226 0 0.009148036929516639 -0.045481410368510708 0 -0.00084959469947161318 -0.04078921980705226 0 -0.0045548549998684022 -0.051136958470416737 0 0.009148036929516639 -0.045481410368510708 0 0.01875820577150043 -0.04138329321131734 0 0.009148036929516639 -0.045481410368510708 0 0.0086210651613012734 -0.066602068005781945 0 0.027302088738712989 -0.0639364142465733 0 0.009148036929516639 -0.045481410368510708 0 -0.0045548549998684022 -0.051136958470416737 0 0.0086210651613012734 -0.066602068005781945 0 0.009148036929516639 -0.045481410368510708 0 -0.0045548549998684022 -0.051136958470416737 0 0.009148036929516639 -0.045481410368510708 0 -0.0045548549998684022 -0.051136958470416737 0 0.0086210651613012734 -0.066602068005781945 0 0.027302088738712989 -0.0639364142465733 0 0.01875820577150043 -0.04138329321131734 0 0.009148036929516639 -0.045481410368510708 0 0.027302088738712989 -0.0639364142465733 0 0.009148036929516639 -0.045481410368510708 0 0.027302088738712989 -0.0639364142465733 0 0.01875820577150043 -0.04138329321131734 0 0.036356248882897027 -0.048115834405990057 0 0.027302088738712989 -0.0639364142465733 0 0.01875820577150043 -0.04138329321131734 0 0.027302088738712989 -0.0639364142465733 0 0.036356248882897027 -0.048115834405990057 0 0.043687764766838513 -0.060212191689462187 0 0.036356248882897027 -0.048115834405990057 0 0.043687764766838513 -0.060212191689462187 0 0.049793294235511341 -0.044876443606149008 0 0.043687764766838513 -0.060212191689462187 0 0.061231411511129402 -0.058485725423290461 0 0.049793294235511341 -0.044876443606149008 0 0.061231411511129402 -0.058485725423290461 0 0.049793294235511341 -0.044876443606149008 0 0.062924839874337793 -0.038658160307670011 0 0.049793294235511341 -0.044876443606149008 0 0.044463300718488363 -0.030628854142798891 0 0.062924839874337793 -0.038658160307670011 0 0.01875820577150043 -0.04138329321131734 0 0.044463300718488363 -0.030628854142798891 0 0.036356248882897027 -0.048115834405990057 0 0.049793294235511341 -0.044876443606149008 0 0.044463300718488363 -0.030628854142798891 0 0.01875820577150043 -0.04138329321131734 0 0.032601309533383208 -0.029350069507265208 0 0.044463300718488363 -0.030628854142798891 0 0.01875820577150043 -0.04138329321131734 0 0.036356248882897027 -0.048115834405990057 0 0.044463300718488363 -0.030628854142798891 0 0.042054294666138102 -0.016073747787127061 0 0.044463300718488363 -0.030628854142798891 0 0.053516701536537842 -0.01465579725814491 0 0.032601309533383208 -0.029350069507265208 0 0.042054294666138102 -0.016073747787127061 0 0.034210758108404953 -0.01315131280022184 0 0.032601309533383208 -0.029350069507265208 0 0.042054294666138102 -0.016073747787127061 0 0.044463300718488363 -0.030628854142798891 0 0.044463300718488363 -0.030628854142798891 0 0.070168395665476613 -0.01987441507428114 0 0.062924839874337793 -0.038658160307670011 0 0.044463300718488363 -0.030628854142798891 0 0.070168395665476613 -0.01987441507428114 0 0.044463300718488363 -0.030628854142798891 0 0.053516701536537842 -0.01465579725814491 0 0.070168395665476613 -0.01987441507428114 0 0.042054294666138102 -0.016073747787127061 0 0.053516701536537842 -0.01465579725814491 0 0.04812698845273166 -0.002445301108796889 0 0.053516701536537842 -0.01465579725814491 0 0.062013967520400802 -0.0042462096768786442 0 0.070168395665476613 -0.01987441507428114 0 0.053516701536537842 -0.01465579725814491 0 0.062013967520400802 -0.0042462096768786442 0 0.04812698845273166 -0.002445301108796889 0 0.037876654679761437 0.00088407560193540572 0 0.04812698845273166 -0.002445301108796889 0 0.038851188552285927 -0.0065007703747518436 0 0.042054294666138102 -0.016073747787127061 0 0.04812698845273166 -0.002445301108796889 0 0.038851188552285927 -0.0065007703747518436 0 0.042054294666138102 -0.016073747787127061 0 0.034210758108404953 -0.01315131280022184 0 0.038851188552285927 -0.0065007703747518436 0 0.034210758108404953 -0.01315131280022184 0 0.031597608936509813 -0.0039279399428496231 0 0.038851188552285927 -0.0065007703747518436 0 0.037876654679761437 0.00088407560193540572 0 0.031597608936509813 -0.0039279399428496231 0 0.038851188552285927 -0.0065007703747518436 0 0.070168395665476613 -0.01987441507428114 0 0.095873490612464862 -0.0091199760057633986 0 0.076709230922832189 0.001922789365138874 0 0.070168395665476613 -0.01987441507428114 0 0.095873490612464862 -0.0091199760057633986 0 0.076709230922832189 0.001922789365138874 0 0.062013967520400802 -0.0042462096768786442 0 0.070168395665476613 -0.01987441507428114 0 0.070168395665476613 -0.01987441507428114 0 0.099183584113133216 -0.03341562290599677 0 0.095873490612464862 -0.0091199760057633986 0 0.070168395665476613 -0.01987441507428114 0 0.079392113871067288 -0.043447537190652599 0 0.099183584113133216 -0.03341562290599677 0 0.061231411511129402 -0.058485725423290461 0 0.079392113871067288 -0.043447537190652599 0 0.062924839874337793 -0.038658160307670011 0 0.070168395665476613 -0.01987441507428114 0 0.079392113871067288 -0.043447537190652599 0 0.062924839874337793 -0.038658160307670011 0 0.061231411511129402 -0.058485725423290461 0 0.079392113871067288 -0.043447537190652599 0 0.091195060932193456 -0.064492217235475088 0 0.079392113871067288 -0.043447537190652599 0 0.099183584113133216 -0.03341562290599677 0 0.091195060932193456 -0.064492217235475088 0 0.1140441951415582 -0.05098912915330818 0 0.099183584113133216 -0.03341562290599677 0 0.091195060932193456 -0.064492217235475088 0 0.1140441951415582 -0.05098912915330818 0 0.11784193686185269 -0.072635596145103759 0 0.13468969076388301 -0.055590174659641528 0 0.1140441951415582 -0.05098912915330818 0 0.099183584113133216 -0.03341562290599677 0 0.1273107030367287 -0.028812034820323761 0 0.099183584113133216 -0.03341562290599677 0 0.1111577599333094 -0.018514214630740839 0 0.095873490612464862 -0.0091199760057633986 0 0.099183584113133216 -0.03341562290599677 0 0.1111577599333094 -0.018514214630740839 0 0.1273107030367287 -0.028812034820323761 0 0.1111577599333094 -0.018514214630740839 0 0.1199317153095743 -0.0020338949810060208 0 0.1273107030367287 -0.028812034820323761 0 0.1199317153095743 -0.0020338949810060208 0 0.1273107030367287 -0.028812034820323761 0 0.1111577599333094 -0.018514214630740839 0 0.1199317153095743 -0.0020338949810060208 0 0.095873490612464862 -0.0091199760057633986 0 0.088001275048294469 -0.11072733009789321 0 0.084991640612509731 -0.091483269444355392 0 0.10606168794636781 -0.095445802284356993 0 0.088001275048294469 -0.11072733009789321 0 0.069172585180506133 -0.1065010263965859 0 0.084991640612509731 -0.091483269444355392 0 0.1001265179126045 -0.12837309799365679 0 0.079653943589484189 -0.13183345437051081 0 0.088001275048294469 -0.11072733009789321 0 0.079653943589484189 -0.13183345437051081 0 0.088001275048294469 -0.11072733009789321 0 0.069172585180506133 -0.1065010263965859 0 0.079653943589484189 -0.13183345437051081 0 0.064442921209174608 -0.12911746395878379 0 0.069172585180506133 -0.1065010263965859 0 0.069172585180506133 -0.1065010263965859 0 0.070337773317301136 -0.078552325806240525 0 0.084991640612509731 -0.091483269444355392 0 0.048237336959609647 -0.085218720321579511 0 0.069172585180506133 -0.1065010263965859 0 0.070337773317301136 -0.078552325806240525 0 0.061231411511129402 -0.058485725423290461 0 0.070337773317301136 -0.078552325806240525 0 0.091195060932193456 -0.064492217235475088 0 0.070337773317301136 -0.078552325806240525 0 0.091195060932193456 -0.064492217235475088 0 0.084991640612509731 -0.091483269444355392 0 0.091195060932193456 -0.064492217235475088 0 0.084991640612509731 -0.091483269444355392 0 0.10606168794636781 -0.095445802284356993 0 0.091195060932193456 -0.064492217235475088 0 0.11784193686185269 -0.072635596145103759 0 0.10606168794636781 -0.095445802284356993 0 0.1140441951415582 -0.05098912915330818 0 0.091195060932193456 -0.064492217235475088 0 0.11784193686185269 -0.072635596145103759 0 0.11784193686185269 -0.072635596145103759 0 0.10606168794636781 -0.095445802284356993 0 0.1282866591214353 -0.098669840823228702 0 0.1001265179126045 -0.12837309799365679 0 0.088001275048294469 -0.11072733009789321 0 0.10606168794636781 -0.095445802284356993 0 0.1001265179126045 -0.12837309799365679 0 0.10606168794636781 -0.095445802284356993 0 0.12658016042901951 -0.12222825348039409 0 0.10606168794636781 -0.095445802284356993 0 0.12658016042901951 -0.12222825348039409 0 0.1282866591214353 -0.098669840823228702 0 0.12658016042901951 -0.12222825348039409 0 0.14944766621819169 -0.10914645433827699 0 0.1282866591214353 -0.098669840823228702 0 0.14944766621819169 -0.10914645433827699 0 0.14206867849103741 -0.082368314498959289 0 0.1755518708445572 -0.094507357887893079 0 0.12658016042901951 -0.12222825348039409 0 0.14944766621819169 -0.10914645433827699 0 0.15682665394534609 -0.13592459417759481 0 0.14944766621819169 -0.10914645433827699 0 0.15682665394534609 -0.13592459417759481 0 0.14944766621819169 -0.10914645433827699 0 0.14206867849103741 -0.082368314498959289 0 0.14944766621819169 -0.10914645433827699 0 0.1282866591214353 -0.098669840823228702 0 0.14206867849103741 -0.082368314498959289 0 0.11784193686185269 -0.072635596145103759 0 0.1282866591214353 -0.098669840823228702 0 0.14206867849103741 -0.082368314498959289 0 0.11784193686185269 -0.072635596145103759 0 0.14206867849103741 -0.082368314498959289 0 0.13468969076388301 -0.055590174659641528 0 0.14206867849103741 -0.082368314498959289 0 0.13468969076388301 -0.055590174659641528 0 0.14206867849103741 -0.082368314498959289 0 0.13468969076388301 -0.055590174659641528 0 0.1519402211569359 -0.061329373081188042 0 0.14206867849103741 -0.082368314498959289 0 0.1696807615923232 -0.069658067853714964 0 0.1519402211569359 -0.061329373081188042 0 0.14206867849103741 -0.082368314498959289 0 0.1696807615923232 -0.069658067853714964 0 0.1755518708445572 -0.094507357887893079 0 0.1696807615923232 -0.069658067853714964 0 0.18601611525882419 -0.049958059086684888 0 0.19762724245645311 -0.075523766636357306 0 0.1696807615923232 -0.069658067853714964 0 0.1755518708445572 -0.094507357887893079 0 0.19762724245645311 -0.075523766636357306 0 0.1755518708445572 -0.094507357887893079 0 0.1693456221859278 -0.11432709247044991 0 0.19020191765368469 -0.1133632988662078 0 0.1693456221859278 -0.11432709247044991 0 0.19020191765368469 -0.1133632988662078 0 0.18344542014302531 -0.12852944417862161 0 0.14944766621819169 -0.10914645433827699 0 0.1693456221859278 -0.11432709247044991 0 0.15682665394534609 -0.13592459417759481 0 0.14944766621819169 -0.10914645433827699 0 0.1755518708445572 -0.094507357887893079 0 0.1693456221859278 -0.11432709247044991 0 0.1405465305075351 -0.003726063561556271 0 0.15106439181969741 -0.020724909973068979 0 0.15959246971988511 -0.0045329482719538598 0 0.1199317153095743 -0.0020338949810060208 0 0.1405465305075351 -0.003726063561556271 0 0.1273107030367287 -0.028812034820323761 0 0.1405465305075351 -0.003726063561556271 0 0.1273107030367287 -0.028812034820323761 0 0.15106439181969741 -0.020724909973068979 0 0.15106439181969741 -0.020724909973068979 0 0.14376943026831529 -0.036442767149083073 0 0.1614537976524589 -0.034332868348943793 0 0.1273107030367287 -0.028812034820323761 0 0.15106439181969741 -0.020724909973068979 0 0.14376943026831529 -0.036442767149083073 0 0.14376943026831529 -0.036442767149083073 0 0.15479090912224011 -0.046353229822162743 0 0.1614537976524589 -0.034332868348943793 0 0.14376943026831529 -0.036442767149083073 0 0.15479090912224011 -0.046353229822162743 0 0.13468969076388301 -0.055590174659641528 0 0.1273107030367287 -0.028812034820323761 0 0.13468969076388301 -0.055590174659641528 0 0.1140441951415582 -0.05098912915330818 0 0.1273107030367287 -0.028812034820323761 0 0.13468969076388301 -0.055590174659641528 0 0.1273107030367287 -0.028812034820323761 0 0.14376943026831529 -0.036442767149083073 0 0.13468969076388301 -0.055590174659641528 0 0.15479090912224011 -0.046353229822162743 0 0.13468969076388301 -0.055590174659641528 0 0.1519402211569359 -0.061329373081188042 0 0.1696807615923232 -0.069658067853714964 0 0.1519402211569359 -0.061329373081188042 0 0.16724899131785501 -0.053863060618175133 0 0.15479090912224011 -0.046353229822162743 0 0.16724899131785501 -0.053863060618175133 0 0.1738169494589514 -0.042016573247125058 0 0.15479090912224011 -0.046353229822162743 0 0.1519402211569359 -0.061329373081188042 0 0.16724899131785501 -0.053863060618175133 0 0.1696807615923232 -0.069658067853714964 0 0.16724899131785501 -0.053863060618175133 0 0.18601611525882419 -0.049958059086684888 0 0.16724899131785501 -0.053863060618175133 0 0.18601611525882419 -0.049958059086684888 0 0.1738169494589514 -0.042016573247125058 0 0.18601611525882419 -0.049958059086684888 0 0.1738169494589514 -0.042016573247125058 0 0.1744049880611957 -0.02439235153701259 0 0.1738169494589514 -0.042016573247125058 0 0.17125493471982001 -0.02768747962508513 0 0.1744049880611957 -0.02439235153701259 0 0.18601611525882419 -0.049958059086684888 0 0.1744049880611957 -0.02439235153701259 0 0.18573760745152501 -0.03115719388979547 0 0.18601611525882419 -0.049958059086684888 0 0.1744049880611957 -0.02439235153701259 0 0.1738169494589514 -0.042016573247125058 0 0.1614537976524589 -0.034332868348943793 0 0.17125493471982001 -0.02768747962508513 0 0.15479090912224011 -0.046353229822162743 0 0.1738169494589514 -0.042016573247125058 0 0.1614537976524589 -0.034332868348943793 0 0.15106439181969741 -0.020724909973068979 0 0.1614537976524589 -0.034332868348943793 0 0.1607776129284417 -0.022510590509060631 0 0.1614537976524589 -0.034332868348943793 0 0.1607776129284417 -0.022510590509060631 0 0.1649776447218938 -0.027201079573365979 0 0.15106439181969741 -0.020724909973068979 0 0.1607776129284417 -0.022510590509060631 0 0.16452590188361879 -0.015379052456768681 0 0.1607776129284417 -0.022510590509060631 0 0.16796399431720679 -0.02265359855047264 0 0.16452590188361879 -0.015379052456768681 0 0.16796399431720679 -0.02265359855047264 0 0.17184288358827091 -0.018751037601542831 0 0.16452590188361879 -0.015379052456768681 0 0.16796399431720679 -0.02265359855047264 0 0.17184288358827091 -0.018751037601542831 0 0.1744049880611957 -0.02439235153701259 0 0.1614537976524589 -0.034332868348943793 0 0.1649776447218938 -0.027201079573365979 0 0.17125493471982001 -0.02768747962508513 0 0.16796399431720679 -0.02265359855047264 0 0.17125493471982001 -0.02768747962508513 0 0.1744049880611957 -0.02439235153701259 0 0.16796399431720679 -0.02265359855047264 0 0.1649776447218938 -0.027201079573365979 0 0.17125493471982001 -0.02768747962508513 0 0.1607776129284417 -0.022510590509060631 0 0.16796399431720679 -0.02265359855047264 0 0.1649776447218938 -0.027201079573365979 0 0.1744049880611957 -0.02439235153701259 0 0.19302235070246099 -0.0049175719327250282 0 0.18778325864684281 -0.019703975794474572 0 0.17125493471982001 -0.02768747962508513 0 0.1744049880611957 -0.02439235153701259 0 0.1744049880611957 -0.02439235153701259 0 0.18573760745152501 -0.03115719388979547 0 0.18778325864684281 -0.019703975794474572 0 0.17184288358827091 -0.018751037601542831 0 0.1744049880611957 -0.02439235153701259 0 0.17654708086319809 -0.010253420227287161 0 0.17184288358827091 -0.018751037601542831 0 0.1744049880611957 -0.02439235153701259 0 0.17355832690626291 0.0061767596233742684 0 0.17654708086319809 -0.010253420227287161 0 0.19302235070246099 -0.0049175719327250282 0 0.17184288358827091 -0.018751037601542831 0 0.17654708086319809 -0.010253420227287161 0 0.16921333259224711 -0.0085479397868356496 0 0.1744049880611957 -0.02439235153701259 0 0.19302235070246099 -0.0049175719327250282 0 0.1744049880611957 -0.02439235153701259 0 0.17654708086319809 -0.010253420227287161 0 0.19302235070246099 -0.0049175719327250282 0 0.17355832690626291 0.0061767596233742684 0 0.17654708086319809 -0.010253420227287161 0 0.16921333259224711 -0.0085479397868356496 0 0.17355832690626291 0.0061767596233742684 0 0.16921333259224711 -0.0085479397868356496 0 0.15959246971988511 -0.0045329482719538598 0 0.15106439181969741 -0.020724909973068979 0 0.16452590188361879 -0.015379052456768681 0 0.15959246971988511 -0.0045329482719538598 0 0.16921333259224711 -0.0085479397868356496 0 0.16452590188361879 -0.015379052456768681 0 0.15959246971988511 -0.0045329482719538598 0 0.17184288358827091 -0.018751037601542831 0 0.16921333259224711 -0.0085479397868356496 0 0.16452590188361879 -0.015379052456768681 0 0.21216641885567369 -0.0026323268736598488 0 0.21475360450289391 -0.016673905914070711 0 0.2254233362482346 -0.0059296518762354672 0 0.21216641885567369 -0.0026323268736598488 0 0.2029468995360654 -0.01057448216143987 0 0.21475360450289391 -0.016673905914070711 0 0.19302235070246099 -0.0049175719327250282 0 0.2029468995360654 -0.01057448216143987 0 0.21216641885567369 -0.0026323268736598488 0 0.19302235070246099 -0.0049175719327250282 0 0.2029468995360654 -0.01057448216143987 0 0.19302235070246099 -0.0049175719327250282 0 0.19484949674465449 -0.01420204660023074 0 0.18778325864684281 -0.019703975794474572 0 0.19302235070246099 -0.0049175719327250282 0 0.19484949674465449 -0.01420204660023074 0 0.2029468995360654 -0.01057448216143987 0 0.19484949674465449 -0.01420204660023074 0 0.2029468995360654 -0.01057448216143987 0 0.20129167268974421 -0.021606606316700441 0 0.19484949674465449 -0.01420204660023074 0 0.20129167268974421 -0.021606606316700441 0 0.19103045022336479 -0.024580811788562602 0 0.19484949674465449 -0.01420204660023074 0 0.18778325864684281 -0.019703975794474572 0 0.19103045022336479 -0.024580811788562602 0 0.18573760745152501 -0.03115719388979547 0 0.19103045022336479 -0.024580811788562602 0 0.19490284878679989 -0.034468583189941837 0 0.18573760745152501 -0.03115719388979547 0 0.18778325864684281 -0.019703975794474572 0 0.19103045022336479 -0.024580811788562602 0 0.20129167268974421 -0.021606606316700441 0 0.2093953362936733 -0.02986990502191051 0 0.19490284878679989 -0.034468583189941837 0 0.20129167268974421 -0.021606606316700441 0 0.19103045022336479 -0.024580811788562602 0 0.19490284878679989 -0.034468583189941837 0 0.2029468995360654 -0.01057448216143987 0 0.20129167268974421 -0.021606606316700441 0 0.21475360450289391 -0.016673905914070711 0 0.20129167268974421 -0.021606606316700441 0 0.2093953362936733 -0.02986990502191051 0 0.21475360450289391 -0.016673905914070711 0 0.2093953362936733 -0.02986990502191051 0 0.21475360450289391 -0.016673905914070711 0 0.22481196105646131 -0.027698845352653882 0 0.2093953362936733 -0.02986990502191051 0 0.21927050104984641 -0.040572480582025283 0 0.22481196105646131 -0.027698845352653882 0 0.2093953362936733 -0.02986990502191051 0 0.20575620918881049 -0.040971857186556028 0 0.21927050104984641 -0.040572480582025283 0 0.20575620918881049 -0.040971857186556028 0 0.21029618735359321 -0.054568882504124207 0 0.21927050104984641 -0.040572480582025283 0 0.2093953362936733 -0.02986990502191051 0 0.20575620918881049 -0.040971857186556028 0 0.19490284878679989 -0.034468583189941837 0 0.18601611525882419 -0.049958059086684888 0 0.20575620918881049 -0.040971857186556028 0 0.19490284878679989 -0.034468583189941837 0 0.18601611525882419 -0.049958059086684888 0 0.18573760745152501 -0.03115719388979547 0 0.19490284878679989 -0.034468583189941837 0 0.18601611525882419 -0.049958059086684888 0 0.20575620918881049 -0.040971857186556028 0 0.21029618735359321 -0.054568882504124207 0 0.18601611525882419 -0.049958059086684888 0 0.21029618735359321 -0.054568882504124207 0 0.19762724245645311 -0.075523766636357306 0 0.21029618735359321 -0.054568882504124207 0 0.23008205626063721 -0.053406935739747842 0 0.2206806441852712 -0.068425222535173871 0 0.21029618735359321 -0.054568882504124207 0 0.23008205626063721 -0.053406935739747842 0 0.21927050104984641 -0.040572480582025283 0 0.23008205626063721 -0.053406935739747842 0 0.24736554779663281 -0.053834145597800601 0 0.23912145806584881 -0.067891137864554849 0 0.23008205626063721 -0.053406935739747842 0 0.24736554779663281 -0.053834145597800601 0 0.23528125614590301 -0.036918457687159248 0 0.24736554779663281 -0.053834145597800601 0 0.23528125614590301 -0.036918457687159248 0 0.25275087365011317 -0.04370674236447121 0 0.24736554779663281 -0.053834145597800601 0 0.23528125614590301 -0.036918457687159248 0 0.25275087365011317 -0.04370674236447121 0 0.25077728659984849 -0.033570913194676998 0 0.23528125614590301 -0.036918457687159248 0 0.23528125614590301 -0.036918457687159248 0 0.21927050104984641 -0.040572480582025283 0 0.22481196105646131 -0.027698845352653882 0 0.23008205626063721 -0.053406935739747842 0 0.23528125614590301 -0.036918457687159248 0 0.21927050104984641 -0.040572480582025283 0 0.21475360450289391 -0.016673905914070711 0 0.22481196105646131 -0.027698845352653882 0 0.22822927536932219 -0.016625801964709142 0 0.22481196105646131 -0.027698845352653882 0 0.22822927536932219 -0.016625801964709142 0 0.23945899212226321 -0.02273902744957574 0 0.23528125614590301 -0.036918457687159248 0 0.22481196105646131 -0.027698845352653882 0 0.23945899212226321 -0.02273902744957574 0 0.22481196105646131 -0.027698845352653882 0 0.23945899212226321 -0.02273902744957574 0 0.25077728659984849 -0.033570913194676998 0 0.23528125614590301 -0.036918457687159248 0 0.23945899212226321 -0.02273902744957574 0 0.25077728659984849 -0.033570913194676998 0 0.25410602318806491 -0.017779209546496959 0 0.23945899212226321 -0.02273902744957574 0 0.25410602318806491 -0.017779209546496959 0 0.23945899212226321 -0.02273902744957574 0 0.23669848291675799 -0.010087579231009929 0 0.25410602318806491 -0.017779209546496959 0 0.23945899212226321 -0.02273902744957574 0 0.22822927536932219 -0.016625801964709142 0 0.23945899212226321 -0.02273902744957574 0 0.23669848291675799 -0.010087579231009929 0 0.25410602318806491 -0.017779209546496959 0 0.23669848291675799 -0.010087579231009929 0 0.24656239287624979 -0.001609643027110886 0 0.23469694437165051 0.0022618289873079442 0 0.23669848291675799 -0.010087579231009929 0 0.24656239287624979 -0.001609643027110886 0 0.23469694437165051 0.0022618289873079442 0 0.23669848291675799 -0.010087579231009929 0 0.2254233362482346 -0.0059296518762354672 0 0.22822927536932219 -0.016625801964709142 0 0.23669848291675799 -0.010087579231009929 0 0.2254233362482346 -0.0059296518762354672 0 0.21475360450289391 -0.016673905914070711 0 0.22822927536932219 -0.016625801964709142 0 0.2254233362482346 -0.0059296518762354672 0 0.22547492372744191 0.0080188387317456696 0 0.21216641885567369 -0.0026323268736598488 0 0.2254233362482346 -0.0059296518762354672 0 0.1755518708445572 -0.094507357887893079 0 0.20923836965408191 -0.1010894741860297 0 0.19020191765368469 -0.1133632988662078 0 0.20923836965408191 -0.1010894741860297 0 0.21683732001926251 -0.084053572693515863 0 0.225876521039376 -0.096995726761353013 0 0.20923836965408191 -0.1010894741860297 0 0.2041398311098056 -0.1189751379039404 0 0.2152416759613838 -0.12535095755155279 0 0.20923836965408191 -0.1010894741860297 0 0.22084949685171071 -0.126655181735702 0 0.2152416759613838 -0.12535095755155279 0 0.20923836965408191 -0.1010894741860297 0 0.22322758708845719 -0.1111294948383192 0 0.22084949685171071 -0.126655181735702 0 0.20923836965408191 -0.1010894741860297 0 0.22084949685171071 -0.126655181735702 0 0.2041398311098056 -0.1189751379039404 0 0.2152416759613838 -0.12535095755155279 0 0.20614832198692251 -0.12900274025391709 0 0.20923836965408191 -0.1010894741860297 0 0.2041398311098056 -0.1189751379039404 0 0.19020191765368469 -0.1133632988662078 0 0.2041398311098056 -0.1189751379039404 0 0.20614832198692251 -0.12900274025391709 0 0.19816815603860191 -0.12602561926434969 0 0.2041398311098056 -0.1189751379039404 0 0.19020191765368469 -0.1133632988662078 0 0.19816815603860191 -0.12602561926434969 0 0.19020191765368469 -0.1133632988662078 0 0.19816815603860191 -0.12602561926434969 0 0.18344542014302531 -0.12852944417862161 0 0.1755518708445572 -0.094507357887893079 0 0.20923836965408191 -0.1010894741860297 0 0.19762724245645311 -0.075523766636357306 0 0.18601611525882419 -0.049958059086684888 0 0.19762724245645311 -0.075523766636357306 0 0.19762724245645311 -0.075523766636357306 0 0.21683732001926251 -0.084053572693515863 0 0.2206806441852712 -0.068425222535173871 0 0.21029618735359321 -0.054568882504124207 0 0.19762724245645311 -0.075523766636357306 0 0.2206806441852712 -0.068425222535173871 0 0.20923836965408191 -0.1010894741860297 0 0.19762724245645311 -0.075523766636357306 0 0.21683732001926251 -0.084053572693515863 0 0.20923836965408191 -0.1010894741860297 0 0.19762724245645311 -0.075523766636357306 0 0.23122398119348561 -0.080466983045752755 0 0.24100035896340991 -0.094941167193429279 0 0.225876521039376 -0.096995726761353013 0 0.21683732001926251 -0.084053572693515863 0 0.23122398119348561 -0.080466983045752755 0 0.225876521039376 -0.096995726761353013 0 0.21683732001926251 -0.084053572693515863 0 0.23122398119348561 -0.080466983045752755 0 0.2206806441852712 -0.068425222535173871 0 0.23008205626063721 -0.053406935739747842 0 0.2206806441852712 -0.068425222535173871 0 0.23912145806584881 -0.067891137864554849 0 0.23122398119348561 -0.080466983045752755 0 0.2206806441852712 -0.068425222535173871 0 0.23912145806584881 -0.067891137864554849 0 0.25944983944736238 -0.070749833508441939 0 0.23912145806584881 -0.067891137864554849 0 0.24638683794405891 -0.082697016457499467 0 0.25944983944736238 -0.070749833508441939 0 0.24736554779663281 -0.053834145597800601 0 0.23912145806584881 -0.067891137864554849 0 0.23122398119348561 -0.080466983045752755 0 0.23912145806584881 -0.067891137864554849 0 0.24638683794405891 -0.082697016457499467 0 0.23122398119348561 -0.080466983045752755 0 0.24638683794405891 -0.082697016457499467 0 0.24100035896340991 -0.094941167193429279 0 0.25402839497114488 -0.093857092198295577 0 0.24638683794405891 -0.082697016457499467 0 0.24100035896340991 -0.094941167193429279 0 0.25402839497114488 -0.093857092198295577 0 0.25254718802103132 -0.10546850549454349 0 0.24100035896340991 -0.094941167193429279 0 0.25254718802103132 -0.10546850549454349 0 0.24100035896340991 -0.094941167193429279 0 0.23671035970026191 -0.1094486583464829 0 0.24100035896340991 -0.094941167193429279 0 0.225876521039376 -0.096995726761353013 0 0.23671035970026191 -0.1094486583464829 0 0.20923836965408191 -0.1010894741860297 0 0.225876521039376 -0.096995726761353013 0 0.22322758708845719 -0.1111294948383192 0 0.225876521039376 -0.096995726761353013 0 0.22322758708845719 -0.1111294948383192 0 0.23671035970026191 -0.1094486583464829 0 0.22322758708845719 -0.1111294948383192 0 0.22943003258241229 -0.11929652408691641 0 0.22084949685171071 -0.126655181735702 0 0.22322758708845719 -0.1111294948383192 0 0.22943003258241229 -0.11929652408691641 0 0.23671035970026191 -0.1094486583464829 0 0.22943003258241229 -0.11929652408691641 0 0.23768046167787171 -0.1223229055971238 0 0.2306309771006631 -0.12684455424313701 0 0.22943003258241229 -0.11929652408691641 0 0.2306309771006631 -0.12684455424313701 0 0.22084949685171071 -0.126655181735702 0 0.25254718802103132 -0.10546850549454349 0 0.23671035970026191 -0.1094486583464829 0 0.24821263709402919 -0.1162187856054635 0 0.22943003258241229 -0.11929652408691641 0 0.23768046167787171 -0.1223229055971238 0 0.23671035970026191 -0.1094486583464829 0 0.23768046167787171 -0.1223229055971238 0 0.23671035970026191 -0.1094486583464829 0 0.24821263709402919 -0.1162187856054635 0 0.23768046167787171 -0.1223229055971238 0 0.24821263709402919 -0.1162187856054635 0 0.2483435644377624 -0.13175635756617041 0 0.2483435644377624 -0.13175635756617041 0 0.23246062404933959 -0.15222088928537431 0 0.23325413523365179 -0.13644094667406911 0 0.23768046167787171 -0.1223229055971238 0 0.2483435644377624 -0.13175635756617041 0 0.2370089742007695 -0.12934186837844319 0 0.2483435644377624 -0.13175635756617041 0 0.2370089742007695 -0.12934186837844319 0 0.23325413523365179 -0.13644094667406911 0 0.23768046167787171 -0.1223229055971238 0 0.2370089742007695 -0.12934186837844319 0 0.2306309771006631 -0.12684455424313701 0 0.2483435644377624 -0.13175635756617041 0 0.2471258885357954 -0.14370832591476229 0 0.23246062404933959 -0.15222088928537431 0 0.2483435644377624 -0.13175635756617041 0 0.23246062404933959 -0.15222088928537431 0 0.25214313431266688 -0.15023369533696251 0 0.24789019007645899 -0.15533074058044111 0 0.2421846489305691 -0.15085296548060539 0 0.24789019007645899 -0.15533074058044111 0 0.2421846489305691 -0.15085296548060539 0 0.2437054226257129 -0.16011939907152251 0 0.25214313431266688 -0.15023369533696251 0 0.2471258885357954 -0.14370832591476229 0 0.2421846489305691 -0.15085296548060539 0 0.2471258885357954 -0.14370832591476229 0 0.2421846489305691 -0.15085296548060539 0 0.23246062404933959 -0.15222088928537431 0 0.2421846489305691 -0.15085296548060539 0 0.23806169680408801 -0.15450353576535369 0 0.23246062404933959 -0.15222088928537431 0 0.2421846489305691 -0.15085296548060539 0 0.23806169680408801 -0.15450353576535369 0 0.2437054226257129 -0.16011939907152251 0 0.23806169680408801 -0.15450353576535369 0 0.23246062404933959 -0.15222088928537431 0 0.23475612237493779 -0.15727518228157841 0 0.22073839551909441 -0.14279658273975579 0 0.22623511507680369 -0.16024220792795929 0 0.22073839551909441 -0.14279658273975579 0 0.21394621286413121 -0.15662343154520739 0 0.22623511507680369 -0.16024220792795929 0 0.22073839551909441 -0.14279658273975579 0 0.23246062404933959 -0.15222088928537431 0 0.22623511507680369 -0.16024220792795929 0 0.23246062404933959 -0.15222088928537431 0 0.22623511507680369 -0.16024220792795929 0 0.23246062404933959 -0.15222088928537431 0 0.23475612237493779 -0.15727518228157841 0 0.23246062404933959 -0.15222088928537431 0 0.22084949685171071 -0.126655181735702 0 0.22073839551909441 -0.14279658273975579 0 0.23246062404933959 -0.15222088928537431 0 0.22084949685171071 -0.126655181735702 0 0.23246062404933959 -0.15222088928537431 0 0.23325413523365179 -0.13644094667406911 0 0.22084949685171071 -0.126655181735702 0 0.22073839551909441 -0.14279658273975579 0 0.22084949685171071 -0.126655181735702 0 0.2152416759613838 -0.12535095755155279 0 0.2306309771006631 -0.12684455424313701 0 0.23325413523365179 -0.13644094667406911 0 0.22084949685171071 -0.126655181735702 0 0.2370089742007695 -0.12934186837844319 0 0.2306309771006631 -0.12684455424313701 0 0.23325413523365179 -0.13644094667406911 0 0.20614832198692251 -0.12900274025391709 0 0.21272734199020021 -0.13571785401611189 0 0.19706317632591419 -0.13885693373834021 0 0.22073839551909441 -0.14279658273975579 0 0.2152416759613838 -0.12535095755155279 0 0.21272734199020021 -0.13571785401611189 0 0.2152416759613838 -0.12535095755155279 0 0.20614832198692251 -0.12900274025391709 0 0.21272734199020021 -0.13571785401611189 0 0.22073839551909441 -0.14279658273975579 0 0.2152416759613838 -0.12535095755155279 0 0.21272734199020021 -0.13571785401611189 0 0.2006702615489443 -0.16237533191551831 0 0.22073839551909441 -0.14279658273975579 0 0.21272734199020021 -0.13571785401611189 0 0.21394621286413121 -0.15662343154520739 0 0.21272734199020021 -0.13571785401611189 0 0.19706317632591419 -0.13885693373834021 0 0.2006702615489443 -0.16237533191551831 0 0.21272734199020021 -0.13571785401611189 0 0.2006702615489443 -0.16237533191551831 0 0.21394621286413121 -0.15662343154520739 0 0.19706317632591419 -0.13885693373834021 0 0.2006702615489443 -0.16237533191551831 0 0.18067198380592209 -0.1496732810150456 0 0.19816815603860191 -0.12602561926434969 0 0.19706317632591419 -0.13885693373834021 0 0.18344542014302531 -0.12852944417862161 0 0.20614832198692251 -0.12900274025391709 0 0.19816815603860191 -0.12602561926434969 0 0.19706317632591419 -0.13885693373834021 0 0.2006702615489443 -0.16237533191551831 0 0.1886131811076884 -0.18903280981492451 0 0.18182074919980229 -0.16965064806328631 0 0.2006702615489443 -0.16237533191551831 0 0.20935995018561179 -0.18198518112669201 0 0.1886131811076884 -0.18903280981492451 0 0.2006702615489443 -0.16237533191551831 0 0.1886131811076884 -0.18903280981492451 0 0.2006702615489443 -0.16237533191551831 0 0.18067198380592209 -0.1496732810150456 0 0.18182074919980229 -0.16965064806328631 0 0.2006702615489443 -0.16237533191551831 0 0.21394621286413121 -0.15662343154520739 0 0.20935995018561179 -0.18198518112669201 0 0.20935995018561179 -0.18198518112669201 0 0.22623511507680369 -0.16024220792795929 0 0.21394621286413121 -0.15662343154520739 0 0.20935995018561179 -0.18198518112669201 0 0.22623511507680369 -0.16024220792795929 0 0.23414269085101461 -0.1853394685132585 0 0.22623511507680369 -0.16024220792795929 0 0.20935995018561179 -0.18198518112669201 0 0.23414269085101461 -0.1853394685132585 0 0.22623511507680369 -0.16024220792795929 0 0.23246062404933959 -0.15222088928537431 0 0.22623511507680369 -0.16024220792795929 0 0.23475612237493779 -0.15727518228157841 0 0.23414269085101461 -0.1853394685132585 0 0.22623511507680369 -0.16024220792795929 0 0.2452765122205415 -0.16998614656189939 0 0.22623511507680369 -0.16024220792795929 0 0.23475612237493779 -0.15727518228157841 0 0.2452765122205415 -0.16998614656189939 0 0.23806169680408801 -0.15450353576535369 0 0.23475612237493779 -0.15727518228157841 0 0.2437054226257129 -0.16011939907152251 0 0.23475612237493779 -0.15727518228157841 0 0.2452765122205415 -0.16998614656189939 0 0.2437054226257129 -0.16011939907152251 0 0.25352755443688729 -0.1601169024326741 0 0.2452765122205415 -0.16998614656189939 0 0.2437054226257129 -0.16011939907152251 0 0.25352755443688729 -0.1601169024326741 0 0.24789019007645899 -0.15533074058044111 0 0.2437054226257129 -0.16011939907152251 0 0.25092871208070161 -0.19041052172442141 0 0.23414269085101461 -0.1853394685132585 0 0.2452765122205415 -0.16998614656189939 0 0.23414269085101461 -0.1853394685132585 0 0.24205026662522411 -0.2104367290985581 0 0.25092871208070161 -0.19041052172442141 0 0.23414269085101461 -0.1853394685132585 0 0.24205026662522411 -0.2104367290985581 0 0.25741030546475419 -0.2066920726656192 0 0.24205026662522411 -0.2104367290985581 0 0.24995784239943369 -0.23553398968385769 0 0.2259692559329983 -0.20635243474177661 0 0.22796517733372321 -0.22272502091772631 0 0.21365200467588041 -0.21513454323977191 0 0.24205026662522411 -0.2104367290985581 0 0.2259692559329983 -0.20635243474177661 0 0.22796517733372321 -0.22272502091772631 0 0.23414269085101461 -0.1853394685132585 0 0.2259692559329983 -0.20635243474177661 0 0.21203614017914921 -0.1981264119395682 0 0.23414269085101461 -0.1853394685132585 0 0.24205026662522411 -0.2104367290985581 0 0.2259692559329983 -0.20635243474177661 0 0.24801406841138859 -0.26503151629225269 0 0.24995784239943369 -0.23553398968385769 0 0.24230190280796091 -0.23593171753397571 0 0.2366288388485647 -0.25089574325935388 0 0.24230190280796091 -0.23593171753397571 0 0.227971822830278 -0.23902270676914761 0 0.24205026662522411 -0.2104367290985581 0 0.24995784239943369 -0.23553398968385769 0 0.24205026662522411 -0.2104367290985581 0 0.24230190280796091 -0.23593171753397571 0 0.22796517733372321 -0.22272502091772631 0 0.24205026662522411 -0.2104367290985581 0 0.24995784239943369 -0.23553398968385769 0 0.24230190280796091 -0.23593171753397571 0 0.24230190280796091 -0.23593171753397571 0 0.22796517733372321 -0.22272502091772631 0 0.227971822830278 -0.23902270676914761 0 0.22796517733372321 -0.22272502091772631 0 0.2154187201415467 -0.23145137798848389 0 0.21365200467588041 -0.21513454323977191 0 0.22796517733372321 -0.22272502091772631 0 0.227971822830278 -0.23902270676914761 0 0.2154187201415467 -0.23145137798848389 0 0.22728837571761409 -0.25203792864756591 0 0.21067109270918549 -0.25130096950976011 0 0.227971822830278 -0.23902270676914761 0 0.2366288388485647 -0.25089574325935388 0 0.22728837571761409 -0.25203792864756591 0 0.227971822830278 -0.23902270676914761 0 0.21067109270918549 -0.25130096950976011 0 0.2154187201415467 -0.23145137798848389 0 0.20138298065842189 -0.23828936285005861 0 0.21067109270918549 -0.25130096950976011 0 0.227971822830278 -0.23902270676914761 0 0.2154187201415467 -0.23145137798848389 0 0.2154187201415467 -0.23145137798848389 0 0.19595066059431779 -0.22365208446483939 0 0.2154187201415467 -0.23145137798848389 0 0.19595066059431779 -0.22365208446483939 0 0.21365200467588041 -0.21513454323977191 0 0.2154187201415467 -0.23145137798848389 0 0.19595066059431779 -0.22365208446483939 0 0.20138298065842189 -0.23828936285005861 0 0.19595066059431779 -0.22365208446483939 0 0.20138298065842189 -0.23828936285005861 0 0.18028062907998191 -0.23178856559847891 0 0.21067109270918549 -0.25130096950976011 0 0.20138298065842189 -0.23828936285005861 0 0.18798798277450729 -0.24631021389562671 0 0.20138298065842189 -0.23828936285005861 0 0.18798798277450729 -0.24631021389562671 0 0.18028062907998191 -0.23178856559847891 0 0.20935995018561179 -0.18198518112669201 0 0.21203614017914921 -0.1981264119395682 0 0.19633855970604289 -0.20083404444509451 0 0.20935995018561179 -0.18198518112669201 0 0.23414269085101461 -0.1853394685132585 0 0.21203614017914921 -0.1981264119395682 0 0.19595066059431779 -0.22365208446483939 0 0.21365200467588041 -0.21513454323977191 0 0.2003374583685468 -0.20912635985652861 0 0.21203614017914921 -0.1981264119395682 0 0.21365200467588041 -0.21513454323977191 0 0.2003374583685468 -0.20912635985652861 0 0.2259692559329983 -0.20635243474177661 0 0.21203614017914921 -0.1981264119395682 0 0.21365200467588041 -0.21513454323977191 0 0.2003374583685468 -0.20912635985652861 0 0.19248478529442159 -0.20372815432542621 0 0.19633855970604289 -0.20083404444509451 0 0.19595066059431779 -0.22365208446483939 0 0.2003374583685468 -0.20912635985652861 0 0.19246582462243519 -0.21326903779218381 0 0.19595066059431779 -0.22365208446483939 0 0.19246582462243519 -0.21326903779218381 0 0.18253555400999991 -0.21654733983028149 0 0.19246582462243519 -0.21326903779218381 0 0.19248478529442159 -0.20372815432542621 0 0.18253555400999991 -0.21654733983028149 0 0.2003374583685468 -0.20912635985652861 0 0.19246582462243519 -0.21326903779218381 0 0.19248478529442159 -0.20372815432542621 0 0.19248478529442159 -0.20372815432542621 0 0.18253555400999991 -0.21654733983028149 0 0.20935995018561179 -0.18198518112669201 0 0.19248478529442159 -0.20372815432542621 0 0.20935995018561179 -0.18198518112669201 0 0.19248478529442159 -0.20372815432542621 0 0.19633855970604289 -0.20083404444509451 0 0.21203614017914921 -0.1981264119395682 0 0.2003374583685468 -0.20912635985652861 0 0.19633855970604289 -0.20083404444509451 0 0.20935995018561179 -0.18198518112669201 0 0.19248478529442159 -0.20372815432542621 0 0.1886131811076884 -0.18903280981492451 0 0.19248478529442159 -0.20372815432542621 0 0.19633855970604289 -0.20083404444509451 0 0.19248478529442159 -0.20372815432542621 0 0.1886131811076884 -0.18903280981492451 0 0.17647604083497001 -0.21578617990834631 0 0.1886131811076884 -0.18903280981492451 0 0.17647604083497001 -0.21578617990834631 0 0.17180620888887529 -0.19668549020049669 0 0.1886131811076884 -0.18903280981492451 0 0.17180620888887529 -0.19668549020049669 0 0.1760958196764407 -0.18269535116519811 0 0.1886131811076884 -0.18903280981492451 0 0.17647604083497001 -0.21578617990834631 0 0.19595066059431779 -0.22365208446483939 0 0.17647604083497001 -0.21578617990834631 0 0.18253555400999991 -0.21654733983028149 0 0.19248478529442159 -0.20372815432542621 0 0.17647604083497001 -0.21578617990834631 0 0.18253555400999991 -0.21654733983028149 0 0.19248478529442159 -0.20372815432542621 0 0.17647604083497001 -0.21578617990834631 0 0.17647604083497001 -0.21578617990834631 0 0.14970528999240401 -0.20512526526341629 0 0.17647604083497001 -0.21578617990834631 0 0.17180620888887529 -0.19668549020049669 0 0.14970528999240401 -0.20512526526341629 0 0.17647604083497001 -0.21578617990834631 0 0.15572894502450241 -0.23133107788117149 0 0.14970528999240401 -0.20512526526341629 0 0.17180620888887529 -0.19668549020049669 0 0.14970528999240401 -0.20512526526341629 0 0.16211340853497011 -0.18385289080096129 0 0.17180620888887529 -0.19668549020049669 0 0.1760958196764407 -0.18269535116519811 0 0.16211340853497011 -0.18385289080096129 0 0.17427845624665819 -0.25144174813813908 0 0.17708055527832561 -0.24226671014892631 0 0.16577515301215501 -0.23952631296346041 0 0.17427845624665819 -0.25144174813813908 0 0.18798798277450729 -0.24631021389562671 0 0.17708055527832561 -0.24226671014892631 0 0.18798798277450729 -0.24631021389562671 0 0.17708055527832561 -0.24226671014892631 0 0.18028062907998191 -0.23178856559847891 0 0.17708055527832561 -0.24226671014892631 0 0.18028062907998191 -0.23178856559847891 0 0.16577515301215501 -0.23952631296346041 0 0.19595066059431779 -0.22365208446483939 0 0.17647604083497001 -0.21578617990834631 0 0.17647604083497001 -0.21578617990834631 0 0.18028062907998191 -0.23178856559847891 0 0.16577515301215501 -0.23952631296346041 0 0.19595066059431779 -0.22365208446483939 0 0.17647604083497001 -0.21578617990834631 0 0.18028062907998191 -0.23178856559847891 0 0.17647604083497001 -0.21578617990834631 0 0.16577515301215501 -0.23952631296346041 0 0.15572894502450241 -0.23133107788117149 0 0.17647604083497001 -0.21578617990834631 0 0.15572894502450241 -0.23133107788117149 0 0.17647604083497001 -0.21578617990834631 0 0.16577515301215501 -0.23952631296346041 0 0.15506770497722169 -0.26319983498572402 0 0.16577515301215501 -0.23952631296346041 0 0.1513268151752192 -0.24698270925710791 0 0.16577515301215501 -0.23952631296346041 0 0.1513268151752192 -0.24698270925710791 0 0.15572894502450241 -0.23133107788117149 0 0.1513268151752192 -0.24698270925710791 0 0.15572894502450241 -0.23133107788117149 0 0.1350684692576157 -0.24684669469283291 0 0.15572894502450241 -0.23133107788117149 0 0.1350684692576157 -0.24684669469283291 0 0.15572894502450241 -0.23133107788117149 0 0.1274855240308167 -0.2325296626274608 0 0.13316246479522881 -0.21658203162641121 0 0.15572894502450241 -0.23133107788117149 0 0.1274855240308167 -0.2325296626274608 0 0.1350684692576157 -0.24684669469283291 0 0.1182199561475889 -0.2465358444625444 0 0.1274855240308167 -0.2325296626274608 0 0.1350684692576157 -0.24684669469283291 0 0.14253000293142651 -0.18917402564669081 0 0.14970528999240401 -0.20512526526341629 0 0.16211340853497011 -0.18385289080096129 0 0.15572894502450241 -0.23133107788117149 0 0.14970528999240401 -0.20512526526341629 0 0.13316246479522881 -0.21658203162641121 0 0.12302115919341799 -0.19443506945732031 0 0.14970528999240401 -0.20512526526341629 0 0.13316246479522881 -0.21658203162641121 0 0.12302115919341799 -0.19443506945732031 0 0.14253000293142651 -0.18917402564669081 0 0.14970528999240401 -0.20512526526341629 0 0.12302115919341799 -0.19443506945732031 0 0.14970528999240401 -0.20512526526341629 0 0.12302115919341799 -0.19443506945732031 0 0.14253000293142651 -0.18917402564669081 0 0.135280154004914 -0.17328287706506551 0 0.14253000293142651 -0.18917402564669081 0 0.135280154004914 -0.17328287706506551 0 0.16211340853497011 -0.18385289080096129 0 0.135280154004914 -0.17328287706506551 0 0.16211340853497011 -0.18385289080096129 0 0.135280154004914 -0.17328287706506551 0 0.1470620794367358 -0.15814765298990671 0 0.16211340853497011 -0.18385289080096129 0 0.135280154004914 -0.17328287706506551 0 0.1470620794367358 -0.15814765298990671 0 0.13420357454678569 -0.14657773119727249 0 0.1167415893248477 -0.14717061995885439 0 0.135280154004914 -0.17328287706506551 0 0.13420357454678569 -0.14657773119727249 0 0.1167415893248477 -0.14717061995885439 0 0.12658016042901951 -0.12222825348039409 0 0.13420357454678569 -0.14657773119727249 0 0.12658016042901951 -0.12222825348039409 0 0.13420357454678569 -0.14657773119727249 0 0.15682665394534609 -0.13592459417759481 0 0.1470620794367358 -0.15814765298990671 0 0.13420357454678569 -0.14657773119727249 0 0.15682665394534609 -0.13592459417759481 0 0.1470620794367358 -0.15814765298990671 0 0.15682665394534609 -0.13592459417759481 0 0.16420564167250051 -0.1627027340169126 0 0.15682665394534609 -0.13592459417759481 0 0.16420564167250051 -0.1627027340169126 0 0.15682665394534609 -0.13592459417759481 0 0.18067198380592209 -0.1496732810150456 0 0.16420564167250051 -0.1627027340169126 0 0.1693456221859278 -0.11432709247044991 0 0.15682665394534609 -0.13592459417759481 0 0.18344542014302531 -0.12852944417862161 0 0.15682665394534609 -0.13592459417759481 0 0.18344542014302531 -0.12852944417862161 0 0.18067198380592209 -0.1496732810150456 0 0.19706317632591419 -0.13885693373834021 0 0.18344542014302531 -0.12852944417862161 0 0.18067198380592209 -0.1496732810150456 0 0.18067198380592209 -0.1496732810150456 0 0.18182074919980229 -0.16965064806328631 0 0.16420564167250051 -0.1627027340169126 0 0.18182074919980229 -0.16965064806328631 0 0.1760958196764407 -0.18269535116519811 0 0.16420564167250051 -0.1627027340169126 0 0.1886131811076884 -0.18903280981492451 0 0.18182074919980229 -0.16965064806328631 0 0.1760958196764407 -0.18269535116519811 0 0.1760958196764407 -0.18269535116519811 0 0.16211340853497011 -0.18385289080096129 0 0.16420564167250051 -0.1627027340169126 0 0.1470620794367358 -0.15814765298990671 0 0.16211340853497011 -0.18385289080096129 0 0.16420564167250051 -0.1627027340169126 0 
</DataArray>
</Points>
<Cells>
<DataArray type="UInt32" Name="connectivity" format="ascii">
0 1 2 3 4 5 6 7 8 9 10 11 12 13 14 15 16 17 18 19 20 21 22 23 24 25 26 27 28 29 30 31 32 33 34 35 36 37 38 39 40 41 42 43 44 45 46 47 48 49 50 51 52 53 54 55 56 57 58 59 60 61 62 63 64 65 66 67 68 69 70 71 72 73 74 75 76 77 78 79 80 81 82 83 84 85 86 87 88 89 90 91 92 93 94 95 96 97 98 99 100 101 102 103 104 105 106 107 108 109 110 111 112 113 114 115 116 117 118 119 120 121 122 123 124 125 126 127 128 129 130 131 132 133 134 135 136 137 138 139 140 141 142 143 144 145 146 147 148 149 150 151 152 153 154 155 156 157 158 159 160 161 162 163 164 165 166 167 168 169 170 171 172 173 174 175 176 177 178 179 180 181 182 183 184 185 186 187 188 189 190 191 192 193 194 195 196 197 198 199 200 201 202 203 204 205 206 207 208 209 210 211 212 213 214 215 216 217 218 219 220 221 222 223 224 225 226 227 228 229 230 231 232 233 234 235 236 237 238 239 240 241 242 243 244 245 246 247 248 249 250 251 252 253 254 255 256 257 258 259 260 261 262 263 264 265 266 267 268 269 270 271 272 273 274 275 276 277 278 279 280 281 282 283 284 285 286 287 288 289 290 291 292 293 294 295 296 297 298 299 300 301 302 303 304 305 306 307 308 309 310 311 312 313 314 315 316 317 318 319 320 321 322 323 324 325 326 327 328 329 330 331 332 333 334 335 336 337 338 339 340 341 342 343 344 345 346 347 348 349 350 351 352 353 354 355 356 357 358 359 360 361 362 363 364 365 366 367 368 369 370 371 372 373 374 375 376 377 378 379 380 381 382 383 384 385 386 387 388 389 390 391 392 393 394 395 396 397 398 399 400 401 402 403 404 405 406 407 408 409 410 411 412 413 414 415 416 417 418 419 420 421 422 423 424 425 426 427 428 429 430 431 432 433 434 435 436 437 438 439 440 441 442 443 444 445 446 447 448 449 450 451 452 453 454 455 456 457 458 459 460 461 462 463 464 465 466 467 468 469 470 471 472 473 474 475 476 477 478 479 480 481 482 483 484 485 486 487 488 489 490 491 492 493 494 495 496 497 498 499 500 501 502 503 504 505 506 507 508 509 510 511 512 513 514 515 516 517 518 519 520 521 522 523 524 525 526 527 528 529 530 531 532 533 534 535 536 537 538 539 540 541 542 543 544 545 546 547 548 549 550 551 552 553 554 555 556 557 558 559 560 561 562 563 564 565 566 567 568 569 570 571 572 573 574 575 576 577 578 579 580 581 582 583 584 585 586 587 588 589 590 591 592 593 594 595 596 597 598 599 600 601 602 603 604 605 606 607 608 609 610 611 612 613 614 615 616 617 618 619 620 621 622 623 624 625 626 627 628 629 630 631 632 633 634 635 636 637 638 639 640 641 642 643 644 645 646 647 648 649 650 651 652 653 654 655 656 657 658 659 660 661 662 663 664 665 666 667 668 669 670 671 672 673 674 675 676 677 678 679 680 681 682 683 684 685 686 687 688 689 690 691 692 693 694 695 696 697 698 699 700 701 702 703 704 705 706 707 708 709 710 711 712 713 714 715 716 717 718 719 720 721 722 723 724 725 726 727 728 729 730 731 732 733 734 735 736 737 738 739 740 741 742 743 744 745 746 747 748 749 750 751 752 753 754 755 756 757 758 759 760 761 762 763 764 765 766 767 768 769 770 771 772 773 774 775 776 777 778 779 780 781 782 783 784 785 786 787 788 789 790 791 792 793 794 795 796 797 798 799 800 801 802 803 804 805 806 807 808 809 810 811 812 813 814 815 816 817 818 819 820 821 822 823 824 825 826 827 828 829 830 831 832 833 834 835 836 837 838 839 840 841 842 843 844 845 846 847 848 849 850 851 852 853 854 855 856 857 858 859 860 861 862 863 864 865 866 867 868 869 870 871 872 873 874 875 876 877 878 879 880 881 882 883 884 885 886 887 888 889 890 891 892 893 894 895 896 897 898 899 900 901 902 903 904 905 906 907 908 909 910 911 912 913 914 915 916 917 918 919 920 921 922 923 924 925 926 927 928 929 930 931 932 933 934 935 936 937 938 939 940 941 942 943 944 945 946 947 948 949 950 951 952 953 954 955 956 957 958 959 960 961 962 963 964 965 966 967 968 969 970 971 972 973 974 975 976 977 978 979 980 981 982 983 984 985 986 987 988 989 990 991 992 993 994 995 996 997 998 999 1000 1001 1002 1003 1004 1005 1006 1007 1008 1009 1010 1011 1012 1013 1014 1015 1016 1017 1018 1019 1020 1021 1022 1023 1024 1025 1026 1027 1028 1029 1030 1031 1032 1033 1034 1035 1036 1037 1038 1039 1040 1041 1042 1043 1044 1045 1046 1047 1048 1049 1050 1051 1052 1053 1054 1055 1056 1057 1058 1059 1060 1061 1062 1063 1064 1065 1066 1067 1068 1069 1070 1071 1072 1073 1074 1075 1076 1077 1078 1079 1080 1081 1082 1083 1084 1085 1086 1087 1088 1089 1090 1091 1092 1093 1094 1095 1096 1097 1098 1099 1100 1101 1102 1103 1104 1105 1106 1107 1108 1109 1110 1111 1112 1113 1114 1115 1116 1117 1118 1119 1120 1121 1122 1123 1124 1125 1126 1127 1128 1129 1130 1131 1132 1133 1134 1135 1136 1137 1138 1139 1140 1141 1142 1143 1144 1145 1146 1147 1148 1149 1150 1151 1152 1153 1154 1155 1156 1157 1158 1159 1160 1161 1162 1163 1164 1165 1166 1167 1168 1169 1170 1171 1172 1173 1174 1175 1176 1177 1178 1179 1180 1181 1182 1183 1184 1185 1186 1187 1188 1189 1190 1191 1192 1193 1194 1195 1196 1197 1198 1199 1200 1201 1202 1203 1204 1205 1206 1207 1208 1209 1210 1211 1212 1213 1214 1215 1216 1217 1218 1219 1220 1221 1222 1223 1224 1225 1226 1227 1228 1229 1230 1231 1232 1233 1234 1235 1236 1237 1238 1239 1240 1241 1242 1243 1244 1245 1246 1247 1248 1249 1250 1251 1252 1253 1254 1255 1256 1257 1258 1259 1260 1261 1262 1263 1264 1265 1266 1267 1268 1269 1270 1271 1272 1273 1274 1275 1276 1277 1278 1279 1280 1281 1282 1283 1284 1285 1286 1287 1288 1289 1290 1291 1292 1293 1294 1295 1296 1297 1298 1299 1300 1301 1302 1303 1304 1305 1306 1307 1308 1309 1310 1311 1312 1313 1314 1315 1316 1317 1318 1319 1320 1321 1322 1323 1324 1325 1326 1327 1328 1329 1330 1331 1332 1333 1334 1335 1336 1337 1338 1339 1340 1341 1342 1343 1344 1345 1346 1347 1348 1349 1350 1351 1352 1353 1354 1355 1356 1357 1358 1359 1360 1361 1362 1363 1364 1365 1366 1367 1368 1369 1370 1371 1372 1373 1374 1375 1376 1377 1378 1379 1380 1381 1382 1383 1384 1385 1386 1387 1388 1389 1390 1391 1392 1393 1394 1395 1396 1397 1398 1399 1400 1401 1402 1403 1404 1405 1406 1407 1408 1409 1410 1411 1412 1413 1414 1415 1416 1417 1418 1419 1420 1421 1422 1423 1424 1425 1426 1427 1428 1429 1430 1431 1432 1433 1434 1435 1436 1437 1438 1439 1440 1441 1442 1443 1444 1445 1446 1447 1448 1449 1450 1451 1452 1453 1454 1455 1456 1457 1458 1459 1460 1461 1462 1463 1464 1465 1466 1467 1468 1469 1470 1471 1472 1473 1474 1475 1476 1477 1478 1479 1480 1481 1482 1483 1484 1485 1486 1487 1488 1489 1490 1491 1492 1493 1494 1495 1496 1497 1498 1499 1500 1501 1502 1503 1504 1505 1506 1507 1508 1509 1510 1511 1512 1513 1514 1515 1516 1517 1518 1519 1520 1521 1522 1523 1524 1525 1526 1527 1528 1529 1530 1531 1532 1533 1534 1535 1536 1537 1538 1539 1540 1541 1542 1543 1544 1545 1546 1547 1548 1549 1550 1551 1552 1553 1554 1555 1556 1557 1558 1559 1560 1561 1562 1563 1564 1565 1566 1567 1568 1569 1570 1571 1572 1573 1574 1575 1576 1577 1578 1579 1580 1581 1582 1583 1584 1585 1586 1587 1588 1589 1590 1591 1592 1593 1594 1595 1596 1597 1598 1599 1600 1601 1602 1603 1604 1605 1606 1607 1608 1609 1610 1611 1612 1613 1614 1615 1616 1617 1618 1619 1620 1621 1622 1623 1624 1625 1626 1627 1628 1629 1630 1631 1632 1633 1634 1635 1636 1637 1638 1639 1640 1641 1642 1643 1644 1645 1646 1647 1648 1649 1650 1651 1652 1653 1654 1655 1656 1657 1658 1659 1660 1661 1662 1663 1664 1665 1666 1667 1668 1669 1670 1671 1672 1673 1674 1675 1676 1677 1678 1679 1680 1681 1682 1683 1684 1685 1686 1687 1688 1689 1690 1691 1692 1693 1694 1695 1696 1697 1698 1699 1700 1701 1702 1703 1704 1705 1706 1707 1708 1709 1710 1711 1712 1713 1714 1715 1716 1717 1718 1719 1720 1721 1722 1723 1724 1725 1726 1727 1728 1729 1730 1731 1732 1733 1734 1735 1736 1737 1738 1739 1740 1741 1742 1743 1744 1745 1746 1747 1748 1749 1750 1751 1752 1753 1754 1755 1756 1757 1758 1759 1760 1761 1762 1763 1764 1765 1766 1767 1768 1769 1770 1771 1772 1773 1774 1775 1776 1777 1778 1779 1780 1781 1782 1783 1784 1785 1786 1787 1788 1789 1790 1791 1792 1793 1794 1795 1796 1797 1798 1799 1800 1801 1802 1803 1804 1805 1806 1807 1808 1809 1810 1811 1812 1813 1814 1815 1816 1817 1818 1819 1820 1821 1822 1823 1824 1825 1826 1827 1828 1829 1830 1831 1832 1833 1834 1835 1836 1837 1838 1839 1840 1841 1842 1843 1844 1845 1846 1847 1848 1849 1850 1851 1852 1853 1854 1855 1856 1857 1858 1859 1860 1861 1862 1863 1864 1865 1866 1867 1868 1869 1870 1871 1872 1873 1874 1875 1876 1877 1878 1879 1880 1881 1882 1883 1884 1885 1886 1887 1888 1889 1890 1891 1892 1893 1894 1895 1896 1897 1898 1899 1900 1901 1902 1903 1904 1905 1906 1907 1908 1909 1910 1911 1912 1913 1914 1915 1916 1917 1918 1919 1920 1921 1922 1923 1924 1925 1926 1927 1928 1929 1930 1931 1932 1933 1934 1935 1936 1937 1938 1939 1940 1941 1942 1943 1944 1945 1946 1947 1948 1949 1950 1951 1952 1953 1954 1955 1956 1957 1958 1959 1960 1961 1962 1963 1964 1965 1966 1967 1968 1969 1970 1971 1972 1973 1974 1975 1976 1977 1978 1979 1980 1981 1982 1983 1984 1985 1986 1987 1988 1989 1990 1991 1992 1993 1994 1995 1996 1997 1998 1999 2000 2001 2002 2003 2004 2005 2006 2007 2008 2009 2010 2011 2012 2013 2014 2015 2016 2017 2018 2019 2020 2021 2022 2023 2024 2025 2026 2027 2028 2029 2030 2031 2032 2033 2034 2035 2036 2037 2038 2039 2040 2041 2042 2043 2044 2045 2046 2047 2048 2049 2050 2051 2052 2053 2054 2055 2056 2057 2058 2059 2060 2061 2062 2063 2064 2065 2066 2067 2068 2069 2070 2071 2072 2073 2074 2075 2076 2077 2078 2079 2080 2081 2082 2083 2084 2085 2086 2087 2088 2089 2090 2091 2092 2093 2094 2095 2096 2097 2098 2099 2100 2101 2102 2103 2104 2105 2106 2107 2108 2109 2110 2111 2112 2113 2114 2115 2116 2117 2118 2119 2120 2121 2122 2123 2124 2125 2126 2127 2128 2129 2130 2131 2132 2133 2134 2135 2136 2137 2138 2139 2140 2141 2142 2143 2144 2145 2146 2147 2148 2149 2150 2151 2152 2153 2154 2155 2156 2157 2158 2159 2160 2161 2162 2163 2164 2165 2166 2167 2168 2169 2170 2171 2172 2173 2174 2175 2176 2177 2178 2179 2180 2181 2182 2183 2184 2185 2186 2187 2188 2189 2190 2191 2192 2193 2194 2195 2196 2197 2198 2199 2200 2201 2202 2203 2204 2205 2206 2207 2208 2209 2210 2211 2212 2213 2214 2215 2216 2217 2218 2219 2220 2221 2222 2223 2224 2225 2226 2227 2228 2229 2230 2231 2232 2233 2234 2235 2236 2237 2238 2239 2240 2241 2242 2243 2244 2245 2246 2247 2248 2249 2250 2251 2252 2253 2254 2255 2256 2257 2258 2259 2260 2261 2262 2263 2264 2265 2266 2267 2268 2269 2270 2271 2272 2273 2274 2275 2276 2277 2278 2279 2280 2281 2282 2283 2284 2285 2286 2287 2288 2289 2290 2291 2292 2293 2294 2295 2296 2297 2298 2299 2300 2301 2302 2303 2304 2305 2306 2307 2308 2309 2310 2311 2312 2313 2314 2315 2316 2317 2318 2319 2320 2321 2322 2323 2324 2325 2326 2327 2328 2329 2330 2331 2332 2333 2334 2335 2336 2337 2338 2339 2340 2341 2342 2343 2344 2345 2346 2347 2348 2349 2350 2351 2352 2353 2354 2355 2356 2357 2358 2359 2360 2361 2362 2363 2364 2365 2366 2367 2368 2369 2370 2371 2372 2373 2374 2375 2376 2377 2378 2379 2380 2381 2382 2383 2384 2385 2386 2387 2388 2389 2390 2391 2392 2393 2394 2395 2396 2397 2398 2399 2400 2401 2402 2403 2404 2405 2406 2407 2408 2409 2410 2411 2412 2413 2414 2415 2416 2417 2418 2419 2420 2421 2422 2423 2424 2425 2426 2427 2428 2429 2430 2431 2432 2433 2434 2435 2436 2437 2438 2439 2440 2441 2442 2443 2444 2445 2446 2447 2448 2449 2450 2451 2452 2453 2454 2455 2456 2457 2458 2459 2460 2461 2462 2463 2464 2465 2466 2467 2468 2469 2470 2471 2472 2473 2474 2475 2476 2477 2478 2479 2480 2481 2482 2483 2484 2485 2486 2487 2488 2489 2490 2491 2492 2493 2494 2495 2496 2497 2498 2499 2500 2501 2502 2503 2504 2505 2506 2507 2508 2509 2510 2511 2512 2513 2514 2515 2516 2517 2518 2519 2520 2521 2522 2523 2524 2525 2526 2527 2528 2529 2530 2531 2532 2533 2534 2535 2536 2537 2538 2539 2540 2541 2542 2543 2544 2545 2546 2547 2548 2549 2550 2551 2552 2553 2554 2555 2556 2557 2558 2559 2560 2561 2562 2563 2564 2565 2566 2567 2568 2569 2570 2571 2572 2573 2574 2575 2576 2577 2578 2579 2580 2581 2582 2583 2584 2585 2586 2587 2588 2589 2590 2591 2592 2593 2594 2595 2596 2597 2598 2599 2600 2601 2602 2603 2604 2605 2606 2607 2608 2609 2610 2611 2612 2613 2614 2615 2616 2617 2618 2619 2620 2621 2622 2623 2624 2625 2626 2627 2628 2629 2630 2631 2632 2633 2634 2635 2636 2637 2638 2639 2640 2641 2642 2643 2644 2645 2646 2647 2648 2649 2650 2651 2652 2653 2654 2655 2656 2657 2658 2659 2660 2661 2662 2663 2664 2665 2666 2667 2668 2669 2670 2671 2672 2673 2674 2675 2676 2677 2678 2679 2680 2681 2682 2683 2684 2685 2686 2687 2688 2689 2690 2691 2692 2693 2694 2695 2696 2697 2698 2699 2700 2701 2702 2703 2704 2705 2706 2707 2708 2709 2710 2711 2712 2713 2714 2715 2716 2717 2718 2719 2720 2721 2722 2723 2724 2725 2726 2727 2728 2729 2730 2731 2732 2733 2734 2735 2736 2737 2738 2739 2740 2741 2742 2743 2744 2745 2746 2747 2748 2749 2750 2751 2752 2753 2754 2755 2756 2757 2758 2759 2760 2761 2762 2763 2764 2765 2766 2767 2768 2769 2770 2771 2772 2773 2774 2775 2776 2777 2778 2779 2780 2781 2782 2783 2784 2785 2786 2787 2788 2789 2790 2791 2792 2793 2794 2795 2796 2797 2798 2799 2800 2801 2802 2803 2804 2805 2806 2807 2808 2809 2810 2811 2812 2813 2814 2815 2816 2817 2818 2819 2820 2821 2822 2823 2824 2825 2826 2827 2828 2829 2830 2831 2832 2833 2834 2835 2836 2837 2838 2839 2840 2841 2842 2843 2844 2845 2846 2847 2848 2849 2850 2851 2852 2853 2854 2855 2856 2857 2858 2859 2860 2861 2862 2863 2864 2865 2866 2867 2868 2869 2870 2871 2872 2873 2874 2875 2876 2877 2878 2879 2880 2881 2882 2883 2884 2885 2886 2887 2888 2889 2890 2891 2892 2893 2894 2895 2896 2897 2898 2899 2900 2901 2902 2903 2904 2905 2906 2907 2908 2909 2910 2911 2912 2913 2914 2915 2916 2917 2918 2919 2920 2921 2922 2923 2924 2925 2926 2927 2928 2929 2930 2931 2932 2933 2934 2935 2936 2937 2938 2939 2940 2941 2942 2943 2944 2945 2946 2947 2948 2949 2950 2951 2952 2953 2954 2955 2956 2957 2958 2959 2960 2961 2962 2963 2964 2965 2966 2967 2968 2969 2970 2971 2972 2973 2974 2975 2976 2977 2978 2979 2980 2981 2982 2983 2984 2985 2986 2987 2988 2989 2990 2991 2992 2993 2994 2995 2996 2997 2998 2999 3000 3001 3002 3003 3004 3005 3006 3007 3008 3009 3010 3011 3012 3013 3014 3015 3016 3017 3018 3019 3020 3021 3022 3023 3024 3025 3026 3027 3028 3029 3030 3031 3032 3033 3034 3035 3036 3037 3038 3039 3040 3041 3042 3043 3044 3045 3046 3047 3048 3049 3050 3051 3052 3053 3054 3055 3056 3057 3058 3059 3060 3061 3062 3063 3064 3065 3066 3067 3068 3069 3070 3071 3072 3073 3074 3075 3076 3077 3078 3079 3080 3081 3082 3083 3084 3085 3086 3087 3088 3089 3090 3091 3092 3093 3094 3095 3096 3097 3098 3099 3100 3101 3102 3103 3104 3105 3106 3107 3108 3109 3110 3111 3112 3113 3114 3115 3116 3117 3118 3119 3120 3121 3122 3123 3124 3125 3126 3127 3128 3129 3130 3131 3132 3133 3134 3135 3136 3137 3138 3139 3140 3141 3142 3143 3144 3145 3146 3147 3148 3149 3150 3151 3152 3153 3154 3155 3156 3157 3158 3159 3160 3161 3162 3163 3164 3165 3166 3167 3168 3169 3170 3171 3172 3173 3174 3175 3176 3177 3178 3179 3180 3181 3182 3183 3184 3185 3186 3187 3188 3189 3190 3191 3192 3193 3194 3195 3196 3197 3198 3199 3200 3201 3202 3203 3204 3205 3206 3207 3208 3209 3210 3211 3212 3213 3214 3215 3216 3217 3218 3219 3220 3221 3222 3223 3224 3225 3226 3227 3228 3229 3230 3231 3232 3233 3234 3235 3236 3237 3238 3239 3240 3241 3242 3243 3244 3245 3246 3247 3248 3249 3250 3251 3252 3253 3254 3255 3256 3257 3258 3259 3260 3261 3262 3263 3264 3265 3266 3267 3268 3269 3270 3271 3272 3273 3274 3275 3276 3277 3278 3279 3280 3281 3282 3283 3284 3285 3286 3287 3288 3289 3290 3291 3292 3293 3294 3295 3296 3297 3298 3299 3300 3301 3302 3303 3304 3305 3306 3307 3308 3309 3310 3311 3312 3313 3314 3315 3316 3317 3318 3319 3320 3321 3322 3323 3324 3325 3326 3327 3328 3329 3330 3331 3332 3333 3334 3335 3336 3337 3338 3339 3340 3341 3342 3343 3344 3345 3346 3347 3348 3349 3350 3351 3352 3353 3354 3355 3356 3357 3358 3359 3360 3361 3362 3363 3364 3365 3366 3367 3368 3369 3370 3371 3372 3373 3374 3375 3376 3377 3378 3379 3380 3381 3382 3383 3384 3385 3386 3387 3388 3389 3390 3391 3392 3393 3394 3395 3396 3397 3398 3399 3400 3401 3402 3403 3404 3405 3406 3407 3408 3409 3410 3411 3412 3413 3414 3415 3416 3417 3418 3419 3420 3421 3422 3423 3424 3425 3426 3427 3428 3429 3430 3431 3432 3433 3434 3435 3436 3437 3438 3439 3440 3441 3442 3443 3444 3445 3446 3447 3448 3449 3450 3451 3452 3453 3454 3455 3456 3457 3458 3459 3460 3461 3462 3463 3464 3465 3466 3467 3468 3469 3470 3471 3472 3473 3474 3475 3476 3477 3478 3479 3480 3481 3482 3483 3484 3485 3486 3487 3488 3489 3490 3491 3492 3493 3494 3495 3496 3497 3498 3499 3500 3501 3502 3503 3504 3505 3506 3507 3508 3509 3510 3511 3512 3513 3514 3515 3516 3517 3518 3519 3520 3521 3522 3523 3524 3525 3526 3527 3528 3529 3530 3531 3532 3533 3534 3535 3536 3537 3538 3539 3540 3541 3542 3543 3544 3545 3546 3547 3548 3549 3550 3551 3552 3553 3554 3555 3556 3557 3558 3559 3560 3561 3562 3563 3564 3565 3566 3567 3568 3569 3570 3571 3572 3573 3574 3575 3576 3577 3578 3579 3580 3581 3582 3583 3584 3585 3586 3587 3588 3589 3590 3591 3592 3593 3594 3595 3596 3597 3598 3599 3600 3601 3602 3603 3604 3605 3606 3607 3608 3609 3610 3611 3612 3613 3614 3615 3616 3617 3618 3619 3620 3621 3622 3623 3624 3625 3626 3627 3628 3629 3630 3631 3632 3633 3634 3635 3636 3637 3638 3639 3640 3641 3642 3643 3644 3645 3646 3647 3648 3649 3650 3651 3652 3653 3654 3655 3656 3657 3658 3659 3660 3661 3662 3663 3664 3665 3666 3667 3668 3669 3670 3671 3672 3673 3674 3675 3676 3677 3678 3679 3680 3681 3682 3683 3684 3685 3686 3687 3688 3689 3690 3691 3692 3693 3694 3695 3696 3697 3698 3699 3700 3701 3702 3703 3704 3705 3706 3707 3708 3709 3710 3711 3712 3713 3714 3715 3716 3717 3718 3719 3720 3721 3722 3723 3724 3725 3726 3727 3728 3729 3730 3731 3732 3733 3734 3735 3736 3737 3738 3739 3740 3741 3742 3743 3744 3745 3746 3747 3748 3749 3750 3751 3752 3753 3754 3755 3756 3757 3758 3759 3760 3761 3762 3763 3764 3765 3766 3767 3768 3769 3770 3771 3772 3773 3774 3775 3776 3777 3778 3779 3780 3781 3782 3783 3784 3785 3786 3787 3788 3789 3790 3791 3792 3793 3794 3795 3796 3797 3798 3799 3800 3801 3802 3803 3804 3805 3806 3807 3808 3809 3810 3811 3812 3813 3814 3815 3816 3817 3818 3819 3820 3821 3822 3823 3824 3825 3826 3827 3828 3829 3830 3831 3832 3833 3834 3835 3836 3837 3838 3839 3840 3841 3842 3843 3844 3845 3846 3847 3848 3849 3850 3851 3852 3853 3854 3855 3856 3857 3858 3859 3860 3861 3862 3863 3864 3865 3866 3867 3868 3869 3870 3871 3872 3873 3874 3875 3876 3877 3878 3879 3880 3881 3882 3883 3884 3885 3886 3887 3888 3889 3890 3891 3892 3893 3894 3895 3896 3897 3898 3899 3900 3901 3902 3903 3904 3905 3906 3907 3908 3909 3910 3911 3912 3913 3914 3915 3916 3917 3918 3919 3920 3921 3922 3923 3924 3925 3926 3927 3928 3929 3930 3931 3932 3933 3934 3935 3936 3937 3938 3939 3940 3941 3942 3943 3944 3945 3946 3947 3948 3949 3950 3951 3952 3953 3954 3955 3956 3957 3958 3959 3960 3961 3962 3963 3964 3965 3966 3967 3968 3969 3970 3971 3972 3973 3974 3975 3976 3977 3978 3979 3980 3981 3982 3983 3984 3985 3986 3987 3988 3989 3990 3991 3992 3993 3994 3995 3996 3997 3998 3999 4000 4001 4002 4003 4004 4005 4006 4007 4008 4009 4010 4011 4012 4013 4014 4015 4016 4017 4018 4019 4020 4021 4022 4023 4024 4025 4026 4027 4028 4029 4030 4031 4032 4033 4034 4035 4036 4037 4038 4039 4040 4041 4042 4043 4044 4045 4046 4047 4048 4049 4050 4051 4052 4053 4054 4055 4056 4057 4058 4059 4060 4061 4062 4063 4064 4065 4066 4067 4068 4069 4070 4071 4072 4073 4074 4075 4076 4077 4078 4079 4080 4081 4082 4083 4084 4085 4086 4087 4088 4089 4090 4091 4092 4093 4094 4095 4096 4097 4098 4099 4100 4101 4102 4103 4104 4105 4106 4107 4108 4109 4110 4111 4112 4113 4114 4115 4116 4117 4118 4119 4120 4121 4122 4123 4124 4125 4126 4127 4128 4129 4130 4131 4132 4133 4134 4135 4136 4137 4138 4139 4140 4141 4142 4143 4144 4145 4146 4147 4148 4149 4150 4151 4152 4153 4154 4155 4156 4157 4158 4159 4160 4161 4162 4163 4164 4165 4166 4167 4168 4169 4170 4171 4172 4173 4174 4175 4176 4177 4178 4179 4180 4181 4182 4183 4184 4185 4186 4187 4188 4189 4190 4191 4192 4193 4194 4195 4196 4197 4198 4199 4200 4201 4202 4203 4204 4205 4206 4207 4208 4209 4210 4211 4212 4213 4214 4215 4216 4217 4218 4219 4220 4221 4222 4223 4224 4225 4226 4227 4228 4229 4230 4231 4232 4233 4234 4235 4236 4237 4238 4239 4240 4241 4242 4243 4244 4245 4246 4247 4248 4249 4250 4251 4252 4253 4254 4255 4256 4257 4258 4259 4260 4261 4262 4263 4264 4265 4266 4267 4268 4269 4270 4271 4272 4273 4274 4275 4276 4277 4278 4279 4280 4281 4282 4283 4284 4285 4286 4287 4288 4289 4290 4291 4292 4293 4294 4295 4296 4297 4298 4299 4300 4301 4302 4303 4304 4305 4306 4307 4308 4309 4310 4311 4312 4313 4314 4315 4316 4317 4318 4319 4320 4321 4322 4323 4324 4325 4326 4327 4328 4329 4330 4331 4332 4333 4334 4335 4336 4337 4338 4339 4340 4341 4342 4343 4344 4345 4346 4347 4348 4349 4350 4351 4352 4353 4354 4355 4356 4357 4358 4359 4360 4361 4362 4363 4364 4365 4366 4367 4368 4369 4370 4371 4372 4373 4374 4375 4376 4377 4378 4379 4380 4381 4382 4383 4384 4385 4386 4387 4388 4389 4390 4391 4392 4393 4394 4395 4396 4397 4398 4399 4400 4401 4402 4403 4404 4405 4406 4407 4408 4409 4410 4411 4412 4413 4414 4415 4416 4417 4418 4419 4420 4421 4422 4423 4424 4425 4426 4427 4428 4429 4430 4431 4432 4433 4434 4435 4436 4437 4438 4439 4440 4441 4442 4443 4444 4445 4446 4447 4448 4449 4450 4451 4452 4453 4454 4455 4456 4457 4458 4459 4460 4461 4462 4463 4464 4465 4466 4467 4468 4469 4470 4471 4472 4473 4474 4475 4476 4477 4478 4479 4480 4481 4482 4483 4484 4485 4486 4487 4488 4489 4490 4491 4492 4493 4494 4495 4496 4497 4498 4499 4500 4501 4502 4503 4504 4505 4506 4507 4508 4509 4510 4511 4512 4513 4514 4515 4516 4517 4518 4519 4520 4521 4522 4523 4524 4525 4526 4527 4528 4529 4530 4531 4532 4533 4534 4535 4536 4537 4538 4539 4540 4541 4542 4543 4544 4545 4546 4547 4548 4549 4550 4551 4552 4553 4554 4555 4556 4557 4558 4559 4560 4561 4562 4563 4564 4565 4566 4567 4568 4569 4570 4571 4572 4573 4574 4575 4576 4577 4578 4579 4580 4581 4582 4583 4584 4585 4586 4587 4588 4589 4590 4591 4592 4593 4594 4595 4596 4597 4598 4599 4600 4601 4602 4603 4604 4605 4606 4607 4608 4609 4610 4611 4612 4613 4614 4615 4616 4617 4618 4619 4620 4621 4622 4623 4624 4625 4626 4627 4628 4629 4630 4631 4632 4633 4634 4635 4636 4637 4638 4639 4640 4641 4642 4643 4644 4645 4646 4647 4648 4649 4650 4651 4652 4653 4654 4655 4656 4657 4658 4659 4660 4661 4662 4663 4664 4665 4666 4667 4668 4669 4670 4671 4672 4673 4674 4675 4676 4677 4678 4679 4680 4681 4682 4683 4684 4685 4686 4687 4688 4689 4690 4691 4692 4693 4694 4695 4696 4697 4698 4699 4700 4701 4702 4703 4704 4705 4706 4707 4708 4709 4710 4711 4712 4713 4714 4715 4716 4717 4718 4719 4720 4721 4722 4723 4724 4725 4726 4727 4728 4729 4730 4731 4732 4733 4734 4735 4736 4737 4738 4739 4740 4741 4742 4743 4744 4745 4746 4747 4748 4749 4750 4751 4752 4753 4754 4755 4756 4757 4758 4759 4760 4761 4762 4763 4764 4765 4766 4767 4768 4769 4770 4771 4772 4773 4774 4775 4776 4777 4778 4779 4780 4781 4782 4783 4784 4785 4786 4787 4788 4789 4790 4791 4792 4793 4794 4795 4796 4797 4798 4799 4800 4801 4802 4803 4804 4805 4806 4807 4808 4809 4810 4811 4812 4813 4814 4815 4816 4817 4818 4819 4820 4821 4822 4823 4824 4825 4826 4827 4828 4829 4830 4831 4832 4833 4834 4835 4836 4837 4838 4839 4840 4841 4842 4843 4844 4845 4846 4847 4848 4849 4850 4851 4852 4853 4854 4855 4856 4857 4858 4859 4860 4861 4862 4863 4864 4865 4866 4867 4868 4869 4870 4871 4872 4873 4874 4875 4876 4877 4878 4879 4880 4881 4882 4883 4884 4885 4886 4887 4888 4889 4890 4891 4892 4893 4894 4895 4896 4897 4898 4899 4900 4901 4902 4903 4904 4905 4906 4907 4908 4909 4910 4911 4912 4913 4914 4915 4916 4917 4918 4919 4920 4921 4922 4923 4924 4925 4926 4927 4928 4929 4930 4931 4932 4933 4934 4935 4936 4937 4938 4939 4940 4941 4942 4943 4944 4945 4946 4947 4948 4949 4950 4951 4952 4953 4954 4955 4956 4957 4958 4959 4960 4961 4962 4963 4964 4965 4966 4967 4968 4969 4970 4971 4972 4973 4974 4975 4976 4977 4978 4979 4980 4981 4982 4983 4984 4985 4986 4987 4988 4989 4990 4991 4992 4993 4994 4995 4996 4997 4998 4999 5000 5001 5002 5003 5004 5005 5006 5007 5008 5009 5010 5011 5012 5013 5014 5015 5016 5017 5018 5019 5020 5021 5022 5023 5024 5025 5026 5027 5028 5029 5030 5031 5032 5033 5034 5035 5036 5037 5038 5039 5040 5041 5042 5043 5044 5045 5046 5047 5048 5049 5050 5051 5052 5053 5054 5055 5056 5057 5058 5059 5060 5061 5062 5063 5064 5065 5066 5067 5068 5069 5070 5071 5072 5073 5074 5075 5076 5077 5078 5079 5080 5081 5082 5083 5084 5085 5086 5087 5088 5089 5090 5091 5092 5093 5094 5095 5096 5097 5098 5099 5100 5101 5102 5103 5104 5105 5106 5107 5108 5109 5110 5111 5112 5113 5114 5115 5116 5117 5118 5119 5120 5121 5122 5123 5124 5125 5126 5127 5128 5129 5130 5131 5132 5133 5134 5135 5136 5137 5138 5139 5140 5141 5142 5143 5144 5145 5146 5147 5148 5149 5150 5151 5152 5153 5154 5155 5156 5157 5158 5159 5160 5161 5162 5163 5164 5165 5166 5167 5168 5169 5170 5171 5172 5173 5174 5175 5176 5177 5178 5179 5180 5181 5182 5183 5184 5185 5186 5187 5188 5189 5190 5191 5192 5193 5194 5195 5196 5197 5198 5199 5200 5201 5202 5203 5204 5205 5206 5207 5208 5209 5210 5211 5212 5213 5214 5215 5216 5217 5218 5219 5220 5221 5222 5223 5224 5225 5226 5227 5228 5229 5230 5231 5232 5233 5234 5235 5236 5237 5238 5239 5240 5241 5242 5243 5244 5245 5246 5247 5248 5249 5250 5251 5252 5253 5254 5255 5256 5257 5258 5259 5260 5261 5262 5263 5264 5265 5266 5267 5268 5269 5270 5271 5272 5273 5274 5275 5276 5277 5278 5279 5280 5281 5282 5283 5284 5285 5286 5287 5288 5289 5290 5291 5292 5293 5294 5295 5296 5297 5298 5299 5300 5301 5302 5303 5304 5305 5306 5307 5308 5309 5310 5311 5312 5313 5314 5315 5316 5317 5318 5319 5320 5321 5322 5323 5324 5325 5326 5327 5328 5329 5330 5331 5332 5333 5334 5335 5336 5337 5338 5339 5340 5341 5342 5343 5344 5345 5346 5347 5348 5349 5350 5351 5352 5353 5354 5355 5356 5357 5358 5359 5360 5361 5362 5363 5364 5365 5366 5367 5368 5369 5370 5371 5372 5373 5374 5375 5376 5377 5378 5379 5380 5381 5382 5383 5384 5385 5386 5387 5388 5389 5390 5391 5392 5393 5394 5395 5396 5397 5398 5399 5400 5401 5402 5403 5404 5405 5406 5407 5408 5409 5410 5411 5412 5413 5414 5415 5416 5417 5418 5419 5420 5421 5422 5423 5424 5425 5426 5427 5428 5429 5430 5431 5432 5433 5434 5435 5436 5437 5438 5439 5440 5441 5442 5443 5444 5445 5446 5447 5448 5449 5450 5451 5452 5453 5454 5455 5456 5457 5458 5459 5460 5461 5462 5463 5464 5465 5466 5467 5468 5469 5470 5471 5472 5473 5474 5475 5476 5477 5478 5479 5480 5481 5482 5483 5484 5485 5486 5487 5488 5489 5490 5491 5492 5493 5494 5495 5496 5497 5498 5499 5500 5501 5502 5503 5504 5505 5506 5507 5508 5509 5510 5511 5512 5513 5514 5515 5516 5517 5518 5519 5520 5521 5522 5523 5524 5525 5526 5527 5528 5529 5530 5531 5532 5533 5534 5535 5536 5537 5538 5539 5540 5541 5542 5543 5544 5545 5546 5547 5548 5549 5550 5551 5552 5553 5554 5555 5556 5557 5558 5559 5560 5561 5562 5563 5564 5565 5566 5567 5568 5569 5570 5571 5572 5573 5574 5575 5576 5577 5578 5579 5580 5581 5582 5583 5584 5585 5586 5587 5588 5589 5590 5591 5592 5593 5594 5595 5596 5597 5598 5599 5600 5601 5602 5603 5604 5605 5606 5607 5608 5609 5610 5611 5612 5613 5614 5615 5616 5617 5618 5619 5620 5621 5622 5623 5624 5625 5626 5627 5628 5629 5630 5631 5632 5633 5634 5635 5636 5637 5638 5639 5640 5641 5642 5643 5644 5645 5646 5647 5648 5649 5650 5651 5652 5653 5654 5655 5656 5657 5658 5659 5660 5661 5662 5663 5664 5665 5666 5667 5668 5669 5670 5671 5672 5673 5674 5675 5676 5677 5678 5679 5680 5681 5682 5683 5684 5685 5686 5687 5688 5689 5690 5691 5692 5693 5694 5695 5696 5697 5698 5699 5700 5701 5702 5703 5704 5705 5706 5707 5708 5709 5710 5711 5712 5713 5714 5715 5716 5717 5718 5719 5720 5721 5722 5723 5724 5725 5726 5727 5728 5729 5730 5731 5732 5733 5734 5735 5736 5737 5738 5739 5740 5741 5742 5743 5744 5745 5746 5747 5748 5749 5750 5751 5752 5753 5754 5755 5756 5757 5758 5759 5760 5761 5762 5763 5764 5765 5766 5767 5768 5769 5770 5771 5772 5773 5774 5775 5776 5777 5778 5779 5780 5781 5782 5783 5784 5785 5786 5787 5788 5789 5790 5791 5792 5793 5794 5795 5796 5797 5798 5799 5800 5801 5802 5803 5804 5805 5806 5807 5808 5809 5810 5811 5812 5813 5814 5815 5816 5817 5818 5819 5820 5821 5822 5823 5824 5825 5826 5827 5828 5829 5830 5831 5832 5833 5834 5835 5836 5837 5838 5839 5840 5841 5842 5843 5844 5845 5846 5847 5848 5849 5850 5851 5852 5853 5854 5855 5856 5857 5858 5859 5860 5861 5862 5863 5864 5865 5866 5867 5868 5869 5870 5871 5872 5873 5874 5875 5876 5877 5878 5879 5880 5881 5882 5883 5884 5885 5886 5887 5888 5889 5890 5891 5892 5893 5894 5895 5896 5897 5898 5899 5900 5901 5902 5903 5904 5905 5906 5907 5908 5909 5910 5911 5912 5913 5914 5915 5916 5917 5918 5919 5920 5921 5922 5923 5924 5925 5926 5927 5928 5929 5930 5931 5932 5933 5934 5935 5936 5937 5938 5939 5940 5941 5942 5943 5944 5945 5946 5947 5948 5949 5950 5951 5952 5953 5954 5955 5956 5957 5958 5959 5960 5961 5962 5963 5964 5965 5966 5967 5968 5969 5970 5971 5972 5973 5974 5975 5976 5977 5978 5979 5980 5981 5982 5983 5984 5985 5986 5987 5988 5989 5990 5991 5992 5993 5994 5995 5996 5997 5998 5999 6000 6001 6002 6003 6004 6005 6006 6007 6008 6009 6010 6011 6012 6013 6014 6015 6016 6017 6018 6019 6020 6021 6022 6023 6024 6025 6026 6027 6028 6029 6030 6031 6032 6033 6034 6035 6036 6037 6038 6039 6040 6041 6042 6043 6044 6045 6046 6047 6048 6049 6050 6051 6052 6053 6054 6055 6056 6057 6058 6059 6060 6061 6062 6063 6064 6065 6066 6067 6068 6069 6070 6071 6072 6073 6074 6075 6076 6077 6078 6079 6080 6081 6082 6083 6084 6085 6086 6087 6088 6089 6090 6091 6092 6093 6094 6095 6096 6097 6098 6099 6100 6101 6102 6103 6104 6105 6106 6107 6108 6109 6110 6111 6112 6113 6114 6115 6116 6117 6118 6119 6120 6121 6122 6123 6124 6125 6126 6127 6128 6129 6130 6131 6132 6133 6134 6135 6136 6137 6138 6139 6140 6141 6142 6143 6144 6145 6146 6147 6148 6149 6150 6151 6152 6153 6154 6155 6156 6157 6158 6159 6160 6161 6162 6163 6164 6165 6166 6167 6168 6169 6170 6171 6172 6173 6174 6175 6176 6177 6178 6179 6180 6181 6182 6183 6184 6185 6186 6187 6188 6189 6190 6191 6192 6193 6194 6195 6196 6197 6198 6199 6200 6201 6202 6203 6204 6205 6206 6207 6208 6209 6210 6211 6212 6213 6214 6215 6216 6217 6218 6219 6220 6221 6222 6223 6224 6225 6226 6227 6228 6229 6230 6231 6232 6233 6234 6235 6236 6237 6238 6239 6240 6241 6242 6243 6244 6245 6246 6247 6248 6249 6250 6251 6252 6253 6254 6255 6256 6257 6258 6259 6260 6261 6262 6263 6264 6265 6266 6267 6268 6269 6270 6271 6272 6273 6274 6275 6276 6277 6278 6279 6280 6281 6282 6283 6284 6285 6286 6287 6288 6289 6290 6291 6292 6293 6294 6295 6296 6297 6298 6299 6300 6301 6302 6303 6304 6305 6306 6307 6308 6309 6310 6311 6312 6313 6314 6315 6316 6317 6318 6319 6320 6321 6322 6323 6324 6325 6326 6327 6328 6329 6330 6331 6332 6333 6334 6335 6336 6337 6338 6339 6340 6341 6342 6343 6344 6345 6346 6347 6348 6349 6350 6351 6352 6353 6354 6355 6356 6357 6358 6359 6360 6361 6362 6363 6364 6365 6366 6367 6368 6369 6370 6371 6372 6373 6374 6375 6376 6377 6378 6379 6380 6381 6382 6383 6384 6385 6386 6387 6388 6389 6390 6391 6392 6393 6394 6395 6396 6397 6398 6399 6400 6401 6402 6403 6404 6405 6406 6407 6408 6409 6410 6411 6412 6413 6414 6415 6416 6417 6418 6419 6420 6421 6422 6423 6424 6425 6426 6427 6428 6429 6430 6431 6432 6433 6434 6435 6436 6437 6438 6439 6440 6441 6442 6443 6444 6445 6446 6447 6448 6449 6450 6451 6452 6453 6454 6455 6456 6457 6458 6459 6460 6461 6462 6463 6464 6465 6466 6467 6468 6469 6470 6471 6472 6473 6474 6475 6476 6477 6478 6479 6480 6481 6482 6483 6484 6485 6486 6487 6488 6489 6490 6491 6492 6493 6494 6495 6496 6497 6498 6499 6500 6501 6502 6503 6504 6505 6506 6507 6508 6509 6510 6511 6512 6513 6514 6515 6516 6517 6518 6519 6520 6521 6522 6523 6524 6525 6526 6527 6528 6529 6530 6531 6532 6533 6534 6535 6536 6537 6538 6539 6540 6541 6542 6543 6544 6545 6546 6547 6548 6549 6550 6551 6552 6553 6554 6555 6556 6557 6558 6559 6560 6561 6562 6563 6564 6565 6566 6567 6568 6569 6570 6571 6572 6573 6574 6575 6576 6577 6578 6579 6580 6581 6582 6583 6584 6585 6586 6587 6588 6589 6590 6591 6592 6593 6594 6595 6596 6597 6598 6599 6600 6601 6602 6603 6604 6605 6606 6607 6608 6609 6610 6611 6612 6613 6614 6615 6616 6617 6618 6619 6620 6621 6622 6623 6624 6625 6626 6627 6628 6629 6630 6631 6632 6633 6634 6635 6636 6637 6638 6639 6640 6641 6642 6643 6644 6645 6646 6647 6648 6649 6650 6651 6652 6653 6654 6655 6656 6657 6658 6659 6660 6661 6662 6663 6664 6665 6666 6667 6668 6669 6670 6671 6672 6673 6674 6675 6676 6677 6678 6679 6680 6681 6682 6683 6684 6685 6686 6687 6688 6689 6690 6691 6692 6693 6694 6695 6696 6697 6698 6699 6700 6701 6702 6703 6704 6705 6706 6707 6708 6709 6710 6711 6712 6713 6714 6715 6716 6717 6718 6719 6720 6721 6722 6723 6724 6725 6726 6727 6728 6729 6730 6731 6732 6733 6734 6735 6736 6737 6738 6739 6740 6741 6742 6743 6744 6745 6746 6747 6748 6749 6750 6751 6752 6753 6754 6755 6756 6757 6758 6759 6760 6761 6762 6763 6764 6765 6766 6767 6768 6769 6770 6771 6772 6773 6774 6775 6776 6777 6778 6779 6780 6781 6782 6783 6784 6785 6786 6787 6788 6789 6790 6791 6792 6793 6794 6795 6796 6797 6798 6799 6800 6801 6802 6803 6804 6805 6806 6807 6808 6809 6810 6811 6812 6813 6814 6815 6816 6817 6818 6819 6820 6821 6822 6823 6824 6825 6826 6827 6828 6829 6830 6831 6832 6833 6834 6835 6836 6837 6838 6839 6840 6841 6842 6843 6844 6845 6846 6847 6848 6849 6850 6851 6852 6853 6854 6855 6856 6857 6858 6859 6860 6861 6862 6863 6864 6865 6866 6867 6868 6869 6870 6871 6872 6873 6874 6875 6876 6877 6878 6879 6880 6881 6882 6883 6884 6885 6886 6887 6888 6889 6890 6891 6892 6893 6894 6895 6896 6897 6898 6899 6900 6901 6902 6903 6904 6905 6906 6907 6908 6909 6910 6911 6912 6913 6914 6915 6916 6917 6918 6919 6920 6921 6922 6923 6924 6925 6926 6927 6928 6929 6930 6931 6932 6933 6934 6935 6936 6937 6938 6939 6940 6941 6942 6943 6944 6945 6946 6947 6948 6949 6950 6951 6952 6953 6954 6955 6956 6957 6958 6959 6960 6961 6962 6963 6964 6965 6966 6967 6968 6969 6970 6971 6972 6973 6974 6975 6976 6977 6978 6979 6980 6981 6982 6983 6984 6985 6986 6987 6988 6989 6990 6991 6992 6993 6994 6995 6996 6997 6998 6999 7000 7001 7002 7003 7004 7005 7006 7007 7008 7009 7010 7011 7012 7013 7014 7015 7016 7017 7018 7019 7020 7021 7022 7023 7024 7025 7026 7027 7028 7029 7030 7031 7032 7033 7034 7035 7036 7037 7038 7039 7040 7041 7042 7043 7044 7045 7046 7047 7048 7049 7050 7051 7052 7053 7054 7055 7056 7057 7058 7059 7060 7061 7062 7063 7064 7065 7066 7067 7068 7069 7070 7071 7072 7073 7074 7075 7076 7077 7078 7079 7080 7081 7082 7083 7084 7085 7086 7087 7088 7089 7090 7091 7092 7093 7094 7095 7096 7097 7098 7099 7100 7101 7102 7103 7104 7105 7106 7107 7108 7109 7110 7111 7112 7113 7114 7115 7116 7117 7118 7119 7120 7121 7122 7123 7124 7125 7126 7127 7128 7129 7130 7131 7132 7133 7134 7135 7136 7137 7138 7139 7140 7141 7142 7143 7144 7145 7146 7147 7148 7149 7150 7151 7152 7153 7154 7155 7156 7157 7158 7159 7160 7161 7162 7163 7164 7165 7166 7167 7168 7169 7170 7171 7172 7173 7174 7175 7176 7177 7178 7179 7180 7181 7182 7183 7184 7185 7186 7187 7188 7189 7190 7191 7192 7193 7194 7195 7196 7197 7198 7199 7200 7201 7202 7203 7204 7205 7206 7207 7208 7209 7210 7211 7212 7213 7214 7215 7216 7217 7218 7219 7220 7221 7222 7223 7224 7225 7226 7227 7228 7229 7230 7231 7232 7233 7234 7235 7236 7237 7238 7239 7240 7241 7242 7243 7244 7245 7246 7247 7248 7249 7250 7251 7252 7253 7254 7255 7256 7257 7258 7259 7260 7261 7262 7263 7264 7265 7266 7267 7268 7269 7270 7271 7272 7273 7274 7275 7276 7277 7278 7279 7280 7281 7282 7283 7284 7285 7286 7287 7288 7289 7290 7291 7292 7293 7294 7295 7296 7297 7298 7299 7300 7301 7302 7303 7304 7305 7306 7307 7308 7309 7310 7311 7312 7313 7314 7315 7316 7317 7318 7319 7320 7321 7322 7323 7324 7325 7326 7327 7328 7329 7330 7331 7332 7333 7334 7335 7336 7337 7338 7339 7340 7341 7342 7343 7344 7345 7346 7347 7348 7349 7350 7351 7352 7353 7354 7355 7356 7357 7358 7359 7360 7361 7362 7363 7364 7365 7366 7367 7368 7369 7370 7371 7372 7373 7374 7375 7376 7377 7378 7379 7380 7381 7382 7383 7384 7385 7386 7387 7388 7389 7390 7391 7392 7393 7394 7395 7396 7397 7398 7399 7400 7401 7402 7403 7404 7405 7406 7407 7408 7409 7410 7411 7412 7413 7414 7415 7416 7417 7418 7419 7420 7421 7422 7423 7424 7425 7426 7427 7428 7429 7430 7431 7432 7433 7434 7435 7436 7437 7438 7439 7440 7441 7442 7443 7444 7445 7446 7447 7448 7449 7450 7451 7452 7453 7454 7455 7456 7457 7458 7459 7460 7461 7462 7463 7464 7465 7466 7467 7468 7469 7470 7471 7472 7473 7474 7475 7476 7477 7478 7479 7480 7481 7482 7483 7484 7485 7486 7487 7488 7489 7490 7491 7492 7493 7494 7495 7496 7497 7498 7499 7500 7501 7502 7503 7504 7505 7506 7507 7508 7509 7510 7511 7512 7513 7514 7515 7516 7517 7518 7519 7520 7521 7522 7523 7524 7525 7526 7527 7528 7529 7530 7531 7532 7533 7534 7535 7536 7537 7538 7539 7540 7541 7542 7543 7544 7545 7546 7547 7548 7549 7550 7551 7552 7553 7554 7555 7556 7557 7558 7559 7560 7561 7562 7563 7564 7565 7566 7567 7568 7569 7570 7571 7572 7573 7574 7575 7576 7577 7578 7579 7580 7581 7582 7583 7584 7585 7586 7587 7588 7589 7590 7591 7592 7593 7594 7595 7596 7597 7598 7599 7600 7601 7602 7603 7604 7605 7606 7607 7608 7609 7610 7611 7612 7613 7614 7615 7616 7617 7618 7619 7620 7621 7622 7623 7624 7625 7626 7627 7628 7629 7630 7631 7632 7633 7634 7635 7636 7637 7638 7639 7640 7641 7642 7643 7644 7645 7646 7647 7648 7649 7650 7651 7652 7653 7654 7655 7656 7657 7658 7659 7660 7661 7662 7663 7664 7665 7666 7667 7668 7669 7670 7671 7672 7673 7674 7675 7676 7677 7678 7679 7680 7681 7682 7683 7684 7685 7686 7687 7688 7689 7690 7691 7692 7693 7694 7695 7696 7697 7698 7699 7700 7701 7702 7703 7704 7705 7706 7707 7708 7709 7710 7711 7712 7713 7714 7715 7716 7717 7718 7719 7720 7721 7722 7723 7724 7725 7726 7727 7728 7729 7730 7731 7732 7733 7734 7735 7736 7737 7738 7739 7740 7741 7742 7743 7744 7745 7746 7747 7748 7749 7750 7751 7752 7753 7754 7755 7756 7757 7758 7759 7760 7761 7762 7763 7764 7765 7766 7767 7768 7769 7770 7771 7772 7773 7774 7775 7776 7777 7778 7779 7780 7781 7782 7783 7784 7785 7786 7787 7788 7789 7790 7791 7792 7793 7794 7795 7796 7797 7798 7799 7800 7801 7802 7803 7804 7805 7806 7807 7808 7809 7810 7811 7812 7813 7814 7815 7816 7817 7818 7819 7820 7821 7822 7823 7824 7825 7826 7827 7828 7829 7830 7831 7832 7833 7834 7835 7836 7837 7838 7839 7840 7841 7842 7843 7844 7845 7846 7847 7848 7849 7850 7851 7852 7853 7854 7855 7856 7857 7858 7859 7860 7861 7862 7863 7864 7865 7866 7867 7868 7869 7870 7871 7872 7873 7874 7875 7876 7877 7878 7879 7880 7881 7882 7883 7884 7885 7886 7887 7888 7889 7890 7891 7892 7893 7894 7895 7896 7897 7898 7899 7900 7901 7902 7903 7904 7905 7906 7907 7908 7909 7910 7911 7912 7913 7914 7915 7916 7917 7918 7919 7920 7921 7922 7923 7924 7925 7926 7927 7928 7929 7930 7931 7932 7933 7934 7935 7936 7937 7938 7939 7940 7941 7942 7943 7944 7945 7946 7947 7948 7949 7950 7951 7952 7953 7954 7955 7956 7957 7958 7959 7960 7961 7962 7963 7964 7965 7966 7967 7968 7969 7970 7971 7972 7973 7974 7975 7976 7977 7978 7979 7980 7981 7982 7983 7984 7985 7986 7987 7988 7989 7990 7991 7992 7993 7994 7995 7996 7997 7998 7999 8000 8001 8002 8003 8004 8005 8006 8007 8008 8009 8010 8011 8012 8013 8014 8015 8016 8017 8018 8019 8020 8021 8022 8023 8024 8025 8026 8027 8028 8029 8030 8031 8032 8033 8034 8035 8036 8037 8038 8039 8040 8041 8042 8043 8044 8045 8046 8047 8048 8049 8050 8051 8052 8053 8054 8055 8056 8057 8058 8059 8060 8061 8062 8063 8064 8065 8066 8067 8068 8069 8070 8071 8072 8073 8074 8075 8076 8077 8078 8079 8080 8081 8082 8083 8084 8085 8086 8087 8088 8089 8090 8091 8092 8093 8094 8095 8096 8097 8098 8099 8100 8101 8102 8103 8104 8105 8106 8107 8108 8109 8110 8111 8112 8113 8114 8115 8116 8117 8118 8119 8120 8121 8122 8123 8124 8125 8126 8127 8128 8129 8130 8131 8132 8133 8134 8135 8136 8137 8138 8139 8140 8141 8142 8143 8144 8145 8146 8147 8148 8149 8150 8151 8152 8153 8154 8155 8156 8157 8158 8159 8160 8161 8162 8163 8164 8165 8166 8167 8168 8169 8170 8171 8172 8173 8174 8175 8176 8177 8178 8179 8180 8181 8182 8183 8184 8185 8186 8187 8188 8189 8190 8191 8192 8193 8194 8195 8196 8197 8198 8199 8200 8201 8202 8203 8204 8205 8206 8207 8208 8209 8210 8211 8212 8213 8214 8215 8216 8217 8218 8219 8220 8221 8222 8223 8224 8225 8226 8227 8228 8229 8230 8231 8232 8233 8234 8235 8236 8237 8238 8239 8240 8241 8242 8243 8244 8245 8246 8247 8248 8249 8250 8251 8252 8253 8254 8255 8256 8257 8258 8259 8260 8261 8262 8263 8264 8265 8266 8267 8268 8269 8270 8271 8272 8273 8274 8275 8276 8277 8278 8279 8280 8281 8282 8283 8284 8285 8286 8287 8288 8289 8290 8291 8292 8293 8294 8295 8296 8297 8298 8299 8300 8301 8302 8303 8304 8305 8306 8307 8308 8309 8310 8311 8312 8313 8314 8315 8316 8317 8318 8319 8320 8321 8322 8323 8324 8325 8326 8327 8328 8329 8330 8331 8332 8333 8334 8335 8336 8337 8338 8339 8340 8341 8342 8343 8344 8345 8346 8347 8348 8349 8350 8351 8352 8353 8354 8355 8356 8357 8358 8359 8360 8361 8362 8363 8364 8365 8366 8367 8368 8369 8370 8371 8372 8373 8374 8375 8376 8377 8378 8379 8380 8381 8382 8383 8384 8385 8386 8387 8388 8389 8390 8391 8392 8393 8394 8395 8396 8397 8398 8399 8400 8401 8402 8403 8404 8405 8406 8407 8408 8409 8410 8411 8412 8413 8414 8415 8416 8417 8418 8419 8420 8421 8422 8423 8424 8425 8426 8427 8428 8429 8430 8431 8432 8433 8434 8435 8436 8437 8438 8439 8440 8441 8442 8443 8444 8445 8446 8447 8448 8449 8450 8451 8452 8453 8454 8455 8456 8457 8458 8459 8460 8461 8462 8463 8464 8465 8466 8467 8468 8469 8470 8471 8472 8473 8474 8475 8476 8477 8478 8479 8480 8481 8482 8483 8484 8485 8486 8487 8488 8489 8490 8491 8492 8493 8494 8495 8496 8497 8498 8499 8500 8501 8502 8503 8504 8505 8506 8507 8508 8509 8510 8511 8512 8513 8514 8515 8516 8517 8518 8519 8520 8521 8522 8523 8524 8525 8526 8527 8528 8529 8530 8531 8532 8533 8534 8535 8536 8537 8538 8539 8540 8541 8542 8543 8544 8545 8546 8547 8548 8549 8550 8551 8552 8553 8554 8555 8556 8557 8558 8559 8560 8561 8562 8563 8564 8565 8566 8567 8568 8569 8570 8571 8572 8573 8574 8575 8576 8577 8578 8579 8580 8581 8582 8583 8584 8585 8586 8587 8588 8589 8590 8591 8592 8593 8594 8595 8596 8597 8598 8599 8600 8601 8602 8603 8604 8605 8606 8607 8608 8609 8610 8611 8612 8613 8614 8615 8616 8617 8618 8619 8620 8621 8622 8623 8624 8625 8626 8627 8628 8629 8630 8631 8632 8633 8634 8635 8636 8637 8638 8639 8640 8641 8642 8643 8644 8645 8646 8647 8648 8649 8650 8651 8652 8653 8654 8655 8656 8657 8658 8659 8660 8661 8662 8663 8664 8665 8666 8667 8668 8669 8670 8671 8672 8673 8674 8675 8676 8677 8678 8679 8680 8681 8682 8683 8684 8685 8686 8687 8688 8689 8690 8691 8692 8693 8694 8695 8696 8697 8698 8699 8700 8701 8702 8703 8704 8705 8706 8707 8708 8709 8710 8711 8712 8713 8714 8715 8716 8717 8718 8719 8720 8721 8722 8723 8724 8725 8726 8727 8728 8729 8730 8731 8732 8733 8734 8735 8736 8737 8738 8739 8740 8741 8742 8743 8744 8745 8746 8747 8748 8749 8750 8751 8752 8753 8754 8755 8756 8757 8758 8759 8760 8761 8762 8763 8764 8765 8766 8767 8768 8769 8770 8771 8772 8773 8774 8775 8776 8777 8778 8779 8780 8781 8782 8783 8784 8785 8786 8787 8788 8789 8790 8791 8792 8793 8794 8795 8796 8797 8798 8799 8800 8801 8802 8803 8804 8805 8806 8807 8808 8809 8810 8811 8812 8813 8814 8815 8816 8817 8818 8819 8820 8821 8822 8823 8824 8825 8826 8827 8828 8829 8830 8831 8832 8833 8834 8835 8836 8837 8838 8839 8840 8841 8842 8843 8844 8845 8846 8847 8848 8849 8850 8851 8852 8853 8854 8855 8856 8857 8858 8859 8860 8861 8862 8863 8864 8865 8866 8867 8868 8869 8870 8871 8872 8873 8874 8875 8876 8877 8878 8879 8880 8881 8882 8883 8884 8885 8886 8887 8888 8889 8890 8891 8892 8893 8894 8895 8896 8897 8898 8899 8900 8901 8902 8903 8904 8905 8906 8907 8908 8909 8910 8911 8912 8913 8914 8915 8916 8917 8918 8919 8920 8921 8922 8923 8924 8925 8926 8927 8928 8929 8930 8931 8932 8933 8934 8935 8936 8937 8938 8939 8940 8941 8942 8943 8944 8945 8946 8947 8948 8949 8950 8951 8952 8953 8954 8955 8956 8957 8958 8959 8960 8961 8962 8963 8964 8965 8966 8967 8968 8969 8970 8971 8972 8973 8974 8975 8976 8977 8978 8979 8980 8981 8982 8983 8984 8985 8986 8987 8988 8989 8990 8991 8992 8993 8994 8995 8996 8997 8998 8999 9000 9001 9002 9003 9004 9005 9006 9007 9008 9009 9010 9011 9012 9013 9014 9015 9016 9017 9018 9019 9020 9021 9022 9023 9024 9025 9026 9027 9028 9029 9030 9031 9032 9033 9034 9035 9036 9037 9038 9039 9040 9041 9042 9043 9044 9045 9046 9047 9048 9049 9050 9051 9052 9053 9054 9055 9056 9057 9058 9059 9060 9061 9062 9063 9064 9065 9066 9067 9068 9069 9070 9071 9072 9073 9074 9075 9076 9077 9078 9079 9080 9081 9082 9083 9084 9085 9086 9087 9088 9089 9090 9091 9092 9093 9094 9095 9096 9097 9098 9099 9100 9101 9102 9103 9104 9105 9106 9107 9108 9109 9110 9111 9112 9113 9114 9115 9116 9117 9118 9119 9120 9121 9122 9123 9124 9125 9126 9127 9128 9129 9130 9131 9132 9133 9134 9135 9136 9137 9138 9139 9140 9141 9142 9143 9144 9145 9146 9147 9148 9149 9150 9151 9152 9153 9154 9155 9156 9157 9158 9159 9160 9161 9162 9163 9164 9165 9166 9167 9168 9169 9170 9171 9172 9173 9174 9175 9176 9177 9178 9179 9180 9181 9182 9183 9184 9185 9186 9187 9188 9189 9190 9191 9192 9193 9194 9195 9196 9197 9198 9199 9200 9201 9202 9203 9204 9205 9206 9207 9208 9209 9210 9211 9212 9213 9214 9215 9216 9217 9218 9219 9220 9221 9222 9223 9224 9225 9226 9227 9228 9229 9230 9231 9232 9233 9234 9235 9236 9237 9238 9239 9240 9241 9242 9243 9244 9245 9246 9247 9248 9249 9250 9251 9252 9253 9254 9255 9256 9257 9258 9259 9260 9261 9262 9263 9264 9265 9266 9267 9268 9269 9270 9271 9272 9273 9274 9275 9276 9277 9278 9279 9280 9281 9282 9283 9284 9285 9286 9287 9288 9289 9290 9291 9292 9293 9294 9295 9296 9297 9298 9299 9300 9301 9302 9303 9304 9305 9306 9307 9308 9309 9310 9311 9312 9313 9314 9315 9316 9317 9318 9319 9320 9321 9322 9323 9324 9325 9326 9327 9328 9329 9330 9331 9332 9333 9334 9335 9336 9337 9338 9339 9340 9341 9342 9343 9344 9345 9346 9347 9348 9349 9350 9351 9352 9353 9354 9355 9356 9357 9358 9359 9360 9361 9362 9363 9364 9365 9366 9367 9368 9369 9370 9371 9372 9373 9374 9375 9376 9377 9378 9379 9380 9381 9382 9383 9384 9385 9386 9387 9388 9389 9390 9391 9392 9393 9394 9395 9396 9397 9398 9399 9400 9401 9402 9403 9404 9405 9406 9407 9408 9409 9410 9411 9412 9413 9414 9415 9416 9417 9418 9419 9420 9421 9422 9423 9424 9425 9426 9427 9428 9429 9430 9431 9432 9433 9434 9435 9436 9437 9438 9439 9440 9441 9442 9443 9444 9445 9446 9447 9448 9449 9450 9451 9452 9453 9454 9455 9456 9457 9458 9459 9460 9461 9462 9463 9464 9465 9466 9467 9468 9469 9470 9471 9472 9473 9474 9475 9476 9477 9478 9479 9480 9481 9482 9483 9484 9485 9486 9487 9488 9489 9490 9491 9492 9493 9494 9495 9496 9497 9498 9499 9500 9501 9502 9503 9504 9505 9506 9507 9508 9509 9510 9511 9512 9513 9514 9515 9516 9517 9518 9519 9520 9521 9522 9523 9524 9525 9526 9527 9528 9529 9530 9531 9532 9533 9534 9535 9536 9537 9538 9539 9540 9541 9542 9543 9544 9545 9546 9547 9548 9549 9550 9551 9552 9553 9554 9555 9556 9557 9558 9559 9560 9561 9562 9563 9564 9565 9566 9567 9568 9569 9570 9571 9572 9573 9574 9575 9576 9577 9578 9579 9580 9581 9582 9583 9584 9585 9586 9587 9588 9589 9590 9591 9592 9593 9594 9595 9596 9597 9598 9599 9600 9601 9602 9603 9604 9605 9606 9607 9608 9609 9610 9611 9612 9613 9614 9615 9616 9617 9618 9619 9620 9621 9622 9623 9624 9625 9626 9627 9628 9629 9630 9631 9632 9633 9634 9635 9636 9637 9638 9639 9640 9641 9642 9643 9644 9645 9646 9647 9648 9649 9650 9651 9652 9653 9654 9655 9656 9657 9658 9659 9660 9661 9662 9663 9664 9665 9666 9667 9668 9669 9670 9671 9672 9673 9674 9675 9676 9677 9678 9679 9680 9681 9682 9683 9684 9685 9686 9687 9688 9689 9690 9691 9692 9693 9694 9695 9696 9697 9698 9699 9700 9701 9702 9703 9704 9705 9706 9707 9708 9709 9710 9711 9712 9713 9714 9715 9716 9717 9718 9719 9720 9721 9722 9723 9724 9725 9726 9727 9728 9729 9730 9731 9732 9733 9734 9735 9736 9737 9738 9739 9740 9741 9742 9743 9744 9745 9746 9747 9748 9749 9750 9751 9752 9753 9754 9755 9756 9757 9758 9759 9760 9761 9762 9763 9764 9765 9766 9767 9768 9769 9770 9771 9772 9773 9774 9775 9776 9777 9778 9779 9780 9781 9782 9783 9784 9785 9786 9787 9788 9789 9790 9791 9792 9793 9794 9795 9796 9797 9798 9799 9800 9801 9802 9803 9804 9805 9806 9807 9808 9809 9810 9811 9812 9813 9814 9815 9816 9817 9818 9819 9820 9821 9822 9823 9824 9825 9826 9827 9828 9829 9830 9831 9832 9833 9834 9835 9836 9837 9838 9839 9840 9841 9842 9843 9844 9845 9846 9847 9848 9849 9850 9851 9852 9853 9854 9855 9856 9857 9858 9859 9860 9861 9862 9863 9864 9865 9866 9867 9868 9869 9870 9871 9872 9873 9874 9875 9876 9877 9878 9879 9880 9881 9882 9883 9884 9885 9886 9887 9888 9889 9890 9891 9892 9893 9894 9895 9896 9897 9898 9899 9900 9901 9902 9903 9904 9905 9906 9907 9908 9909 9910 9911 9912 9913 9914 9915 9916 9917 9918 9919 9920 9921 9922 9923 9924 9925 9926 9927 9928 9929 9930 9931 9932 9933 9934 9935 9936 9937 9938 9939 9940 9941 9942 9943 9944 9945 9946 9947 9948 9949 9950 9951 9952 9953 9954 9955 9956 9957 9958 9959 9960 9961 9962 9963 9964 9965 9966 9967 9968 9969 9970 9971 9972 9973 9974 9975 9976 9977 9978 9979 9980 9981 9982 9983 9984 9985 9986 9987 9988 9989 9990 9991 9992 9993 9994 9995 9996 9997 9998 9999 10000 10001 10002 10003 10004 10005 10006 10007 10008 10009 10010 10011 10012 10013 10014 10015 10016 10017 10018 10019 10020 10021 10022 10023 10024 10025 10026 10027 10028 10029 10030 10031 10032 10033 10034 10035 10036 10037 10038 10039 10040 10041 10042 10043 10044 10045 10046 10047 10048 10049 10050 10051 10052 10053 10054 10055 10056 10057 10058 10059 10060 10061 10062 10063 10064 10065 10066 10067 10068 10069 10070 10071 10072 10073 10074 10075 10076 10077 10078 10079 10080 10081 10082 10083 10084 10085 10086 10087 10088 10089 10090 10091 10092 10093 10094 10095 10096 10097 10098 10099 10100 10101 10102 10103 10104 10105 10106 10107 10108 10109 10110 10111 10112 10113 10114 10115 10116 10117 10118 10119 10120 10121 10122 10123 10124 10125 10126 10127 10128 10129 10130 10131 10132 10133 10134 10135 10136 10137 10138 10139 10140 10141 10142 10143 10144 10145 10146 10147 10148 10149 10150 10151 10152 10153 10154 10155 10156 10157 10158 10159 10160 10161 10162 10163 10164 10165 10166 10167 10168 10169 10170 10171 10172 10173 10174 10175 10176 10177 10178 10179 10180 10181 10182 10183 10184 10185 10186 10187 10188 10189 10190 10191 10192 10193 10194 10195 10196 10197 10198 10199 10200 10201 10202 10203 10204 10205 10206 10207 10208 10209 10210 10211 10212 10213 10214 10215 10216 10217 10218 10219 10220 10221 10222 10223 10224 10225 10226 10227 10228 10229 10230 10231 10232 10233 10234 10235 10236 10237 10238 10239 10240 10241 10242 10243 10244 10245 10246 10247 10248 10249 10250 10251 10252 10253 10254 10255 10256 10257 10258 10259 10260 10261 10262 10263 10264 10265 10266 10267 10268 10269 10270 10271 10272 10273 10274 10275 10276 10277 10278 10279 10280 10281 10282 10283 10284 10285 10286 10287 10288 10289 10290 10291 10292 10293 10294 10295 10296 10297 10298 10299 10300 10301 10302 10303 10304 10305 10306 10307 10308 10309 10310 10311 10312 10313 10314 10315 10316 10317 10318 10319 10320 10321 10322 10323 10324 10325 10326 10327 10328 10329 10330 10331 10332 10333 10334 10335 10336 10337 10338 10339 10340 10341 10342 10343 10344 10345 10346 10347 10348 10349 10350 10351 10352 10353 10354 10355 10356 10357 10358 10359 10360 10361 10362 10363 10364 10365 10366 10367 10368 10369 10370 10371 10372 10373 10374 10375 10376 10377 10378 10379 10380 10381 10382 10383 10384 10385 10386 10387 10388 10389 10390 10391 10392 10393 10394 10395 10396 10397 10398 10399 10400 10401 10402 10403 10404 10405 10406 10407 10408 10409 10410 10411 10412 10413 10414 10415 10416 10417 10418 10419 10420 10421 10422 10423 10424 10425 10426 10427 10428 10429 10430 10431 10432 10433 10434 10435 10436 10437 10438 10439 10440 10441 10442 10443 10444 10445 10446 10447 10448 10449 10450 10451 10452 10453 10454 10455 10456 10457 10458 10459 10460 10461 10462 10463 10464 10465 10466 10467 10468 10469 10470 10471 10472 10473 10474 10475 10476 10477 10478 10479 10480 10481 10482 10483 10484 10485 10486 10487 10488 10489 10490 10491 10492 10493 10494 10495 10496 10497 10498 10499 10500 10501 10502 10503 10504 10505 10506 10507 10508 10509 10510 10511 10512 10513 10514 10515 10516 10517 10518 10519 10520 10521 10522 10523 10524 10525 10526 10527 10528 10529 10530 10531 10532 10533 10534 10535 10536 10537 10538 10539 10540 10541 10542 10543 10544 10545 10546 10547 10548 10549 10550 10551 10552 10553 10554 10555 10556 10557 10558 10559 10560 10561 10562 10563 10564 10565 10566 10567 10568 10569 10570 10571 10572 10573 10574 10575 10576 10577 10578 10579 10580 10581 10582 10583 10584 10585 10586 10587 10588 10589 10590 10591 10592 10593 10594 10595 10596 10597 10598 10599 10600 10601 10602 10603 10604 10605 10606 10607 10608 10609 10610 10611 10612 10613 10614 10615 10616 10617 10618 10619 10620 10621 10622 10623 10624 10625 10626 10627 10628 10629 10630 10631 10632 10633 10634 10635 10636 10637 10638 10639 10640 10641 10642 10643 10644 10645 10646 10647 10648 10649 10650 10651 10652 10653 10654 10655 10656 10657 10658 10659 10660 10661 10662 10663 10664 10665 10666 10667 10668 10669 10670 10671 10672 10673 10674 10675 10676 10677 10678 10679 10680 10681 10682 10683 10684 10685 10686 10687 10688 10689 10690 10691 10692 10693 10694 10695 10696 10697 10698 10699 10700 10701 10702 10703 10704 10705 10706 10707 10708 10709 10710 10711 10712 10713 10714 10715 10716 10717 10718 10719 10720 10721 10722 10723 10724 10725 10726 10727 10728 10729 10730 10731 10732 10733 10734 10735 10736 10737 10738 10739 10740 10741 10742 10743 10744 10745 10746 10747 10748 10749 10750 10751 10752 10753 10754 10755 10756 10757 10758 10759 10760 10761 10762 10763 10764 10765 10766 10767 10768 10769 10770 10771 10772 10773 10774 10775 10776 10777 10778 10779 10780 10781 10782 10783 10784 10785 10786 10787 10788 10789 10790 10791 10792 10793 10794 10795 10796 10797 10798 10799 10800 10801 10802 10803 10804 10805 10806 10807 10808 10809 10810 10811 10812 10813 10814 10815 10816 10817 10818 10819 10820 10821 10822 10823 10824 10825 10826 10827 10828 10829 10830 10831 10832 10833 10834 10835 10836 10837 10838 10839 10840 10841 10842 10843 10844 10845 10846 10847 10848 10849 10850 10851 10852 10853 10854 10855 10856 10857 10858 10859 10860 10861 10862 10863 10864 10865 10866 10867 10868 10869 10870 10871 10872 10873 10874 10875 10876 10877 10878 10879 10880 10881 10882 10883 10884 10885 10886 10887 10888 10889 10890 10891 10892 10893 10894 10895 10896 10897 10898 10899 10900 10901 10902 10903 10904 10905 10906 10907 10908 10909 10910 10911 10912 10913 10914 10915 10916 10917 10918 10919 10920 10921 10922 10923 10924 10925 10926 10927 10928 10929 10930 10931 10932 10933 10934 10935 10936 10937 10938 10939 10940 10941 10942 10943 10944 10945 10946 10947 10948 10949 10950 10951 10952 10953 10954 10955 10956 10957 10958 10959 10960 10961 10962 10963 10964 10965 10966 10967 10968 10969 10970 10971 10972 10973 10974 10975 10976 10977 10978 10979 10980 10981 10982 10983 10984 10985 10986 10987 10988 10989 10990 10991 10992 10993 10994 10995 10996 10997 10998 10999 11000 11001 11002 11003 11004 11005 11006 11007 11008 11009 11010 11011 11012 11013 11014 11015 11016 11017 11018 11019 11020 11021 11022 11023 11024 11025 11026 11027 11028 11029 11030 11031 11032 11033 11034 11035 11036 11037 11038 11039 11040 11041 11042 11043 11044 11045 11046 11047 11048 11049 11050 11051 11052 11053 11054 11055 11056 11057 11058 11059 11060 11061 11062 11063 11064 11065 11066 11067 11068 11069 11070 11071 11072 11073 11074 11075 11076 11077 11078 11079 11080 11081 11082 11083 11084 11085 11086 11087 11088 11089 11090 11091 11092 11093 11094 11095 11096 11097 11098 11099 11100 11101 11102 11103 11104 11105 11106 11107 11108 11109 11110 11111 11112 11113 11114 11115 11116 11117 11118 11119 11120 11121 11122 11123 11124 11125 11126 11127 11128 11129 11130 11131 11132 11133 11134 11135 11136 11137 11138 11139 11140 11141 11142 11143 11144 11145 11146 11147 11148 11149 11150 11151 11152 11153 11154 11155 11156 11157 11158 11159 11160 11161 11162 11163 11164 11165 11166 11167 11168 11169 11170 11171 11172 11173 11174 11175 11176 11177 11178 11179 11180 11181 11182 11183 11184 11185 11186 11187 11188 11189 11190 11191 11192 11193 11194 11195 11196 11197 11198 11199 11200 11201 11202 11203 11204 11205 11206 11207 11208 11209 11210 11211 11212 11213 11214 11215 11216 11217 11218 11219 11220 11221 11222 11223 11224 11225 11226 11227 11228 11229 11230 11231 11232 11233 11234 11235 11236 11237 11238 11239 11240 11241 11242 11243 11244 11245 11246 11247 11248 11249 11250 11251 11252 11253 11254 11255 11256 11257 11258 11259 11260 11261 11262 11263 11264 11265 11266 11267 11268 11269 11270 11271 11272 11273 11274 11275 11276 11277 11278 11279 11280 11281 11282 11283 11284 11285 11286 11287 11288 11289 11290 11291 11292 11293 11294 11295 11296 11297 11298 11299 11300 11301 11302 11303 11304 11305 11306 11307 11308 11309 11310 11311 11312 11313 11314 11315 11316 11317 11318 11319 11320 11321 11322 11323 11324 11325 11326 11327 11328 11329 11330 11331 11332 11333 11334 11335 11336 11337 11338 11339 11340 11341 11342 11343 11344 11345 11346 11347 11348 11349 11350 11351 11352 11353 11354 11355 11356 11357 11358 11359 11360 11361 11362 11363 11364 11365 11366 11367 11368 11369 11370 11371 11372 11373 11374 11375 11376 11377 11378 11379 11380 11381 11382 11383 11384 11385 11386 11387 11388 11389 11390 11391 11392 11393 11394 11395 11396 11397 11398 11399 11400 11401 11402 11403 11404 11405 11406 11407 11408 11409 11410 11411 11412 11413 11414 11415 11416 11417 11418 11419 11420 11421 11422 11423 11424 11425 11426 11427 11428 11429 11430 11431 11432 11433 11434 11435 11436 11437 11438 11439 11440 11441 11442 11443 11444 11445 11446 11447 11448 11449 11450 11451 11452 11453 11454 11455 11456 11457 11458 11459 11460 11461 11462 11463 11464 11465 11466 11467 11468 11469 11470 11471 11472 11473 11474 11475 11476 11477 11478 11479 11480 11481 11482 11483 11484 11485 11486 11487 11488 11489 11490 11491 11492 11493 11494 11495 11496 11497 11498 11499 11500 11501 11502 11503 11504 11505 11506 11507 11508 11509 11510 11511 11512 11513 11514 11515 11516 11517 11518 11519 11520 11521 11522 11523 11524 11525 11526 11527 11528 11529 11530 11531 11532 11533 11534 11535 11536 11537 11538 11539 11540 11541 11542 11543 11544 11545 11546 11547 11548 11549 11550 11551 11552 11553 11554 11555 11556 11557 11558 11559 11560 11561 11562 11563 11564 11565 11566 11567 11568 11569 11570 11571 11572 11573 11574 11575 11576 11577 11578 11579 11580 11581 11582 11583 11584 11585 11586 11587 11588 11589 11590 11591 11592 11593 11594 11595 11596 11597 11598 11599 11600 11601 11602 11603 11604 11605 11606 11607 11608 11609 11610 11611 11612 11613 11614 11615 11616 11617 11618 11619 11620 11621 11622 11623 11624 11625 11626 11627 11628 11629 11630 11631 11632 11633 11634 11635 11636 11637 11638 11639 11640 11641 11642 11643 11644 11645 11646 11647 11648 11649 11650 11651 11652 11653 11654 11655 11656 11657 11658 11659 11660 11661 11662 11663 11664 11665 11666 11667 11668 11669 11670 11671 11672 11673 11674 11675 11676 11677 11678 11679 11680 11681 11682 11683 11684 11685 11686 11687 11688 11689 11690 11691 11692 11693 11694 11695 11696 11697 11698 11699 11700 11701 11702 11703 11704 11705 11706 11707 11708 11709 11710 11711 11712 11713 11714 11715 11716 11717 11718 11719 11720 11721 11722 11723 11724 11725 11726 11727 11728 11729 11730 11731 11732 11733 11734 11735 11736 11737 11738 11739 11740 11741 11742 11743 11744 11745 11746 11747 11748 11749 11750 11751 11752 11753 11754 11755 11756 11757 11758 11759 11760 11761 11762 11763 11764 11765 11766 11767 11768 11769 11770 11771 11772 11773 11774 11775 11776 11777 11778 11779 11780 11781 11782 11783 11784 11785 11786 11787 11788 11789 11790 11791 11792 11793 11794 11795 11796 11797 11798 11799 11800 11801 11802 11803 11804 11805 11806 11807 11808 11809 11810 11811 11812 11813 11814 11815 11816 11817 11818 11819 11820 11821 11822 11823 11824 11825 11826 11827 11828 11829 11830 11831 11832 11833 11834 11835 11836 11837 11838 11839 11840 11841 11842 11843 11844 11845 11846 11847 11848 11849 11850 11851 11852 11853 11854 11855 11856 11857 11858 11859 11860 11861 11862 11863 11864 11865 11866 11867 11868 11869 11870 11871 11872 11873 11874 11875 11876 11877 11878 11879 11880 11881 11882 11883 11884 11885 11886 11887 11888 11889 11890 11891 11892 11893 11894 11895 11896 11897 11898 11899 11900 11901 11902 11903 11904 11905 11906 11907 11908 11909 11910 11911 11912 11913 11914 11915 11916 11917 11918 11919 11920 11921 11922 11923 11924 11925 11926 11927 11928 11929 11930 11931 11932 11933 11934 11935 11936 11937 11938 11939 11940 11941 11942 11943 11944 11945 11946 11947 11948 11949 11950 11951 11952 11953 11954 11955 11956 11957 11958 11959 11960 11961 11962 11963 11964 11965 11966 11967 11968 11969 11970 11971 11972 11973 11974 11975 11976 11977 11978 11979 11980 11981 11982 11983 11984 11985 11986 11987 11988 11989 11990 11991 11992 11993 11994 11995 11996 11997 11998 11999 12000 12001 12002 12003 12004 12005 12006 12007 12008 12009 12010 12011 12012 12013 12014 12015 12016 12017 12018 12019 12020 12021 12022 12023 12024 12025 12026 12027 12028 12029 12030 12031 12032 12033 12034 12035 12036 12037 12038 12039 12040 12041 12042 12043 12044 12045 12046 12047 12048 12049 12050 12051 12052 12053 12054 12055 12056 12057 12058 12059 12060 12061 12062 12063 12064 12065 12066 12067 12068 12069 12070 12071 12072 12073 12074 12075 12076 12077 12078 12079 12080 12081 12082 12083 12084 12085 12086 12087 12088 12089 12090 12091 12092 12093 12094 12095 12096 12097 12098 12099 12100 12101 12102 12103 12104 12105 12106 12107 12108 12109 12110 12111 12112 12113 12114 12115 12116 12117 12118 12119 12120 12121 12122 12123 12124 12125 12126 12127 12128 12129 12130 12131 12132 12133 12134 12135 12136 12137 12138 12139 12140 12141 12142 12143 12144 12145 12146 12147 12148 12149 12150 12151 12152 12153 12154 12155 12156 12157 12158 12159 12160 12161 12162 12163 12164 12165 12166 12167 12168 12169 12170 12171 12172 12173 12174 12175 12176 12177 12178 12179 12180 12181 12182 12183 12184 12185 12186 12187 12188 12189 12190 12191 12192 12193 12194 12195 12196 12197 12198 12199 12200 12201 12202 12203 12204 12205 12206 12207 12208 12209 12210 12211 12212 12213 12214 12215 12216 12217 12218 12219 12220 12221 12222 12223 12224 12225 12226 12227 12228 12229 12230 12231 12232 12233 12234 12235 12236 12237 12238 12239 12240 12241 12242 12243 12244 12245 12246 12247 12248 12249 12250 12251 12252 12253 12254 12255 12256 12257 12258 12259 12260 12261 12262 12263 12264 12265 12266 12267 12268 12269 12270 12271 12272 12273 12274 12275 12276 12277 12278 12279 12280 12281 12282 12283 12284 12285 12286 12287 12288 12289 12290 12291 12292 12293 12294 12295 12296 12297 12298 12299 12300 12301 12302 12303 12304 12305 12306 12307 12308 12309 12310 12311 12312 12313 12314 12315 12316 12317 12318 12319 12320 12321 12322 12323 12324 12325 12326 12327 12328 12329 12330 12331 12332 12333 12334 12335 12336 12337 12338 12339 12340 12341 12342 12343 12344 12345 12346 12347 12348 12349 12350 12351 12352 12353 12354 12355 12356 12357 12358 12359 12360 12361 12362 12363 12364 12365 12366 12367 12368 12369 12370 12371 12372 12373 12374 12375 12376 12377 12378 12379 12380 12381 12382 12383 12384 12385 12386 12387 12388 12389 12390 12391 12392 12393 12394 12395 12396 12397 12398 12399 12400 12401 12402 12403 12404 12405 12406 12407 12408 12409 12410 12411 12412 12413 12414 12415 12416 12417 12418 12419 12420 12421 12422 12423 12424 12425 12426 12427 12428 12429 12430 12431 12432 12433 12434 12435 12436 12437 12438 12439 12440 12441 12442 12443 12444 12445 12446 12447 12448 12449 12450 12451 12452 12453 12454 12455 12456 12457 12458 12459 12460 12461 12462 12463 12464 12465 12466 12467 12468 12469 12470 12471 12472 12473 12474 12475 12476 12477 12478 12479 12480 12481 12482 12483 12484 12485 12486 12487 12488 12489 12490 12491 12492 12493 12494 12495 12496 12497 12498 12499 12500 12501 12502 12503 12504 12505 12506 12507 12508 12509 12510 12511 12512 12513 12514 12515 12516 12517 12518 12519 12520 12521 12522 12523 12524 12525 12526 12527 12528 12529 12530 12531 12532 12533 12534 12535 12536 12537 12538 12539 12540 12541 12542 12543 12544 12545 12546 12547 12548 12549 12550 12551 12552 12553 12554 12555 12556 12557 12558 12559 12560 12561 12562 12563 12564 12565 12566 12567 12568 12569 12570 12571 12572 12573 12574 12575 12576 12577 12578 12579 12580 12581 12582 12583 12584 12585 12586 12587 12588 12589 12590 12591 12592 12593 12594 12595 12596 12597 12598 12599 12600 12601 12602 12603 12604 12605 12606 12607 12608 12609 12610 12611 12612 12613 12614 12615 12616 12617 12618 12619 12620 12621 12622 12623 12624 12625 12626 12627 12628 12629 12630 12631 12632 12633 12634 12635 12636 12637 12638 12639 12640 12641 12642 12643 12644 12645 12646 12647 12648 12649 12650 12651 12652 12653 12654 12655 12656 12657 12658 12659 12660 12661 12662 12663 12664 12665 12666 12667 12668 12669 12670 12671 12672 12673 12674 12675 12676 12677 12678 12679 12680 12681 12682 12683 12684 12685 12686 12687 12688 12689 12690 12691 12692 12693 12694 12695 12696 12697 12698 12699 12700 12701 12702 12703 12704 12705 12706 12707 12708 12709 12710 12711 12712 12713 12714 12715 12716 12717 12718 12719 12720 12721 12722 12723 12724 12725 12726 12727 12728 12729 12730 12731 12732 12733 12734 12735 12736 12737 12738 12739 12740 12741 12742 12743 12744 12745 12746 12747 12748 12749 12750 12751 12752 12753 12754 12755 12756 12757 12758 12759 12760 12761 12762 12763 12764 12765 12766 12767 12768 12769 12770 12771 12772 12773 12774 12775 12776 12777 12778 12779 12780 12781 12782 12783 12784 12785 12786 12787 12788 12789 12790 12791 12792 12793 12794 12795 12796 12797 12798 12799 12800 12801 12802 12803 12804 12805 12806 12807 12808 12809 12810 12811 12812 12813 12814 12815 12816 12817 12818 12819 12820 12821 12822 12823 12824 12825 12826 12827 12828 12829 12830 12831 12832 12833 12834 12835 12836 12837 12838 12839 12840 12841 12842 12843 12844 12845 12846 12847 12848 12849 12850 12851 12852 12853 12854 12855 12856 12857 12858 12859 12860 12861 12862 12863 12864 12865 12866 12867 12868 12869 12870 12871 12872 12873 12874 12875 12876 12877 12878 12879 12880 12881 12882 12883 12884 12885 12886 12887 12888 12889 12890 12891 12892 12893 12894 12895 12896 12897 12898 12899 12900 12901 12902 12903 12904 12905 12906 12907 12908 12909 12910 12911 12912 12913 12914 12915 12916 12917 12918 12919 12920 12921 12922 12923 12924 12925 12926 12927 12928 12929 12930 12931 12932 12933 12934 12935 12936 12937 12938 12939 12940 12941 12942 12943 12944 12945 12946 12947 12948 12949 12950 12951 12952 12953 12954 12955 12956 12957 12958 12959 12960 12961 12962 12963 12964 12965 12966 12967 12968 12969 12970 12971 12972 12973 12974 12975 12976 12977 12978 12979 12980 12981 12982 12983 12984 12985 12986 12987 12988 12989 12990 12991 12992 12993 12994 12995 12996 12997 12998 12999 13000 13001 13002 13003 13004 13005 13006 13007 13008 13009 13010 13011 13012 13013 13014 13015 13016 13017 13018 13019 13020 13021 13022 13023 13024 13025 13026 13027 13028 13029 13030 13031 13032 13033 13034 13035 13036 13037 13038 13039 13040 13041 13042 13043 13044 13045 13046 13047 13048 13049 13050 13051 13052 13053 13054 13055 13056 13057 13058 13059 13060 13061 13062 13063 13064 13065 13066 13067 13068 13069 13070 13071 13072 13073 13074 13075 13076 13077 13078 13079 13080 13081 13082 13083 13084 13085 13086 13087 13088 13089 13090 13091 13092 13093 13094 13095 13096 13097 13098 13099 13100 13101 13102 13103 13104 13105 13106 13107 13108 13109 13110 13111 13112 13113 13114 13115 13116 13117 13118 13119 13120 13121 13122 13123 13124 13125 13126 13127 13128 13129 13130 13131 13132 13133 13134 13135 13136 13137 13138 13139 13140 13141 13142 13143 13144 13145 13146 13147 13148 13149 13150 13151 13152 13153 13154 13155 13156 13157 13158 13159 13160 13161 13162 13163 13164 13165 13166 13167 13168 13169 13170 13171 13172 13173 13174 13175 13176 13177 13178 13179 13180 13181 13182 13183 13184 13185 13186 13187 13188 13189 13190 13191 13192 13193 13194 13195 13196 13197 13198 13199 13200 13201 13202 13203 13204 13205 13206 13207 13208 13209 13210 13211 13212 13213 13214 13215 13216 13217 13218 13219 13220 13221 13222 13223 13224 13225 13226 13227 13228 13229 13230 13231 13232 13233 13234 13235 13236 13237 13238 13239 13240 13241 13242 13243 13244 13245 13246 13247 13248 13249 13250 13251 13252 13253 13254 13255 13256 13257 13258 13259 13260 13261 13262 13263 13264 13265 13266 13267 13268 13269 13270 13271 13272 13273 13274 13275 13276 13277 13278 13279 13280 13281 13282 13283 13284 13285 13286 13287 13288 13289 13290 13291 13292 13293 13294 13295 13296 13297 13298 13299 13300 13301 13302 13303 13304 13305 13306 13307 13308 13309 13310 13311 13312 13313 13314 13315 13316 13317 13318 13319 13320 13321 13322 13323 13324 13325 13326 13327 13328 13329 13330 13331 13332 13333 13334 13335 13336 13337 13338 13339 13340 13341 13342 13343 13344 13345 13346 13347 13348 13349 13350 13351 13352 13353 13354 13355 13356 13357 13358 13359 13360 13361 13362 13363 13364 13365 13366 13367 13368 13369 13370 13371 13372 13373 13374 13375 13376 13377 13378 13379 13380 13381 13382 13383 13384 13385 13386 13387 13388 13389 13390 13391 13392 13393 13394 13395 13396 13397 13398 13399 13400 13401 13402 13403 13404 13405 13406 13407 13408 13409 13410 13411 13412 13413 13414 13415 13416 13417 13418 13419 13420 13421 13422 13423 13424 13425 13426 13427 13428 13429 13430 13431 13432 13433 13434 13435 13436 13437 13438 13439 13440 13441 13442 13443 13444 13445 13446 13447 13448 13449 13450 13451 13452 13453 13454 13455 13456 13457 13458 13459 13460 13461 13462 13463 13464 13465 13466 13467 13468 13469 13470 13471 13472 13473 13474 13475 13476 13477 13478 13479 13480 13481 13482 13483 13484 13485 13486 13487 13488 13489 13490 13491 13492 13493 13494 13495 13496 13497 13498 13499 13500 13501 13502 13503 13504 13505 13506 13507 13508 13509 13510 13511 13512 13513 13514 13515 13516 13517 13518 13519 13520 13521 13522 13523 13524 13525 13526 13527 13528 13529 13530 13531 13532 13533 13534 13535 13536 13537 13538 13539 13540 13541 13542 13543 13544 13545 13546 13547 13548 13549 13550 13551 13552 13553 13554 13555 13556 13557 13558 13559 13560 13561 13562 13563 13564 13565 13566 13567 13568 13569 13570 13571 13572 13573 13574 13575 13576 13577 13578 13579 13580 13581 13582 13583 13584 13585 13586 13587 13588 13589 13590 13591 13592 13593 13594 13595 13596 13597 13598 13599 13600 13601 13602 13603 13604 13605 13606 13607 13608 13609 13610 13611 13612 13613 13614 13615 13616 13617 13618 13619 13620 13621 13622 13623 13624 13625 13626 13627 13628 13629 13630 13631 13632 13633 13634 13635 13636 13637 13638 13639 13640 13641 13642 13643 13644 13645 13646 13647 13648 13649 13650 13651 13652 13653 13654 13655 13656 13657 13658 13659 13660 13661 13662 13663 13664 13665 13666 13667 13668 13669 13670 13671 13672 13673 13674 13675 13676 13677 13678 13679 13680 13681 13682 13683 13684 13685 13686 13687 13688 13689 13690 13691 13692 13693 13694 13695 13696 13697 13698 13699 13700 13701 13702 13703 13704 13705 13706 13707 13708 13709 13710 13711 13712 13713 13714 13715 13716 13717 13718 13719 13720 13721 13722 13723 13724 13725 13726 13727 13728 13729 13730 13731 13732 13733 13734 13735 13736 13737 13738 13739 13740 13741 13742 13743 13744 13745 13746 13747 13748 13749 13750 13751 13752 13753 13754 13755 13756 13757 13758 13759 13760 13761 13762 13763 13764 13765 13766 13767 13768 13769 13770 13771 13772 13773 13774 13775 13776 13777 13778 13779 13780 13781 13782 13783 13784 13785 13786 13787 13788 13789 13790 13791 13792 13793 13794 13795 13796 13797 13798 13799 13800 13801 13802 13803 13804 13805 13806 13807 13808 13809 13810 13811 13812 13813 13814 13815 13816 13817 13818 13819 13820 13821 13822 13823 13824 13825 13826 13827 13828 13829 13830 13831 13832 13833 13834 13835 13836 13837 13838 13839 13840 13841 13842 13843 13844 13845 13846 13847 13848 13849 13850 13851 13852 13853 13854 13855 13856 13857 13858 13859 13860 13861 13862 13863 13864 13865 13866 13867 13868 13869 13870 13871 13872 13873 13874 13875 13876 13877 13878 13879 13880 13881 13882 13883 13884 13885 13886 13887 13888 13889 13890 13891 13892 13893 13894 13895 13896 13897 13898 13899 13900 13901 13902 13903 13904 13905 13906 13907 13908 13909 13910 13911 13912 13913 13914 13915 13916 13917 13918 13919 13920 13921 13922 13923 13924 13925 13926 13927 13928 13929 13930 13931 13932 13933 13934 13935 13936 13937 13938 13939 13940 13941 13942 13943 13944 13945 13946 13947 13948 13949 13950 13951 13952 13953 13954 13955 13956 13957 13958 13959 13960 13961 13962 13963 13964 13965 13966 13967 13968 13969 13970 13971 13972 13973 13974 13975 13976 13977 13978 13979 13980 13981 13982 13983 13984 13985 13986 13987 13988 13989 13990 13991 13992 13993 13994 13995 13996 13997 13998 13999 14000 14001 14002 14003 14004 14005 14006 14007 14008 14009 14010 14011 14012 14013 14014 14015 14016 14017 14018 14019 14020 14021 14022 14023 14024 14025 14026 14027 14028 14029 14030 14031 14032 14033 14034 14035 14036 14037 14038 14039 14040 14041 14042 14043 14044 14045 14046 14047 14048 14049 14050 14051 14052 14053 14054 14055 14056 14057 14058 14059 14060 14061 14062 14063 14064 14065 14066 14067 14068 14069 14070 14071 14072 14073 14074 14075 14076 14077 14078 14079 14080 14081 14082 14083 14084 14085 14086 14087 14088 14089 14090 14091 14092 14093 14094 14095 14096 14097 14098 14099 14100 14101 14102 14103 14104 14105 14106 14107 14108 14109 14110 14111 14112 14113 14114 14115 14116 14117 14118 14119 14120 14121 14122 14123 14124 14125 14126 14127 14128 14129 14130 14131 14132 14133 14134 14135 14136 14137 14138 14139 14140 14141 14142 14143 14144 14145 14146 14147 14148 14149 14150 14151 14152 14153 14154 14155 14156 14157 14158 14159 14160 14161 14162 14163 14164 14165 14166 14167 14168 14169 14170 14171 14172 14173 14174 14175 14176 14177 14178 14179 14180 14181 14182 14183 14184 14185 14186 14187 14188 14189 14190 14191 14192 14193 14194 14195 14196 14197 14198 14199 14200 14201 14202 14203 14204 14205 14206 14207 14208 14209 14210 14211 14212 14213 14214 14215 14216 14217 14218 14219 14220 14221 14222 14223 14224 14225 14226 14227 14228 14229 14230 14231 14232 14233 14234 14235 14236 14237 14238 14239 14240 14241 14242 14243 14244 14245 14246 14247 14248 14249 14250 14251 14252 14253 14254 14255 14256 14257 14258 14259 14260 14261 14262 14263 14264 14265 14266 14267 14268 14269 14270 14271 14272 14273 14274 14275 14276 14277 14278 14279 14280 14281 14282 14283 14284 14285 14286 14287 14288 14289 14290 14291 14292 14293 14294 14295 14296 14297 14298 14299 14300 14301 14302 14303 14304 14305 14306 14307 14308 14309 14310 14311 14312 14313 14314 14315 14316 14317 14318 14319 14320 14321 14322 14323 14324 14325 14326 14327 14328 14329 14330 14331 14332 14333 14334 14335 14336 14337 14338 14339 14340 14341 14342 14343 14344 14345 14346 14347 14348 14349 14350 14351 14352 14353 14354 14355 14356 14357 14358 14359 14360 14361 14362 14363 14364 14365 14366 14367 14368 14369 14370 14371 14372 14373 14374 14375 14376 14377 14378 14379 14380 14381 14382 14383 14384 14385 14386 14387 14388 14389 14390 14391 14392 14393 14394 14395 14396 14397 14398 14399 14400 14401 14402 14403 14404 14405 14406 14407 14408 14409 14410 14411 14412 14413 14414 14415 14416 14417 14418 14419 14420 14421 14422 14423 14424 14425 14426 14427 14428 14429 14430 14431 14432 14433 14434 14435 14436 14437 14438 14439 14440 14441 14442 14443 14444 14445 14446 14447 14448 14449 14450 14451 14452 14453 14454 14455 14456 14457 14458 14459 14460 14461 14462 14463 14464 14465 14466 14467 14468 14469 14470 14471 14472 14473 14474 14475 14476 14477 14478 14479 14480 14481 14482 14483 14484 14485 14486 14487 14488 14489 14490 14491 14492 14493 14494 14495 14496 14497 14498 14499 14500 14501 14502 14503 14504 14505 14506 14507 14508 14509 14510 14511 14512 14513 14514 14515 14516 14517 14518 14519 14520 14521 14522 14523 14524 14525 14526 14527 14528 14529 14530 14531 14532 14533 14534 14535 14536 14537 14538 14539 14540 14541 14542 14543 14544 14545 14546 14547 14548 14549 14550 14551 14552 14553 14554 14555 14556 14557 14558 14559 14560 14561 14562 14563 14564 14565 14566 14567 14568 14569 14570 14571 14572 14573 14574 14575 14576 14577 14578 14579 14580 14581 14582 14583 14584 14585 14586 14587 14588 14589 14590 14591 14592 14593 14594 14595 14596 14597 14598 14599 14600 14601 14602 14603 14604 14605 14606 14607 14608 14609 14610 14611 14612 14613 14614 14615 14616 14617 14618 14619 14620 14621 14622 14623 14624 14625 14626 14627 14628 14629 14630 14631 14632 14633 14634 14635 14636 14637 14638 14639 14640 14641 14642 14643 14644 14645 14646 14647 14648 14649 14650 14651 14652 14653 14654 14655 14656 14657 14658 14659 14660 14661 14662 14663 14664 14665 14666 14667 14668 14669 14670 14671 14672 14673 14674 14675 14676 14677 14678 14679 14680 14681 14682 14683 14684 14685 14686 14687 14688 14689 14690 14691 14692 14693 14694 14695 14696 14697 14698 14699 14700 14701 14702 14703 14704 14705 14706 14707 14708 14709 14710 14711 14712 14713 14714 14715 14716 14717 14718 14719 14720 14721 14722 14723 14724 14725 14726 14727 14728 14729 14730 14731 14732 14733 14734 14735 14736 14737 14738 14739 14740 14741 14742 14743 14744 14745 14746 14747 14748 14749 14750 14751 14752 14753 14754 14755 14756 14757 14758 14759 14760 14761 14762 14763 14764 14765 14766 14767 14768 14769 14770 14771 14772 14773 14774 14775 14776 14777 14778 14779 14780 14781 14782 14783 14784 14785 14786 14787 14788 14789 14790 14791 14792 14793 14794 14795 14796 14797 14798 14799 14800 14801 14802 14803 14804 14805 14806 14807 14808 14809 14810 14811 14812 14813 14814 14815 14816 14817 14818 14819 14820 14821 14822 14823 14824 14825 14826 14827 14828 14829 14830 14831 14832 14833 14834 14835 14836 14837 14838 14839 14840 14841 14842 14843 14844 14845 14846 14847 14848 14849 14850 14851 14852 14853 14854 14855 14856 14857 14858 14859 14860 14861 14862 14863 14864 14865 14866 14867 14868 14869 14870 14871 14872 14873 14874 14875 14876 14877 14878 14879 14880 14881 14882 14883 14884 14885 14886 14887 14888 14889 14890 14891 14892 14893 14894 14895 14896 14897 14898 14899 14900 14901 14902 14903 14904 14905 14906 14907 14908 14909 14910 14911 14912 14913 14914 14915 14916 14917 14918 14919 14920 14921 14922 14923 14924 14925 14926 14927 14928 14929 14930 14931 14932 14933 14934 14935 14936 14937 14938 14939 14940 14941 14942 14943 14944 14945 14946 14947 14948 14949 14950 14951 14952 14953 14954 14955 14956 14957 14958 14959 14960 14961 14962 14963 14964 14965 14966 14967 14968 14969 14970 14971 14972 14973 14974 14975 14976 14977 14978 14979 14980 14981 14982 14983 14984 14985 14986 14987 14988 14989 14990 14991 14992 14993 14994 14995 14996 14997 14998 14999 15000 15001 15002 15003 15004 15005 15006 15007 15008 15009 15010 15011 15012 15013 15014 15015 15016 15017 15018 15019 15020 15021 15022 15023 15024 15025 15026 15027 15028 15029 15030 15031 15032 15033 15034 15035 15036 15037 15038 15039 15040 15041 15042 15043 15044 15045 15046 15047 15048 15049 15050 15051 15052 15053 15054 15055 15056 15057 15058 15059 15060 15061 15062 15063 15064 15065 15066 15067 15068 15069 15070 15071 15072 15073 15074 15075 15076 15077 15078 15079 15080 15081 15082 15083 15084 15085 15086 15087 15088 15089 15090 15091 15092 15093 15094 15095 15096 15097 15098 15099 15100 15101 15102 15103 15104 15105 15106 15107 15108 15109 15110 15111 15112 15113 15114 15115 15116 15117 15118 15119 15120 15121 15122 15123 15124 15125 15126 15127 15128 15129 15130 15131 15132 15133 15134 15135 15136 15137 15138 15139 15140 15141 15142 15143 15144 15145 15146 15147 15148 15149 15150 15151 15152 15153 15154 15155 15156 15157 15158 15159 15160 15161 15162 15163 15164 15165 15166 15167 15168 15169 15170 15171 15172 15173 15174 15175 15176 15177 15178 15179 15180 15181 15182 15183 15184 15185 15186 15187 15188 15189 15190 15191 15192 15193 15194 15195 15196 15197 15198 15199 15200 15201 15202 15203 15204 15205 15206 15207 15208 15209 15210 15211 15212 15213 15214 15215 15216 15217 15218 15219 15220 15221 15222 15223 15224 15225 15226 15227 15228 15229 15230 15231 15232 15233 15234 15235 15236 15237 15238 15239 15240 15241 15242 15243 15244 15245 15246 15247 15248 15249 15250 15251 15252 15253 15254 15255 15256 15257 15258 15259 15260 15261 15262 15263 15264 15265 15266 15267 15268 15269 15270 15271 15272 15273 15274 15275 15276 15277 15278 15279 15280 15281 15282 15283 15284 15285 15286 15287 15288 15289 15290 15291 15292 15293 15294 15295 15296 15297 15298 15299 15300 15301 15302 15303 15304 15305 15306 15307 15308 15309 15310 15311 15312 15313 15314 15315 15316 15317 15318 15319 15320 15321 15322 15323 15324 15325 15326 15327 15328 15329 15330 15331 15332 15333 15334 15335 15336 15337 15338 15339 15340 15341 15342 15343 15344 15345 15346 15347 15348 15349 15350 15351 15352 15353 15354 15355 15356 15357 15358 15359 15360 15361 15362 15363 15364 15365 15366 15367 15368 15369 15370 15371 15372 15373 15374 15375 15376 15377 15378 15379 15380 15381 15382 15383 15384 15385 15386 15387 15388 15389 15390 15391 15392 15393 15394 15395 15396 15397 15398 15399 15400 15401 15402 15403 15404 15405 15406 15407 15408 15409 15410 15411 15412 15413 15414 15415 15416 15417 15418 15419 15420 15421 15422 15423 15424 15425 15426 15427 15428 15429 15430 15431 15432 15433 15434 15435 15436 15437 15438 15439 15440 15441 15442 15443 15444 15445 15446 15447 15448 15449 15450 15451 15452 15453 15454 15455 15456 15457 15458 15459 15460 15461 15462 15463 15464 15465 15466 15467 15468 15469 15470 15471 15472 15473 15474 15475 15476 15477 15478 15479 15480 15481 15482 15483 15484 15485 15486 15487 15488 15489 15490 15491 15492 15493 15494 15495 15496 15497 15498 15499 15500 15501 15502 15503 15504 15505 15506 15507 15508 15509 15510 15511 15512 15513 15514 15515 15516 15517 15518 15519 15520 15521 15522 15523 15524 15525 15526 15527 15528 15529 15530 15531 15532 15533 15534 15535 15536 15537 15538 15539 15540 15541 15542 15543 15544 15545 15546 15547 15548 15549 15550 15551 15552 15553 15554 15555 15556 15557 15558 15559 15560 15561 15562 15563 15564 15565 15566 15567 15568 15569 15570 15571 15572 15573 15574 15575 15576 15577 15578 15579 15580 15581 15582 15583 15584 15585 15586 15587 15588 15589 15590 15591 15592 15593 15594 15595 15596 15597 15598 15599 15600 15601 15602 15603 15604 15605 15606 15607 15608 15609 15610 15611 15612 15613 15614 15615 15616 15617 15618 15619 15620 15621 15622 15623 15624 15625 15626 15627 15628 15629 15630 15631 15632 15633 15634 15635 15636 15637 15638 15639 15640 15641 15642 15643 15644 15645 15646 15647 15648 15649 15650 15651 15652 15653 15654 15655 15656 15657 15658 15659 15660 15661 15662 15663 15664 15665 15666 15667 15668 15669 15670 15671 15672 15673 15674 15675 15676 15677 15678 15679 15680 15681 15682 15683 15684 15685 15686 15687 15688 15689 15690 15691 15692 15693 15694 15695 15696 15697 15698 15699 15700 15701 15702 15703 15704 15705 15706 15707 15708 15709 15710 15711 15712 15713 15714 15715 15716 15717 15718 15719 15720 15721 15722 15723 15724 15725 15726 15727 15728 15729 15730 15731 15732 15733 15734 15735 15736 15737 15738 15739 15740 15741 15742 15743 15744 15745 15746 15747 15748 15749 15750 15751 15752 15753 15754 15755 15756 15757 15758 15759 15760 15761 15762 15763 15764 15765 15766 15767 15768 15769 15770 15771 15772 15773 15774 15775 15776 15777 15778 15779 15780 15781 15782 15783 15784 15785 15786 15787 15788 15789 15790 15791 15792 15793 15794 15795 15796 15797 15798 15799 15800 15801 15802 15803 15804 15805 15806 15807 15808 15809 15810 15811 15812 15813 15814 15815 15816 15817 15818 15819 15820 15821 15822 15823 15824 15825 15826 15827 15828 15829 15830 15831 15832 15833 15834 15835 15836 15837 15838 15839 15840 15841 15842 15843 15844 15845 15846 15847 15848 15849 15850 15851 15852 15853 15854 15855 15856 15857 15858 15859 15860 15861 15862 15863 15864 15865 15866 15867 15868 15869 15870 15871 15872 15873 15874 15875 15876 15877 15878 15879 15880 15881 15882 15883 15884 15885 15886 15887 15888 15889 15890 15891 15892 15893 15894 15895 15896 15897 15898 15899 15900 15901 15902 15903 15904 15905 15906 15907 15908 15909 15910 15911 15912 15913 15914 15915 15916 15917 15918 15919 15920 15921 15922 15923 15924 15925 15926 15927 15928 15929 15930 15931 15932 15933 15934 15935 15936 15937 15938 15939 15940 15941 15942 15943 15944 15945 15946 15947 15948 15949 15950 15951 15952 15953 15954 15955 15956 15957 15958 15959 15960 15961 15962 15963 15964 15965 15966 15967 15968 15969 15970 15971 15972 15973 15974 15975 15976 15977 15978 15979 15980 15981 15982 15983 15984 15985 15986 15987 15988 15989 15990 15991 15992 15993 15994 15995 15996 15997 15998 15999 16000 16001 16002 16003 16004 16005 16006 16007 16008 16009 16010 16011 16012 16013 16014 16015 16016 16017 16018 16019 16020 16021 16022 16023 16024 16025 16026 16027 16028 16029 16030 16031 16032 16033 16034 16035 16036 16037 16038 16039 16040 16041 16042 16043 16044 16045 16046 16047 16048 16049 16050 16051 16052 16053 16054 16055 16056 16057 16058 16059 16060 16061 16062 16063 16064 16065 16066 16067 16068 16069 16070 16071 16072 16073 16074 16075 16076 16077 16078 16079 16080 16081 16082 16083 16084 16085 16086 16087 16088 16089 16090 16091 16092 16093 16094 16095 16096 16097 16098 16099 16100 16101 16102 16103 16104 16105 16106 16107 16108 16109 16110 16111 16112 16113 16114 16115 16116 16117 16118 16119 16120 16121 16122 16123 16124 16125 16126 16127 16128 16129 16130 16131 16132 16133 16134 16135 16136 16137 16138 16139 16140 16141 16142 16143 16144 16145 16146 16147 16148 16149 16150 16151 16152 16153 16154 16155 16156 16157 16158 16159 16160 16161 16162 16163 16164 16165 16166 16167 16168 16169 16170 16171 16172 16173 16174 16175 16176 16177 16178 16179 16180 16181 16182 16183 16184 16185 16186 16187 16188 16189 16190 16191 16192 16193 16194 16195 16196 16197 16198 16199 16200 16201 16202 16203 16204 16205 16206 16207 16208 16209 16210 16211 16212 16213 16214 16215 16216 16217 16218 16219 16220 16221 16222 16223 16224 16225 16226 16227 16228 16229 16230 16231 16232 16233 16234 16235 16236 16237 16238 16239 16240 16241 16242 16243 16244 16245 16246 16247 16248 16249 16250 16251 16252 16253 16254 16255 16256 16257 16258 16259 16260 16261 16262 16263 16264 16265 16266 16267 16268 16269 16270 16271 16272 16273 16274 16275 16276 16277 16278 16279 16280 16281 16282 16283 16284 16285 16286 16287 16288 16289 16290 16291 16292 16293 16294 16295 16296 16297 16298 16299 16300 16301 16302 16303 16304 16305 16306 16307 16308 16309 16310 16311 16312 16313 16314 16315 16316 16317 16318 16319 16320 16321 16322 16323 16324 16325 16326 16327 16328 16329 16330 16331 16332 16333 16334 16335 16336 16337 16338 16339 16340 16341 16342 16343 16344 16345 16346 16347 16348 16349 16350 16351 16352 16353 16354 16355 16356 16357 16358 16359 16360 16361 16362 16363 16364 16365 16366 16367 16368 16369 16370 16371 16372 16373 16374 16375 16376 16377 16378 16379 16380 16381 16382 16383 16384 16385 16386 16387 16388 16389 16390 16391 16392 16393 16394 16395 16396 16397 16398 16399 16400 16401 16402 16403 16404 16405 16406 16407 16408 16409 16410 16411 16412 16413 16414 16415 16416 16417 16418 16419 16420 16421 16422 16423 16424 16425 16426 16427 16428 16429 16430 16431 16432 16433 16434 16435 16436 16437 16438 16439 16440 16441 16442 16443 16444 16445 16446 16447 16448 16449 16450 16451 16452 16453 16454 16455 16456 16457 16458 16459 16460 16461 16462 16463 16464 16465 16466 16467 16468 16469 16470 16471 16472 16473 16474 16475 16476 16477 16478 16479 16480 16481 16482 16483 16484 16485 16486 16487 16488 16489 16490 16491 16492 16493 16494 16495 16496 16497 16498 16499 16500 16501 16502 16503 16504 16505 16506 16507 16508 16509 16510 16511 16512 16513 16514 16515 16516 16517 16518 16519 16520 16521 16522 16523 16524 16525 16526 16527 16528 16529 16530 16531 16532 16533 16534 16535 16536 16537 16538 16539 16540 16541 16542 16543 16544 16545 16546 16547 16548 16549 16550 16551 16552 16553 16554 16555 16556 16557 16558 16559 16560 16561 16562 16563 16564 16565 16566 16567 16568 16569 16570 16571 16572 16573 16574 16575 16576 16577 16578 16579 16580 16581 16582 16583 16584 16585 16586 16587 16588 16589 16590 16591 16592 16593 16594 16595 16596 16597 16598 16599 16600 16601 16602 16603 16604 16605 16606 16607 16608 16609 16610 16611 16612 16613 16614 16615 16616 16617 16618 16619 16620 16621 16622 16623 16624 16625 16626 16627 16628 16629 16630 16631 16632 16633 16634 16635 16636 16637 16638 16639 16640 16641 16642 16643 16644 16645 16646 16647 16648 16649 16650 16651 16652 16653 16654 16655 16656 16657 16658 16659 16660 16661 16662 16663 16664 16665 16666 16667 16668 16669 16670 16671 16672 16673 16674 16675 16676 16677 16678 16679 16680 16681 16682 16683 16684 16685 16686 16687 16688 16689 16690 16691 16692 16693 16694 16695 16696 16697 16698 16699 16700 16701 16702 16703 16704 16705 16706 16707 16708 16709 16710 16711 16712 16713 16714 16715 16716 16717 16718 16719 16720 16721 16722 16723 16724 16725 16726 16727 16728 16729 16730 16731 16732 16733 16734 16735 16736 16737 16738 16739 16740 16741 16742 16743 16744 16745 16746 16747 16748 16749 16750 16751 16752 16753 16754 16755 16756 16757 16758 16759 16760 16761 16762 16763 16764 16765 16766 16767 16768 16769 16770 16771 16772 16773 16774 16775 16776 16777 16778 16779 16780 16781 16782 16783 16784 16785 16786 16787 16788 16789 16790 16791 16792 16793 16794 16795 16796 16797 16798 16799 16800 16801 16802 16803 16804 16805 16806 16807 16808 16809 16810 16811 16812 16813 16814 16815 16816 16817 16818 16819 16820 16821 16822 16823 16824 16825 16826 16827 16828 16829 16830 16831 16832 16833 16834 16835 16836 16837 16838 16839 16840 16841 16842 16843 16844 16845 16846 16847 16848 16849 16850 16851 16852 16853 16854 16855 16856 16857 16858 16859 16860 16861 16862 16863 16864 16865 16866 16867 16868 16869 16870 16871 16872 16873 16874 16875 16876 16877 16878 16879 16880 16881 16882 16883 16884 16885 16886 16887 16888 16889 16890 16891 16892 16893 16894 16895 16896 16897 16898 16899 16900 16901 16902 16903 16904 16905 16906 16907 16908 16909 16910 16911 16912 16913 16914 16915 16916 16917 16918 16919 16920 16921 16922 16923 16924 16925 16926 16927 16928 16929 16930 16931 16932 16933 16934 16935 16936 16937 16938 16939 16940 16941 16942 16943 16944 16945 16946 16947 16948 16949 16950 16951 16952 16953 16954 16955 16956 16957 16958 16959 16960 16961 16962 16963 16964 16965 16966 16967 16968 16969 16970 16971 16972 16973 16974 16975 16976 16977 16978 16979 16980 16981 16982 16983 16984 16985 16986 16987 16988 16989 16990 16991 16992 16993 16994 16995 16996 16997 16998 16999 17000 17001 17002 17003 17004 17005 17006 17007 17008 17009 17010 17011 17012 17013 17014 17015 17016 17017 17018 17019 17020 17021 17022 17023 17024 17025 17026 17027 17028 17029 17030 17031 17032 17033 17034 17035 17036 17037 17038 17039 17040 17041 17042 17043 17044 17045 17046 17047 17048 17049 17050 17051 17052 17053 17054 17055 17056 17057 17058 17059 17060 17061 17062 17063 17064 17065 17066 17067 17068 17069 17070 17071 17072 17073 17074 17075 17076 17077 17078 17079 17080 17081 17082 17083 17084 17085 17086 17087 17088 17089 17090 17091 17092 17093 17094 17095 17096 17097 17098 17099 17100 17101 17102 17103 17104 17105 17106 17107 17108 17109 17110 17111 17112 17113 17114 17115 17116 17117 17118 17119 17120 17121 17122 17123 17124 17125 17126 17127 17128 17129 17130 17131 17132 17133 17134 17135 17136 17137 17138 17139 17140 17141 17142 17143 17144 17145 17146 17147 17148 17149 17150 17151 17152 17153 17154 17155 17156 17157 17158 17159 17160 17161 17162 17163 17164 17165 17166 17167 17168 17169 17170 17171 17172 17173 17174 17175 17176 17177 17178 17179 17180 17181 17182 17183 17184 17185 17186 17187 17188 17189 17190 17191 17192 17193 17194 17195 17196 17197 17198 17199 17200 17201 17202 17203 17204 17205 17206 17207 17208 17209 17210 17211 17212 17213 17214 17215 17216 17217 17218 17219 17220 17221 17222 17223 17224 17225 17226 17227 17228 17229 17230 17231 17232 17233 17234 17235 17236 17237 17238 17239 17240 17241 17242 17243 17244 17245 17246 17247 17248 17249 17250 17251 17252 17253 17254 17255 17256 17257 17258 17259 17260 17261 17262 17263 17264 17265 17266 17267 17268 17269 17270 17271 17272 17273 17274 17275 17276 17277 17278 17279 17280 17281 17282 17283 17284 17285 17286 17287 17288 17289 17290 17291 17292 17293 17294 17295 17296 17297 17298 17299 17300 17301 17302 17303 17304 17305 17306 17307 17308 17309 17310 17311 17312 17313 17314 17315 17316 17317 17318 17319 17320 17321 17322 17323 17324 17325 17326 17327 17328 17329 17330 17331 17332 17333 17334 17335 17336 17337 17338 17339 17340 17341 17342 17343 17344 17345 17346 17347 17348 17349 17350 17351 17352 17353 17354 17355 17356 17357 17358 17359 17360 17361 17362 17363 17364 17365 17366 17367 17368 17369 17370 17371 17372 17373 17374 17375 17376 17377 17378 17379 17380 17381 17382 17383 17384 17385 17386 17387 17388 17389 17390 17391 17392 17393 17394 17395 17396 17397 17398 17399 17400 17401 17402 17403 17404 17405 17406 17407 17408 17409 17410 17411 17412 17413 17414 17415 17416 17417 17418 17419 17420 17421 17422 17423 17424 17425 17426 17427 17428 17429 17430 17431 17432 17433 17434 17435 17436 17437 17438 17439 17440 17441 17442 17443 17444 17445 17446 17447 17448 17449 17450 17451 17452 17453 17454 17455 17456 17457 17458 17459 17460 17461 17462 17463 17464 17465 17466 17467 17468 17469 17470 17471 17472 17473 17474 17475 17476 17477 17478 17479 17480 17481 17482 17483 17484 17485 17486 17487 17488 17489 17490 17491 17492 17493 17494 17495 17496 17497 17498 17499 17500 17501 17502 17503 17504 17505 17506 17507 17508 17509 17510 17511 17512 17513 17514 17515 17516 17517 17518 17519 17520 17521 17522 17523 17524 17525 17526 17527 17528 17529 17530 17531 17532 17533 17534 17535 17536 17537 17538 17539 17540 17541 17542 17543 17544 17545 17546 17547 17548 17549 17550 17551 17552 17553 17554 17555 17556 17557 17558 17559 17560 17561 17562 17563 17564 17565 17566 17567 17568 17569 17570 17571 17572 17573 17574 17575 17576 17577 17578 17579 17580 17581 17582 17583 17584 17585 17586 17587 17588 17589 17590 17591 17592 17593 17594 17595 17596 17597 17598 17599 17600 17601 17602 17603 17604 17605 17606 17607 17608 17609 17610 17611 17612 17613 17614 17615 17616 17617 17618 17619 17620 17621 17622 17623 17624 17625 17626 17627 17628 17629 17630 17631 17632 17633 17634 17635 17636 17637 17638 17639 17640 17641 17642 17643 17644 17645 17646 17647 17648 17649 17650 17651 17652 17653 17654 17655 17656 17657 17658 17659 17660 17661 17662 17663 17664 17665 17666 17667 17668 17669 17670 17671 17672 17673 17674 17675 17676 17677 17678 17679 17680 17681 17682 17683 17684 17685 17686 17687 17688 17689 17690 17691 17692 17693 17694 17695 17696 17697 17698 17699 17700 17701 17702 17703 17704 17705 17706 17707 17708 17709 17710 17711 17712 17713 17714 17715 17716 17717 17718 17719 17720 17721 17722 17723 17724 17725 17726 17727 17728 17729 17730 17731 17732 17733 17734 17735 17736 17737 17738 17739 17740 17741 17742 17743 17744 17745 17746 17747 17748 17749 17750 17751 17752 17753 17754 17755 17756 17757 17758 17759 17760 17761 17762 17763 17764 17765 17766 17767 17768 17769 17770 17771 17772 17773 17774 17775 17776 17777 17778 17779 17780 17781 17782 17783 17784 17785 17786 17787 17788 17789 17790 17791 17792 17793 17794 17795 17796 17797 17798 17799 17800 17801 17802 17803 17804 17805 17806 17807 17808 17809 17810 17811 17812 17813 17814 17815 17816 17817 17818 17819 17820 17821 17822 17823 17824 17825 17826 17827 17828 17829 17830 17831 17832 17833 17834 17835 17836 17837 17838 17839 17840 17841 17842 17843 17844 17845 17846 17847 17848 17849 17850 17851 17852 17853 17854 17855 17856 17857 17858 17859 17860 17861 17862 17863 17864 17865 17866 17867 17868 17869 17870 17871 17872 17873 17874 17875 17876 17877 17878 17879 17880 17881 17882 17883 17884 17885 17886 17887 17888 17889 17890 17891 17892 17893 17894 17895 17896 17897 17898 17899 17900 17901 17902 17903 17904 17905 17906 17907 17908 17909 17910 17911 17912 17913 17914 17915 17916 17917 17918 17919 17920 17921 17922 17923 17924 17925 17926 17927 17928 17929 17930 17931 17932 17933 17934 17935 17936 17937 17938 17939 17940 17941 17942 17943 17944 17945 17946 17947 17948 17949 17950 17951 17952 17953 17954 17955 17956 17957 17958 17959 17960 17961 17962 17963 17964 17965 17966 17967 17968 17969 17970 17971 17972 17973 17974 17975 17976 17977 17978 17979 17980 17981 17982 17983 17984 17985 17986 17987 17988 17989 17990 17991 17992 17993 17994 17995 17996 17997 17998 17999 18000 18001 18002 18003 18004 18005 18006 18007 18008 18009 18010 18011 18012 18013 18014 18015 18016 18017 18018 18019 18020 18021 18022 18023 18024 18025 18026 18027 18028 18029 18030 18031 18032 18033 18034 18035 18036 18037 18038 18039 18040 18041 18042 18043 18044 18045 18046 18047 18048 18049 18050 18051 18052 18053 18054 18055 18056 18057 18058 18059 18060 18061 18062 18063 18064 18065 18066 18067 18068 18069 18070 18071 18072 18073 18074 18075 18076 18077 18078 18079 18080 18081 18082 18083 18084 18085 18086 18087 18088 18089 18090 18091 18092 18093 18094 18095 18096 18097 18098 18099 18100 18101 18102 18103 18104 18105 18106 18107 18108 18109 18110 18111 18112 18113 18114 18115 18116 18117 18118 18119 18120 18121 18122 18123 18124 18125 18126 18127 18128 18129 18130 18131 18132 18133 18134 18135 18136 18137 18138 18139 18140 18141 18142 18143 18144 18145 18146 18147 18148 18149 18150 18151 18152 18153 18154 18155 18156 18157 18158 18159 18160 18161 18162 18163 18164 18165 18166 18167 18168 18169 18170 18171 18172 18173 18174 18175 18176 18177 18178 18179 18180 18181 18182 18183 18184 18185 18186 18187 18188 18189 18190 18191 18192 18193 18194 18195 18196 18197 18198 18199 18200 18201 18202 18203 18204 18205 18206 18207 18208 18209 18210 18211 18212 18213 18214 18215 18216 18217 18218 18219 18220 18221 18222 18223 18224 18225 18226 18227 18228 18229 18230 18231 18232 18233 18234 18235 18236 18237 18238 18239 18240 18241 18242 18243 18244 18245 18246 18247 18248 18249 18250 18251 18252 18253 18254 18255 18256 18257 18258 18259 18260 18261 18262 18263 18264 18265 18266 18267 18268 18269 18270 18271 18272 18273 18274 18275 18276 18277 18278 18279 18280 18281 18282 18283 18284 18285 18286 18287 18288 18289 18290 18291 18292 18293 18294 18295 18296 18297 18298 18299 18300 18301 18302 18303 18304 18305 18306 18307 18308 18309 18310 18311 18312 18313 18314 18315 18316 18317 18318 18319 18320 18321 18322 18323 18324 18325 18326 18327 18328 18329 18330 18331 18332 18333 18334 18335 18336 18337 18338 18339 18340 18341 18342 18343 18344 18345 18346 18347 18348 18349 18350 18351 18352 18353 18354 18355 18356 18357 18358 18359 18360 18361 18362 18363 18364 18365 18366 18367 18368 18369 18370 18371 18372 18373 18374 18375 18376 18377 18378 18379 18380 18381 18382 18383 18384 18385 18386 18387 18388 18389 18390 18391 18392 18393 18394 18395 18396 18397 18398 18399 18400 18401 18402 18403 18404 18405 18406 18407 18408 18409 18410 18411 18412 18413 18414 18415 18416 18417 18418 18419 18420 18421 18422 18423 18424 18425 18426 18427 18428 18429 18430 18431 18432 18433 18434 18435 18436 18437 18438 18439 18440 18441 18442 18443 18444 18445 18446 18447 18448 18449 18450 18451 18452 18453 18454 18455 18456 18457 18458 18459 18460 18461 18462 18463 18464 18465 18466 18467 18468 18469 18470 18471 18472 18473 18474 18475 18476 18477 18478 18479 18480 18481 18482 18483 18484 18485 18486 18487 18488 18489 18490 18491 18492 18493 18494 18495 18496 18497 18498 18499 18500 18501 18502 18503 18504 18505 18506 18507 18508 18509 18510 18511 18512 18513 18514 18515 18516 18517 18518 18519 18520 18521 18522 18523 18524 18525 18526 18527 18528 18529 18530 18531 18532 18533 18534 18535 18536 18537 18538 18539 18540 18541 18542 18543 18544 18545 18546 18547 18548 18549 18550 18551 18552 18553 18554 18555 18556 18557 18558 18559 18560 18561 18562 18563 18564 18565 18566 18567 18568 18569 18570 18571 18572 18573 18574 18575 18576 18577 18578 18579 18580 18581 18582 18583 18584 18585 18586 18587 18588 18589 18590 18591 18592 18593 18594 18595 18596 18597 18598 18599 18600 18601 18602 18603 18604 18605 18606 18607 18608 18609 18610 18611 18612 18613 18614 18615 18616 18617 18618 18619 18620 18621 18622 18623 18624 18625 18626 18627 18628 18629 18630 18631 18632 18633 18634 18635 18636 18637 18638 18639 18640 18641 18642 18643 18644 18645 18646 18647 18648 18649 18650 18651 18652 18653 18654 18655 18656 18657 18658 18659 18660 18661 18662 18663 18664 18665 18666 18667 18668 18669 18670 18671 18672 18673 18674 18675 18676 18677 18678 18679 18680 18681 18682 18683 18684 18685 18686 18687 18688 18689 18690 18691 18692 18693 18694 18695 18696 18697 18698 18699 18700 18701 18702 18703 18704 18705 18706 18707 18708 18709 18710 18711 18712 18713 18714 18715 18716 18717 18718 18719 18720 18721 18722 18723 18724 18725 18726 18727 18728 18729 18730 18731 18732 18733 18734 18735 18736 18737 18738 18739 18740 18741 18742 18743 18744 18745 18746 18747 18748 18749 18750 18751 18752 18753 18754 18755 18756 18757 18758 18759 18760 18761 18762 18763 18764 18765 18766 18767 18768 18769 18770 18771 18772 18773 18774 18775 18776 18777 18778 18779 18780 18781 18782 18783 18784 18785 18786 18787 18788 18789 18790 18791 18792 18793 18794 18795 18796 18797 18798 18799 18800 18801 18802 18803 18804 18805 18806 18807 18808 18809 18810 18811 18812 18813 18814 18815 18816 18817 18818 18819 18820 18821 18822 18823 18824 18825 18826 18827 18828 18829 18830 18831 18832 18833 18834 18835 18836 18837 18838 18839 18840 18841 18842 18843 18844 18845 18846 18847 18848 18849 18850 18851 18852 18853 18854 18855 18856 18857 18858 18859 18860 18861 18862 18863 18864 18865 18866 18867 18868 18869 18870 18871 18872 18873 18874 18875 18876 18877 18878 18879 18880 18881 18882 18883 18884 18885 18886 18887 18888 18889 18890 18891 18892 18893 18894 18895 18896 18897 18898 18899 18900 18901 18902 18903 18904 18905 18906 18907 18908 18909 18910 18911 18912 18913 18914 18915 18916 18917 18918 18919 18920 18921 18922 18923 18924 18925 18926 18927 18928 18929 18930 18931 18932 18933 18934 18935 18936 18937 18938 18939 18940 18941 18942 18943 18944 18945 18946 18947 18948 18949 18950 18951 18952 18953 18954 18955 18956 18957 18958 18959 18960 18961 18962 18963 18964 18965 18966 18967 18968 18969 18970 18971 18972 18973 18974 18975 18976 18977 18978 18979 18980 18981 18982 18983 18984 18985 18986 18987 18988 18989 18990 18991 18992 18993 18994 18995 18996 18997 18998 18999 19000 19001 19002 19003 19004 19005 19006 19007 19008 19009 19010 19011 19012 19013 19014 19015 19016 19017 19018 19019 19020 19021 19022 19023 19024 19025 19026 19027 19028 19029 19030 19031 19032 19033 19034 19035 19036 19037 19038 19039 19040 19041 19042 19043 19044 19045 19046 19047 19048 19049 19050 19051 19052 19053 19054 19055 19056 19057 19058 19059 19060 19061 19062 19063 19064 19065 19066 19067 19068 19069 19070 19071 19072 19073 19074 19075 19076 19077 19078 19079 19080 19081 19082 19083 19084 19085 19086 19087 19088 19089 19090 19091 19092 19093 19094 19095 19096 19097 19098 19099 19100 19101 19102 19103 19104 19105 19106 19107 19108 19109 19110 19111 19112 19113 19114 19115 19116 19117 19118 19119 19120 19121 19122 19123 19124 19125 19126 19127 19128 19129 19130 19131 19132 19133 19134 19135 19136 19137 19138 19139 19140 19141 19142 19143 19144 19145 19146 19147 19148 19149 19150 19151 19152 19153 19154 19155 19156 19157 19158 19159 19160 19161 19162 19163 19164 19165 19166 19167 19168 19169 19170 19171 19172 19173 19174 19175 19176 19177 19178 19179 19180 19181 19182 19183 19184 19185 19186 19187 19188 19189 19190 19191 19192 19193 19194 19195 19196 19197 19198 19199 19200 19201 19202 19203 19204 19205 19206 19207 19208 19209 19210 19211 19212 19213 19214 19215 19216 19217 19218 19219 19220 19221 19222 19223 19224 19225 19226 19227 19228 19229 19230 19231 19232 19233 19234 19235 19236 19237 19238 19239 19240 19241 19242 19243 19244 19245 19246 19247 19248 19249 19250 19251 19252 19253 19254 19255 19256 19257 19258 19259 19260 19261 19262 19263 19264 19265 19266 19267 19268 19269 19270 19271 19272 19273 19274 19275 19276 19277 19278 19279 19280 19281 19282 19283 19284 19285 19286 19287 19288 19289 19290 19291 19292 19293 19294 19295 19296 19297 19298 19299 19300 19301 19302 19303 19304 19305 19306 19307 19308 19309 19310 19311 19312 19313 19314 19315 19316 19317 19318 19319 19320 19321 19322 19323 19324 19325 19326 19327 19328 19329 19330 19331 19332 19333 19334 19335 19336 19337 19338 19339 19340 19341 19342 19343 19344 19345 19346 19347 19348 19349 19350 19351 19352 19353 19354 19355 19356 19357 19358 19359 19360 19361 19362 19363 19364 19365 19366 19367 19368 19369 19370 19371 19372 19373 19374 19375 19376 19377 19378 19379 19380 19381 19382 19383 19384 19385 19386 19387 19388 19389 19390 19391 19392 19393 19394 19395 19396 19397 19398 19399 19400 19401 19402 19403 19404 19405 19406 19407 19408 19409 19410 19411 19412 19413 19414 19415 19416 19417 19418 19419 19420 19421 19422 19423 19424 19425 19426 19427 19428 19429 19430 19431 19432 19433 19434 19435 19436 19437 19438 19439 19440 19441 19442 19443 19444 19445 19446 19447 19448 19449 19450 19451 19452 19453 19454 19455 19456 19457 19458 19459 19460 19461 19462 19463 19464 19465 19466 19467 19468 19469 19470 19471 19472 19473 19474 19475 19476 19477 19478 19479 19480 19481 19482 19483 19484 19485 19486 19487 19488 19489 19490 19491 19492 19493 19494 19495 19496 19497 19498 19499 19500 19501 19502 19503 19504 19505 19506 19507 19508 19509 19510 19511 19512 19513 19514 19515 19516 19517 19518 19519 19520 19521 19522 19523 19524 19525 19526 19527 19528 19529 19530 19531 19532 19533 19534 19535 19536 19537 19538 19539 19540 19541 19542 19543 19544 19545 19546 19547 19548 19549 19550 19551 19552 19553 19554 19555 19556 19557 19558 19559 19560 19561 19562 19563 19564 19565 19566 19567 19568 19569 19570 19571 19572 19573 19574 19575 19576 19577 19578 19579 19580 19581 19582 19583 19584 19585 19586 19587 19588 19589 19590 19591 19592 19593 19594 19595 19596 19597 19598 19599 19600 19601 19602 19603 19604 19605 19606 19607 19608 19609 19610 19611 19612 19613 19614 19615 19616 19617 19618 19619 19620 19621 19622 19623 19624 19625 19626 19627 19628 19629 19630 19631 19632 19633 19634 19635 19636 19637 19638 19639 19640 19641 19642 19643 19644 19645 19646 19647 19648 19649 19650 19651 19652 19653 19654 19655 19656 19657 19658 19659 19660 19661 19662 19663 19664 19665 19666 19667 19668 19669 19670 19671 19672 19673 19674 19675 19676 19677 19678 19679 19680 19681 19682 19683 19684 19685 19686 19687 19688 19689 19690 19691 19692 19693 19694 19695 19696 19697 19698 19699 19700 19701 19702 19703 19704 19705 19706 19707 19708 19709 19710 19711 19712 19713 19714 19715 19716 19717 19718 19719 19720 19721 19722 19723 19724 19725 19726 19727 19728 19729 19730 19731 19732 19733 19734 19735 19736 19737 19738 19739 19740 19741 19742 19743 19744 19745 19746 19747 19748 19749 19750 19751 19752 19753 19754 19755 19756 19757 19758 19759 19760 19761 19762 19763 19764 19765 19766 19767 19768 19769 19770 19771 19772 19773 19774 19775 19776 19777 19778 19779 19780 19781 19782 19783 19784 19785 19786 19787 19788 19789 19790 19791 19792 19793 19794 19795 19796 19797 19798 19799 19800 19801 19802 19803 19804 19805 19806 19807 19808 19809 19810 19811 19812 19813 19814 19815 19816 19817 19818 19819 19820 19821 19822 19823 19824 19825 19826 19827 19828 19829 19830 19831 19832 19833 19834 19835 19836 19837 19838 19839 19840 19841 19842 19843 19844 19845 19846 19847 19848 19849 19850 19851 19852 19853 19854 19855 19856 19857 19858 19859 19860 19861 19862 19863 19864 19865 19866 19867 19868 19869 19870 19871 19872 19873 19874 19875 19876 19877 19878 19879 19880 19881 19882 19883 19884 19885 19886 19887 19888 19889 19890 19891 19892 19893 19894 19895 19896 19897 19898 19899 19900 19901 19902 19903 19904 19905 19906 19907 19908 19909 19910 19911 19912 19913 19914 19915 19916 19917 19918 19919 19920 19921 19922 19923 19924 19925 19926 19927 19928 19929 19930 19931 19932 19933 19934 19935 19936 19937 19938 19939 19940 19941 19942 19943 19944 19945 19946 19947 19948 19949 19950 19951 19952 19953 19954 19955 19956 19957 19958 19959 19960 19961 19962 19963 19964 19965 19966 19967 19968 19969 19970 19971 19972 19973 19974 19975 19976 19977 19978 19979 19980 19981 19982 19983 19984 19985 19986 19987 19988 19989 19990 19991 19992 19993 19994 19995 19996 19997 19998 19999 20000 20001 20002 20003 20004 20005 20006 20007 20008 20009 20010 20011 20012 20013 20014 20015 20016 20017 20018 20019 20020 20021 20022 20023 20024 20025 20026 20027 20028 20029 20030 20031 20032 20033 20034 20035 20036 20037 20038 20039 20040 20041 20042 20043 20044 20045 20046 20047 20048 20049 20050 20051 20052 20053 20054 20055 20056 20057 20058 20059 20060 20061 20062 20063 20064 20065 20066 20067 20068 20069 20070 20071 20072 20073 20074 20075 20076 20077 20078 20079 20080 20081 20082 20083 20084 20085 20086 20087 20088 20089 20090 20091 20092 20093 20094 20095 20096 20097 20098 20099 20100 20101 20102 20103 20104 20105 20106 20107 20108 20109 20110 20111 20112 20113 20114 20115 20116 20117 20118 20119 20120 20121 20122 20123 20124 20125 20126 20127 20128 20129 20130 20131 20132 20133 20134 20135 20136 20137 20138 20139 20140 20141 20142 20143 20144 20145 20146 20147 20148 20149 20150 20151 20152 20153 20154 20155 20156 20157 20158 20159 20160 20161 20162 20163 20164 20165 20166 20167 20168 20169 20170 20171 20172 20173 20174 20175 20176 20177 20178 20179 20180 20181 20182 20183 20184 20185 20186 20187 20188 20189 20190 20191 20192 20193 20194 20195 20196 20197 20198 20199 20200 20201 20202 20203 20204 20205 20206 20207 20208 20209 20210 20211 20212 20213 20214 20215 20216 20217 20218 20219 20220 20221 20222 20223 20224 20225 20226 20227 20228 20229 20230 20231 20232 20233 20234 20235 20236 20237 20238 20239 20240 20241 20242 20243 20244 20245 20246 20247 20248 20249 20250 20251 20252 20253 20254 20255 20256 20257 20258 20259 20260 20261 20262 20263 20264 20265 20266 20267 20268 20269 20270 20271 20272 20273 20274 20275 20276 20277 20278 20279 20280 20281 20282 20283 20284 20285 20286 20287 20288 20289 20290 20291 20292 20293 20294 20295 20296 20297 20298 20299 20300 20301 20302 20303 20304 20305 20306 20307 20308 20309 20310 20311 20312 20313 20314 20315 20316 20317 20318 20319 20320 20321 20322 20323 20324 20325 20326 20327 20328 20329 20330 20331 20332 20333 20334 20335 20336 20337 20338 20339 20340 20341 20342 20343 20344 20345 20346 20347 20348 20349 20350 20351 20352 20353 20354 20355 20356 20357 20358 20359 20360 20361 20362 20363 20364 20365 20366 20367 20368 20369 20370 20371 20372 20373 20374 20375 20376 20377 20378 20379 20380 20381 20382 20383 20384 20385 20386 20387 20388 20389 20390 20391 20392 20393 20394 20395 20396 20397 20398 20399 20400 20401 20402 20403 20404 20405 20406 20407 20408 20409 20410 20411 20412 20413 20414 20415 20416 20417 20418 20419 20420 20421 20422 20423 20424 20425 20426 20427 20428 20429 20430 20431 20432 20433 20434 20435 20436 20437 20438 20439 20440 20441 20442 20443 20444 20445 20446 20447 20448 20449 20450 20451 20452 20453 20454 20455 20456 20457 20458 20459 20460 20461 20462 20463 20464 20465 20466 20467 20468 20469 20470 20471 20472 20473 20474 20475 20476 20477 20478 20479 20480 20481 20482 20483 20484 20485 20486 20487 20488 20489 20490 20491 20492 20493 20494 20495 20496 20497 20498 20499 20500 20501 20502 20503 20504 20505 20506 20507 20508 20509 20510 20511 20512 20513 20514 20515 20516 20517 20518 20519 20520 20521 20522 20523 20524 20525 20526 20527 20528 20529 20530 20531 20532 20533 20534 20535 20536 20537 20538 20539 20540 20541 20542 20543 20544 20545 20546 20547 20548 20549 20550 20551 20552 20553 20554 20555 20556 20557 20558 20559 20560 20561 20562 20563 20564 20565 20566 20567 20568 20569 20570 20571 20572 20573 20574 20575 20576 20577 20578 20579 20580 20581 20582 20583 20584 20585 20586 20587 20588 20589 20590 20591 20592 20593 20594 20595 20596 20597 20598 20599 20600 20601 20602 20603 20604 20605 20606 20607 20608 20609 20610 20611 20612 20613 20614 20615 20616 20617 20618 20619 20620 20621 20622 20623 20624 20625 20626 20627 20628 20629 20630 20631 20632 20633 20634 20635 20636 20637 20638 20639 20640 20641 20642 20643 20644 20645 20646 20647 20648 20649 20650 20651 20652 20653 20654 20655 20656 20657 20658 20659 20660 20661 20662 20663 20664 20665 20666 20667 20668 20669 20670 20671 20672 20673 20674 20675 20676 20677 20678 20679 20680 20681 20682 20683 20684 20685 20686 20687 20688 20689 20690 20691 20692 20693 20694 20695 20696 20697 20698 20699 20700 20701 20702 20703 20704 20705 20706 20707 20708 20709 20710 20711 20712 20713 20714 20715 20716 20717 20718 20719 20720 20721 20722 20723 20724 20725 20726 20727 20728 20729 20730 20731 20732 20733 20734 20735 20736 20737 20738 20739 20740 20741 20742 20743 20744 20745 20746 20747 20748 20749 20750 20751 20752 20753 20754 20755 20756 20757 20758 20759 20760 20761 20762 20763 20764 20765 20766 20767 20768 20769 20770 20771 20772 20773 20774 20775 20776 20777 20778 20779 20780 20781 20782 20783 20784 20785 20786 20787 20788 20789 20790 20791 20792 20793 20794 20795 20796 20797 20798 20799 20800 20801 20802 20803 20804 20805 20806 20807 20808 20809 20810 20811 20812 20813 20814 20815 20816 20817 20818 20819 20820 20821 20822 20823 20824 20825 20826 20827 20828 20829 20830 20831 20832 20833 20834 20835 20836 20837 20838 20839 20840 20841 20842 20843 20844 20845 20846 20847 20848 20849 20850 20851 20852 20853 20854 20855 20856 20857 20858 20859 20860 20861 20862 20863 20864 20865 20866 20867 20868 20869 20870 20871 20872 20873 20874 20875 20876 20877 20878 20879 20880 20881 20882 20883 20884 20885 20886 20887 20888 20889 20890 20891 20892 20893 20894 20895 20896 20897 20898 20899 20900 20901 20902 20903 20904 20905 20906 20907 20908 20909 20910 20911 20912 20913 20914 20915 20916 20917 20918 20919 20920 20921 20922 20923 20924 20925 20926 20927 20928 20929 20930 20931 20932 20933 20934 20935 20936 20937 20938 20939 20940 20941 20942 20943 20944 20945 20946 20947 20948 20949 20950 20951 20952 20953 20954 20955 20956 20957 20958 20959 20960 20961 20962 20963 20964 20965 20966 20967 20968 20969 20970 20971 20972 20973 20974 20975 20976 20977 20978 20979 20980 20981 20982 20983 20984 20985 20986 20987 20988 20989 20990 20991 20992 20993 20994 20995 20996 20997 20998 20999 21000 21001 21002 21003 21004 21005 21006 21007 21008 21009 21010 21011 21012 21013 21014 21015 21016 21017 21018 21019 21020 21021 21022 21023 21024 21025 21026 21027 21028 21029 21030 21031 21032 21033 21034 21035 21036 21037 21038 21039 21040 21041 21042 21043 21044 21045 21046 21047 21048 21049 21050 21051 21052 21053 21054 21055 21056 21057 21058 21059 21060 21061 21062 21063 21064 21065 21066 21067 21068 21069 21070 21071 21072 21073 21074 21075 21076 21077 21078 21079 21080 21081 21082 21083 21084 21085 21086 21087 21088 21089 21090 21091 21092 21093 21094 21095 21096 21097 21098 21099 21100 21101 21102 21103 21104 21105 21106 21107 21108 21109 21110 21111 21112 21113 21114 21115 21116 21117 21118 21119 21120 21121 21122 21123 21124 21125 21126 21127 21128 21129 21130 21131 21132 21133 21134 21135 21136 21137 21138 21139 21140 21141 21142 21143 21144 21145 21146 21147 21148 21149 21150 21151 21152 21153 21154 21155 21156 21157 21158 21159 21160 21161 21162 21163 21164 21165 21166 21167 21168 21169 21170 21171 21172 21173 21174 21175 21176 21177 21178 21179 21180 21181 21182 21183 21184 21185 21186 21187 21188 21189 21190 21191 21192 21193 21194 21195 21196 21197 21198 21199 21200 21201 21202 21203 21204 21205 21206 21207 21208 21209 21210 21211 21212 21213 21214 21215 21216 21217 21218 21219 21220 21221 21222 21223 21224 21225 21226 21227 21228 21229 21230 21231 21232 21233 21234 21235 21236 21237 21238 21239 21240 21241 21242 21243 21244 21245 21246 21247 21248 21249 21250 21251 21252 21253 21254 21255 21256 21257 21258 21259 21260 21261 21262 21263 21264 21265 21266 21267 21268 21269 21270 21271 21272 21273 21274 21275 21276 21277 21278 21279 21280 21281 21282 21283 21284 21285 21286 21287 21288 21289 21290 21291 21292 21293 21294 21295 21296 21297 21298 21299 21300 21301 21302 21303 21304 21305 21306 21307 21308 21309 21310 21311 21312 21313 21314 21315 21316 21317 21318 21319 21320 21321 21322 21323 21324 21325 21326 21327 21328 21329 21330 21331 21332 21333 21334 21335 21336 21337 21338 21339 21340 21341 21342 21343 21344 21345 21346 21347 21348 21349 21350 21351 21352 21353 21354 21355 21356 21357 21358 21359 21360 21361 21362 21363 21364 21365 21366 21367 21368 21369 21370 21371 21372 21373 21374 21375 21376 21377 21378 21379 21380 21381 21382 21383 21384 21385 21386 21387 21388 21389 21390 21391 21392 21393 21394 21395 21396 21397 21398 21399 21400 21401 21402 21403 21404 21405 21406 21407 21408 21409 21410 21411 21412 21413 21414 21415 21416 21417 21418 21419 21420 21421 21422 21423 21424 21425 21426 21427 21428 21429 21430 21431 21432 21433 21434 21435 21436 21437 21438 21439 21440 21441 21442 21443 21444 21445 21446 21447 21448 21449 21450 21451 21452 21453 21454 21455 21456 21457 21458 21459 21460 21461 21462 21463 21464 21465 21466 21467 21468 21469 21470 21471 21472 21473 21474 21475 21476 21477 21478 21479 21480 21481 21482 21483 21484 21485 21486 21487 21488 21489 21490 21491 21492 21493 21494 21495 21496 21497 21498 21499 21500 21501 21502 21503 21504 21505 21506 21507 21508 21509 21510 21511 21512 21513 21514 21515 21516 21517 21518 21519 21520 21521 21522 21523 21524 21525 21526 21527 21528 21529 21530 21531 21532 21533 21534 21535 21536 21537 21538 21539 21540 21541 21542 21543 21544 21545 21546 21547 21548 21549 21550 21551 21552 21553 21554 21555 21556 21557 21558 21559 21560 21561 21562 21563 21564 21565 21566 21567 21568 21569 21570 21571 21572 21573 21574 21575 21576 21577 21578 21579 21580 21581 21582 21583 21584 21585 21586 21587 21588 21589 21590 21591 21592 21593 21594 21595 21596 21597 21598 21599 21600 21601 21602 21603 21604 21605 21606 21607 21608 21609 21610 21611 21612 21613 21614 21615 21616 21617 21618 21619 21620 21621 21622 21623 21624 21625 21626 21627 21628 21629 21630 21631 21632 21633 21634 21635 21636 21637 21638 21639 21640 21641 21642 21643 21644 21645 21646 21647 21648 21649 21650 21651 21652 21653 21654 21655 21656 21657 21658 21659 21660 21661 21662 21663 21664 21665 21666 21667 21668 21669 21670 21671 21672 21673 21674 21675 21676 21677 21678 21679 21680 21681 21682 21683 21684 21685 21686 21687 21688 21689 21690 21691 21692 21693 21694 21695 21696 21697 21698 21699 21700 21701 21702 21703 21704 21705 21706 21707 21708 21709 21710 21711 21712 21713 21714 21715 21716 21717 21718 21719 21720 21721 21722 21723 21724 21725 21726 21727 21728 21729 21730 21731 21732 21733 21734 21735 21736 21737 21738 21739 21740 21741 21742 21743 21744 21745 21746 21747 21748 21749 21750 21751 21752 21753 21754 21755 21756 21757 21758 21759 21760 21761 21762 21763 21764 21765 21766 21767 21768 21769 21770 21771 21772 21773 21774 21775 21776 21777 21778 21779 21780 21781 21782 21783 21784 21785 21786 21787 21788 21789 21790 21791 21792 21793 21794 21795 21796 21797 21798 21799 21800 21801 21802 21803 21804 21805 21806 21807 21808 21809 21810 21811 21812 21813 21814 21815 21816 21817 21818 21819 21820 21821 21822 21823 21824 21825 21826 21827 21828 21829 21830 21831 21832 21833 21834 21835 21836 21837 21838 21839 21840 21841 21842 21843 21844 21845 21846 21847 21848 21849 21850 21851 21852 21853 21854 21855 21856 21857 21858 21859 21860 21861 21862 21863 21864 21865 21866 21867 21868 21869 21870 21871 21872 21873 21874 21875 21876 21877 21878 21879 21880 21881 21882 21883 21884 21885 21886 21887 21888 21889 21890 21891 21892 21893 21894 21895 21896 21897 21898 21899 21900 21901 21902 21903 21904 21905 21906 21907 21908 21909 21910 21911 21912 21913 21914 21915 21916 21917 21918 21919 21920 21921 21922 21923 21924 21925 21926 21927 21928 21929 21930 21931 21932 21933 21934 21935 21936 21937 21938 21939 21940 21941 21942 21943 21944 21945 21946 21947 21948 21949 21950 21951 21952 21953 21954 21955 21956 21957 21958 21959 21960 21961 21962 21963 21964 21965 21966 21967 21968 21969 21970 21971 21972 21973 21974 21975 21976 21977 21978 21979 21980 21981 21982 21983 21984 21985 21986 21987 21988 21989 21990 21991 21992 21993 21994 21995 21996 21997 21998 21999 22000 22001 22002 22003 22004 22005 22006 22007 22008 22009 22010 22011 22012 22013 22014 22015 22016 22017 22018 22019 22020 22021 22022 22023 22024 22025 22026 22027 22028 22029 22030 22031 22032 22033 22034 22035 22036 22037 22038 22039 22040 22041 22042 22043 22044 22045 22046 22047 22048 22049 22050 22051 22052 22053 22054 22055 22056 22057 22058 22059 22060 22061 22062 22063 22064 22065 22066 22067 22068 22069 22070 22071 22072 22073 22074 22075 22076 22077 22078 22079 22080 22081 22082 22083 22084 22085 22086 22087 22088 22089 22090 22091 22092 22093 22094 22095 22096 22097 22098 22099 22100 22101 22102 22103 22104 22105 22106 22107 22108 22109 22110 22111 22112 22113 22114 22115 22116 22117 22118 22119 22120 22121 22122 22123 22124 22125 22126 22127 22128 22129 22130 22131 22132 22133 22134 22135 22136 22137 22138 22139 22140 22141 22142 22143 22144 22145 22146 22147 22148 22149 22150 22151 22152 22153 22154 22155 22156 22157 22158 22159 22160 22161 22162 22163 22164 22165 22166 22167 22168 22169 22170 22171 22172 22173 22174 22175 22176 22177 22178 22179 22180 22181 22182 22183 22184 22185 22186 22187 22188 22189 22190 22191 22192 22193 22194 22195 22196 22197 22198 22199 22200 22201 22202 22203 22204 22205 22206 22207 22208 22209 22210 22211 22212 22213 22214 22215 22216 22217 22218 22219 22220 22221 22222 22223 22224 22225 22226 22227 22228 22229 22230 22231 22232 22233 22234 22235 22236 22237 22238 22239 22240 22241 22242 22243 22244 22245 22246 22247 22248 22249 22250 22251 22252 22253 22254 22255 22256 22257 22258 22259 22260 22261 22262 22263 22264 22265 22266 22267 22268 22269 22270 22271 22272 22273 22274 22275 22276 22277 22278 22279 22280 22281 22282 22283 22284 22285 22286 22287 22288 22289 22290 22291 22292 22293 22294 22295 22296 22297 22298 22299 22300 22301 22302 22303 22304 22305 22306 22307 22308 22309 22310 22311 22312 22313 22314 22315 22316 22317 22318 22319 22320 22321 22322 22323 22324 22325 22326 22327 22328 22329 22330 22331 22332 22333 22334 22335 22336 22337 22338 22339 22340 22341 22342 22343 22344 22345 22346 22347 22348 22349 22350 22351 22352 22353 22354 22355 22356 22357 22358 22359 22360 22361 22362 22363 22364 22365 22366 22367 22368 22369 22370 22371 22372 22373 22374 22375 22376 22377 22378 22379 22380 22381 22382 22383 22384 22385 22386 22387 22388 22389 22390 22391 22392 22393 22394 22395 22396 22397 22398 22399 22400 22401 22402 22403 22404 22405 22406 22407 22408 22409 22410 22411 22412 22413 22414 22415 22416 22417 22418 22419 22420 22421 22422 22423 22424 22425 22426 22427 22428 22429 22430 22431 22432 22433 22434 22435 22436 22437 22438 22439 22440 22441 22442 22443 22444 22445 22446 22447 22448 22449 22450 22451 22452 22453 22454 22455 22456 22457 22458 22459 22460 22461 22462 22463 22464 22465 22466 22467 22468 22469 22470 22471 22472 22473 22474 22475 22476 22477 22478 22479 22480 22481 22482 22483 22484 22485 22486 22487 22488 22489 22490 22491 22492 22493 22494 22495 22496 22497 22498 22499 22500 22501 22502 22503 22504 22505 22506 22507 22508 22509 22510 22511 22512 22513 22514 22515 22516 22517 22518 22519 22520 22521 22522 22523 22524 22525 22526 22527 22528 22529 22530 22531 22532 22533 22534 22535 22536 22537 22538 22539 22540 22541 22542 22543 22544 22545 22546 22547 22548 22549 22550 22551 22552 22553 22554 22555 22556 22557 22558 22559 22560 22561 22562 22563 22564 22565 22566 22567 22568 22569 22570 22571 22572 22573 22574 22575 22576 22577 22578 22579 22580 22581 22582 22583 22584 22585 22586 22587 22588 22589 22590 22591 22592 22593 22594 22595 22596 22597 22598 22599 22600 22601 22602 22603 22604 22605 22606 22607 22608 22609 22610 22611 22612 22613 22614 22615 22616 22617 22618 22619 22620 22621 22622 22623 22624 22625 22626 22627 22628 22629 22630 22631 22632 22633 22634 22635 22636 22637 22638 22639 22640 22641 22642 22643 22644 22645 22646 22647 22648 22649 22650 22651 22652 22653 22654 22655 22656 22657 22658 22659 22660 22661 22662 22663 22664 22665 22666 22667 22668 22669 22670 22671 22672 22673 22674 22675 22676 22677 22678 22679 22680 22681 22682 22683 22684 22685 22686 22687 22688 22689 22690 22691 22692 22693 22694 22695 22696 22697 22698 22699 22700 22701 22702 22703 22704 22705 22706 22707 22708 22709 22710 22711 22712 22713 22714 22715 22716 22717 22718 22719 22720 22721 22722 22723 22724 22725 22726 22727 22728 22729 22730 22731 22732 22733 22734 22735 22736 22737 22738 22739 22740 22741 22742 22743 22744 22745 22746 22747 22748 22749 22750 22751 22752 22753 22754 22755 22756 22757 22758 22759 22760 22761 22762 22763 22764 22765 22766 22767 22768 22769 22770 22771 22772 22773 22774 22775 22776 22777 22778 22779 22780 22781 22782 22783 22784 22785 22786 22787 22788 22789 22790 22791 22792 22793 22794 22795 22796 22797 22798 22799 22800 22801 22802 22803 22804 22805 22806 22807 22808 22809 22810 22811 22812 22813 22814 22815 22816 22817 22818 22819 22820 22821 22822 22823 22824 22825 22826 22827 22828 22829 22830 22831 22832 22833 22834 22835 22836 22837 22838 22839 22840 22841 22842 22843 22844 22845 22846 22847 22848 22849 22850 22851 22852 22853 22854 22855 22856 22857 22858 22859 22860 22861 22862 22863 22864 22865 22866 22867 22868 22869 22870 22871 22872 22873 22874 22875 22876 22877 22878 22879 22880 22881 22882 22883 22884 22885 22886 22887 22888 22889 22890 22891 22892 22893 22894 22895 22896 22897 22898 22899 22900 22901 22902 22903 22904 22905 22906 22907 22908 22909 22910 22911 22912 22913 22914 22915 22916 22917 22918 22919 22920 22921 22922 22923 22924 22925 22926 22927 22928 22929 22930 22931 22932 22933 22934 22935 22936 22937 22938 22939 22940 22941 22942 22943 22944 22945 22946 22947 22948 22949 22950 22951 22952 22953 22954 22955 22956 22957 22958 22959 22960 22961 22962 22963 22964 22965 22966 22967 22968 22969 22970 22971 22972 22973 22974 22975 22976 22977 22978 22979 22980 22981 22982 22983 22984 22985 22986 22987 22988 22989 22990 22991 22992 22993 22994 22995 22996 22997 22998 22999 23000 23001 23002 23003 23004 23005 23006 23007 23008 23009 23010 23011 23012 23013 23014 23015 23016 23017 23018 23019 23020 23021 23022 23023 23024 23025 23026 23027 23028 23029 23030 23031 23032 23033 23034 23035 23036 23037 23038 23039 23040 23041 23042 23043 23044 23045 23046 23047 23048 23049 23050 23051 23052 23053 23054 23055 23056 23057 23058 23059 23060 23061 23062 23063 23064 23065 23066 23067 23068 23069 23070 23071 23072 23073 23074 23075 23076 23077 23078 23079 23080 23081 23082 23083 23084 23085 23086 23087 23088 23089 23090 23091 23092 23093 23094 23095 23096 23097 23098 23099 23100 23101 23102 23103 23104 23105 23106 23107 23108 23109 23110 23111 23112 23113 23114 23115 23116 23117 23118 23119 23120 23121 23122 23123 23124 23125 23126 23127 23128 23129 23130 23131 23132 23133 23134 23135 23136 23137 23138 23139 23140 23141 23142 23143 23144 23145 23146 23147 23148 23149 23150 23151 23152 23153 23154 23155 23156 23157 23158 23159 23160 23161 23162 23163 23164 23165 23166 23167 23168 23169 23170 23171 23172 23173 23174 23175 23176 23177 23178 23179 23180 23181 23182 23183 23184 23185 23186 23187 23188 23189 23190 23191 23192 23193 23194 23195 23196 23197 23198 23199 23200 23201 23202 23203 23204 23205 23206 23207 23208 23209 23210 23211 23212 23213 23214 23215 23216 23217 23218 23219 23220 23221 23222 23223 23224 23225 23226 23227 23228 23229 23230 23231 23232 23233 23234 23235 23236 23237 23238 23239 23240 23241 23242 23243 23244 23245 23246 23247 23248 23249 23250 23251 23252 23253 23254 23255 23256 23257 23258 23259 23260 23261 23262 23263 23264 23265 23266 23267 23268 23269 23270 23271 23272 23273 23274 23275 23276 23277 23278 23279 23280 23281 23282 23283 23284 23285 23286 23287 23288 23289 23290 23291 23292 23293 23294 23295 23296 23297 23298 23299 23300 23301 23302 23303 23304 23305 23306 23307 23308 23309 23310 23311 23312 23313 23314 23315 23316 23317 23318 23319 23320 23321 23322 23323 23324 23325 23326 23327 23328 23329 23330 23331 23332 23333 23334 23335 23336 23337 23338 23339 23340 23341 23342 23343 23344 23345 23346 23347 23348 23349 23350 23351 23352 23353 23354 23355 23356 23357 23358 23359 23360 23361 23362 23363 23364 23365 23366 23367 23368 23369 23370 23371 23372 23373 23374 23375 23376 23377 23378 23379 23380 23381 23382 23383 23384 23385 23386 23387 23388 23389 23390 23391 23392 23393 23394 23395 23396 23397 23398 23399 23400 23401 23402 23403 23404 23405 23406 23407 23408 23409 23410 23411 23412 23413 23414 23415 23416 23417 23418 23419 23420 23421 23422 23423 23424 23425 23426 23427 23428 23429 23430 23431 23432 23433 23434 23435 23436 23437 23438 23439 23440 23441 23442 23443 23444 23445 23446 23447 23448 23449 23450 23451 23452 23453 23454 23455 23456 23457 23458 23459 23460 23461 23462 23463 23464 23465 23466 23467 23468 23469 23470 23471 23472 23473 23474 23475 23476 23477 23478 23479 23480 23481 23482 23483 23484 23485 23486 23487 23488 23489 23490 23491 23492 23493 23494 23495 23496 23497 23498 23499 23500 23501 23502 23503 23504 23505 23506 23507 23508 23509 23510 23511 23512 23513 23514 23515 23516 23517 23518 23519 23520 23521 23522 23523 23524 23525 23526 23527 23528 23529 23530 23531 23532 23533 23534 23535 23536 23537 23538 23539 23540 23541 23542 23543 23544 23545 23546 23547 23548 23549 23550 23551 23552 23553 23554 23555 23556 23557 23558 23559 23560 23561 23562 23563 23564 23565 23566 23567 23568 23569 23570 23571 23572 23573 23574 23575 23576 23577 23578 23579 23580 23581 23582 23583 23584 23585 23586 23587 23588 23589 23590 23591 23592 23593 23594 23595 23596 23597 23598 23599 23600 23601 23602 23603 23604 23605 23606 23607 23608 23609 23610 23611 23612 23613 23614 23615 23616 23617 23618 23619 23620 23621 23622 23623 23624 23625 23626 23627 23628 23629 23630 23631 23632 23633 23634 23635 23636 23637 23638 23639 23640 23641 23642 23643 23644 23645 23646 23647 23648 23649 23650 23651 23652 23653 23654 23655 23656 23657 23658 23659 23660 23661 23662 23663 23664 23665 23666 23667 23668 23669 23670 23671 23672 23673 23674 23675 23676 23677 23678 23679 23680 23681 23682 23683 23684 23685 23686 23687 23688 23689 23690 23691 23692 23693 23694 23695 23696 23697 23698 23699 23700 23701 23702 23703 23704 23705 23706 23707 23708 23709 23710 23711 23712 23713 23714 23715 23716 23717 23718 23719 23720 23721 23722 23723 23724 23725 23726 23727 23728 23729 23730 23731 23732 23733 23734 23735 23736 23737 23738 23739 23740 23741 23742 23743 23744 23745 23746 23747 23748 23749 23750 23751 23752 23753 23754 23755 23756 23757 23758 23759 23760 23761 23762 23763 23764 23765 23766 23767 23768 23769 23770 23771 23772 23773 23774 23775 23776 23777 23778 23779 23780 23781 23782 23783 23784 23785 23786 23787 23788 23789 23790 23791 23792 23793 23794 23795 23796 23797 23798 23799 23800 23801 23802 23803 23804 23805 23806 23807 23808 23809 23810 23811 23812 23813 23814 23815 23816 23817 23818 23819 23820 23821 23822 23823 23824 23825 23826 23827 23828 23829 23830 23831 23832 23833 23834 23835 23836 23837 23838 23839 23840 23841 23842 23843 23844 23845 23846 23847 23848 23849 23850 23851 23852 23853 23854 23855 23856 23857 23858 23859 23860 23861 23862 23863 23864 23865 23866 23867 23868 23869 23870 23871 23872 23873 23874 23875 23876 23877 23878 23879 23880 23881 23882 23883 23884 23885 23886 23887 23888 23889 23890 23891 23892 23893 23894 23895 23896 23897 23898 23899 23900 23901 23902 23903 23904 23905 23906 23907 23908 23909 23910 23911 23912 23913 23914 23915 23916 23917 23918 23919 23920 23921 23922 23923 23924 23925 23926 23927 23928 23929 23930 23931 23932 23933 23934 23935 23936 23937 23938 23939 23940 23941 23942 23943 23944 23945 23946 23947 23948 23949 23950 23951 23952 23953 23954 23955 23956 23957 23958 23959 23960 23961 23962 23963 23964 23965 23966 23967 23968 23969 23970 23971 23972 23973 23974 23975 23976 23977 23978 23979 23980 23981 23982 23983 23984 23985 23986 23987 23988 23989 23990 23991 23992 23993 23994 23995 23996 23997 23998 23999 24000 24001 24002 24003 24004 24005 24006 24007 24008 24009 24010 24011 24012 24013 24014 24015 24016 24017 24018 24019 24020 24021 24022 24023 24024 24025 24026 24027 24028 24029 24030 24031 24032 24033 24034 24035 24036 24037 24038 24039 24040 24041 24042 24043 24044 24045 24046 24047 24048 24049 24050 24051 24052 24053 24054 24055 24056 24057 24058 24059 24060 24061 24062 24063 24064 24065 24066 24067 24068 24069 24070 24071 24072 24073 24074 24075 24076 24077 24078 24079 24080 24081 24082 24083 24084 24085 24086 24087 24088 24089 24090 24091 24092 24093 24094 24095 24096 24097 24098 24099 24100 24101 24102 24103 24104 24105 24106 24107 24108 24109 24110 24111 24112 24113 24114 24115 24116 24117 24118 24119 24120 24121 24122 24123 24124 24125 24126 24127 24128 24129 24130 24131 24132 24133 24134 24135 24136 24137 24138 24139 24140 24141 24142 24143 24144 24145 24146 24147 24148 24149 24150 24151 24152 24153 24154 24155 24156 24157 24158 24159 24160 24161 24162 24163 24164 24165 24166 24167 24168 24169 24170 24171 24172 24173 24174 24175 24176 24177 24178 24179 24180 24181 24182 24183 24184 24185 24186 24187 24188 24189 24190 24191 24192 24193 24194 24195 24196 24197 24198 24199 24200 24201 24202 24203 24204 24205 24206 24207 24208 24209 24210 24211 24212 24213 24214 24215 24216 24217 24218 24219 24220 24221 24222 24223 24224 24225 24226 24227 24228 24229 24230 24231 24232 24233 24234 24235 24236 24237 24238 24239 24240 24241 24242 24243 24244 24245 24246 24247 24248 24249 24250 24251 24252 24253 24254 24255 24256 24257 24258 24259 24260 24261 24262 24263 24264 24265 24266 24267 24268 24269 24270 24271 24272 24273 24274 24275 24276 24277 24278 24279 24280 24281 24282 24283 24284 24285 24286 24287 24288 24289 24290 24291 24292 24293 24294 24295 24296 24297 24298 24299 24300 24301 24302 24303 24304 24305 24306 24307 24308 24309 24310 24311 24312 24313 24314 24315 24316 24317 24318 24319 24320 24321 24322 24323 24324 24325 24326 24327 24328 24329 24330 24331 24332 24333 24334 24335 24336 24337 24338 24339 24340 24341 24342 24343 24344 24345 24346 24347 24348 24349 24350 24351 24352 24353 24354 24355 24356 24357 24358 24359 24360 24361 24362 24363 24364 24365 24366 24367 24368 24369 24370 24371 24372 24373 24374 24375 24376 24377 24378 24379 24380 24381 24382 24383 24384 24385 24386 24387 24388 24389 24390 24391 24392 24393 24394 24395 24396 24397 24398 24399 24400 24401 24402 24403 24404 24405 24406 24407 24408 24409 24410 24411 24412 24413 24414 24415 24416 24417 24418 24419 24420 24421 24422 24423 24424 24425 24426 24427 24428 24429 24430 24431 24432 24433 24434 24435 24436 24437 24438 24439 24440 24441 24442 24443 24444 24445 24446 24447 24448 24449 24450 24451 24452 24453 24454 24455 24456 24457 24458 24459 24460 24461 24462 24463 24464 24465 24466 24467 24468 24469 24470 24471 24472 24473 24474 24475 24476 24477 24478 24479 24480 24481 24482 24483 24484 24485 24486 24487 24488 24489 24490 24491 24492 24493 24494 24495 24496 24497 24498 24499 24500 24501 24502 24503 24504 24505 24506 24507 24508 24509 24510 24511 24512 24513 24514 24515 24516 24517 24518 24519 24520 24521 24522 24523 24524 24525 24526 24527 24528 24529 24530 24531 24532 24533 24534 24535 24536 24537 24538 24539 24540 24541 24542 24543 24544 24545 24546 24547 24548 24549 24550 24551 24552 24553 24554 24555 24556 24557 24558 24559 24560 24561 24562 24563 24564 24565 24566 24567 24568 24569 24570 24571 24572 24573 24574 24575 24576 24577 24578 24579 24580 24581 24582 24583 24584 24585 24586 24587 24588 24589 24590 24591 24592 24593 24594 24595 24596 24597 24598 24599 24600 24601 24602 24603 24604 24605 24606 24607 24608 24609 24610 24611 24612 24613 24614 24615 24616 24617 24618 24619 24620 24621 24622 24623 24624 24625 24626 24627 24628 24629 24630 24631 24632 24633 24634 24635 24636 24637 24638 24639 24640 24641 24642 24643 24644 24645 24646 24647 24648 24649 24650 24651 24652 24653 24654 24655 24656 24657 24658 24659 24660 24661 24662 24663 24664 24665 24666 24667 24668 24669 24670 24671 24672 24673 24674 24675 24676 24677 24678 24679 24680 24681 24682 24683 24684 24685 24686 24687 24688 24689 24690 24691 24692 24693 24694 24695 24696 24697 24698 24699 24700 24701 24702 24703 24704 24705 24706 24707 24708 24709 24710 24711 24712 24713 24714 24715 24716 24717 24718 24719 24720 24721 24722 24723 24724 24725 24726 24727 24728 24729 24730 24731 24732 24733 24734 24735 24736 24737 24738 24739 24740 24741 24742 24743 24744 24745 24746 24747 24748 24749 24750 24751 24752 24753 24754 24755 24756 24757 24758 24759 24760 24761 24762 24763 24764 24765 24766 24767 24768 24769 24770 24771 24772 24773 24774 24775 24776 24777 24778 24779 24780 24781 24782 24783 24784 24785 24786 24787 24788 24789 24790 24791 24792 24793 24794 24795 24796 24797 24798 24799 24800 24801 24802 24803 24804 24805 24806 24807 24808 24809 24810 24811 24812 24813 24814 24815 24816 24817 24818 24819 24820 24821 24822 24823 24824 24825 24826 24827 24828 24829 24830 24831 24832 24833 24834 24835 24836 24837 24838 24839 24840 24841 24842 24843 24844 24845 24846 24847 24848 24849 24850 24851 24852 24853 24854 24855 24856 24857 24858 24859 24860 24861 24862 24863 24864 24865 24866 24867 24868 24869 24870 24871 24872 24873 24874 24875 24876 24877 24878 24879 24880 24881 24882 24883 24884 24885 24886 24887 24888 24889 24890 24891 24892 24893 24894 24895 24896 24897 24898 24899 24900 24901 24902 24903 24904 24905 24906 24907 24908 24909 24910 24911 24912 24913 24914 24915 24916 24917 24918 24919 24920 24921 24922 24923 24924 24925 24926 24927 24928 24929 24930 24931 24932 24933 24934 24935 24936 24937 24938 24939 24940 24941 24942 24943 24944 24945 24946 24947 24948 24949 24950 24951 24952 24953 24954 24955 24956 24957 24958 24959 24960 24961 24962 24963 24964 24965 24966 24967 24968 24969 24970 24971 24972 24973 24974 24975 24976 24977 24978 24979 24980 24981 24982 24983 24984 24985 24986 24987 24988 24989 24990 24991 24992 24993 24994 24995 24996 24997 24998 24999 25000 25001 25002 25003 25004 25005 25006 25007 25008 25009 25010 25011 25012 25013 25014 25015 25016 25017 25018 25019 25020 25021 25022 25023 25024 25025 25026 25027 25028 25029 25030 25031 25032 25033 25034 25035 25036 25037 25038 25039 25040 25041 25042 25043 25044 25045 25046 25047 25048 25049 25050 25051 25052 25053 25054 25055 25056 25057 25058 25059 25060 25061 25062 25063 25064 25065 25066 25067 25068 25069 25070 25071 25072 25073 25074 25075 25076 25077 25078 25079 25080 25081 25082 25083 25084 25085 25086 25087 25088 25089 25090 25091 25092 25093 25094 25095 25096 25097 25098 25099 25100 25101 25102 25103 25104 25105 25106 25107 25108 25109 25110 25111 25112 25113 25114 25115 25116 25117 25118 25119 25120 25121 25122 25123 25124 25125 25126 25127 25128 25129 25130 25131 25132 25133 25134 25135 25136 25137 25138 25139 25140 25141 25142 25143 25144 25145 25146 25147 25148 25149 25150 25151 25152 25153 25154 25155 25156 25157 25158 25159 25160 25161 25162 25163 25164 25165 25166 25167 25168 25169 25170 25171 25172 25173 25174 25175 25176 25177 25178 25179 25180 25181 25182 25183 25184 25185 25186 25187 25188 25189 25190 25191 25192 25193 25194 25195 25196 25197 25198 25199 25200 25201 25202 25203 25204 25205 25206 25207 25208 25209 25210 25211 25212 25213 25214 25215 25216 25217 25218 25219 25220 25221 25222 25223 25224 25225 25226 25227 25228 25229 25230 25231 25232 25233 25234 25235 25236 25237 25238 25239 25240 25241 25242 25243 25244 25245 25246 25247 25248 25249 25250 25251 25252 25253 25254 25255 25256 25257 25258 25259 25260 25261 25262 25263 25264 25265 25266 25267 25268 25269 25270 25271 25272 25273 25274 25275 25276 25277 25278 25279 25280 25281 25282 25283 25284 25285 25286 25287 25288 25289 25290 25291 25292 25293 25294 25295 25296 25297 25298 25299 25300 25301 25302 25303 25304 25305 25306 25307 25308 25309 25310 25311 25312 25313 25314 25315 25316 25317 25318 25319 25320 25321 25322 25323 25324 25325 25326 25327 25328 25329 25330 25331 25332 25333 25334 25335 25336 25337 25338 25339 25340 25341 25342 25343 25344 25345 25346 25347 25348 25349 25350 25351 25352 25353 25354 25355 25356 25357 25358 25359 25360 25361 25362 25363 25364 25365 25366 25367 25368 25369 25370 25371 25372 25373 25374 25375 25376 25377 25378 25379 25380 25381 25382 25383 25384 25385 25386 25387 25388 25389 25390 25391 25392 25393 25394 25395 25396 25397 25398 25399 25400 25401 25402 25403 25404 25405 25406 25407 25408 25409 25410 25411 25412 25413 25414 25415 25416 25417 25418 25419 25420 25421 25422 25423 25424 25425 25426 25427 25428 25429 25430 25431 25432 25433 25434 25435 25436 25437 25438 25439 25440 25441 25442 25443 25444 25445 25446 25447 25448 25449 25450 25451 25452 25453 25454 25455 25456 25457 25458 25459 25460 25461 25462 25463 25464 25465 25466 25467 25468 25469 25470 25471 25472 25473 25474 25475 25476 25477 25478 25479 25480 25481 25482 25483 25484 25485 25486 25487 25488 25489 25490 25491 25492 25493 25494 25495 25496 25497 25498 25499 25500 25501 25502 25503 25504 25505 25506 25507 25508 25509 25510 25511 25512 25513 25514 25515 25516 25517 25518 25519 25520 25521 25522 25523 25524 25525 25526 25527 25528 25529 25530 25531 25532 25533 25534 25535 25536 25537 25538 25539 25540 25541 25542 25543 25544 25545 25546 25547 25548 25549 25550 25551 25552 25553 25554 25555 25556 25557 25558 25559 25560 25561 25562 25563 25564 25565 25566 25567 25568 25569 25570 25571 25572 25573 25574 25575 25576 25577 25578 25579 25580 25581 25582 25583 25584 25585 25586 25587 25588 25589 25590 25591 25592 25593 25594 25595 25596 25597 25598 25599 25600 25601 25602 25603 25604 25605 25606 25607 25608 25609 25610 25611 25612 25613 25614 25615 25616 25617 25618 25619 25620 25621 25622 25623 25624 25625 25626 25627 25628 25629 25630 25631 25632 25633 25634 25635 25636 25637 25638 25639 25640 25641 25642 25643 25644 25645 25646 25647 25648 25649 25650 25651 25652 25653 25654 25655 25656 25657 25658 25659 25660 25661 25662 25663 25664 25665 25666 25667 25668 25669 25670 25671 25672 25673 25674 25675 25676 25677 25678 25679 25680 25681 25682 25683 25684 25685 25686 25687 25688 25689 25690 25691 25692 25693 25694 25695 25696 25697 25698 25699 25700 25701 25702 25703 25704 25705 25706 25707 25708 25709 25710 25711 25712 25713 25714 25715 25716 25717 25718 25719 25720 25721 25722 25723 25724 25725 25726 25727 25728 25729 25730 25731 25732 25733 25734 25735 25736 25737 25738 25739 25740 25741 25742 25743 25744 25745 25746 25747 25748 25749 25750 25751 25752 25753 25754 25755 25756 25757 25758 25759 25760 25761 25762 25763 25764 25765 25766 25767 25768 25769 25770 25771 25772 25773 25774 25775 25776 25777 25778 25779 25780 25781 25782 25783 25784 25785 25786 25787 25788 25789 25790 25791 25792 25793 25794 25795 25796 25797 25798 25799 25800 25801 25802 25803 25804 25805 25806 25807 25808 25809 25810 25811 25812 25813 25814 25815 25816 25817 25818 25819 25820 25821 25822 25823 25824 25825 25826 25827 25828 25829 25830 25831 25832 25833 25834 25835 25836 25837 25838 25839 25840 25841 25842 25843 25844 25845 25846 25847 25848 25849 25850 25851 25852 25853 25854 25855 25856 25857 25858 25859 25860 25861 25862 25863 25864 25865 25866 25867 25868 25869 25870 25871 25872 25873 25874 25875 25876 25877 25878 25879 25880 25881 25882 25883 25884 25885 25886 25887 25888 25889 25890 25891 25892 25893 25894 25895 25896 25897 25898 25899 25900 25901 25902 25903 25904 25905 25906 25907 25908 25909 25910 25911 25912 25913 25914 25915 25916 25917 25918 25919 25920 25921 25922 25923 25924 25925 25926 25927 25928 25929 25930 25931 25932 25933 25934 25935 25936 25937 25938 25939 25940 25941 25942 25943 25944 25945 25946 25947 25948 25949 25950 25951 25952 25953 25954 25955 25956 25957 25958 25959 25960 25961 25962 25963 25964 25965 25966 25967 25968 25969 25970 25971 25972 25973 25974 25975 25976 25977 25978 25979 25980 25981 25982 25983 25984 25985 25986 25987 25988 25989 25990 25991 25992 25993 25994 25995 25996 25997 25998 25999 26000 26001 26002 26003 26004 26005 26006 26007 26008 26009 26010 26011 26012 26013 26014 26015 26016 26017 26018 26019 26020 26021 26022 26023 26024 26025 26026 26027 26028 26029 26030 26031 26032 26033 26034 26035 26036 26037 26038 26039 26040 26041 26042 26043 26044 26045 26046 26047 26048 26049 26050 26051 26052 26053 26054 26055 26056 26057 26058 26059 26060 26061 26062 26063 26064 26065 26066 26067 26068 26069 26070 26071 26072 26073 26074 26075 26076 26077 26078 26079 26080 26081 26082 26083 26084 26085 26086 26087 26088 26089 26090 26091 26092 26093 26094 26095 26096 26097 26098 26099 26100 26101 26102 26103 26104 26105 26106 26107 26108 26109 26110 26111 26112 26113 26114 26115 26116 26117 26118 26119 26120 26121 26122 26123 26124 26125 26126 26127 26128 26129 26130 26131 26132 26133 26134 26135 26136 26137 26138 26139 26140 26141 26142 26143 26144 26145 26146 26147 26148 26149 26150 26151 26152 26153 26154 26155 26156 26157 26158 26159 26160 26161 26162 26163 26164 26165 26166 26167 26168 26169 26170 26171 26172 26173 26174 26175 26176 26177 26178 26179 26180 26181 26182 26183 26184 26185 26186 26187 26188 26189 26190 26191 26192 26193 26194 26195 26196 26197 26198 26199 26200 26201 26202 26203 26204 26205 26206 26207 26208 26209 26210 26211 26212 26213 26214 26215 26216 26217 26218 26219 26220 26221 26222 26223 26224 26225 26226 26227 26228 26229 26230 26231 26232 26233 26234 26235 26236 26237 26238 26239 26240 26241 26242 26243 26244 26245 26246 26247 26248 26249 26250 26251 26252 26253 26254 26255 26256 26257 26258 26259 26260 26261 26262 26263 26264 26265 26266 26267 26268 26269 26270 26271 26272 26273 26274 26275 26276 26277 26278 26279 26280 26281 26282 26283 26284 26285 26286 26287 26288 26289 26290 26291 26292 26293 26294 26295 26296 26297 26298 26299 26300 26301 26302 26303 26304 26305 26306 26307 26308 26309 26310 26311 26312 26313 26314 26315 26316 26317 26318 26319 26320 26321 26322 26323 26324 26325 26326 26327 26328 26329 26330 26331 26332 26333 26334 26335 26336 26337 26338 26339 26340 26341 26342 26343 26344 26345 26346 26347 26348 26349 26350 26351 26352 26353 26354 26355 26356 26357 26358 26359 26360 26361 26362 26363 26364 26365 26366 26367 26368 26369 26370 26371 26372 26373 26374 26375 26376 26377 26378 26379 26380 26381 26382 26383 26384 26385 26386 26387 26388 26389 26390 26391 26392 26393 26394 26395 26396 26397 26398 26399 26400 26401 26402 26403 26404 26405 26406 26407 26408 26409 26410 26411 26412 26413 26414 26415 26416 26417 26418 26419 26420 26421 26422 26423 26424 26425 26426 26427 26428 26429 26430 26431 26432 26433 26434 26435 26436 26437 26438 26439 26440 26441 26442 26443 26444 26445 26446 26447 26448 26449 26450 26451 26452 26453 26454 26455 26456 26457 26458 26459 26460 26461 26462 26463 26464 26465 26466 26467 26468 26469 26470 26471 26472 26473 26474 26475 26476 26477 26478 26479 26480 26481 26482 26483 26484 26485 26486 26487 26488 26489 26490 26491 26492 26493 26494 26495 26496 26497 26498 26499 26500 26501 26502 26503 26504 26505 26506 26507 26508 26509 26510 26511 26512 26513 26514 26515 26516 26517 26518 26519 26520 26521 26522 26523 26524 26525 26526 26527 26528 26529 26530 26531 26532 26533 26534 26535 26536 26537 26538 26539 26540 26541 26542 26543 26544 26545 26546 26547 26548 26549 26550 26551 26552 26553 26554 26555 26556 26557 26558 26559 26560 26561 26562 26563 26564 26565 26566 26567 26568 26569 26570 26571 26572 26573 26574 26575 26576 26577 26578 26579 26580 26581 26582 26583 26584 26585 26586 26587 26588 26589 26590 26591 26592 26593 26594 26595 26596 26597 26598 26599 26600 26601 26602 26603 26604 26605 26606 26607 26608 26609 26610 26611 26612 26613 26614 26615 26616 26617 26618 26619 26620 26621 26622 26623 26624 26625 26626 26627 26628 26629 26630 26631 26632 26633 26634 26635 26636 26637 26638 26639 26640 26641 26642 26643 26644 26645 26646 26647 26648 26649 26650 26651 26652 26653 26654 26655 26656 26657 26658 26659 26660 26661 26662 26663 26664 26665 26666 26667 26668 26669 26670 26671 26672 26673 26674 26675 26676 26677 26678 26679 26680 26681 26682 26683 26684 26685 26686 26687 26688 26689 26690 26691 26692 26693 26694 26695 26696 26697 26698 26699 26700 26701 26702 26703 26704 26705 26706 26707 26708 26709 26710 26711 26712 26713 26714 26715 26716 26717 26718 26719 26720 26721 26722 26723 26724 26725 26726 26727 26728 26729 26730 26731 26732 26733 26734 26735 26736 26737 26738 26739 26740 26741 26742 26743 26744 26745 26746 26747 26748 26749 26750 26751 26752 26753 26754 26755 26756 26757 26758 26759 26760 26761 26762 26763 26764 26765 26766 26767 26768 26769 26770 26771 26772 26773 26774 26775 26776 26777 26778 26779 26780 26781 26782 26783 26784 26785 26786 26787 26788 26789 26790 26791 26792 26793 26794 26795 26796 26797 26798 26799 26800 26801 26802 26803 26804 26805 26806 26807 26808 26809 26810 26811 26812 26813 26814 26815 26816 26817 26818 26819 26820 26821 26822 26823 26824 26825 26826 26827 26828 26829 26830 26831 26832 26833 26834 26835 26836 26837 26838 26839 26840 26841 26842 26843 26844 26845 26846 26847 26848 26849 26850 26851 26852 26853 26854 26855 26856 26857 26858 26859 26860 26861 26862 26863 26864 26865 26866 26867 26868 26869 26870 26871 26872 26873 26874 26875 26876 26877 26878 26879 26880 26881 26882 26883 26884 26885 26886 26887 26888 26889 26890 26891 26892 26893 26894 26895 26896 26897 26898 26899 26900 26901 26902 26903 26904 26905 26906 26907 26908 26909 26910 26911 26912 26913 26914 26915 26916 26917 26918 26919 26920 26921 26922 26923 26924 26925 26926 26927 26928 26929 26930 26931 26932 26933 26934 26935 26936 26937 26938 26939 26940 26941 26942 26943 26944 26945 26946 26947 26948 26949 26950 26951 26952 26953 26954 26955 26956 26957 26958 26959 26960 26961 26962 26963 26964 26965 26966 26967 26968 26969 26970 26971 26972 26973 26974 26975 26976 26977 26978 26979 26980 26981 26982 26983 26984 26985 26986 26987 26988 26989 26990 26991 26992 26993 26994 26995 26996 26997 26998 26999 27000 27001 27002 27003 27004 27005 27006 27007 27008 27009 27010 27011 27012 27013 27014 27015 27016 27017 27018 27019 27020 27021 27022 27023 27024 27025 27026 27027 27028 27029 27030 27031 27032 27033 27034 27035 27036 27037 27038 27039 27040 27041 27042 27043 27044 27045 27046 27047 27048 27049 27050 27051 27052 27053 27054 27055 27056 27057 27058 27059 27060 27061 27062 27063 27064 27065 27066 27067 27068 27069 27070 27071 27072 27073 27074 27075 27076 27077 27078 27079 27080 27081 27082 27083 27084 27085 27086 27087 27088 27089 27090 27091 27092 27093 27094 27095 27096 27097 27098 27099 27100 27101 27102 27103 27104 27105 27106 27107 27108 27109 27110 27111 27112 27113 27114 27115 27116 27117 27118 27119 27120 27121 27122 27123 27124 27125 27126 27127 27128 27129 27130 27131 27132 27133 27134 27135 27136 27137 27138 27139 27140 27141 27142 27143 27144 27145 27146 27147 27148 27149 27150 27151 27152 27153 27154 27155 27156 27157 27158 27159 27160 27161 27162 27163 27164 27165 27166 27167 27168 27169 27170 27171 27172 27173 27174 27175 27176 27177 27178 27179 27180 27181 27182 27183 27184 27185 27186 27187 27188 27189 27190 27191 27192 27193 27194 27195 27196 27197 27198 27199 27200 27201 27202 27203 27204 27205 27206 27207 27208 27209 27210 27211 27212 27213 27214 27215 27216 27217 27218 27219 27220 27221 27222 27223 27224 27225 27226 27227 27228 27229 27230 27231 27232 27233 27234 27235 27236 27237 27238 27239 27240 27241 27242 27243 27244 27245 27246 27247 27248 27249 27250 27251 27252 27253 27254 27255 27256 27257 27258 27259 27260 27261 27262 27263 27264 27265 27266 27267 27268 27269 27270 27271 27272 27273 27274 27275 27276 27277 27278 27279 27280 27281 27282 27283 27284 27285 27286 27287 27288 27289 27290 27291 27292 27293 27294 27295 27296 27297 27298 27299 27300 27301 27302 27303 27304 27305 27306 27307 27308 27309 27310 27311 27312 27313 27314 27315 27316 27317 27318 27319 27320 27321 27322 27323 27324 27325 27326 27327 27328 27329 27330 27331 27332 27333 27334 27335 27336 27337 27338 27339 27340 27341 27342 27343 27344 27345 27346 27347 27348 27349 27350 27351 27352 27353 27354 27355 27356 27357 27358 27359 27360 27361 27362 27363 27364 27365 27366 27367 27368 27369 27370 27371 27372 27373 27374 27375 27376 27377 27378 27379 27380 27381 27382 27383 27384 27385 27386 27387 27388 27389 27390 27391 27392 27393 27394 27395 27396 27397 27398 27399 27400 27401 27402 27403 27404 27405 27406 27407 27408 27409 27410 27411 27412 27413 27414 27415 27416 27417 27418 27419 27420 27421 27422 27423 27424 27425 27426 27427 27428 27429 27430 27431 27432 27433 27434 27435 27436 27437 27438 27439 27440 27441 27442 27443 27444 27445 27446 27447 27448 27449 27450 27451 27452 27453 27454 27455 27456 27457 27458 27459 27460 27461 27462 27463 27464 27465 27466 27467 27468 27469 27470 27471 27472 27473 27474 27475 27476 27477 27478 27479 27480 27481 27482 27483 27484 27485 27486 27487 27488 27489 27490 27491 27492 27493 27494 27495 27496 27497 27498 27499 27500 27501 27502 27503 27504 27505 27506 27507 27508 27509 27510 27511 27512 27513 27514 27515 27516 27517 27518 27519 27520 27521 27522 27523 27524 27525 27526 27527 27528 27529 27530 27531 27532 27533 27534 27535 27536 27537 27538 27539 27540 27541 27542 27543 27544 27545 27546 27547 27548 27549 27550 27551 27552 27553 27554 27555 27556 27557 27558 27559 27560 27561 27562 27563 27564 27565 27566 27567 27568 27569 27570 27571 27572 27573 27574 27575 27576 27577 27578 27579 27580 27581 27582 27583 27584 27585 27586 27587 27588 27589 27590 27591 27592 27593 27594 27595 27596 27597 27598 27599 27600 27601 27602 27603 27604 27605 27606 27607 27608 27609 27610 27611 27612 27613 27614 27615 27616 27617 27618 27619 27620 27621 27622 27623 27624 27625 27626 27627 27628 27629 27630 27631 27632 27633 27634 27635 27636 27637 27638 27639 27640 27641 27642 27643 27644 27645 27646 27647 27648 27649 27650 27651 27652 27653 27654 27655 27656 27657 27658 27659 27660 27661 27662 27663 27664 27665 27666 27667 27668 27669 27670 27671 27672 27673 27674 27675 27676 27677 27678 27679 27680 27681 27682 27683 27684 27685 27686 27687 27688 27689 27690 27691 27692 27693 27694 27695 27696 27697 27698 27699 27700 27701 27702 27703 27704 27705 27706 27707 27708 27709 27710 27711 27712 27713 27714 27715 27716 27717 27718 27719 27720 27721 27722 27723 27724 27725 27726 27727 27728 27729 27730 27731 27732 27733 27734 27735 27736 27737 27738 27739 27740 27741 27742 27743 27744 27745 27746 27747 27748 27749 27750 27751 27752 27753 27754 27755 27756 27757 27758 27759 27760 27761 27762 27763 27764 27765 27766 27767 27768 27769 27770 27771 27772 27773 27774 27775 27776 27777 27778 27779 27780 27781 27782 27783 27784 27785 27786 27787 27788 27789 27790 27791 27792 27793 27794 27795 27796 27797 27798 27799 27800 27801 27802 27803 27804 27805 27806 27807 27808 27809 27810 27811 27812 27813 27814 27815 27816 27817 27818 27819 27820 27821 27822 27823 27824 27825 27826 27827 27828 27829 27830 27831 27832 27833 27834 27835 27836 27837 27838 27839 27840 27841 27842 27843 27844 27845 27846 27847 27848 27849 27850 27851 27852 27853 27854 27855 27856 27857 27858 27859 27860 27861 27862 27863 27864 27865 27866 27867 27868 27869 27870 27871 27872 27873 27874 27875 27876 27877 27878 27879 27880 27881 27882 27883 27884 27885 27886 27887 27888 27889 27890 27891 27892 27893 27894 27895 27896 27897 27898 27899 27900 27901 27902 27903 27904 27905 27906 27907 27908 27909 27910 27911 27912 27913 27914 27915 27916 27917 27918 27919 27920 27921 27922 27923 27924 27925 27926 27927 27928 27929 27930 27931 27932 27933 27934 27935 27936 27937 27938 27939 27940 27941 27942 27943 27944 27945 27946 27947 27948 27949 27950 27951 27952 27953 27954 27955 27956 27957 27958 27959 27960 27961 27962 27963 27964 27965 27966 27967 27968 27969 27970 27971 27972 27973 27974 27975 27976 27977 27978 27979 27980 27981 27982 27983 27984 27985 27986 27987 27988 27989 27990 27991 27992 27993 27994 27995 27996 27997 27998 27999 28000 28001 28002 28003 28004 28005 28006 28007 28008 28009 28010 28011 28012 28013 28014 28015 28016 28017 28018 28019 28020 28021 28022 28023 28024 28025 28026 28027 28028 28029 28030 28031 28032 28033 28034 28035 28036 28037 28038 28039 28040 28041 28042 28043 28044 28045 28046 28047 28048 28049 28050 28051 28052 28053 28054 28055 28056 28057 28058 28059 28060 28061 28062 28063 28064 28065 28066 28067 28068 28069 28070 28071 28072 28073 28074 28075 28076 28077 28078 28079 28080 28081 28082 28083 28084 28085 28086 28087 28088 28089 28090 28091 28092 28093 28094 28095 28096 28097 28098 28099 28100 28101 28102 28103 28104 28105 28106 28107 28108 28109 28110 28111 28112 28113 28114 28115 28116 28117 28118 28119 28120 28121 28122 28123 28124 28125 28126 28127 28128 28129 28130 28131 28132 28133 28134 28135 28136 28137 28138 28139 28140 28141 28142 28143 28144 28145 28146 28147 28148 28149 28150 28151 28152 28153 28154 28155 28156 28157 28158 28159 28160 28161 28162 28163 28164 28165 28166 28167 28168 28169 28170 28171 28172 28173 28174 28175 28176 28177 28178 28179 28180 28181 28182 28183 28184 28185 28186 28187 28188 28189 28190 28191 28192 28193 28194 28195 28196 28197 28198 28199 28200 28201 28202 28203 28204 28205 28206 28207 28208 28209 28210 28211 28212 28213 28214 28215 28216 28217 28218 28219 28220 28221 28222 28223 28224 28225 28226 28227 28228 28229 28230 28231 28232 28233 28234 28235 28236 28237 28238 28239 28240 28241 28242 28243 28244 28245 28246 28247 28248 28249 28250 28251 28252 28253 28254 28255 28256 28257 28258 28259 28260 28261 28262 28263 28264 28265 28266 28267 28268 28269 28270 28271 28272 28273 28274 28275 28276 28277 28278 28279 28280 28281 28282 28283 28284 28285 28286 28287 28288 28289 28290 28291 28292 28293 28294 28295 28296 28297 28298 28299 28300 28301 28302 28303 28304 28305 28306 28307 28308 28309 28310 28311 28312 28313 28314 28315 28316 28317 28318 28319 28320 28321 28322 28323 28324 28325 28326 28327 28328 28329 28330 28331 28332 28333 28334 28335 28336 28337 28338 28339 28340 28341 28342 28343 28344 28345 28346 28347 28348 28349 28350 28351 28352 28353 28354 28355 28356 28357 28358 28359 28360 28361 28362 28363 28364 28365 28366 28367 28368 28369 28370 28371 28372 28373 28374 28375 28376 28377 28378 28379 28380 28381 28382 28383 28384 28385 28386 28387 28388 28389 28390 28391 28392 28393 28394 28395 28396 28397 28398 28399 28400 28401 28402 28403 28404 28405 28406 28407 28408 28409 28410 28411 28412 28413 28414 28415 28416 28417 28418 28419 28420 28421 28422 28423 28424 28425 28426 28427 28428 28429 28430 28431 28432 28433 28434 28435 28436 28437 28438 28439 28440 28441 28442 28443 28444 28445 28446 28447 28448 28449 28450 28451 28452 28453 28454 28455 28456 28457 28458 28459 28460 28461 28462 28463 28464 28465 28466 28467 28468 28469 28470 28471 28472 28473 28474 28475 28476 28477 28478 28479 28480 28481 28482 28483 28484 28485 28486 28487 28488 28489 28490 28491 28492 28493 28494 28495 28496 28497 28498 28499 28500 28501 28502 28503 28504 28505 28506 28507 28508 28509 28510 28511 28512 28513 28514 28515 28516 28517 28518 28519 28520 28521 28522 28523 28524 28525 28526 28527 28528 28529 28530 28531 28532 28533 28534 28535 28536 28537 28538 28539 28540 28541 28542 28543 28544 28545 28546 28547 28548 28549 28550 28551 28552 28553 28554 28555 28556 28557 28558 28559 28560 28561 28562 28563 28564 28565 28566 28567 28568 28569 28570 28571 28572 28573 28574 28575 28576 28577 28578 28579 28580 28581 28582 28583 28584 28585 28586 28587 28588 28589 28590 28591 28592 28593 28594 28595 28596 28597 28598 28599 28600 28601 28602 28603 28604 28605 28606 28607 28608 28609 28610 28611 28612 28613 28614 28615 28616 28617 28618 28619 28620 28621 28622 28623 28624 28625 28626 28627 28628 28629 28630 28631 28632 28633 28634 28635 28636 28637 28638 28639 28640 28641 28642 28643 28644 28645 28646 28647 28648 28649 28650 28651 28652 28653 28654 28655 28656 28657 28658 28659 28660 28661 28662 28663 28664 28665 28666 28667 28668 28669 28670 28671 28672 28673 28674 28675 28676 28677 28678 28679 28680 28681 28682 28683 28684 28685 28686 28687 28688 28689 28690 28691 28692 28693 28694 28695 28696 28697 28698 28699 28700 28701 28702 28703 28704 28705 28706 28707 28708 28709 28710 28711 28712 28713 28714 28715 28716 28717 28718 28719 28720 28721 28722 28723 28724 28725 28726 28727 28728 28729 28730 28731 28732 28733 28734 28735 28736 28737 28738 28739 28740 28741 28742 28743 28744 28745 28746 28747 28748 28749 28750 28751 28752 28753 28754 28755 28756 28757 28758 28759 28760 28761 28762 28763 28764 28765 28766 28767 28768 28769 28770 28771 28772 28773 28774 28775 28776 28777 28778 28779 28780 28781 28782 28783 28784 28785 28786 28787 28788 28789 28790 28791 28792 28793 28794 28795 28796 28797 28798 28799 28800 28801 28802 28803 28804 28805 28806 28807 28808 28809 28810 28811 28812 28813 28814 28815 28816 28817 28818 28819 28820 28821 28822 28823 28824 28825 28826 28827 28828 28829 28830 28831 28832 28833 28834 28835 28836 28837 28838 28839 28840 28841 28842 28843 28844 28845 28846 28847 28848 28849 28850 28851 28852 28853 28854 28855 28856 28857 28858 28859 28860 28861 28862 28863 28864 28865 28866 28867 28868 28869 28870 28871 28872 28873 28874 28875 28876 28877 28878 28879 28880 28881 28882 28883 28884 28885 28886 28887 28888 28889 28890 28891 28892 28893 28894 28895 28896 28897 28898 28899 28900 28901 28902 28903 28904 28905 28906 28907 28908 28909 28910 28911 28912 28913 28914 28915 28916 28917 28918 28919 28920 28921 28922 28923 28924 28925 28926 28927 28928 28929 28930 28931 28932 28933 28934 28935 28936 28937 28938 28939 28940 28941 28942 28943 28944 28945 28946 28947 28948 28949 28950 28951 28952 28953 28954 28955 28956 28957 28958 28959 28960 28961 28962 28963 28964 28965 28966 28967 28968 28969 28970 28971 28972 28973 28974 28975 28976 28977 28978 28979 28980 28981 28982 28983 28984 28985 28986 28987 28988 28989 28990 28991 28992 28993 28994 28995 28996 28997 28998 28999 29000 29001 29002 29003 29004 29005 29006 29007 29008 29009 29010 29011 29012 29013 29014 29015 29016 29017 29018 29019 29020 29021 29022 29023 29024 29025 29026 29027 29028 29029 29030 29031 29032 29033 29034 29035 29036 29037 29038 29039 29040 29041 29042 29043 29044 29045 29046 29047 29048 29049 29050 29051 29052 29053 29054 29055 29056 29057 29058 29059 29060 29061 29062 29063 29064 29065 29066 29067 29068 29069 29070 29071 29072 29073 29074 29075 29076 29077 29078 29079 29080 29081 29082 29083 29084 29085 29086 29087 29088 29089 29090 29091 29092 29093 29094 29095 29096 29097 29098 29099 29100 29101 29102 29103 29104 29105 29106 29107 29108 29109 29110 29111 29112 29113 29114 29115 29116 29117 29118 29119 29120 29121 29122 29123 29124 29125 29126 29127 29128 29129 29130 29131 29132 29133 29134 29135 29136 29137 29138 29139 29140 29141 29142 29143 29144 29145 29146 29147 29148 29149 29150 29151 29152 29153 29154 29155 29156 29157 29158 29159 29160 29161 29162 29163 29164 29165 29166 29167 29168 29169 29170 29171 29172 29173 29174 29175 29176 29177 29178 29179 29180 29181 29182 29183 29184 29185 29186 29187 29188 29189 29190 29191 29192 29193 29194 29195 29196 29197 29198 29199 29200 29201 29202 29203 29204 29205 29206 29207 29208 29209 29210 29211 29212 29213 29214 29215 29216 29217 29218 29219 29220 29221 29222 29223 29224 29225 29226 29227 29228 29229 29230 29231 29232 29233 29234 29235 29236 29237 29238 29239 29240 29241 29242 29243 29244 29245 29246 29247 29248 29249 29250 29251 29252 29253 29254 29255 29256 29257 29258 29259 29260 29261 29262 29263 29264 29265 29266 29267 29268 29269 29270 29271 29272 29273 29274 29275 29276 29277 29278 29279 29280 29281 29282 29283 29284 29285 29286 29287 29288 29289 29290 29291 29292 29293 29294 29295 29296 29297 29298 29299 29300 29301 29302 29303 29304 29305 29306 29307 29308 29309 29310 29311 29312 29313 29314 29315 29316 29317 29318 29319 29320 29321 29322 29323 29324 29325 29326 29327 29328 29329 29330 29331 29332 29333 29334 29335 29336 29337 29338 29339 29340 29341 29342 29343 29344 29345 29346 29347 29348 29349 29350 29351 29352 29353 29354 29355 29356 29357 29358 29359 29360 29361 29362 29363 29364 29365 29366 29367 29368 29369 29370 29371 29372 29373 29374 29375 29376 29377 29378 29379 29380 29381 29382 29383 29384 29385 29386 29387 29388 29389 29390 29391 29392 29393 29394 29395 29396 29397 29398 29399 29400 29401 29402 29403 29404 29405 29406 29407 29408 29409 29410 29411 29412 29413 29414 29415 29416 29417 29418 29419 29420 29421 29422 29423 29424 29425 29426 29427 29428 29429 29430 29431 29432 29433 29434 29435 29436 29437 29438 29439 29440 29441 29442 29443 29444 29445 29446 29447 29448 29449 29450 29451 29452 29453 29454 29455 29456 29457 29458 29459 29460 29461 29462 29463 29464 29465 29466 29467 29468 29469 29470 29471 29472 29473 29474 29475 29476 29477 29478 29479 29480 29481 29482 29483 29484 29485 29486 29487 29488 29489 29490 29491 29492 29493 29494 29495 29496 29497 29498 29499 29500 29501 29502 29503 29504 29505 29506 29507 29508 29509 29510 29511 29512 29513 29514 29515 29516 29517 29518 29519 29520 29521 29522 29523 29524 29525 29526 29527 29528 29529 29530 29531 29532 29533 29534 29535 29536 29537 29538 29539 29540 29541 29542 29543 29544 29545 29546 29547 29548 29549 29550 29551 29552 29553 29554 29555 29556 29557 29558 29559 29560 29561 29562 29563 29564 29565 29566 29567 29568 29569 29570 29571 29572 29573 29574 29575 29576 29577 29578 29579 29580 29581 29582 29583 29584 29585 29586 29587 29588 29589 29590 29591 29592 29593 29594 29595 29596 29597 29598 29599 29600 29601 29602 29603 29604 29605 29606 29607 29608 29609 29610 29611 29612 29613 29614 29615 29616 29617 29618 29619 29620 29621 29622 29623 29624 29625 29626 29627 29628 29629 29630 29631 29632 29633 29634 29635 29636 29637 29638 29639 29640 29641 29642 29643 29644 29645 29646 29647 29648 29649 29650 29651 29652 29653 29654 29655 29656 29657 29658 29659 29660 29661 29662 29663 29664 29665 29666 29667 29668 29669 29670 29671 29672 29673 29674 29675 29676 29677 29678 29679 29680 29681 29682 29683 29684 29685 29686 29687 29688 29689 29690 29691 29692 29693 29694 29695 29696 29697 29698 29699 29700 29701 29702 29703 29704 29705 29706 29707 29708 29709 29710 29711 29712 29713 29714 29715 29716 29717 29718 29719 29720 29721 29722 29723 29724 29725 29726 29727 29728 29729 29730 29731 29732 29733 29734 29735 29736 29737 29738 29739 29740 29741 29742 29743 29744 29745 29746 29747 29748 29749 29750 29751 29752 29753 29754 29755 29756 29757 29758 29759 29760 29761 29762 29763 29764 29765 29766 29767 29768 29769 29770 29771 29772 29773 29774 29775 29776 29777 29778 29779 29780 29781 29782 29783 29784 29785 29786 29787 29788 29789 29790 29791 29792 29793 29794 29795 29796 29797 29798 29799 29800 29801 29802 29803 29804 29805 29806 29807 29808 29809 29810 29811 29812 29813 29814 29815 29816 29817 29818 29819 29820 29821 29822 29823 29824 29825 29826 29827 29828 29829 29830 29831 29832 29833 29834 29835 29836 29837 29838 29839 29840 29841 29842 29843 29844 29845 29846 29847 29848 29849 29850 29851 29852 29853 29854 29855 29856 29857 29858 29859 29860 29861 29862 29863 29864 29865 29866 29867 29868 29869 29870 29871 29872 29873 29874 29875 29876 29877 29878 29879 29880 29881 29882 29883 29884 29885 29886 29887 29888 29889 29890 29891 29892 29893 29894 29895 29896 29897 29898 29899 29900 29901 29902 29903 29904 29905 29906 29907 29908 29909 29910 29911 29912 29913 29914 29915 29916 29917 29918 29919 29920 29921 29922 29923 29924 29925 29926 29927 29928 29929 29930 29931 29932 29933 29934 29935 29936 29937 29938 29939 29940 29941 29942 29943 29944 29945 29946 29947 29948 29949 29950 29951 29952 29953 29954 29955 29956 29957 29958 29959 29960 29961 29962 29963 29964 29965 29966 29967 29968 29969 29970 29971 29972 29973 29974 29975 29976 29977 29978 29979 29980 29981 29982 29983 29984 29985 29986 29987 29988 29989 29990 29991 29992 29993 29994 29995 29996 29997 29998 29999 30000 30001 30002 30003 30004 30005 30006 30007 30008 30009 30010 30011 30012 30013 30014 30015 30016 30017 30018 30019 30020 30021 30022 30023 30024 30025 30026 30027 30028 30029 30030 30031 30032 30033 30034 30035 30036 30037 30038 30039 30040 30041 30042 30043 30044 30045 30046 30047 30048 30049 30050 30051 30052 30053 30054 30055 30056 30057 30058 30059 30060 30061 30062 30063 30064 30065 30066 30067 30068 30069 30070 30071 30072 30073 30074 30075 30076 30077 30078 30079 30080 30081 30082 30083 30084 30085 30086 30087 30088 30089 30090 30091 30092 30093 30094 30095 30096 30097 30098 30099 30100 30101 30102 30103 30104 30105 30106 30107 30108 30109 30110 30111 30112 30113 30114 30115 30116 30117 30118 30119 30120 30121 30122 30123 30124 30125 30126 30127 30128 30129 30130 30131 30132 30133 30134 30135 30136 30137 30138 30139 30140 30141 30142 30143 30144 30145 30146 30147 30148 30149 30150 30151 30152 30153 30154 30155 30156 30157 30158 30159 30160 30161 30162 30163 30164 30165 30166 30167 30168 30169 30170 30171 30172 30173 30174 30175 30176 30177 30178 30179 30180 30181 30182 30183 30184 30185 30186 30187 30188 30189 30190 30191 30192 30193 30194 30195 30196 30197 30198 30199 30200 30201 30202 30203 30204 30205 30206 30207 30208 30209 30210 30211 30212 30213 
</DataArray>
<DataArray type="UInt32" Name="offsets" format="ascii">
3 6 9 12 15 18 21 24 27 29 32 34 37 40 43 46 49 52 55 58 61 64 67 70 73 76 79 81 84 87 90 93 96 99 102 105 108 111 114 117 119 122 125 128 131 134 137 140 143 146 149 152 155 158 161 164 167 170 173 176 179 182 185 188 191 194 197 199 202 204 207 210 213 216 218 220 223 226 228 231 234 236 239 242 245 248 251 254 257 260 263 266 268 271 274 277 280 282 285 288 291 294 297 300 303 306 309 312 315 318 320 323 326 329 332 335 338 341 344 347 350 352 355 358 361 364 367 370 372 375 378 381 384 387 390 392 395 397 400 403 406 409 412 415 418 421 424 427 430 432 435 437 440 443 446 449 451 454 456 459 462 465 468 471 474 477 480 483 486 488 491 494 497 499 502 505 508 511 513 516 519 521 524 526 529 531 534 536 539 542 544 547 549 552 555 558 560 563 566 569 571 574 577 579 582 585 587 590 593 596 598 600 602 605 608 611 614 617 620 623 626 629 632 634 637 640 642 645 648 650 653 656 659 662 664 667 670 673 676 679 682 685 688 691 694 697 700 703 706 709 712 715 718 721 724 727 730 733 735 738 741 744 747 750 753 756 759 762 765 768 770 773 776 779 781 784 787 789 792 795 798 801 804 807 810 813 815 818 821 824 827 829 832 835 838 841 844 847 850 853 856 859 862 864 867 870 872 875 878 881 884 887 890 893 896 898 901 904 906 909 911 914 917 919 922 925 927 930 933 936 939 942 945 948 951 954 957 960 963 966 969 972 975 978 981 984 987 990 993 995 998 1001 1004 1007 1010 1013 1016 1019 1022 1024 1027 1030 1033 1036 1039 1042 1045 1048 1051 1054 1057 1060 1063 1066 1069 1072 1075 1078 1081 1084 1087 1090 1093 1096 1098 1101 1104 1107 1110 1113 1116 1119 1122 1125 1127 1130 1133 1136 1138 1140 1143 1146 1149 1151 1154 1157 1159 1162 1164 1167 1170 1172 1174 1177 1180 1182 1185 1188 1190 1193 1195 1198 1201 1203 1206 1209 1212 1215 1218 1221 1224 1227 1230 1233 1236 1239 1242 1245 1248 1251 1254 1256 1259 1262 1265 1268 1271 1274 1276 1279 1282 1284 1287 1290 1293 1296 1299 1302 1305 1308 1310 1313 1316 1319 1322 1324 1327 1330 1333 1336 1339 1341 1344 1347 1350 1353 1356 1359 1362 1365 1368 1371 1374 1377 1380 1382 1385 1388 1391 1393 1396 1399 1402 1405 1407 1410 1413 1416 1418 1420 1422 1425 1428 1430 1432 1435 1437 1439 1442 1445 1448 1451 1453 1455 1457 1460 1463 1465 1468 1471 1474 1477 1480 1483 1485 1488 1491 1494 1497 1500 1503 1506 1508 1511 1514 1516 1519 1522 1525 1527 1530 1533 1536 1539 1541 1544 1546 1549 1552 1555 1558 1561 1564 1567 1570 1573 1576 1579 1582 1585 1588 1591 1594 1597 1599 1602 1605 1608 1611 1614 1617 1620 1623 1626 1629 1632 1635 1638 1641 1644 1647 1650 1652 1655 1657 1660 1663 1666 1669 1672 1675 1678 1681 1684 1687 1690 1693 1695 1698 1701 1704 1707 1710 1712 1715 1718 1721 1724 1727 1730 1733 1736 1739 1741 1744 1746 1749 1752 1754 1757 1760 1763 1766 1769 1772 1775 1778 1781 1784 1787 1790 1793 1796 1799 1802 1804 1807 1810 1813 1816 1819 1822 1825 1827 1830 1833 1836 1839 1842 1845 1847 1850 1852 1855 1858 1861 1863 1865 1867 1870 1873 1876 1879 1882 1885 1888 1890 1893 1896 1899 1902 1904 1907 1910 1913 1916 1919 1922 1925 1928 1931 1934 1936 1939 1942 1944 1947 1950 1953 1956 1959 1962 1965 1968 1971 1974 1976 1979 1982 1984 1987 1990 1993 1996 1999 2002 2005 2008 2011 2014 2017 2020 2023 2026 2028 2031 2034 2036 2039 2041 2044 2047 2050 2053 2056 2059 2062 2065 2068 2071 2074 2077 2080 2083 2086 2089 2092 2095 2097 2099 2102 2105 2108 2111 2114 2116 2119 2122 2125 2128 2131 2134 2137 2140 2143 2146 2149 2152 2155 2158 2161 2164 2167 2170 2172 2175 2178 2181 2184 2187 2190 2193 2196 2198 2201 2204 2207 2210 2212 2215 2217 2220 2223 2226 2229 2232 2235 2238 2241 2244 2247 2250 2253 2256 2258 2261 2264 2267 2270 2272 2275 2278 2281 2283 2285 2288 2291 2294 2297 2299 2302 2304 2307 2310 2312 2315 2317 2320 2323 2326 2329 2332 2335 2338 2341 2344 2347 2350 2353 2356 2359 2362 2365 2368 2371 2373 2376 2379 2381 2384 2387 2390 2392 2395 2398 2401 2404 2406 2409 2412 2415 2418 2421 2424 2427 2429 2432 2435 2438 2440 2443 2446 2449 2452 2455 2458 2461 2464 2467 2470 2473 2476 2479 2482 2485 2488 2491 2494 2497 2500 2503 2506 2509 2512 2515 2518 2521 2524 2527 2530 2533 2535 2538 2541 2544 2547 2550 2553 2555 2558 2561 2564 2567 2570 2573 2576 2579 2582 2585 2588 2590 2593 2596 2599 2602 2605 2608 2611 2613 2616 2619 2622 2625 2628 2630 2633 2636 2638 2641 2644 2647 2649 2652 2655 2658 2660 2662 2665 2668 2671 2673 2675 2678 2681 2684 2687 2690 2693 2696 2699 2702 2705 2708 2711 2714 2717 2719 2722 2725 2728 2731 2734 2736 2739 2742 2745 2748 2751 2754 2757 2760 2763 2766 2769 2772 2775 2778 2781 2784 2787 2790 2793 2796 2799 2802 2805 2808 2811 2814 2817 2820 2823 2826 2829 2832 2835 2838 2841 2844 2847 2850 2853 2856 2859 2862 2865 2868 2871 2874 2877 2880 2883 2885 2888 2891 2894 2897 2899 2902 2905 2908 2911 2914 2916 2919 2921 2924 2927 2930 2933 2936 2939 2942 2945 2948 2951 2954 2957 2960 2963 2966 2969 2972 2974 2977 2980 2983 2985 2988 2991 2994 2997 3000 3002 3005 3008 3011 3014 3017 3020 3023 3026 3029 3032 3035 3038 3041 3044 3047 3050 3053 3056 3059 3062 3065 3068 3071 3074 3077 3080 3083 3086 3089 3092 3095 3098 3101 3104 3107 3110 3113 3116 3119 3122 3125 3128 3131 3134 3137 3140 3143 3146 3149 3152 3155 3158 3161 3164 3167 3170 3173 3176 3178 3181 3184 3187 3190 3193 3196 3199 3202 3205 3208 3211 3214 3217 3219 3222 3225 3228 3231 3234 3237 3240 3243 3246 3249 3252 3254 3257 3260 3263 3265 3268 3271 3274 3277 3280 3283 3286 3289 3292 3295 3298 3301 3304 3307 3310 3313 3316 3319 3322 3325 3328 3331 3333 3336 3339 3341 3344 3347 3349 3352 3355 3358 3361 3364 3367 3370 3373 3376 3379 3382 3385 3387 3390 3393 3396 3399 3402 3405 3408 3411 3414 3416 3419 3422 3425 3428 3431 3434 3436 3439 3442 3445 3447 3450 3453 3455 3458 3461 3464 3467 3470 3473 3476 3479 3482 3484 3487 3490 3493 3496 3499 3502 3505 3508 3511 3514 3516 3519 3522 3525 3528 3531 3534 3537 3539 3542 3545 3548 3551 3554 3556 3559 3562 3565 3568 3571 3574 3577 3579 3582 3585 3588 3591 3594 3597 3599 3601 3604 3607 3610 3613 3616 3619 3622 3625 3627 3630 3633 3636 3639 3642 3645 3648 3651 3654 3657 3660 3663 3666 3669 3672 3675 3678 3681 3683 3686 3689 3692 3695 3698 3701 3704 3707 3710 3713 3716 3719 3722 3724 3727 3730 3733 3735 3737 3740 3743 3746 3749 3752 3755 3758 3761 3764 3767 3770 3773 3776 3779 3782 3785 3788 3791 3794 3797 3800 3803 3806 3809 3812 3815 3818 3821 3824 3827 3830 3833 3836 3839 3842 3845 3848 3851 3854 3857 3860 3863 3866 3869 3872 3875 3878 3880 3882 3885 3888 3891 3893 3896 3899 3902 3904 3907 3910 3912 3915 3918 3921 3924 3927 3930 3933 3936 3939 3942 3945 3947 3950 3953 3956 3959 3962 3965 3967 3970 3972 3974 3977 3980 3983 3985 3988 3991 3993 3996 3998 4001 4004 4007 4009 4012 4015 4018 4021 4023 4026 4029 4032 4035 4037 4040 4043 4046 4048 4051 4054 4057 4060 4063 4066 4068 4071 4074 4077 4080 4083 4086 4089 4092 4095 4098 4100 4103 4106 4109 4112 4115 4118 4121 4124 4127 4130 4133 4136 4139 4142 4145 4148 4151 4154 4157 4159 4162 4165 4168 4171 4174 4176 4179 4182 4184 4187 4190 4193 4196 4199 4202 4205 4208 4211 4214 4217 4220 4223 4226 4229 4232 4234 4237 4240 4243 4246 4249 4252 4255 4258 4261 4263 4266 4269 4272 4275 4278 4281 4284 4287 4290 4293 4296 4299 4302 4305 4308 4311 4314 4317 4320 4322 4325 4328 4331 4333 4335 4338 4341 4344 4346 4349 4352 4355 4357 4360 4363 4366 4369 4372 4375 4377 4380 4383 4386 4389 4392 4395 4398 4401 4404 4407 4410 4412 4414 4417 4420 4423 4426 4428 4431 4434 4437 4440 4443 4446 4449 4452 4455 4457 4460 4463 4466 4468 4471 4474 4477 4480 4483 4486 4489 4492 4494 4497 4500 4503 4506 4509 4512 4515 4517 4520 4523 4526 4529 4532 4535 4538 4541 4544 4547 4549 4552 4555 4558 4560 4563 4566 4569 4572 4575 4578 4580 4582 4585 4588 4591 4594 4596 4599 4602 4605 4608 4611 4614 4617 4620 4623 4626 4629 4632 4635 4638 4641 4644 4647 4650 4652 4655 4658 4661 4664 4667 4670 4673 4675 4678 4681 4684 4687 4690 4693 4696 4699 4702 4704 4707 4710 4713 4716 4719 4722 4724 4727 4729 4732 4735 4738 4741 4743 4746 4749 4752 4755 4758 4761 4764 4767 4770 4773 4775 4778 4781 4784 4787 4790 4793 4796 4799 4802 4805 4808 4811 4814 4817 4820 4823 4826 4829 4832 4835 4838 4841 4844 4846 4849 4851 4853 4856 4859 4861 4863 4866 4869 4872 4875 4878 4881 4884 4887 4890 4893 4896 4899 4902 4905 4908 4911 4914 4917 4919 4922 4925 4928 4930 4933 4936 4938 4941 4944 4947 4950 4953 4956 4959 4962 4965 4968 4971 4974 4977 4979 4982 4985 4988 4991 4994 4997 4999 5002 5005 5008 5011 5014 5017 5020 5023 5026 5029 5032 5035 5038 5041 5044 5047 5050 5053 5056 5059 5062 5065 5068 5071 5073 5076 5079 5081 5084 5087 5090 5093 5096 5099 5102 5105 5108 5111 5114 5117 5120 5123 5125 5128 5130 5133 5136 5138 5141 5143 5146 5149 5152 5155 5158 5161 5163 5166 5169 5172 5175 5178 5180 5183 5186 5189 5192 5195 5198 5201 5204 5207 5210 5213 5216 5219 5222 5225 5228 5231 5234 5236 5239 5242 5245 5248 5251 5254 5256 5259 5262 5265 5268 5270 5272 5275 5278 5280 5283 5285 5287 5290 5293 5295 5298 5300 5303 5306 5309 5312 5315 5317 5320 5322 5325 5328 5331 5334 5337 5339 5342 5345 5348 5351 5354 5357 5360 5363 5366 5368 5371 5374 5377 5379 5382 5385 5388 5391 5393 5396 5399 5402 5405 5408 5411 5414 5417 5420 5423 5426 5429 5432 5435 5438 5441 5443 5446 5449 5452 5454 5457 5460 5463 5466 5469 5472 5475 5478 5481 5484 5487 5490 5493 5496 5499 5502 5505 5508 5510 5513 5515 5518 5521 5524 5527 5529 5532 5534 5537 5540 5543 5545 5548 5551 5554 5557 5560 5563 5566 5569 5572 5575 5578 5581 5584 5587 5590 5593 5596 5599 5602 5605 5608 5611 5614 5617 5620 5623 5626 5628 5631 5633 5636 5638 5641 5644 5647 5649 5651 5654 5657 5660 5662 5665 5667 5670 5673 5676 5679 5682 5685 5688 5691 5694 5697 5700 5702 5705 5708 5711 5714 5717 5720 5723 5726 5729 5732 5735 5738 5741 5743 5746 5749 5752 5754 5757 5760 5763 5766 5769 5772 5775 5778 5781 5783 5786 5789 5792 5794 5797 5800 5803 5806 5808 5811 5814 5817 5820 5823 5826 5829 5832 5834 5837 5840 5843 5846 5849 5852 5855 5858 5861 5863 5866 5869 5872 5875 5878 5881 5884 5887 5890 5893 5896 5899 5902 5905 5908 5911 5914 5917 5920 5923 5926 5929 5932 5935 5938 5941 5944 5947 5950 5953 5956 5959 5961 5964 5967 5969 5972 5975 5978 5981 5984 5987 5990 5993 5996 5999 6002 6005 6008 6011 6014 6017 6019 6022 6024 6026 6029 6032 6035 6037 6040 6043 6046 6049 6052 6055 6058 6060 6063 6066 6069 6072 6075 6078 6081 6083 6086 6088 6091 6094 6097 6100 6103 6106 6109 6112 6115 6118 6120 6123 6126 6129 6132 6134 6137 6140 6142 6144 6146 6148 6151 6154 6157 6160 6163 6165 6168 6171 6174 6177 6179 6182 6185 6188 6191 6194 6197 6199 6202 6205 6208 6211 6214 6217 6220 6223 6226 6229 6232 6235 6238 6240 6243 6246 6249 6251 6254 6257 6260 6263 6266 6269 6272 6275 6278 6281 6284 6287 6290 6293 6296 6298 6301 6304 6307 6310 6313 6315 6318 6321 6323 6326 6329 6332 6335 6338 6341 6344 6347 6349 6351 6354 6357 6360 6363 6366 6369 6372 6374 6377 6380 6383 6386 6389 6392 6395 6397 6400 6403 6406 6409 6412 6415 6417 6419 6422 6425 6428 6431 6433 6435 6438 6441 6444 6447 6450 6453 6456 6459 6462 6465 6468 6471 6474 6477 6480 6483 6486 6489 6492 6495 6498 6501 6504 6507 6510 6513 6516 6519 6522 6525 6528 6531 6534 6537 6540 6543 6546 6549 6552 6555 6558 6561 6564 6566 6568 6571 6574 6576 6579 6582 6585 6588 6591 6594 6597 6600 6603 6606 6609 6611 6614 6617 6620 6623 6626 6629 6632 6635 6638 6641 6644 6647 6650 6653 6656 6659 6662 6665 6667 6670 6673 6675 6678 6681 6684 6687 6690 6692 6695 6698 6701 6704 6706 6709 6712 6715 6718 6721 6724 6726 6729 6731 6734 6737 6740 6743 6746 6748 6751 6754 6756 6759 6762 6765 6768 6771 6774 6777 6780 6783 6786 6788 6791 6794 6796 6799 6802 6805 6808 6811 6814 6817 6820 6823 6826 6829 6832 6834 6837 6840 6843 6846 6849 6852 6855 6858 6861 6864 6867 6870 6873 6876 6878 6881 6884 6887 6890 6893 6896 6899 6902 6905 6908 6911 6914 6917 6919 6922 6925 6928 6931 6934 6937 6940 6943 6946 6949 6952 6955 6958 6961 6964 6967 6970 6973 6975 6978 6981 6984 6986 6989 6992 6995 6997 7000 7003 7006 7009 7012 7015 7018 7021 7024 7027 7030 7033 7036 7039 7042 7045 7048 7051 7054 7056 7059 7062 7065 7068 7071 7074 7077 7080 7083 7086 7089 7091 7094 7097 7100 7102 7105 7108 7111 7114 7117 7120 7123 7126 7128 7130 7133 7136 7139 7141 7144 7146 7149 7152 7154 7157 7160 7162 7165 7167 7170 7173 7175 7178 7180 7182 7184 7187 7190 7193 7196 7199 7202 7205 7207 7209 7212 7215 7217 7220 7222 7225 7228 7231 7234 7237 7240 7243 7246 7249 7252 7255 7258 7261 7264 7267 7270 7273 7276 7279 7282 7285 7288 7291 7294 7297 7300 7302 7305 7308 7311 7314 7317 7319 7322 7324 7327 7330 7332 7335 7338 7341 7344 7347 7350 7353 7356 7358 7361 7364 7367 7369 7372 7375 7378 7381 7384 7387 7390 7393 7396 7399 7402 7405 7408 7411 7414 7416 7419 7422 7425 7428 7431 7434 7437 7440 7443 7446 7449 7452 7455 7458 7461 7464 7467 7470 7473 7476 7479 7482 7485 7487 7490 7493 7496 7498 7501 7504 7507 7510 7513 7516 7519 7521 7524 7526 7529 7532 7535 7538 7541 7544 7547 7550 7553 7556 7559 7561 7563 7566 7569 7571 7574 7577 7580 7583 7586 7589 7592 7595 7598 7601 7604 7607 7610 7613 7616 7619 7622 7624 7627 7630 7633 7635 7638 7641 7644 7647 7650 7653 7656 7659 7662 7665 7668 7671 7674 7677 7680 7683 7686 7689 7692 7695 7698 7701 7704 7707 7710 7713 7716 7719 7722 7725 7728 7731 7734 7737 7740 7743 7746 7749 7752 7755 7758 7761 7764 7767 7769 7772 7775 7778 7781 7784 7787 7790 7793 7796 7799 7802 7804 7807 7810 7813 7816 7819 7822 7825 7828 7831 7834 7837 7839 7842 7845 7848 7851 7854 7857 7860 7863 7866 7869 7872 7874 7877 7880 7883 7886 7889 7892 7895 7898 7901 7904 7907 7910 7913 7916 7919 7922 7925 7928 7931 7934 7937 7940 7943 7946 7948 7951 7954 7956 7959 7962 7965 7968 7971 7973 7976 7979 7982 7985 7988 7991 7994 7997 8000 8003 8006 8009 8012 8015 8018 8021 8024 8027 8029 8031 8034 8037 8039 8042 8045 8048 8051 8054 8057 8060 8063 8066 8069 8072 8075 8078 8081 8084 8087 8090 8093 8096 8099 8102 8105 8108 8111 8114 8117 8120 8123 8126 8129 8132 8135 8138 8141 8144 8147 8150 8153 8156 8159 8162 8165 8168 8171 8174 8177 8179 8182 8185 8188 8190 8193 8196 8199 8202 8205 8208 8211 8214 8217 8220 8223 8226 8229 8232 8235 8238 8241 8244 8247 8250 8253 8256 8259 8262 8265 8267 8270 8272 8274 8277 8280 8283 8286 8289 8291 8294 8297 8299 8302 8305 8308 8311 8314 8317 8320 8323 8326 8329 8332 8335 8338 8341 8344 8347 8350 8353 8356 8359 8362 8365 8368 8371 8374 8377 8380 8383 8386 8389 8392 8395 8398 8401 8404 8407 8410 8413 8416 8419 8422 8424 8427 8430 8433 8436 8438 8441 8444 8447 8449 8452 8455 8458 8461 8464 8467 8470 8473 8475 8478 8481 8484 8487 8490 8493 8496 8499 8502 8505 8508 8511 8514 8517 8520 8523 8526 8529 8532 8535 8538 8541 8544 8547 8550 8552 8555 8558 8561 8564 8567 8569 8572 8575 8578 8581 8584 8587 8590 8593 8596 8599 8602 8605 8608 8611 8614 8617 8620 8623 8626 8629 8632 8635 8638 8641 8644 8647 8650 8653 8656 8659 8662 8665 8667 8669 8672 8675 8678 8681 8684 8687 8690 8693 8696 8699 8701 8704 8707 8710 8712 8715 8718 8720 8723 8726 8729 8732 8734 8737 8739 8742 8745 8748 8750 8753 8756 8759 8762 8765 8767 8770 8773 8776 8778 8781 8784 8787 8790 8793 8796 8799 8802 8805 8808 8811 8814 8817 8820 8823 8826 8829 8832 8835 8837 8840 8843 8846 8849 8852 8855 8858 8861 8864 8867 8870 8873 8876 8879 8882 8885 8888 8891 8894 8897 8900 8903 8906 8909 8912 8915 8918 8921 8924 8927 8930 8933 8936 8939 8942 8945 8948 8951 8954 8956 8959 8962 8965 8968 8971 8974 8977 8980 8983 8986 8989 8992 8995 8998 9001 9004 9007 9010 9013 9016 9019 9021 9024 9027 9030 9033 9036 9039 9042 9045 9047 9050 9053 9056 9059 9061 9064 9067 9070 9072 9075 9077 9080 9083 9086 9089 9092 9095 9098 9101 9103 9106 9109 9112 9114 9117 9119 9122 9125 9128 9131 9133 9136 9139 9142 9145 9148 9151 9154 9157 9160 9163 9166 9169 9172 9174 9177 9179 9182 9185 9188 9191 9194 9196 9199 9202 9205 9208 9211 9214 9217 9220 9223 9226 9229 9232 9235 9238 9241 9244 9247 9250 9253 9256 9258 9261 9264 9267 9270 9273 9276 9278 9281 9284 9287 9290 9293 9296 9299 9302 9305 9308 9311 9314 9317 9320 9323 9326 9329 9332 9335 9338 9340 9343 9346 9349 9352 9355 9358 9361 9364 9367 9370 9373 9376 9379 9382 9385 9388 9391 9394 9397 9400 9403 9406 9409 9411 9414 9417 9420 9423 9426 9429 9432 9434 9437 9439 9442 9445 9447 9450 9453 9456 9459 9462 9465 9468 9471 9474 9477 9480 9483 9486 9489 9492 9495 9498 9501 9504 9507 9510 9513 9516 9519 9522 9525 9528 9531 9534 9537 9540 9542 9545 9548 9551 9554 9557 9559 9562 9565 9568 9571 9574 9576 9579 9582 9585 9588 9591 9593 9596 9598 9601 9604 9606 9609 9612 9615 9618 9621 9624 9627 9630 9633 9636 9639 9642 9645 9648 9651 9654 9657 9660 9663 9666 9669 9672 9675 9678 9681 9684 9687 9690 9693 9696 9699 9702 9705 9708 9711 9714 9717 9720 9723 9726 9729 9732 9734 9737 9740 9743 9746 9749 9752 9755 9757 9760 9762 9765 9768 9771 9773 9776 9778 9781 9784 9787 9790 9792 9795 9798 9801 9804 9807 9809 9812 9815 9818 9821 9824 9827 9830 9833 9836 9838 9841 9844 9847 9850 9853 9856 9859 9862 9865 9868 9871 9874 9877 9880 9883 9886 9889 9892 9895 9898 9901 9904 9907 9910 9913 9916 9919 9922 9925 9928 9931 9933 9936 9938 9941 9944 9947 9950 9953 9955 9958 9961 9964 9967 9969 9972 9975 9978 9981 9984 9987 9990 9993 9996 9999 10002 10005 10008 10011 10014 10017 10020 10023 10026 10029 10032 10035 10038 10041 10044 10047 10050 10053 10056 10059 10062 10065 10068 10071 10074 10077 10080 10083 10086 10089 10092 10095 10098 10101 10104 10107 10110 10113 10116 10119 10122 10125 10128 10131 10134 10137 10140 10143 10146 10149 10152 10155 10158 10161 10164 10167 10170 10173 10176 10179 10182 10185 10188 10191 10194 10197 10199 10202 10205 10208 10211 10214 10217 10220 10223 10226 10229 10232 10235 10238 10241 10244 10247 10250 10253 10256 10259 10262 10265 10268 10271 10274 10277 10280 10283 10286 10288 10291 10294 10297 10300 10303 10306 10309 10312 10315 10318 10321 10324 10327 10330 10333 10336 10339 10342 10345 10348 10351 10354 10357 10360 10363 10366 10369 10372 10375 10378 10381 10384 10387 10390 10393 10396 10399 10402 10405 10408 10411 10414 10417 10420 10422 10425 10427 10430 10433 10436 10439 10442 10445 10448 10451 10454 10457 10460 10463 10466 10469 10472 10475 10478 10481 10484 10487 10490 10493 10496 10499 10502 10505 10508 10511 10513 10516 10518 10521 10524 10527 10530 10533 10536 10539 10542 10545 10548 10551 10554 10557 10560 10563 10566 10569 10571 10574 10577 10580 10583 10586 10589 10592 10595 10598 10601 10604 10607 10610 10613 10616 10619 10622 10625 10628 10631 10634 10637 10640 10643 10646 10649 10652 10655 10658 10661 10664 10667 10670 10673 10676 10679 10682 10685 10688 10691 10694 10697 10700 10703 10706 10709 10712 10715 10718 10721 10724 10727 10730 10733 10736 10739 10742 10745 10748 10751 10754 10757 10760 10763 10766 10769 10772 10775 10778 10781 10784 10787 10789 10792 10794 10797 10800 10803 10806 10809 10811 10814 10817 10820 10823 10826 10829 10832 10835 10838 10840 10843 10846 10848 10850 10853 10855 10858 10861 10864 10867 10870 10873 10876 10879 10882 10885 10888 10891 10894 10897 10900 10903 10906 10909 10912 10915 10918 10920 10923 10926 10929 10932 10934 10937 10940 10943 10946 10949 10952 10955 10957 10960 10963 10965 10968 10971 10973 10976 10978 10981 10984 10987 10989 10992 10995 10997 11000 11003 11006 11009 11012 11014 11017 11019 11021 11024 11027 11030 11033 11035 11038 11041 11044 11047 11050 11053 11056 11059 11062 11064 11067 11070 11072 11075 11078 11081 11084 11087 11090 11093 11096 11099 11102 11105 11108 11111 11114 11117 11119 11122 11125 11128 11131 11134 11137 11139 11142 11145 11147 11150 11153 11155 11158 11160 11163 11165 11167 11170 11172 11175 11177 11179 11182 11185 11187 11190 11193 11196 11199 11202 11205 11208 11211 11214 11216 11219 11222 11225 11227 11230 11233 11236 11239 11242 11245 11248 11251 11254 11257 11260 11263 11265 11268 11271 11274 11277 11280 11283 11286 11289 11292 11294 11297 11299 11302 11305 11308 11311 11314 11317 11320 11322 11325 11328 11331 11334 11337 11340 11343 11346 11349 11352 11355 11358 11361 11364 11367 11370 11373 11376 11379 11382 11385 11388 11391 11394 11397 11400 11403 11406 11409 11412 11415 11418 11421 11424 11426 11429 11432 11435 11437 11440 11443 11446 11449 11452 11455 11458 11461 11464 11466 11469 11471 11474 11477 11480 11482 11485 11488 11491 11494 11497 11500 11503 11506 11509 11511 11514 11517 11520 11523 11526 11529 11532 11535 11538 11541 11544 11547 11550 11553 11556 11559 11562 11565 11568 11571 11574 11577 11580 11583 11586 11589 11592 11595 11598 11600 11602 11605 11608 11611 11614 11616 11619 11621 11624 11627 11630 11632 11634 11637 11639 11641 11644 11646 11649 11652 11655 11658 11661 11664 11667 11669 11672 11675 11678 11681 11684 11686 11689 11691 11694 11697 11700 11702 11705 11708 11710 11713 11716 11719 11721 11724 11727 11729 11731 11733 11736 11739 11742 11744 11747 11750 11753 11756 11758 11761 11764 11767 11770 11773 11775 11778 11780 11783 11786 11788 11791 11793 11796 11799 11802 11805 11808 11811 11814 11817 11820 11822 11825 11828 11831 11834 11837 11840 11843 11846 11849 11852 11855 11858 11861 11864 11867 11870 11873 11876 11879 11882 11885 11888 11890 11893 11896 11899 11902 11905 11907 11910 11912 11915 11917 11919 11922 11925 11927 11930 11932 11935 11938 11941 11944 11946 11949 11952 11955 11958 11961 11964 11967 11970 11973 11976 11979 11982 11985 11988 11991 11994 11997 12000 12003 12006 12009 12012 12015 12018 12021 12024 12027 12030 12033 12036 12039 12042 12045 12048 12051 12054 12057 12060 12063 12066 12069 12072 12075 12078 12081 12084 12087 12090 12093 12096 12099 12102 12105 12108 12111 12114 12117 12120 12123 12126 12129 12132 12135 12138 12141 12144 12147 12150 12153 12156 12159 12162 12165 12168 12171 12174 12177 12180 12183 12186 12189 12192 12195 12198 12201 12204 12207 12210 12213 12216 12219 12222 12225 12228 12231 12234 12237 12240 12243 12246 12249 12252 12255 12258 12261 12264 12267 12270 12273 12276 12279 12282 12285 12288 12291 12294 12297 12300 12303 12306 12309 12312 12315 12318 12321 12323 12326 12329 12331 12334 12337 12340 12343 12346 12349 12351 12354 12357 12360 12363 12366 12369 12371 12374 12377 12380 12383 12386 12389 12392 12395 12398 12401 12404 12407 12410 12413 12416 12419 12421 12424 12427 12430 12433 12436 12439 12441 12444 12447 12450 12453 12456 12459 12462 12465 12468 12471 12474 12476 12479 12482 12485 12488 12491 12494 12497 12500 12502 12505 12508 12511 12514 12517 12519 12522 12525 12527 12530 12533 12536 12539 12542 12545 12548 12550 12553 12556 12559 12562 12565 12568 12571 12574 12577 12580 12583 12586 12589 12592 12595 12597 12599 12602 12605 12608 12611 12613 12616 12619 12622 12625 12628 12631 12634 12637 12640 12643 12646 12649 12652 12655 12658 12661 12664 12667 12670 12673 12676 12679 12682 12684 12687 12690 12693 12696 12699 12702 12705 12708 12711 12714 12717 12719 12722 12725 12728 12731 12734 12737 12740 12743 12746 12748 12751 12754 12757 12760 12763 12766 12769 12772 12775 12778 12781 12784 12786 12789 12791 12794 12797 12799 12802 12805 12808 12811 12813 12816 12819 12822 12825 12828 12831 12834 12837 12840 12843 12845 12848 12851 12854 12857 12860 12863 12866 12868 12870 12873 12876 12879 12881 12883 12885 12888 12891 12893 12896 12899 12901 12904 12906 12909 12912 12915 12918 12920 12923 12926 12929 12931 12934 12936 12939 12942 12944 12947 12950 12952 12955 12958 12960 12962 12965 12968 12971 12974 12977 12980 12982 12985 12988 12990 12993 12995 12998 13001 13004 13006 13009 13012 13015 13018 13021 13023 13025 13028 13031 13033 13035 13038 13041 13044 13046 13048 13051 13053 13056 13059 13061 13063 13066 13069 13071 13074 13077 13080 13082 13085 13087 13090 13093 13096 13099 13102 13105 13108 13111 13114 13116 13119 13122 13125 13128 13131 13134 13137 13140 13143 13146 13149 13152 13155 13158 13160 13163 13166 13168 13171 13174 13177 13180 13183 13186 13189 13192 13195 13198 13201 13204 13207 13210 13213 13216 13219 13222 13225 13228 13231 13234 13237 13240 13243 13246 13249 13252 13255 13258 13261 13263 13266 13269 13272 13275 13278 13281 13284 13287 13290 13293 13295 13298 13301 13304 13307 13310 13312 13314 13317 13319 13322 13325 13328 13331 13334 13337 13340 13343 13346 13349 13352 13355 13358 13361 13363 13366 13369 13372 13375 13378 13381 13384 13387 13390 13393 13396 13399 13402 13405 13408 13411 13414 13417 13419 13422 13425 13427 13429 13432 13434 13437 13439 13442 13445 13448 13450 13452 13455 13457 13460 13462 13465 13468 13470 13473 13476 13479 13482 13485 13487 13490 13493 13496 13499 13501 13503 13506 13509 13512 13514 13517 13520 13523 13526 13529 13532 13535 13538 13541 13544 13547 13550 13552 13555 13558 13561 13564 13567 13570 13573 13576 13579 13582 13585 13588 13591 13594 13597 13600 13603 13605 13607 13610 13613 13615 13618 13621 13624 13627 13630 13633 13636 13639 13641 13644 13647 13650 13653 13656 13659 13662 13665 13668 13671 13674 13677 13680 13683 13685 13688 13691 13694 13697 13699 13702 13705 13708 13710 13713 13716 13718 13721 13724 13727 13730 13733 13736 13739 13742 13745 13748 13751 13754 13757 13760 13763 13766 13769 13772 13774 13777 13780 13783 13786 13789 13792 13795 13798 13800 13803 13806 13809 13812 13815 13818 13821 13824 13827 13830 13833 13836 13838 13841 13843 13846 13849 13851 13854 13857 13859 13862 13865 13868 13871 13874 13877 13879 13882 13885 13888 13890 13893 13896 13899 13902 13905 13907 13910 13913 13916 13919 13922 13925 13928 13931 13934 13937 13939 13942 13944 13947 13950 13953 13956 13959 13962 13965 13968 13970 13973 13976 13979 13981 13984 13987 13990 13992 13995 13997 14000 14002 14005 14008 14011 14014 14017 14020 14023 14026 14029 14031 14034 14037 14040 14043 14045 14048 14051 14054 14057 14060 14063 14065 14067 14070 14073 14075 14078 14081 14084 14087 14089 14091 14094 14097 14100 14103 14105 14108 14111 14114 14116 14118 14121 14124 14126 14129 14132 14135 14137 14140 14142 14145 14148 14150 14153 14156 14159 14162 14164 14167 14170 14173 14176 14179 14182 14185 14188 14190 14193 14195 14198 14200 14203 14206 14209 14212 14214 14217 14220 14223 14226 14229 14232 14235 14238 14241 14243 14246 14248 14251 14254 14257 14259 14261 14264 14266 14269 14272 14275 14278 14281 14284 14287 14290 14293 14295 14297 14300 14303 14305 14308 14311 14314 14317 14320 14322 14325 14328 14331 14334 14337 14339 14342 14344 14346 14349 14351 14353 14355 14358 14361 14364 14367 14370 14373 14376 14379 14381 14384 14387 14390 14393 14396 14398 14401 14404 14406 14409 14412 14415 14418 14421 14424 14427 14430 14433 14436 14439 14442 14445 14448 14451 14453 14455 14457 14460 14463 14466 14469 14471 14474 14477 14479 14481 14484 14486 14489 14491 14493 14496 14499 14502 14505 14508 14511 14514 14517 14520 14522 14525 14528 14531 14534 14537 14539 14542 14545 14547 14550 14553 14556 14559 14562 14565 14568 14571 14574 14577 14580 14583 14586 14589 14592 14595 14598 14601 14604 14607 14610 14613 14616 14619 14622 14625 14627 14630 14633 14636 14639 14642 14645 14648 14651 14654 14657 14660 14663 14666 14669 14671 14674 14677 14680 14683 14686 14689 14692 14694 14697 14700 14703 14706 14709 14712 14715 14718 14721 14724 14727 14730 14732 14735 14738 14740 14742 14745 14747 14750 14752 14755 14758 14761 14764 14767 14770 14773 14776 14779 14782 14785 14788 14790 14793 14796 14799 14802 14804 14807 14810 14813 14816 14818 14821 14824 14827 14830 14833 14835 14838 14841 14844 14846 14849 14851 14854 14856 14859 14861 14863 14865 14868 14870 14873 14876 14879 14882 14884 14887 14890 14892 14895 14898 14901 14904 14907 14910 14913 14915 14918 14921 14924 14926 14928 14930 14933 14936 14939 14942 14945 14947 14950 14953 14956 14959 14962 14964 14967 14970 14973 14975 14978 14981 14983 14986 14988 14991 14994 14997 15000 15003 15006 15008 15011 15014 15017 15020 15023 15026 15029 15032 15035 15038 15040 15042 15045 15048 15051 15054 15057 15060 15062 15065 15068 15070 15073 15076 15079 15082 15085 15088 15091 15094 15097 15100 15103 15106 15109 15112 15115 15118 15121 15124 15126 15129 15132 15135 15138 15141 15144 15147 15150 15153 15156 15159 15162 15165 15168 15170 15172 15175 15178 15180 15182 15185 15188 15191 15194 15197 15199 15202 15205 15208 15211 15214 15217 15220 15223 15226 15229 15232 15235 15238 15241 15244 15247 15250 15253 15256 15259 15262 15265 15268 15271 15274 15276 15279 15282 15285 15288 15291 15293 15296 15298 15301 15304 15307 15309 15312 15315 15318 15321 15324 15327 15330 15332 15335 15338 15340 15343 15346 15349 15351 15354 15357 15360 15363 15366 15369 15372 15375 15377 15380 15383 15385 15388 15391 15394 15397 15400 15402 15404 15407 15410 15413 15416 15418 15421 15424 15427 15430 15433 15436 15439 15442 15445 15448 15451 15454 15456 15459 15462 15465 15468 15471 15474 15477 15480 15483 15486 15489 15492 15495 15498 15501 15504 15507 15510 15513 15516 15519 15522 15525 15528 15531 15534 15537 15540 15543 15546 15549 15552 15555 15558 15560 15563 15566 15569 15572 15575 15578 15580 15583 15586 15589 15592 15595 15598 15601 15604 15607 15610 15613 15616 15619 15622 15625 15628 15631 15634 15637 15640 15643 15646 15649 15652 15655 15658 15661 15664 15667 15669 15672 15675 15677 15680 15682 15685 15687 15690 15692 15695 15698 15701 15703 15706 15709 15712 15715 15718 15721 15724 15727 15730 15732 15735 15738 15741 15744 15747 15750 15753 15756 15759 15762 15765 15768 15771 15774 15777 15780 15783 15785 15788 15791 15794 15797 15800 15803 15806 15809 15811 15814 15817 15820 15823 15826 15829 15832 15835 15838 15841 15844 15847 15850 15852 15855 15858 15861 15864 15866 15868 15871 15874 15877 15880 15883 15885 15888 15891 15894 15896 15899 15902 15904 15907 15910 15913 15915 15918 15920 15923 15925 15928 15931 15934 15937 15940 15942 15945 15948 15951 15954 15957 15960 15963 15966 15968 15971 15974 15977 15979 15982 15985 15988 15991 15994 15997 16000 16003 16005 16008 16011 16014 16017 16019 16022 16025 16028 16031 16034 16036 16039 16042 16045 16048 16051 16053 16056 16059 16062 16065 16068 16071 16074 16077 16080 16083 16086 16089 16092 16095 16098 16101 16104 16107 16110 16113 16116 16119 16122 16125 16127 16130 16133 16136 16139 16142 16145 16147 16150 16153 16156 16159 16162 16165 16168 16170 16173 16175 16178 16181 16184 16187 16189 16192 16195 16198 16201 16204 16206 16209 16212 16215 16218 16221 16223 16226 16229 16231 16234 16236 16239 16241 16244 16247 16249 16252 16254 16257 16260 16263 16266 16269 16272 16275 16278 16281 16284 16287 16289 16292 16295 16297 16300 16303 16306 16309 16312 16315 16318 16321 16324 16327 16329 16332 16335 16337 16340 16342 16345 16347 16350 16353 16355 16358 16361 16363 16366 16369 16372 16375 16378 16381 16384 16386 16388 16391 16394 16397 16400 16403 16406 16409 16411 16414 16417 16419 16422 16425 16428 16431 16434 16437 16440 16443 16446 16449 16452 16455 16458 16461 16464 16467 16470 16473 16476 16479 16482 16485 16488 16491 16494 16497 16500 16503 16506 16509 16512 16515 16518 16521 16524 16527 16530 16533 16536 16539 16542 16545 16548 16551 16554 16557 16560 16563 16566 16569 16572 16575 16578 16581 16584 16587 16590 16593 16596 16599 16601 16604 16607 16610 16613 16616 16618 16621 16624 16627 16630 16633 16636 16639 16642 16645 16648 16651 16654 16657 16660 16663 16666 16669 16672 16675 16678 16681 16684 16687 16690 16693 16696 16699 16702 16705 16707 16710 16713 16716 16719 16722 16725 16728 16731 16734 16737 16740 16743 16746 16749 16752 16755 16758 16761 16764 16767 16770 16773 16776 16778 16780 16783 16786 16789 16792 16795 16798 16801 16804 16807 16809 16812 16815 16818 16821 16824 16827 16830 16832 16835 16838 16841 16843 16846 16848 16850 16853 16855 16858 16861 16864 16867 16870 16872 16875 16878 16881 16884 16887 16890 16893 16896 16899 16902 16905 16908 16911 16914 16917 16920 16922 16924 16927 16930 16933 16936 16938 16941 16944 16947 16949 16951 16954 16957 16959 16962 16965 16968 16971 16973 16976 16979 16982 16985 16988 16991 16994 16997 16999 17002 17005 17008 17010 17012 17015 17018 17021 17023 17026 17029 17032 17035 17038 17041 17044 17047 17050 17053 17056 17059 17061 17064 17067 17070 17073 17076 17079 17081 17084 17087 17090 17093 17096 17099 17102 17105 17108 17111 17114 17117 17120 17123 17125 17128 17131 17133 17136 17139 17142 17145 17148 17151 17153 17156 17159 17162 17164 17167 17170 17173 17176 17179 17182 17185 17188 17191 17194 17197 17200 17203 17206 17209 17212 17214 17217 17220 17222 17224 17227 17229 17231 17234 17237 17240 17243 17246 17249 17251 17254 17257 17260 17262 17264 17267 17270 17273 17275 17278 17280 17283 17286 17289 17291 17294 17297 17299 17302 17305 17307 17310 17313 17316 17319 17322 17325 17328 17331 17334 17337 17340 17343 17346 17349 17352 17354 17357 17360 17363 17366 17369 17372 17375 17378 17381 17384 17387 17390 17393 17396 17399 17402 17405 17408 17411 17414 17416 17419 17422 17425 17427 17430 17433 17436 17439 17442 17445 17448 17450 17453 17455 17458 17461 17464 17467 17470 17473 17476 17479 17482 17484 17486 17489 17492 17495 17498 17501 17504 17506 17508 17511 17514 17517 17520 17522 17525 17528 17531 17533 17536 17539 17542 17545 17548 17551 17554 17556 17559 17561 17564 17566 17568 17571 17574 17577 17580 17582 17585 17588 17591 17594 17597 17599 17601 17604 17607 17609 17612 17615 17618 17620 17623 17626 17629 17632 17634 17637 17640 17643 17646 17649 17652 17655 17658 17661 17664 17667 17669 17671 17674 17677 17680 17683 17686 17689 17692 17695 17698 17701 17704 17707 17709 17712 17715 17718 17721 17723 17726 17729 17732 17735 17738 17741 17744 17747 17750 17753 17756 17759 17762 17765 17768 17771 17774 17777 17780 17783 17786 17789 17792 17795 17798 17801 17804 17807 17810 17813 17816 17819 17821 17824 17827 17830 17832 17835 17837 17840 17843 17845 17847 17850 17853 17856 17859 17862 17865 17868 17870 17873 17876 17878 17881 17883 17886 17889 17892 17894 17897 17900 17903 17906 17909 17911 17914 17917 17920 17922 17925 17928 17931 17934 17936 17939 17941 17943 17946 17948 17951 17954 17957 17960 17962 17965 17968 17971 17974 17977 17980 17983 17985 17987 17990 17993 17996 17999 18001 18004 18007 18010 18013 18016 18019 18022 18025 18028 18031 18034 18037 18040 18043 18046 18049 18052 18054 18057 18060 18063 18066 18069 18071 18074 18077 18079 18082 18085 18088 18091 18094 18097 18100 18103 18106 18109 18111 18114 18117 18120 18123 18126 18129 18132 18135 18138 18140 18143 18146 18149 18152 18155 18158 18161 18163 18166 18169 18172 18175 18177 18180 18183 18186 18189 18192 18195 18198 18200 18203 18205 18208 18211 18213 18215 18218 18221 18224 18226 18229 18232 18235 18237 18240 18243 18246 18249 18252 18255 18257 18260 18263 18265 18268 18271 18274 18277 18280 18283 18286 18289 18292 18295 18298 18301 18304 18307 18310 18313 18316 18319 18322 18325 18327 18330 18333 18336 18339 18342 18345 18348 18351 18354 18357 18360 18363 18366 18369 18372 18375 18378 18381 18384 18387 18390 18393 18396 18399 18402 18405 18408 18411 18414 18417 18420 18423 18426 18429 18432 18434 18437 18440 18443 18446 18449 18452 18455 18458 18461 18464 18466 18469 18472 18474 18477 18480 18483 18485 18488 18491 18494 18497 18499 18502 18505 18508 18511 18514 18517 18520 18523 18526 18528 18531 18534 18537 18540 18543 18546 18549 18552 18555 18557 18560 18563 18566 18569 18572 18575 18577 18580 18583 18586 18589 18592 18595 18598 18601 18604 18607 18610 18613 18616 18618 18621 18624 18626 18629 18632 18635 18638 18641 18644 18647 18650 18653 18655 18658 18661 18663 18666 18669 18672 18675 18678 18680 18683 18686 18688 18691 18694 18697 18700 18703 18706 18708 18710 18713 18715 18718 18720 18723 18726 18728 18731 18734 18737 18740 18742 18745 18748 18751 18754 18757 18760 18762 18765 18768 18771 18774 18777 18779 18782 18785 18788 18790 18793 18796 18798 18801 18804 18807 18810 18813 18815 18818 18821 18824 18826 18829 18832 18835 18837 18840 18843 18846 18849 18852 18855 18858 18860 18863 18866 18869 18872 18875 18878 18881 18884 18887 18890 18893 18896 18899 18902 18905 18908 18911 18914 18917 18920 18923 18926 18929 18932 18935 18938 18941 18944 18947 18950 18952 18955 18958 18960 18962 18965 18968 18971 18974 18977 18980 18983 18986 18988 18991 18994 18997 19000 19003 19006 19009 19012 19015 19018 19021 19024 19027 19029 19032 19035 19037 19040 19043 19046 19049 19051 19054 19057 19060 19063 19066 19069 19072 19075 19078 19081 19084 19087 19089 19092 19095 19098 19101 19104 19107 19110 19113 19116 19118 19121 19124 19126 19129 19132 19135 19138 19141 19144 19147 19150 19153 19155 19158 19161 19164 19167 19170 19173 19176 19179 19182 19185 19188 19191 19194 19197 19200 19203 19206 19209 19212 19215 19218 19221 19224 19227 19230 19233 19236 19239 19242 19245 19248 19251 19254 19257 19260 19262 19265 19268 19271 19274 19277 19280 19283 19286 19288 19291 19294 19297 19300 19302 19305 19307 19310 19312 19315 19318 19321 19324 19327 19330 19333 19336 19338 19341 19344 19347 19350 19353 19355 19358 19361 19364 19367 19370 19373 19376 19379 19382 19385 19388 19391 19394 19397 19399 19402 19404 19407 19410 19413 19416 19419 19422 19424 19427 19430 19433 19436 19439 19442 19445 19448 19451 19454 19457 19460 19463 19466 19469 19472 19475 19478 19481 19484 19487 19490 19493 19496 19498 19501 19504 19507 19510 19513 19515 19518 19520 19522 19525 19528 19531 19534 19537 19539 19542 19545 19548 19551 19554 19557 19560 19562 19565 19568 19571 19574 19577 19579 19582 19585 19587 19589 19592 19595 19598 19600 19603 19606 19609 19612 19615 19617 19620 19623 19625 19628 19631 19634 19637 19639 19642 19645 19647 19650 19653 19656 19659 19662 19665 19667 19670 19672 19674 19677 19680 19682 19685 19688 19691 19694 19697 19700 19702 19705 19708 19711 19714 19717 19720 19723 19725 19728 19730 19733 19736 19739 19741 19744 19747 19750 19753 19756 19759 19762 19765 19768 19771 19774 19777 19780 19782 19785 19788 19791 19793 19796 19799 19802 19805 19808 19811 19814 19817 19820 19822 19825 19828 19830 19833 19836 19838 19841 19844 19847 19849 19852 19855 19858 19860 19863 19866 19868 19870 19873 19876 19879 19882 19885 19888 19891 19893 19896 19899 19902 19905 19908 19911 19914 19917 19920 19923 19925 19928 19931 19934 19937 19940 19943 19946 19949 19951 19954 19957 19960 19963 19965 19968 19971 19974 19977 19979 19981 19984 19987 19990 19993 19996 19999 20002 20005 20008 20011 20014 20017 20019 20022 20025 20028 20031 20034 20037 20040 20043 20046 20049 20052 20055 20058 20061 20064 20067 20070 20073 20076 20079 20082 20085 20088 20091 20094 20097 20100 20103 20106 20109 20112 20115 20118 20121 20124 20127 20130 20133 20136 20139 20142 20144 20147 20149 20152 20155 20157 20160 20163 20166 20169 20172 20175 20178 20181 20184 20187 20190 20192 20195 20197 20200 20203 20205 20208 20211 20214 20217 20219 20222 20225 20228 20231 20233 20236 20239 20242 20245 20248 20251 20254 20257 20260 20263 20266 20269 20272 20275 20278 20281 20284 20287 20290 20293 20296 20299 20302 20305 20308 20311 20314 20317 20320 20323 20326 20329 20332 20335 20338 20341 20344 20347 20350 20353 20356 20359 20362 20365 20368 20371 20374 20377 20379 20382 20385 20388 20390 20393 20396 20399 20402 20405 20407 20409 20412 20415 20418 20421 20424 20426 20429 20432 20435 20438 20441 20444 20447 20449 20452 20455 20458 20461 20464 20467 20470 20473 20476 20478 20481 20484 20487 20489 20492 20495 20498 20500 20503 20505 20507 20510 20513 20516 20518 20521 20524 20526 20529 20532 20535 20538 20541 20544 20547 20549 20552 20554 20557 20560 20562 20565 20567 20570 20573 20575 20578 20581 20583 20586 20589 20592 20595 20598 20601 20604 20607 20610 20612 20614 20617 20620 20623 20626 20629 20632 20635 20638 20641 20644 20647 20650 20653 20656 20658 20661 20663 20666 20669 20672 20675 20678 20680 20683 20686 20689 20691 20693 20696 20699 20702 20705 20708 20711 20713 20715 20718 20721 20723 20726 20729 20732 20735 20738 20740 20743 20746 20749 20752 20755 20758 20761 20764 20766 20769 20772 20774 20777 20780 20783 20786 20789 20792 20794 20797 20800 20803 20806 20808 20811 20814 20817 20820 20823 20826 20829 20831 20834 20837 20839 20842 20845 20847 20849 20852 20855 20858 20861 20864 20867 20870 20873 20876 20879 20882 20885 20888 20891 20894 20897 20900 20903 20906 20909 20912 20915 20918 20921 20923 20926 20929 20932 20935 20938 20941 20943 20946 20949 20952 20955 20958 20961 20964 20967 20970 20973 20976 20979 20982 20985 20987 20990 20993 20996 20999 21001 21004 21007 21010 21013 21015 21018 21021 21024 21027 21030 21033 21036 21039 21042 21045 21048 21051 21053 21055 21058 21060 21063 21066 21069 21072 21075 21078 21081 21083 21086 21089 21092 21095 21098 21101 21104 21107 21110 21113 21116 21119 21122 21125 21128 21131 21134 21137 21140 21143 21146 21149 21152 21155 21158 21161 21164 21166 21168 21171 21174 21177 21180 21183 21186 21189 21191 21194 21196 21199 21202 21204 21207 21210 21213 21216 21219 21221 21224 21227 21229 21232 21235 21238 21241 21243 21246 21249 21251 21254 21256 21259 21262 21265 21268 21271 21274 21277 21280 21283 21286 21289 21292 21295 21298 21300 21303 21306 21309 21312 21315 21318 21321 21323 21326 21329 21332 21335 21338 21341 21344 21347 21350 21353 21356 21359 21362 21365 21368 21371 21374 21377 21380 21383 21386 21389 21391 21394 21397 21400 21403 21406 21409 21412 21415 21418 21421 21424 21427 21430 21433 21436 21439 21442 21445 21448 21451 21454 21457 21460 21463 21466 21469 21472 21475 21478 21481 21484 21487 21490 21493 21496 21499 21502 21505 21508 21511 21514 21517 21520 21523 21526 21529 21532 21535 21538 21541 21544 21547 21550 21553 21556 21559 21562 21565 21568 21571 21574 21577 21580 21583 21586 21589 21592 21595 21598 21601 21604 21607 21610 21613 21616 21619 21622 21625 21628 21631 21634 21637 21640 21643 21646 21649 21652 21655 21658 21661 21664 21667 21670 21673 21676 21679 21682 21685 21688 21691 21694 21697 21700 21703 21706 21709 21712 21715 21718 21721 21724 21727 21730 21733 21736 21739 21742 21745 21748 21751 21754 21757 21759 21762 21765 21768 21771 21774 21777 21780 21783 21786 21789 21792 21795 21798 21801 21804 21807 21810 21813 21816 21819 21822 21825 21828 21831 21834 21836 21838 21841 21844 21847 21850 21853 21856 21859 21862 21865 21868 21870 21873 21876 21879 21882 21885 21888 21890 21892 21895 21897 21900 21903 21906 21909 21912 21915 21918 21921 21924 21927 21930 21933 21936 21939 21942 21945 21948 21951 21953 21956 21958 21961 21964 21967 21970 21973 21976 21979 21981 21984 21987 21989 21992 21995 21998 22001 22004 22006 22009 22012 22015 22017 22020 22023 22026 22029 22032 22035 22037 22039 22042 22045 22047 22050 22052 22055 22058 22061 22064 22067 22069 22072 22075 22078 22081 22084 22086 22089 22092 22095 22098 22101 22104 22107 22110 22113 22116 22119 22122 22125 22128 22131 22134 22137 22139 22142 22145 22148 22150 22153 22156 22159 22161 22163 22166 22169 22172 22175 22178 22181 22184 22187 22190 22193 22196 22199 22202 22205 22208 22211 22214 22217 22219 22222 22225 22228 22230 22233 22236 22239 22242 22245 22248 22251 22254 22257 22260 22263 22266 22268 22271 22274 22277 22280 22283 22286 22289 22292 22295 22298 22301 22304 22307 22309 22311 22314 22317 22320 22323 22325 22328 22330 22333 22335 22338 22340 22343 22346 22349 22352 22355 22358 22361 22364 22367 22370 22373 22376 22379 22382 22384 22387 22390 22393 22395 22398 22401 22404 22407 22409 22412 22415 22417 22420 22423 22426 22429 22432 22435 22438 22441 22443 22446 22449 22452 22455 22457 22460 22463 22466 22468 22471 22474 22477 22479 22482 22485 22487 22490 22493 22496 22499 22502 22505 22508 22510 22513 22516 22519 22522 22525 22528 22530 22533 22536 22539 22542 22545 22548 22550 22553 22555 22557 22560 22562 22565 22568 22570 22572 22575 22577 22579 22582 22585 22588 22591 22594 22597 22600 22603 22606 22609 22612 22615 22618 22621 22624 22627 22630 22633 22636 22639 22642 22645 22648 22651 22654 22657 22660 22663 22666 22669 22671 22674 22677 22680 22683 22686 22689 22692 22695 22698 22701 22704 22707 22710 22712 22715 22718 22721 22724 22727 22730 22733 22736 22739 22742 22744 22747 22749 22752 22755 22758 22761 22764 22767 22770 22773 22775 22778 22781 22783 22786 22789 22792 22794 22797 22800 22803 22806 22809 22812 22815 22818 22821 22823 22825 22828 22831 22834 22836 22839 22842 22845 22848 22851 22854 22857 22860 22863 22866 22868 22871 22874 22876 22879 22882 22885 22888 22891 22894 22897 22900 22903 22906 22909 22912 22915 22918 22920 22923 22926 22929 22932 22934 22937 22940 22943 22946 22949 22952 22955 22958 22961 22964 22967 22970 22973 22976 22979 22982 22984 22987 22990 22993 22996 22998 23001 23004 23007 23009 23012 23015 23018 23021 23024 23027 23030 23033 23036 23039 23042 23045 23047 23050 23053 23056 23059 23062 23065 23068 23071 23074 23077 23080 23083 23086 23088 23091 23094 23096 23099 23102 23105 23108 23111 23114 23117 23119 23122 23125 23128 23131 23134 23137 23140 23143 23146 23149 23152 23155 23158 23161 23164 23167 23170 23173 23176 23179 23182 23185 23188 23191 23194 23197 23200 23203 23205 23208 23211 23214 23217 23220 23222 23225 23228 23231 23234 23237 23240 23243 23246 23249 23251 23254 23256 23259 23262 23265 23268 23271 23274 23277 23279 23282 23285 23288 23291 23294 23297 23299 23302 23305 23307 23310 23313 23315 23318 23321 23324 23326 23329 23332 23334 23336 23339 23342 23344 23347 23349 23352 23355 23358 23361 23364 23367 23370 23373 23376 23379 23382 23385 23387 23390 23393 23396 23398 23401 23404 23406 23409 23412 23414 23417 23420 23423 23426 23429 23432 23435 23438 23441 23444 23447 23450 23453 23456 23459 23462 23465 23468 23471 23474 23476 23479 23482 23485 23488 23491 23494 23497 23500 23503 23506 23509 23512 23515 23518 23521 23524 23527 23530 23533 23536 23539 23542 23545 23548 23551 23554 23557 23560 23563 23566 23569 23572 23575 23578 23581 23584 23587 23590 23593 23596 23599 23602 23605 23608 23611 23614 23617 23620 23623 23626 23629 23632 23635 23637 23640 23643 23646 23649 23652 23655 23658 23661 23664 23667 23670 23673 23676 23679 23682 23685 23688 23691 23694 23697 23700 23703 23706 23709 23712 23715 23718 23721 23723 23725 23728 23731 23734 23737 23739 23742 23745 23748 23750 23753 23756 23759 23761 23764 23766 23769 23772 23775 23777 23780 23783 23786 23789 23792 23795 23797 23800 23803 23806 23808 23811 23814 23817 23820 23823 23826 23828 23831 23834 23837 23840 23843 23845 23848 23851 23853 23856 23859 23861 23863 23866 23869 23872 23875 23878 23881 23884 23887 23889 23892 23894 23897 23899 23902 23905 23908 23911 23914 23917 23920 23923 23926 23928 23931 23934 23937 23940 23943 23945 23947 23950 23952 23955 23957 23960 23962 23965 23968 23971 23974 23977 23980 23983 23985 23988 23991 23994 23997 24000 24003 24006 24009 24012 24015 24017 24020 24023 24026 24029 24031 24034 24036 24039 24042 24045 24048 24051 24053 24056 24059 24062 24065 24068 24071 24073 24076 24079 24082 24085 24088 24091 24094 24097 24100 24103 24106 24109 24112 24114 24116 24119 24122 24125 24128 24130 24133 24135 24138 24141 24144 24147 24150 24153 24156 24159 24162 24165 24168 24171 24174 24177 24180 24183 24186 24189 24192 24195 24198 24201 24204 24207 24210 24213 24216 24219 24222 24225 24228 24231 24234 24237 24240 24243 24246 24249 24252 24255 24258 24261 24264 24267 24270 24273 24276 24279 24282 24285 24288 24291 24294 24297 24300 24303 24306 24309 24312 24315 24318 24321 24324 24326 24329 24332 24334 24337 24340 24343 24345 24348 24350 24353 24356 24358 24361 24364 24367 24370 24373 24376 24379 24382 24385 24388 24391 24394 24397 24400 24403 24406 24409 24411 24414 24417 24420 24423 24426 24429 24432 24435 24438 24441 24444 24447 24450 24453 24455 24458 24461 24464 24467 24470 24473 24476 24479 24482 24485 24488 24491 24494 24497 24500 24503 24506 24509 24512 24515 24518 24521 24524 24527 24530 24533 24536 24539 24542 24545 24548 24551 24553 24556 24559 24561 24564 24566 24569 24572 24575 24578 24581 24584 24586 24589 24592 24595 24598 24601 24604 24607 24610 24613 24615 24618 24621 24624 24626 24629 24632 24635 24637 24640 24643 24646 24648 24650 24653 24656 24659 24661 24664 24667 24670 24673 24676 24679 24682 24685 24688 24691 24694 24697 24700 24703 24706 24709 24712 24715 24718 24721 24724 24727 24730 24733 24736 24739 24742 24745 24747 24750 24752 24755 24758 24761 24764 24767 24770 24773 24776 24778 24781 24784 24787 24790 24793 24796 24799 24802 24805 24807 24809 24812 24815 24818 24821 24824 24827 24830 24833 24836 24838 24841 24844 24846 24849 24852 24855 24858 24860 24863 24866 24869 24872 24874 24877 24879 24882 24885 24888 24891 24894 24897 24900 24903 24906 24909 24912 24915 24918 24920 24923 24926 24929 24932 24935 24938 24941 24943 24946 24949 24952 24955 24958 24961 24964 24967 24970 24973 24976 24979 24982 24985 24988 24991 24994 24997 25000 25003 25006 25009 25012 25014 25017 25019 25022 25025 25028 25031 25034 25036 25039 25042 25045 25048 25050 25053 25056 25058 25061 25064 25066 25069 25072 25074 25077 25080 25082 25085 25088 25091 25094 25097 25100 25103 25106 25109 25112 25114 25117 25120 25123 25126 25129 25132 25135 25138 25140 25143 25146 25148 25150 25153 25156 25159 25162 25165 25168 25171 25174 25177 25180 25182 25185 25188 25190 25192 25195 25198 25200 25202 25205 25208 25211 25214 25217 25220 25222 25225 25228 25231 25234 25237 25240 25242 25244 25247 25249 25251 25254 25257 25260 25263 25266 25268 25271 25274 25276 25278 25281 25284 25287 25290 25293 25295 25298 25301 25304 25307 25309 25311 25314 25317 25320 25323 25325 25328 25330 25333 25336 25338 25340 25343 25346 25349 25352 25354 25357 25360 25362 25365 25367 25370 25373 25376 25379 25382 25384 25387 25390 25392 25395 25398 25401 25404 25407 25410 25413 25416 25418 25421 25424 25427 25430 25432 25435 25438 25441 25444 25447 25450 25453 25456 25459 25461 25464 25466 25469 25472 25474 25477 25480 25483 25485 25488 25490 25493 25495 25498 25501 25504 25506 25509 25512 25515 25518 25521 25524 25527 25530 25533 25536 25539 25542 25545 25547 25550 25553 25556 25559 25562 25565 25567 25570 25573 25576 25578 25581 25584 25587 25589 25592 25595 25598 25601 25604 25607 25610 25613 25616 25619 25621 25624 25627 25630 25633 25636 25639 25642 25644 25647 25650 25653 25656 25659 25662 25665 25668 25671 25673 25676 25679 25682 25685 25688 25691 25693 25696 25699 25701 25704 25707 25709 25712 25715 25717 25720 25723 25725 25728 25730 25733 25735 25738 25741 25743 25746 25748 25750 25753 25756 25759 25762 25764 25766 25769 25772 25775 25778 25781 25783 25786 25789 25791 25794 25797 25800 25803 25806 25808 25811 25814 25817 25819 25822 25825 25828 25831 25834 25837 25840 25843 25846 25849 25852 25855 25858 25861 25864 25867 25870 25873 25875 25878 25881 25884 25887 25890 25893 25896 25898 25901 25904 25907 25910 25913 25915 25917 25920 25923 25926 25929 25932 25935 25938 25941 25944 25947 25950 25953 25956 25959 25962 25965 25968 25971 25974 25977 25980 25983 25985 25988 25991 25994 25997 26000 26003 26006 26009 26012 26015 26018 26021 26024 26027 26030 26032 26034 26037 26040 26043 26046 26048 26051 26054 26057 26060 26063 26066 26069 26072 26074 26077 26080 26083 26085 26088 26091 26093 26095 26098 26100 26103 26105 26108 26110 26113 26115 26118 26121 26124 26127 26129 26132 26135 26138 26141 26144 26147 26150 26153 26156 26159 26162 26165 26168 26171 26174 26177 26180 26183 26186 26189 26192 26195 26198 26201 26204 26207 26210 26213 26215 26217 26220 26223 26226 26229 26232 26235 26238 26241 26244 26247 26250 26253 26256 26258 26261 26264 26266 26268 26271 26274 26276 26279 26282 26285 26288 26291 26294 26297 26300 26303 26306 26309 26312 26315 26318 26321 26324 26327 26329 26331 26334 26337 26340 26343 26345 26348 26350 26353 26356 26358 26360 26363 26366 26369 26371 26374 26376 26379 26382 26385 26388 26391 26394 26397 26400 26402 26405 26408 26411 26414 26417 26420 26423 26426 26429 26432 26435 26438 26440 26443 26446 26449 26452 26455 26458 26461 26464 26467 26470 26473 26476 26479 26482 26484 26487 26489 26492 26495 26497 26500 26502 26505 26508 26511 26514 26517 26520 26523 26525 26528 26531 26534 26537 26539 26542 26545 26548 26551 26554 26557 26560 26563 26566 26569 26572 26575 26578 26580 26583 26586 26589 26592 26595 26598 26601 26604 26607 26610 26613 26616 26619 26622 26625 26628 26631 26634 26636 26639 26642 26645 26648 26651 26654 26657 26660 26662 26665 26668 26671 26674 26676 26679 26682 26685 26688 26691 26694 26697 26700 26703 26706 26709 26712 26715 26718 26721 26724 26727 26730 26732 26735 26738 26741 26744 26747 26750 26753 26756 26758 26761 26763 26766 26769 26772 26775 26778 26781 26784 26787 26790 26793 26796 26799 26801 26804 26807 26810 26813 26815 26818 26820 26823 26825 26828 26831 26834 26837 26840 26843 26846 26849 26852 26855 26858 26860 26863 26866 26869 26872 26875 26878 26881 26883 26885 26888 26890 26893 26896 26898 26901 26904 26907 26910 26913 26916 26919 26921 26924 26927 26930 26933 26936 26939 26942 26944 26946 26949 26952 26955 26957 26960 26963 26966 26968 26971 26973 26976 26979 26981 26984 26987 26990 26993 26996 26999 27002 27005 27008 27010 27013 27016 27019 27022 27025 27028 27031 27033 27036 27038 27041 27044 27047 27050 27053 27055 27058 27061 27063 27066 27069 27072 27075 27077 27080 27082 27085 27088 27091 27094 27097 27100 27103 27106 27109 27112 27115 27117 27120 27123 27125 27128 27131 27134 27137 27140 27143 27146 27148 27151 27154 27157 27160 27163 27166 27169 27172 27175 27178 27181 27184 27186 27189 27192 27195 27198 27201 27204 27207 27210 27212 27215 27218 27221 27224 27227 27230 27233 27236 27239 27241 27244 27247 27250 27253 27255 27258 27261 27264 27267 27270 27273 27276 27279 27282 27284 27287 27290 27293 27296 27299 27302 27305 27308 27311 27314 27316 27319 27322 27325 27328 27331 27334 27337 27340 27342 27345 27348 27351 27353 27355 27358 27360 27363 27366 27369 27371 27374 27377 27379 27382 27385 27388 27391 27394 27397 27399 27402 27404 27407 27410 27413 27415 27418 27420 27423 27426 27429 27432 27434 27436 27439 27442 27444 27447 27449 27452 27454 27456 27458 27461 27464 27467 27470 27473 27476 27479 27482 27485 27488 27491 27494 27496 27499 27502 27505 27508 27510 27513 27515 27518 27520 27523 27525 27528 27531 27534 27537 27540 27543 27546 27548 27551 27554 27556 27559 27561 27563 27566 27569 27571 27574 27577 27580 27582 27585 27588 27591 27594 27597 27600 27603 27606 27609 27612 27614 27617 27620 27623 27625 27628 27631 27633 27635 27638 27641 27644 27647 27650 27653 27655 27658 27661 27664 27667 27669 27672 27675 27678 27681 27683 27686 27689 27692 27695 27698 27701 27704 27707 27710 27713 27716 27719 27722 27725 27728 27731 27734 27737 27740 27743 27746 27749 27752 27755 27758 27761 27764 27767 27770 27773 27776 27779 27782 27785 27788 27791 27794 27797 27800 27803 27806 27809 27812 27815 27818 27821 27824 27827 27830 27833 27836 27839 27842 27845 27848 27851 27854 27857 27860 27862 27865 27868 27871 27873 27876 27879 27882 27885 27888 27891 27894 27897 27900 27903 27906 27909 27912 27914 27917 27920 27923 27926 27929 27932 27935 27938 27941 27944 27947 27950 27953 27956 27958 27961 27964 27967 27970 27973 27975 27978 27981 27984 27987 27990 27993 27996 27999 28002 28005 28008 28011 28014 28017 28020 28023 28026 28029 28032 28035 28038 28041 28044 28047 28049 28051 28054 28057 28060 28063 28066 28069 28072 28075 28078 28081 28084 28087 28090 28092 28095 28098 28101 28104 28107 28110 28113 28116 28119 28122 28125 28128 28131 28134 28137 28140 28143 28146 28149 28152 28155 28158 28160 28163 28166 28169 28172 28175 28177 28180 28183 28186 28188 28191 28194 28197 28200 28203 28206 28209 28211 28213 28216 28219 28221 28223 28226 28229 28232 28235 28238 28241 28244 28247 28250 28253 28255 28258 28261 28264 28266 28269 28272 28275 28277 28279 28282 28285 28288 28291 28294 28297 28300 28303 28305 28308 28310 28313 28316 28319 28322 28325 28328 28331 28334 28336 28339 28341 28344 28347 28349 28352 28355 28357 28360 28363 28366 28369 28372 28375 28378 28381 28384 28387 28390 28393 28396 28399 28401 28404 28407 28409 28412 28415 28418 28421 28424 28427 28429 28432 28435 28438 28441 28444 28447 28450 28453 28456 28459 28461 28464 28467 28470 28472 28475 28478 28481 28484 28487 28490 28493 28496 28499 28502 28505 28508 28510 28512 28515 28518 28521 28524 28527 28530 28533 28536 28539 28542 28545 28548 28551 28554 28557 28560 28563 28566 28569 28572 28575 28578 28581 28584 28587 28590 28593 28595 28598 28601 28604 28607 28610 28613 28616 28619 28622 28625 28628 28631 28634 28637 28640 28643 28646 28648 28651 28654 28657 28660 28662 28665 28667 28670 28673 28676 28679 28682 28685 28688 28691 28693 28696 28699 28702 28705 28707 28710 28713 28716 28719 28722 28725 28728 28731 28734 28737 28740 28743 28746 28749 28752 28755 28758 28761 28764 28767 28770 28772 28775 28778 28781 28784 28787 28790 28793 28796 28799 28802 28805 28808 28811 28814 28817 28820 28823 28826 28829 28832 28835 28838 28841 28844 28847 28850 28853 28856 28858 28861 28864 28867 28870 28872 28875 28878 28881 28883 28886 28889 28892 28895 28897 28900 28903 28906 28908 28911 28914 28917 28920 28922 28925 28927 28929 28932 28935 28938 28941 28944 28946 28949 28952 28955 28958 28961 28963 28966 28969 28972 28975 28978 28980 28983 28986 28989 28992 28995 28998 29001 29004 29007 29010 29013 29016 29019 29022 29025 29028 29030 29033 29036 29039 29042 29045 29048 29051 29054 29057 29060 29063 29066 29069 29071 29074 29077 29079 29082 29085 29087 29090 29093 29096 29099 29101 29104 29107 29110 29112 29115 29118 29121 29123 29126 29129 29132 29135 29138 29140 29143 29146 29149 29151 29154 29157 29160 29163 29166 29169 29172 29174 29177 29180 29182 29184 29187 29189 29192 29194 29197 29200 29203 29206 29209 29211 29214 29217 29220 29223 29226 29229 29232 29234 29237 29240 29243 29246 29249 29252 29255 29258 29261 29263 29266 29269 29272 29275 29278 29281 29284 29287 29290 29293 29296 29299 29302 29305 29307 29310 29313 29316 29319 29322 29325 29328 29331 29334 29337 29340 29343 29346 29349 29352 29355 29358 29361 29364 29367 29369 29371 29374 29377 29380 29382 29385 29388 29391 29394 29397 29400 29403 29406 29409 29412 29415 29418 29421 29424 29427 29430 29432 29435 29438 29441 29444 29447 29450 29453 29456 29459 29462 29465 29467 29470 29473 29476 29479 29482 29485 29488 29491 29494 29497 29500 29503 29506 29508 29511 29514 29516 29519 29522 29524 29527 29530 29533 29536 29539 29542 29545 29548 29550 29553 29556 29559 29562 29565 29568 29571 29574 29577 29580 29583 29586 29589 29592 29595 29598 29601 29604 29607 29610 29613 29616 29619 29622 29625 29627 29630 29633 29636 29639 29642 29645 29648 29650 29653 29656 29659 29661 29664 29667 29670 29673 29676 29679 29682 29685 29688 29691 29694 29697 29699 29702 29705 29708 29711 29714 29717 29719 29722 29725 29728 29730 29733 29736 29739 29742 29745 29748 29751 29754 29757 29760 29763 29766 29769 29772 29775 29778 29781 29784 29787 29790 29793 29796 29799 29802 29805 29808 29811 29814 29816 29819 29822 29825 29828 29831 29834 29837 29839 29842 29845 29847 29849 29851 29854 29857 29860 29863 29866 29869 29872 29875 29877 29879 29882 29885 29888 29891 29894 29897 29900 29903 29905 29908 29911 29913 29916 29918 29921 29924 29927 29930 29933 29936 29939 29942 29945 29947 29950 29953 29956 29959 29962 29965 29968 29971 29973 29976 29979 29982 29985 29988 29991 29994 29997 30000 30002 30005 30008 30011 30014 30017 30020 30023 30026 30029 30032 30035 30038 30041 30044 30047 30049 30051 30054 30057 30060 30062 30065 30068 30071 30073 30076 30079 30081 30083 30086 30089 30092 30095 30098 30101 30104 30107 30109 30112 30115 30118 30120 30122 30125 30128 30131 30133 30136 30139 30142 30145 30148 30151 30154 30156 30159 30162 30164 30167 30170 30173 30176 30179 30182 30185 30187 30190 30193 30196 30199 30202 30205 30208 30211 30214 
</DataArray>
<DataArray type="UInt32" Name="types" format="ascii">
5 5 5 5 5 5 5 5 5 3 5 3 5 5 5 5 5 5 5 5 5 5 5 5 5 5 5 3 5 5 5 5 5 5 5 5 5 5 5 5 3 5 5 5 5 5 5 5 5 5 5 5 5 5 5 5 5 5 5 5 5 5 5 5 5 5 5 3 5 3 5 5 5 5 3 3 5 5 3 5 5 3 5 5 5 5 5 5 5 5 5 5 3 5 5 5 5 3 5 5 5 5 5 5 5 5 5 5 5 5 3 5 5 5 5 5 5 5 5 5 5 3 5 5 5 5 5 5 3 5 5 5 5 5 5 3 5 3 5 5 5 5 5 5 5 5 5 5 5 3 5 3 5 5 5 5 3 5 3 5 5 5 5 5 5 5 5 5 5 3 5 5 5 3 5 5 5 5 3 5 5 3 5 3 5 3 5 3 5 5 3 5 3 5 5 5 3 5 5 5 3 5 5 3 5 5 3 5 5 5 3 3 3 5 5 5 5 5 5 5 5 5 5 3 5 5 3 5 5 3 5 5 5 5 3 5 5 5 5 5 5 5 5 5 5 5 5 5 5 5 5 5 5 5 5 5 5 5 3 5 5 5 5 5 5 5 5 5 5 5 3 5 5 5 3 5 5 3 5 5 5 5 5 5 5 5 3 5 5 5 5 3 5 5 5 5 5 5 5 5 5 5 5 3 5 5 3 5 5 5 5 5 5 5 5 3 5 5 3 5 3 5 5 3 5 5 3 5 5 5 5 5 5 5 5 5 5 5 5 5 5 5 5 5 5 5 5 5 5 3 5 5 5 5 5 5 5 5 5 3 5 5 5 5 5 5 5 5 5 5 5 5 5 5 5 5 5 5 5 5 5 5 5 5 3 5 5 5 5 5 5 5 5 5 3 5 5 5 3 3 5 5 5 3 5 5 3 5 3 5 5 3 3 5 5 3 5 5 3 5 3 5 5 3 5 5 5 5 5 5 5 5 5 5 5 5 5 5 5 5 5 3 5 5 5 5 5 5 3 5 5 3 5 5 5 5 5 5 5 5 3 5 5 5 5 3 5 5 5 5 5 3 5 5 5 5 5 5 5 5 5 5 5 5 5 3 5 5 5 3 5 5 5 5 3 5 5 5 3 3 3 5 5 3 3 5 3 3 5 5 5 5 3 3 3 5 5 3 5 5 5 5 5 5 3 5 5 5 5 5 5 5 3 5 5 3 5 5 5 3 5 5 5 5 3 5 3 5 5 5 5 5 5 5 5 5 5 5 5 5 5 5 5 5 3 5 5 5 5 5 5 5 5 5 5 5 5 5 5 5 5 5 3 5 3 5 5 5 5 5 5 5 5 5 5 5 5 3 5 5 5 5 5 3 5 5 5 5 5 5 5 5 5 3 5 3 5 5 3 5 5 5 5 5 5 5 5 5 5 5 5 5 5 5 5 3 5 5 5 5 5 5 5 3 5 5 5 5 5 5 3 5 3 5 5 5 3 3 3 5 5 5 5 5 5 5 3 5 5 5 5 3 5 5 5 5 5 5 5 5 5 5 3 5 5 3 5 5 5 5 5 5 5 5 5 5 3 5 5 3 5 5 5 5 5 5 5 5 5 5 5 5 5 5 3 5 5 3 5 3 5 5 5 5 5 5 5 5 5 5 5 5 5 5 5 5 5 5 3 3 5 5 5 5 5 3 5 5 5 5 5 5 5 5 5 5 5 5 5 5 5 5 5 5 3 5 5 5 5 5 5 5 5 3 5 5 5 5 3 5 3 5 5 5 5 5 5 5 5 5 5 5 5 5 3 5 5 5 5 3 5 5 5 3 3 5 5 5 5 3 5 3 5 5 3 5 3 5 5 5 5 5 5 5 5 5 5 5 5 5 5 5 5 5 5 3 5 5 3 5 5 5 3 5 5 5 5 3 5 5 5 5 5 5 5 3 5 5 5 3 5 5 5 5 5 5 5 5 5 5 5 5 5 5 5 5 5 5 5 5 5 5 5 5 5 5 5 5 5 5 5 3 5 5 5 5 5 5 3 5 5 5 5 5 5 5 5 5 5 5 3 5 5 5 5 5 5 5 3 5 5 5 5 5 3 5 5 3 5 5 5 3 5 5 5 3 3 5 5 5 3 3 5 5 5 5 5 5 5 5 5 5 5 5 5 5 3 5 5 5 5 5 3 5 5 5 5 5 5 5 5 5 5 5 5 5 5 5 5 5 5 5 5 5 5 5 5 5 5 5 5 5 5 5 5 5 5 5 5 5 5 5 5 5 5 5 5 5 5 5 5 5 3 5 5 5 5 3 5 5 5 5 5 3 5 3 5 5 5 5 5 5 5 5 5 5 5 5 5 5 5 5 5 3 5 5 5 3 5 5 5 5 5 3 5 5 5 5 5 5 5 5 5 5 5 5 5 5 5 5 5 5 5 5 5 5 5 5 5 5 5 5 5 5 5 5 5 5 5 5 5 5 5 5 5 5 5 5 5 5 5 5 5 5 5 5 5 5 5 5 5 5 3 5 5 5 5 5 5 5 5 5 5 5 5 5 3 5 5 5 5 5 5 5 5 5 5 5 3 5 5 5 3 5 5 5 5 5 5 5 5 5 5 5 5 5 5 5 5 5 5 5 5 5 5 3 5 5 3 5 5 3 5 5 5 5 5 5 5 5 5 5 5 5 3 5 5 5 5 5 5 5 5 5 3 5 5 5 5 5 5 3 5 5 5 3 5 5 3 5 5 5 5 5 5 5 5 5 3 5 5 5 5 5 5 5 5 5 5 3 5 5 5 5 5 5 5 3 5 5 5 5 5 3 5 5 5 5 5 5 5 3 5 5 5 5 5 5 3 3 5 5 5 5 5 5 5 5 3 5 5 5 5 5 5 5 5 5 5 5 5 5 5 5 5 5 5 3 5 5 5 5 5 5 5 5 5 5 5 5 5 3 5 5 5 3 3 5 5 5 5 5 5 5 5 5 5 5 5 5 5 5 5 5 5 5 5 5 5 5 5 5 5 5 5 5 5 5 5 5 5 5 5 5 5 5 5 5 5 5 5 5 5 5 3 3 5 5 5 3 5 5 5 3 5 5 3 5 5 5 5 5 5 5 5 5 5 5 3 5 5 5 5 5 5 3 5 3 3 5 5 5 3 5 5 3 5 3 5 5 5 3 5 5 5 5 3 5 5 5 5 3 5 5 5 3 5 5 5 5 5 5 3 5 5 5 5 5 5 5 5 5 5 3 5 5 5 5 5 5 5 5 5 5 5 5 5 5 5 5 5 5 5 3 5 5 5 5 5 3 5 5 3 5 5 5 5 5 5 5 5 5 5 5 5 5 5 5 5 3 5 5 5 5 5 5 5 5 5 3 5 5 5 5 5 5 5 5 5 5 5 5 5 5 5 5 5 5 5 3 5 5 5 3 3 5 5 5 3 5 5 5 3 5 5 5 5 5 5 3 5 5 5 5 5 5 5 5 5 5 5 3 3 5 5 5 5 3 5 5 5 5 5 5 5 5 5 3 5 5 5 3 5 5 5 5 5 5 5 5 3 5 5 5 5 5 5 5 3 5 5 5 5 5 5 5 5 5 5 3 5 5 5 3 5 5 5 5 5 5 3 3 5 5 5 5 3 5 5 5 5 5 5 5 5 5 5 5 5 5 5 5 5 5 5 3 5 5 5 5 5 5 5 3 5 5 5 5 5 5 5 5 5 3 5 5 5 5 5 5 3 5 3 5 5 5 5 3 5 5 5 5 5 5 5 5 5 5 3 5 5 5 5 5 5 5 5 5 5 5 5 5 5 5 5 5 5 5 5 5 5 5 3 5 3 3 5 5 3 3 5 5 5 5 5 5 5 5 5 5 5 5 5 5 5 5 5 5 3 5 5 5 3 5 5 3 5 5 5 5 5 5 5 5 5 5 5 5 5 3 5 5 5 5 5 5 3 5 5 5 5 5 5 5 5 5 5 5 5 5 5 5 5 5 5 5 5 5 5 5 5 3 5 5 3 5 5 5 5 5 5 5 5 5 5 5 5 5 5 3 5 3 5 5 3 5 3 5 5 5 5 5 5 3 5 5 5 5 5 3 5 5 5 5 5 5 5 5 5 5 5 5 5 5 5 5 5 5 3 5 5 5 5 5 5 3 5 5 5 5 3 3 5 5 3 5 3 3 5 5 3 5 3 5 5 5 5 5 3 5 3 5 5 5 5 5 3 5 5 5 5 5 5 5 5 5 3 5 5 5 3 5 5 5 5 3 5 5 5 5 5 5 5 5 5 5 5 5 5 5 5 5 3 5 5 5 3 5 5 5 5 5 5 5 5 5 5 5 5 5 5 5 5 5 5 3 5 3 5 5 5 5 3 5 3 5 5 5 3 5 5 5 5 5 5 5 5 5 5 5 5 5 5 5 5 5 5 5 5 5 5 5 5 5 5 5 3 5 3 5 3 5 5 5 3 3 5 5 5 3 5 3 5 5 5 5 5 5 5 5 5 5 5 3 5 5 5 5 5 5 5 5 5 5 5 5 5 3 5 5 5 3 5 5 5 5 5 5 5 5 5 3 5 5 5 3 5 5 5 5 3 5 5 5 5 5 5 5 5 3 5 5 5 5 5 5 5 5 5 3 5 5 5 5 5 5 5 5 5 5 5 5 5 5 5 5 5 5 5 5 5 5 5 5 5 5 5 5 5 5 5 5 3 5 5 3 5 5 5 5 5 5 5 5 5 5 5 5 5 5 5 5 3 5 3 3 5 5 5 3 5 5 5 5 5 5 5 3 5 5 5 5 5 5 5 3 5 3 5 5 5 5 5 5 5 5 5 5 3 5 5 5 5 3 5 5 3 3 3 3 5 5 5 5 5 3 5 5 5 5 3 5 5 5 5 5 5 3 5 5 5 5 5 5 5 5 5 5 5 5 5 3 5 5 5 3 5 5 5 5 5 5 5 5 5 5 5 5 5 5 5 3 5 5 5 5 5 3 5 5 3 5 5 5 5 5 5 5 5 3 3 5 5 5 5 5 5 5 3 5 5 5 5 5 5 5 3 5 5 5 5 5 5 3 3 5 5 5 5 3 3 5 5 5 5 5 5 5 5 5 5 5 5 5 5 5 5 5 5 5 5 5 5 5 5 5 5 5 5 5 5 5 5 5 5 5 5 5 5 5 5 5 5 5 3 3 5 5 3 5 5 5 5 5 5 5 5 5 5 5 3 5 5 5 5 5 5 5 5 5 5 5 5 5 5 5 5 5 5 3 5 5 3 5 5 5 5 5 3 5 5 5 5 3 5 5 5 5 5 5 3 5 3 5 5 5 5 5 3 5 5 3 5 5 5 5 5 5 5 5 5 5 3 5 5 3 5 5 5 5 5 5 5 5 5 5 5 5 3 5 5 5 5 5 5 5 5 5 5 5 5 5 5 3 5 5 5 5 5 5 5 5 5 5 5 5 5 3 5 5 5 5 5 5 5 5 5 5 5 5 5 5 5 5 5 5 3 5 5 5 3 5 5 5 3 5 5 5 5 5 5 5 5 5 5 5 5 5 5 5 5 5 5 5 3 5 5 5 5 5 5 5 5 5 5 5 3 5 5 5 3 5 5 5 5 5 5 5 5 3 3 5 5 5 3 5 3 5 5 3 5 5 3 5 3 5 5 3 5 3 3 3 5 5 5 5 5 5 5 3 3 5 5 3 5 3 5 5 5 5 5 5 5 5 5 5 5 5 5 5 5 5 5 5 5 5 5 5 5 5 5 5 3 5 5 5 5 5 3 5 3 5 5 3 5 5 5 5 5 5 5 5 3 5 5 5 3 5 5 5 5 5 5 5 5 5 5 5 5 5 5 5 3 5 5 5 5 5 5 5 5 5 5 5 5 5 5 5 5 5 5 5 5 5 5 5 3 5 5 5 3 5 5 5 5 5 5 5 3 5 3 5 5 5 5 5 5 5 5 5 5 5 3 3 5 5 3 5 5 5 5 5 5 5 5 5 5 5 5 5 5 5 5 5 3 5 5 5 3 5 5 5 5 5 5 5 5 5 5 5 5 5 5 5 5 5 5 5 5 5 5 5 5 5 5 5 5 5 5 5 5 5 5 5 5 5 5 5 5 5 5 5 5 3 5 5 5 5 5 5 5 5 5 5 5 3 5 5 5 5 5 5 5 5 5 5 5 3 5 5 5 5 5 5 5 5 5 5 5 3 5 5 5 5 5 5 5 5 5 5 5 5 5 5 5 5 5 5 5 5 5 5 5 5 3 5 5 3 5 5 5 5 5 3 5 5 5 5 5 5 5 5 5 5 5 5 5 5 5 5 5 5 3 3 5 5 3 5 5 5 5 5 5 5 5 5 5 5 5 5 5 5 5 5 5 5 5 5 5 5 5 5 5 5 5 5 5 5 5 5 5 5 5 5 5 5 5 5 5 5 5 5 5 3 5 5 5 3 5 5 5 5 5 5 5 5 5 5 5 5 5 5 5 5 5 5 5 5 5 5 5 5 5 3 5 3 3 5 5 5 5 5 3 5 5 3 5 5 5 5 5 5 5 5 5 5 5 5 5 5 5 5 5 5 5 5 5 5 5 5 5 5 5 5 5 5 5 5 5 5 5 5 5 5 5 5 5 3 5 5 5 5 3 5 5 5 3 5 5 5 5 5 5 5 5 3 5 5 5 5 5 5 5 5 5 5 5 5 5 5 5 5 5 5 5 5 5 5 5 5 5 3 5 5 5 5 5 3 5 5 5 5 5 5 5 5 5 5 5 5 5 5 5 5 5 5 5 5 5 5 5 5 5 5 5 5 5 5 5 5 3 3 5 5 5 5 5 5 5 5 5 5 3 5 5 5 3 5 5 3 5 5 5 5 3 5 3 5 5 5 3 5 5 5 5 5 3 5 5 5 3 5 5 5 5 5 5 5 5 5 5 5 5 5 5 5 5 5 5 5 3 5 5 5 5 5 5 5 5 5 5 5 5 5 5 5 5 5 5 5 5 5 5 5 5 5 5 5 5 5 5 5 5 5 5 5 5 5 5 5 3 5 5 5 5 5 5 5 5 5 5 5 5 5 5 5 5 5 5 5 5 5 3 5 5 5 5 5 5 5 5 3 5 5 5 5 3 5 5 5 3 5 3 5 5 5 5 5 5 5 5 3 5 5 5 3 5 3 5 5 5 5 3 5 5 5 5 5 5 5 5 5 5 5 5 5 3 5 3 5 5 5 5 5 3 5 5 5 5 5 5 5 5 5 5 5 5 5 5 5 5 5 5 5 5 3 5 5 5 5 5 5 3 5 5 5 5 5 5 5 5 5 5 5 5 5 5 5 5 5 5 5 5 3 5 5 5 5 5 5 5 5 5 5 5 5 5 5 5 5 5 5 5 5 5 5 5 3 5 5 5 5 5 5 5 3 5 3 5 5 3 5 5 5 5 5 5 5 5 5 5 5 5 5 5 5 5 5 5 5 5 5 5 5 5 5 5 5 5 5 5 5 3 5 5 5 5 5 3 5 5 5 5 5 3 5 5 5 5 5 3 5 3 5 5 3 5 5 5 5 5 5 5 5 5 5 5 5 5 5 5 5 5 5 5 5 5 5 5 5 5 5 5 5 5 5 5 5 5 5 5 5 5 5 5 5 5 5 3 5 5 5 5 5 5 5 3 5 3 5 5 5 3 5 3 5 5 5 5 3 5 5 5 5 5 3 5 5 5 5 5 5 5 5 5 3 5 5 5 5 5 5 5 5 5 5 5 5 5 5 5 5 5 5 5 5 5 5 5 5 5 5 5 5 5 5 5 3 5 3 5 5 5 5 5 3 5 5 5 5 3 5 5 5 5 5 5 5 5 5 5 5 5 5 5 5 5 5 5 5 5 5 5 5 5 5 5 5 5 5 5 5 5 5 5 5 5 5 5 5 5 5 5 5 5 5 5 5 5 5 5 5 5 5 5 5 5 5 5 5 5 5 5 5 5 5 5 5 5 5 5 5 5 5 5 5 5 3 5 5 5 5 5 5 5 5 5 5 5 5 5 5 5 5 5 5 5 5 5 5 5 5 5 5 5 5 5 3 5 5 5 5 5 5 5 5 5 5 5 5 5 5 5 5 5 5 5 5 5 5 5 5 5 5 5 5 5 5 5 5 5 5 5 5 5 5 5 5 5 5 5 5 3 5 3 5 5 5 5 5 5 5 5 5 5 5 5 5 5 5 5 5 5 5 5 5 5 5 5 5 5 5 5 3 5 3 5 5 5 5 5 5 5 5 5 5 5 5 5 5 5 5 5 3 5 5 5 5 5 5 5 5 5 5 5 5 5 5 5 5 5 5 5 5 5 5 5 5 5 5 5 5 5 5 5 5 5 5 5 5 5 5 5 5 5 5 5 5 5 5 5 5 5 5 5 5 5 5 5 5 5 5 5 5 5 5 5 5 5 5 5 5 5 5 5 5 3 5 3 5 5 5 5 5 3 5 5 5 5 5 5 5 5 5 3 5 5 3 3 5 3 5 5 5 5 5 5 5 5 5 5 5 5 5 5 5 5 5 5 5 5 5 3 5 5 5 5 3 5 5 5 5 5 5 5 3 5 5 3 5 5 3 5 3 5 5 5 3 5 5 3 5 5 5 5 5 3 5 3 3 5 5 5 5 3 5 5 5 5 5 5 5 5 5 3 5 5 3 5 5 5 5 5 5 5 5 5 5 5 5 5 5 5 3 5 5 5 5 5 5 3 5 5 3 5 5 3 5 3 5 3 3 5 3 5 3 3 5 5 3 5 5 5 5 5 5 5 5 5 3 5 5 5 3 5 5 5 5 5 5 5 5 5 5 5 5 3 5 5 5 5 5 5 5 5 5 3 5 3 5 5 5 5 5 5 5 3 5 5 5 5 5 5 5 5 5 5 5 5 5 5 5 5 5 5 5 5 5 5 5 5 5 5 5 5 5 5 5 5 5 5 3 5 5 5 3 5 5 5 5 5 5 5 5 5 3 5 3 5 5 5 3 5 5 5 5 5 5 5 5 5 3 5 5 5 5 5 5 5 5 5 5 5 5 5 5 5 5 5 5 5 5 5 5 5 5 5 5 5 5 5 3 3 5 5 5 5 3 5 3 5 5 5 3 3 5 3 3 5 3 5 5 5 5 5 5 5 3 5 5 5 5 5 3 5 3 5 5 5 3 5 5 3 5 5 5 3 5 5 3 3 3 5 5 5 3 5 5 5 5 3 5 5 5 5 5 3 5 3 5 5 3 5 3 5 5 5 5 5 5 5 5 5 3 5 5 5 5 5 5 5 5 5 5 5 5 5 5 5 5 5 5 5 5 5 5 3 5 5 5 5 5 3 5 3 5 3 3 5 5 3 5 3 5 5 5 5 3 5 5 5 5 5 5 5 5 5 5 5 5 5 5 5 5 5 5 5 5 5 5 5 5 5 5 5 5 5 5 5 5 5 5 5 5 5 5 5 5 5 5 5 5 5 5 5 5 5 5 5 5 5 5 5 5 5 5 5 5 5 5 5 5 5 5 5 5 5 5 5 5 5 5 5 5 5 5 5 5 5 5 5 5 5 5 5 5 5 5 5 5 5 5 5 5 5 5 5 5 5 5 5 5 5 5 5 5 5 5 5 5 5 5 5 5 5 5 5 5 5 5 5 5 5 3 5 5 3 5 5 5 5 5 5 3 5 5 5 5 5 5 3 5 5 5 5 5 5 5 5 5 5 5 5 5 5 5 5 3 5 5 5 5 5 5 3 5 5 5 5 5 5 5 5 5 5 5 3 5 5 5 5 5 5 5 5 3 5 5 5 5 5 3 5 5 3 5 5 5 5 5 5 5 3 5 5 5 5 5 5 5 5 5 5 5 5 5 5 5 3 3 5 5 5 5 3 5 5 5 5 5 5 5 5 5 5 5 5 5 5 5 5 5 5 5 5 5 5 5 3 5 5 5 5 5 5 5 5 5 5 5 3 5 5 5 5 5 5 5 5 5 3 5 5 5 5 5 5 5 5 5 5 5 5 3 5 3 5 5 3 5 5 5 5 3 5 5 5 5 5 5 5 5 5 5 3 5 5 5 5 5 5 5 3 3 5 5 5 3 3 3 5 5 3 5 5 3 5 3 5 5 5 5 3 5 5 5 3 5 3 5 5 3 5 5 3 5 5 3 3 5 5 5 5 5 5 3 5 5 3 5 3 5 5 5 3 5 5 5 5 5 3 3 5 5 3 3 5 5 5 3 3 5 3 5 5 3 3 5 5 3 5 5 5 3 5 3 5 5 5 5 5 5 5 5 5 3 5 5 5 5 5 5 5 5 5 5 5 5 5 5 3 5 5 3 5 5 5 5 5 5 5 5 5 5 5 5 5 5 5 5 5 5 5 5 5 5 5 5 5 5 5 5 5 5 5 3 5 5 5 5 5 5 5 5 5 5 3 5 5 5 5 5 3 3 5 3 5 5 5 5 5 5 5 5 5 5 5 5 5 5 3 5 5 5 5 5 5 5 5 5 5 5 5 5 5 5 5 5 5 3 5 5 3 3 5 3 5 3 5 5 5 3 3 5 3 5 3 5 5 3 5 5 5 5 5 3 5 5 5 5 3 3 5 5 5 3 5 5 5 5 5 5 5 5 5 5 5 5 3 5 5 5 5 5 5 5 5 5 5 5 5 5 5 5 5 5 3 3 5 5 3 5 5 5 5 5 5 5 5 3 5 5 5 5 5 5 5 5 5 5 5 5 5 5 3 5 5 5 5 3 5 5 5 3 5 5 3 5 5 5 5 5 5 5 5 5 5 5 5 5 5 5 5 5 5 3 5 5 5 5 5 5 5 5 3 5 5 5 5 5 5 5 5 5 5 5 5 3 5 3 5 5 3 5 5 3 5 5 5 5 5 5 3 5 5 5 3 5 5 5 5 5 3 5 5 5 5 5 5 5 5 5 5 3 5 3 5 5 5 5 5 5 5 5 3 5 5 5 3 5 5 5 3 5 3 5 3 5 5 5 5 5 5 5 5 5 3 5 5 5 5 3 5 5 5 5 5 5 3 3 5 5 3 5 5 5 5 3 3 5 5 5 5 3 5 5 5 3 3 5 5 3 5 5 5 3 5 3 5 5 3 5 5 5 5 3 5 5 5 5 5 5 5 5 3 5 3 5 3 5 5 5 5 3 5 5 5 5 5 5 5 5 5 3 5 3 5 5 5 3 3 5 3 5 5 5 5 5 5 5 5 5 3 3 5 5 3 5 5 5 5 5 3 5 5 5 5 5 3 5 3 3 5 3 3 3 5 5 5 5 5 5 5 5 3 5 5 5 5 5 3 5 5 3 5 5 5 5 5 5 5 5 5 5 5 5 5 5 5 3 3 3 5 5 5 5 3 5 5 3 3 5 3 5 3 3 5 5 5 5 5 5 5 5 5 3 5 5 5 5 5 3 5 5 3 5 5 5 5 5 5 5 5 5 5 5 5 5 5 5 5 5 5 5 5 5 5 5 5 5 5 3 5 5 5 5 5 5 5 5 5 5 5 5 5 5 3 5 5 5 5 5 5 5 3 5 5 5 5 5 5 5 5 5 5 5 5 3 5 5 3 3 5 3 5 3 5 5 5 5 5 5 5 5 5 5 5 5 3 5 5 5 5 3 5 5 5 5 3 5 5 5 5 5 3 5 5 5 3 5 3 5 3 5 3 3 3 5 3 5 5 5 5 3 5 5 3 5 5 5 5 5 5 5 3 5 5 5 3 3 3 5 5 5 5 5 3 5 5 5 5 5 3 5 5 5 3 5 5 3 5 3 5 5 5 5 5 5 3 5 5 5 5 5 5 5 5 5 5 3 3 5 5 5 5 5 5 3 5 5 3 5 5 5 5 5 5 5 5 5 5 5 5 5 5 5 5 5 5 3 5 5 5 5 5 5 5 5 5 5 5 5 5 5 3 3 5 5 3 3 5 5 5 5 5 3 5 5 5 5 5 5 5 5 5 5 5 5 5 5 5 5 5 5 5 5 5 5 5 5 5 3 5 5 5 5 5 3 5 3 5 5 5 3 5 5 5 5 5 5 5 3 5 5 3 5 5 5 3 5 5 5 5 5 5 5 5 3 5 5 3 5 5 5 5 5 3 3 5 5 5 5 3 5 5 5 5 5 5 5 5 5 5 5 5 3 5 5 5 5 5 5 5 5 5 5 5 5 5 5 5 5 5 5 5 5 5 5 5 5 5 5 5 5 5 5 5 5 5 5 3 5 5 5 5 5 5 3 5 5 5 5 5 5 5 5 5 5 5 5 5 5 5 5 5 5 5 5 5 5 5 5 5 5 5 5 5 3 5 5 3 5 3 5 3 5 3 5 5 5 3 5 5 5 5 5 5 5 5 5 3 5 5 5 5 5 5 5 5 5 5 5 5 5 5 5 5 5 3 5 5 5 5 5 5 5 5 3 5 5 5 5 5 5 5 5 5 5 5 5 5 3 5 5 5 5 3 3 5 5 5 5 5 3 5 5 5 3 5 5 3 5 5 5 3 5 3 5 3 5 5 5 5 5 3 5 5 5 5 5 5 5 5 3 5 5 5 3 5 5 5 5 5 5 5 5 3 5 5 5 5 3 5 5 5 5 5 3 5 5 5 5 5 3 5 5 5 5 5 5 5 5 5 5 5 5 5 5 5 5 5 5 5 5 5 5 5 5 3 5 5 5 5 5 5 3 5 5 5 5 5 5 5 3 5 3 5 5 5 5 3 5 5 5 5 5 3 5 5 5 5 5 3 5 5 3 5 3 5 3 5 5 3 5 3 5 5 5 5 5 5 5 5 5 5 5 3 5 5 3 5 5 5 5 5 5 5 5 5 5 3 5 5 3 5 3 5 3 5 5 3 5 5 3 5 5 5 5 5 5 5 3 3 5 5 5 5 5 5 5 3 5 5 3 5 5 5 5 5 5 5 5 5 5 5 5 5 5 5 5 5 5 5 5 5 5 5 5 5 5 5 5 5 5 5 5 5 5 5 5 5 5 5 5 5 5 5 5 5 5 5 5 5 5 5 5 5 5 5 5 5 5 5 5 3 5 5 5 5 5 3 5 5 5 5 5 5 5 5 5 5 5 5 5 5 5 5 5 5 5 5 5 5 5 5 5 5 5 5 5 3 5 5 5 5 5 5 5 5 5 5 5 5 5 5 5 5 5 5 5 5 5 5 5 3 3 5 5 5 5 5 5 5 5 5 3 5 5 5 5 5 5 5 3 5 5 5 3 5 3 3 5 3 5 5 5 5 5 3 5 5 5 5 5 5 5 5 5 5 5 5 5 5 5 5 3 3 5 5 5 5 3 5 5 5 3 3 5 5 3 5 5 5 5 3 5 5 5 5 5 5 5 5 3 5 5 5 3 3 5 5 5 3 5 5 5 5 5 5 5 5 5 5 5 5 3 5 5 5 5 5 5 3 5 5 5 5 5 5 5 5 5 5 5 5 5 5 3 5 5 3 5 5 5 5 5 5 3 5 5 5 3 5 5 5 5 5 5 5 5 5 5 5 5 5 5 5 5 3 5 5 3 3 5 3 3 5 5 5 5 5 5 3 5 5 5 3 3 5 5 5 3 5 3 5 5 5 3 5 5 3 5 5 3 5 5 5 5 5 5 5 5 5 5 5 5 5 5 5 3 5 5 5 5 5 5 5 5 5 5 5 5 5 5 5 5 5 5 5 5 3 5 5 5 3 5 5 5 5 5 5 5 3 5 3 5 5 5 5 5 5 5 5 5 3 3 5 5 5 5 5 5 3 3 5 5 5 5 3 5 5 5 3 5 5 5 5 5 5 5 3 5 3 5 3 3 5 5 5 5 3 5 5 5 5 5 3 3 5 5 3 5 5 5 3 5 5 5 5 3 5 5 5 5 5 5 5 5 5 5 5 3 3 5 5 5 5 5 5 5 5 5 5 5 5 3 5 5 5 5 3 5 5 5 5 5 5 5 5 5 5 5 5 5 5 5 5 5 5 5 5 5 5 5 5 5 5 5 5 5 5 5 5 3 5 5 5 3 5 3 5 5 3 3 5 5 5 5 5 5 5 3 5 5 3 5 3 5 5 5 3 5 5 5 5 5 3 5 5 5 3 5 5 5 5 3 5 3 3 5 3 5 5 5 5 3 5 5 5 5 5 5 5 3 3 5 5 5 5 3 5 5 5 5 5 5 5 5 5 5 5 5 5 5 5 5 5 3 5 5 5 5 5 3 5 5 3 5 5 5 5 5 5 5 5 5 5 3 5 5 5 5 5 5 5 5 5 3 5 5 5 5 5 5 5 3 5 5 5 5 3 5 5 5 5 5 5 5 3 5 3 5 5 3 3 5 5 5 3 5 5 5 3 5 5 5 5 5 5 3 5 5 3 5 5 5 5 5 5 5 5 5 5 5 5 5 5 5 5 5 5 5 5 3 5 5 5 5 5 5 5 5 5 5 5 5 5 5 5 5 5 5 5 5 5 5 5 5 5 5 5 5 5 5 5 5 5 5 5 3 5 5 5 5 5 5 5 5 5 5 3 5 5 3 5 5 5 3 5 5 5 5 3 5 5 5 5 5 5 5 5 5 3 5 5 5 5 5 5 5 5 5 3 5 5 5 5 5 5 3 5 5 5 5 5 5 5 5 5 5 5 5 5 3 5 5 3 5 5 5 5 5 5 5 5 5 3 5 5 3 5 5 5 5 5 3 5 5 3 5 5 5 5 5 5 3 3 5 3 5 3 5 5 3 5 5 5 5 3 5 5 5 5 5 5 3 5 5 5 5 5 3 5 5 5 3 5 5 3 5 5 5 5 5 3 5 5 5 3 5 5 5 3 5 5 5 5 5 5 5 3 5 5 5 5 5 5 5 5 5 5 5 5 5 5 5 5 5 5 5 5 5 5 5 5 5 5 5 5 5 5 3 5 5 3 3 5 5 5 5 5 5 5 5 3 5 5 5 5 5 5 5 5 5 5 5 5 5 3 5 5 3 5 5 5 5 3 5 5 5 5 5 5 5 5 5 5 5 5 3 5 5 5 5 5 5 5 5 5 3 5 5 3 5 5 5 5 5 5 5 5 5 3 5 5 5 5 5 5 5 5 5 5 5 5 5 5 5 5 5 5 5 5 5 5 5 5 5 5 5 5 5 5 5 5 5 5 5 3 5 5 5 5 5 5 5 5 3 5 5 5 5 3 5 3 5 3 5 5 5 5 5 5 5 5 3 5 5 5 5 5 3 5 5 5 5 5 5 5 5 5 5 5 5 5 5 3 5 3 5 5 5 5 5 5 3 5 5 5 5 5 5 5 5 5 5 5 5 5 5 5 5 5 5 5 5 5 5 5 5 3 5 5 5 5 5 3 5 3 3 5 5 5 5 5 3 5 5 5 5 5 5 5 3 5 5 5 5 5 3 5 5 3 3 5 5 5 3 5 5 5 5 5 3 5 5 3 5 5 5 5 3 5 5 3 5 5 5 5 5 5 3 5 3 3 5 5 3 5 5 5 5 5 5 3 5 5 5 5 5 5 5 3 5 3 5 5 5 3 5 5 5 5 5 5 5 5 5 5 5 5 5 3 5 5 5 3 5 5 5 5 5 5 5 5 5 3 5 5 3 5 5 3 5 5 5 3 5 5 5 3 5 5 3 3 5 5 5 5 5 5 5 3 5 5 5 5 5 5 5 5 5 5 3 5 5 5 5 5 5 5 5 3 5 5 5 5 3 5 5 5 5 3 3 5 5 5 5 5 5 5 5 5 5 5 5 3 5 5 5 5 5 5 5 5 5 5 5 5 5 5 5 5 5 5 5 5 5 5 5 5 5 5 5 5 5 5 5 5 5 5 5 5 5 5 5 5 5 3 5 3 5 5 3 5 5 5 5 5 5 5 5 5 5 5 3 5 3 5 5 3 5 5 5 5 3 5 5 5 5 3 5 5 5 5 5 5 5 5 5 5 5 5 5 5 5 5 5 5 5 5 5 5 5 5 5 5 5 5 5 5 5 5 5 5 5 5 5 5 5 5 5 5 5 5 5 5 5 5 3 5 5 5 3 5 5 5 5 5 3 3 5 5 5 5 5 3 5 5 5 5 5 5 5 3 5 5 5 5 5 5 5 5 5 3 5 5 5 3 5 5 5 3 5 3 3 5 5 5 3 5 5 3 5 5 5 5 5 5 5 3 5 3 5 5 3 5 3 5 5 3 5 5 3 5 5 5 5 5 5 5 5 5 3 3 5 5 5 5 5 5 5 5 5 5 5 5 5 5 3 5 3 5 5 5 5 5 3 5 5 5 3 3 5 5 5 5 5 5 3 3 5 5 3 5 5 5 5 5 3 5 5 5 5 5 5 5 5 3 5 5 3 5 5 5 5 5 5 3 5 5 5 5 3 5 5 5 5 5 5 5 3 5 5 3 5 5 3 3 5 5 5 5 5 5 5 5 5 5 5 5 5 5 5 5 5 5 5 5 5 5 5 5 3 5 5 5 5 5 5 3 5 5 5 5 5 5 5 5 5 5 5 5 5 5 3 5 5 5 5 3 5 5 5 5 3 5 5 5 5 5 5 5 5 5 5 5 5 3 3 5 3 5 5 5 5 5 5 5 3 5 5 5 5 5 5 5 5 5 5 5 5 5 5 5 5 5 5 5 5 5 5 5 5 5 5 5 3 3 5 5 5 5 5 5 5 3 5 3 5 5 3 5 5 5 5 5 3 5 5 3 5 5 5 5 3 5 5 3 5 3 5 5 5 5 5 5 5 5 5 5 5 5 5 5 3 5 5 5 5 5 5 5 3 5 5 5 5 5 5 5 5 5 5 5 5 5 5 5 5 5 5 5 5 5 5 3 5 5 5 5 5 5 5 5 5 5 5 5 5 5 5 5 5 5 5 5 5 5 5 5 5 5 5 5 5 5 5 5 5 5 5 5 5 5 5 5 5 5 5 5 5 5 5 5 5 5 5 5 5 5 5 5 5 5 5 5 5 5 5 5 5 5 5 5 5 5 5 5 5 5 5 5 5 5 5 5 5 5 5 5 5 5 5 5 5 5 5 5 5 5 5 5 5 5 5 5 5 5 5 5 5 5 5 5 5 5 5 5 5 5 5 5 5 5 5 5 5 5 3 5 5 5 5 5 5 5 5 5 5 5 5 5 5 5 5 5 5 5 5 5 5 5 5 5 3 3 5 5 5 5 5 5 5 5 5 5 3 5 5 5 5 5 5 3 3 5 3 5 5 5 5 5 5 5 5 5 5 5 5 5 5 5 5 5 5 3 5 3 5 5 5 5 5 5 5 3 5 5 3 5 5 5 5 5 3 5 5 5 3 5 5 5 5 5 5 3 3 5 5 3 5 3 5 5 5 5 5 3 5 5 5 5 5 3 5 5 5 5 5 5 5 5 5 5 5 5 5 5 5 5 5 3 5 5 5 3 5 5 5 3 3 5 5 5 5 5 5 5 5 5 5 5 5 5 5 5 5 5 5 3 5 5 5 3 5 5 5 5 5 5 5 5 5 5 5 5 3 5 5 5 5 5 5 5 5 5 5 5 5 5 3 3 5 5 5 5 3 5 3 5 3 5 3 5 5 5 5 5 5 5 5 5 5 5 5 5 5 3 5 5 5 3 5 5 5 5 3 5 5 3 5 5 5 5 5 5 5 5 3 5 5 5 5 3 5 5 5 3 5 5 5 3 5 5 3 5 5 5 5 5 5 5 3 5 5 5 5 5 5 3 5 5 5 5 5 5 3 5 3 3 5 3 5 5 3 3 5 3 3 5 5 5 5 5 5 5 5 5 5 5 5 5 5 5 5 5 5 5 5 5 5 5 5 5 5 5 5 5 5 3 5 5 5 5 5 5 5 5 5 5 5 5 5 3 5 5 5 5 5 5 5 5 5 5 3 5 3 5 5 5 5 5 5 5 5 3 5 5 3 5 5 5 3 5 5 5 5 5 5 5 5 5 3 3 5 5 5 3 5 5 5 5 5 5 5 5 5 5 3 5 5 3 5 5 5 5 5 5 5 5 5 5 5 5 5 5 3 5 5 5 5 3 5 5 5 5 5 5 5 5 5 5 5 5 5 5 5 5 3 5 5 5 5 3 5 5 5 3 5 5 5 5 5 5 5 5 5 5 5 5 3 5 5 5 5 5 5 5 5 5 5 5 5 5 3 5 5 3 5 5 5 5 5 5 5 3 5 5 5 5 5 5 5 5 5 5 5 5 5 5 5 5 5 5 5 5 5 5 5 5 5 5 5 5 3 5 5 5 5 5 3 5 5 5 5 5 5 5 5 5 3 5 3 5 5 5 5 5 5 5 3 5 5 5 5 5 5 3 5 5 3 5 5 3 5 5 5 3 5 5 3 3 5 5 3 5 3 5 5 5 5 5 5 5 5 5 5 5 5 3 5 5 5 3 5 5 3 5 5 3 5 5 5 5 5 5 5 5 5 5 5 5 5 5 5 5 5 5 5 5 3 5 5 5 5 5 5 5 5 5 5 5 5 5 5 5 5 5 5 5 5 5 5 5 5 5 5 5 5 5 5 5 5 5 5 5 5 5 5 5 5 5 5 5 5 5 5 5 5 5 5 5 5 5 3 5 5 5 5 5 5 5 5 5 5 5 5 5 5 5 5 5 5 5 5 5 5 5 5 5 5 5 5 3 3 5 5 5 5 3 5 5 5 3 5 5 5 3 5 3 5 5 5 3 5 5 5 5 5 5 3 5 5 5 3 5 5 5 5 5 5 3 5 5 5 5 5 3 5 5 3 5 5 3 3 5 5 5 5 5 5 5 5 3 5 3 5 3 5 5 5 5 5 5 5 5 5 3 5 5 5 5 5 3 3 5 3 5 3 5 3 5 5 5 5 5 5 5 3 5 5 5 5 5 5 5 5 5 5 3 5 5 5 5 3 5 3 5 5 5 5 5 3 5 5 5 5 5 5 3 5 5 5 5 5 5 5 5 5 5 5 5 5 3 3 5 5 5 5 3 5 3 5 5 5 5 5 5 5 5 5 5 5 5 5 5 5 5 5 5 5 5 5 5 5 5 5 5 5 5 5 5 5 5 5 5 5 5 5 5 5 5 5 5 5 5 5 5 5 5 5 5 5 5 5 5 5 5 5 5 5 5 5 5 5 3 5 5 3 5 5 5 3 5 3 5 5 3 5 5 5 5 5 5 5 5 5 5 5 5 5 5 5 5 5 3 5 5 5 5 5 5 5 5 5 5 5 5 5 5 3 5 5 5 5 5 5 5 5 5 5 5 5 5 5 5 5 5 5 5 5 5 5 5 5 5 5 5 5 5 5 5 5 3 5 5 3 5 3 5 5 5 5 5 5 3 5 5 5 5 5 5 5 5 5 3 5 5 5 3 5 5 5 3 5 5 5 3 3 5 5 5 3 5 5 5 5 5 5 5 5 5 5 5 5 5 5 5 5 5 5 5 5 5 5 5 5 5 5 5 5 3 5 3 5 5 5 5 5 5 5 5 3 5 5 5 5 5 5 5 5 5 3 3 5 5 5 5 5 5 5 5 5 3 5 5 3 5 5 5 5 3 5 5 5 5 3 5 3 5 5 5 5 5 5 5 5 5 5 5 5 5 3 5 5 5 5 5 5 5 3 5 5 5 5 5 5 5 5 5 5 5 5 5 5 5 5 5 5 5 5 5 5 5 3 5 3 5 5 5 5 5 3 5 5 5 5 3 5 5 3 5 5 3 5 5 3 5 5 3 5 5 5 5 5 5 5 5 5 5 3 5 5 5 5 5 5 5 5 3 5 5 3 3 5 5 5 5 5 5 5 5 5 5 3 5 5 3 3 5 5 3 3 5 5 5 5 5 5 3 5 5 5 5 5 5 3 3 5 3 3 5 5 5 5 5 3 5 5 3 3 5 5 5 5 5 3 5 5 5 5 3 3 5 5 5 5 3 5 3 5 5 3 3 5 5 5 5 3 5 5 3 5 3 5 5 5 5 5 3 5 5 3 5 5 5 5 5 5 5 5 3 5 5 5 5 3 5 5 5 5 5 5 5 5 5 3 5 3 5 5 3 5 5 5 3 5 3 5 3 5 5 5 3 5 5 5 5 5 5 5 5 5 5 5 5 5 3 5 5 5 5 5 5 3 5 5 5 3 5 5 5 3 5 5 5 5 5 5 5 5 5 5 3 5 5 5 5 5 5 5 3 5 5 5 5 5 5 5 5 5 3 5 5 5 5 5 5 3 5 5 3 5 5 3 5 5 3 5 5 3 5 3 5 3 5 5 3 5 3 3 5 5 5 5 3 3 5 5 5 5 5 3 5 5 3 5 5 5 5 5 3 5 5 5 3 5 5 5 5 5 5 5 5 5 5 5 5 5 5 5 5 5 5 3 5 5 5 5 5 5 5 3 5 5 5 5 5 3 3 5 5 5 5 5 5 5 5 5 5 5 5 5 5 5 5 5 5 5 5 5 5 3 5 5 5 5 5 5 5 5 5 5 5 5 5 5 5 3 3 5 5 5 5 3 5 5 5 5 5 5 5 5 3 5 5 5 3 5 5 3 3 5 3 5 3 5 3 5 3 5 5 5 5 3 5 5 5 5 5 5 5 5 5 5 5 5 5 5 5 5 5 5 5 5 5 5 5 5 5 5 5 5 3 3 5 5 5 5 5 5 5 5 5 5 5 5 5 3 5 5 3 3 5 5 3 5 5 5 5 5 5 5 5 5 5 5 5 5 5 5 5 5 3 3 5 5 5 5 3 5 3 5 5 3 3 5 5 5 3 5 3 5 5 5 5 5 5 5 5 3 5 5 5 5 5 5 5 5 5 5 5 5 3 5 5 5 5 5 5 5 5 5 5 5 5 5 5 3 5 3 5 5 3 5 3 5 5 5 5 5 5 5 3 5 5 5 5 3 5 5 5 5 5 5 5 5 5 5 5 5 5 3 5 5 5 5 5 5 5 5 5 5 5 5 5 5 5 5 5 5 3 5 5 5 5 5 5 5 5 3 5 5 5 5 3 5 5 5 5 5 5 5 5 5 5 5 5 5 5 5 5 5 5 3 5 5 5 5 5 5 5 5 3 5 3 5 5 5 5 5 5 5 5 5 5 5 5 3 5 5 5 5 3 5 3 5 3 5 5 5 5 5 5 5 5 5 5 5 3 5 5 5 5 5 5 5 3 3 5 3 5 5 3 5 5 5 5 5 5 5 3 5 5 5 5 5 5 5 3 3 5 5 5 3 5 5 5 3 5 3 5 5 3 5 5 5 5 5 5 5 5 5 3 5 5 5 5 5 5 5 3 5 3 5 5 5 5 5 3 5 5 3 5 5 5 5 3 5 3 5 5 5 5 5 5 5 5 5 5 5 3 5 5 3 5 5 5 5 5 5 5 3 5 5 5 5 5 5 5 5 5 5 5 5 3 5 5 5 5 5 5 5 5 3 5 5 5 5 5 5 5 5 5 3 5 5 5 5 3 5 5 5 5 5 5 5 5 5 3 5 5 5 5 5 5 5 5 5 5 3 5 5 5 5 5 5 5 5 3 5 5 5 3 3 5 3 5 5 5 3 5 5 3 5 5 5 5 5 5 3 5 3 5 5 5 3 5 3 5 5 5 5 3 3 5 5 3 5 3 5 3 3 3 5 5 5 5 5 5 5 5 5 5 5 5 3 5 5 5 5 3 5 3 5 3 5 3 5 5 5 5 5 5 5 3 5 5 3 5 3 3 5 5 3 5 5 5 3 5 5 5 5 5 5 5 5 5 5 3 5 5 5 3 5 5 3 3 5 5 5 5 5 5 3 5 5 5 5 3 5 5 5 5 3 5 5 5 5 5 5 5 5 5 5 5 5 5 5 5 5 5 5 5 5 5 5 5 5 5 5 5 5 5 5 5 5 5 5 5 5 5 5 5 5 5 5 5 5 5 5 5 5 5 5 5 5 5 5 5 5 5 5 5 3 5 5 5 3 5 5 5 5 5 5 5 5 5 5 5 5 5 3 5 5 5 5 5 5 5 5 5 5 5 5 5 5 3 5 5 5 5 5 3 5 5 5 5 5 5 5 5 5 5 5 5 5 5 5 5 5 5 5 5 5 5 5 5 3 3 5 5 5 5 5 5 5 5 5 5 5 5 5 3 5 5 5 5 5 5 5 5 5 5 5 5 5 5 5 5 5 5 5 5 5 5 3 5 5 5 5 5 3 5 5 5 3 5 5 5 5 5 5 5 3 3 5 5 3 3 5 5 5 5 5 5 5 5 5 5 3 5 5 5 3 5 5 5 3 3 5 5 5 5 5 5 5 5 3 5 3 5 5 5 5 5 5 5 5 3 5 3 5 5 3 5 5 3 5 5 5 5 5 5 5 5 5 5 5 5 5 5 3 5 5 3 5 5 5 5 5 5 3 5 5 5 5 5 5 5 5 5 5 3 5 5 5 3 5 5 5 5 5 5 5 5 5 5 5 5 3 3 5 5 5 5 5 5 5 5 5 5 5 5 5 5 5 5 5 5 5 5 5 5 5 5 5 5 5 3 5 5 5 5 5 5 5 5 5 5 5 5 5 5 5 5 5 3 5 5 5 5 3 5 3 5 5 5 5 5 5 5 5 3 5 5 5 5 3 5 5 5 5 5 5 5 5 5 5 5 5 5 5 5 5 5 5 5 5 5 3 5 5 5 5 5 5 5 5 5 5 5 5 5 5 5 5 5 5 5 5 5 5 5 5 5 5 5 5 3 5 5 5 5 3 5 5 5 3 5 5 5 5 3 5 5 5 3 5 5 5 5 3 5 3 3 5 5 5 5 5 3 5 5 5 5 5 3 5 5 5 5 5 3 5 5 5 5 5 5 5 5 5 5 5 5 5 5 5 5 3 5 5 5 5 5 5 5 5 5 5 5 5 5 3 5 5 3 5 5 3 5 5 5 5 3 5 5 5 3 5 5 5 3 5 5 5 5 5 3 5 5 5 3 5 5 5 5 5 5 5 3 5 5 3 3 5 3 5 3 5 5 5 5 5 3 5 5 5 5 5 5 5 3 5 5 5 5 5 5 5 5 5 3 5 5 5 5 5 5 5 5 5 5 5 5 5 5 3 5 5 5 5 5 5 5 5 5 5 5 5 5 5 5 5 5 5 5 5 3 3 5 5 5 3 5 5 5 5 5 5 5 5 5 5 5 5 5 5 5 5 3 5 5 5 5 5 5 5 5 5 5 5 3 5 5 5 5 5 5 5 5 5 5 5 5 5 3 5 5 3 5 5 3 5 5 5 5 5 5 5 5 3 5 5 5 5 5 5 5 5 5 5 5 5 5 5 5 5 5 5 5 5 5 5 5 5 5 3 5 5 5 5 5 5 5 3 5 5 5 3 5 5 5 5 5 5 5 5 5 5 5 5 3 5 5 5 5 5 5 3 5 5 5 3 5 5 5 5 5 5 5 5 5 5 5 5 5 5 5 5 5 5 5 5 5 5 5 5 5 5 5 5 3 5 5 5 5 5 5 5 3 5 5 3 3 3 5 5 5 5 5 5 5 5 3 3 5 5 5 5 5 5 5 5 3 5 5 3 5 3 5 5 5 5 5 5 5 5 5 3 5 5 5 5 5 5 5 5 3 5 5 5 5 5 5 5 5 5 3 5 5 5 5 5 5 5 5 5 5 5 5 5 5 5 3 3 5 5 5 3 5 5 5 3 5 5 3 3 5 5 5 5 5 5 5 5 3 5 5 5 3 3 5 5 5 3 5 5 5 5 5 5 5 3 5 5 3 5 5 5 5 5 5 5 3 5 5 5 5 5 5 5 5 5 
</DataArray>
</Cells>
<PointData Scalars="" Vectors="displacement," Tensors="">
<DataArray type="Float64" Name="displacement" NumberOfComponents="3" format="ascii">
-0.0049998607594681681 -0.0049997362765220313 0 -0.0049167933005318624 -0.0048246476727067909 0 -0.0049996980740838149 -0.0045762493405238176 0 -0.0049998607594681681 -0.0049997362765220313 0 -0.0049167933005318624 -0.0048246476727067909 0 -0.0047389630916974601 -0.0049453842409833268 0 -0.0049998607594681681 -0.0049997362765220313 0 -0.0047389630916974601 -0.0049453842409833268 0 -0.0044309646002721054 -0.0049996877048487914 0 -0.0049167933005318624 -0.0048246476727067909 0 -0.0048266050310684103 -0.0048834549579066912 0 -0.0047389630916974601 -0.0049453842409833268 0 -0.0049996980740838149 -0.0045762493405238176 0 -0.0049270468783194233 -0.0047636347259739399 0 -0.0050101464859940497 -0.0045969240100111157 0 -0.0049167933005318624 -0.0048246476727067909 0 -0.0049996980740838149 -0.0045762493405238176 0 -0.0049270468783194233 -0.0047636347259739399 0 -0.0049996980740838149 -0.0045762493405238176 0 -0.0050101464859940497 -0.0045969240100111157 0 -0.0050000521138271296 -0.0042631030661112526 0 -0.0049270468783194233 -0.0047636347259739399 0 -0.0050101464859940497 -0.0045969240100111157 0 -0.0048145487677838279 -0.0049083962139417547 0 -0.0049167933005318624 -0.0048246476727067909 0 -0.0049270468783194233 -0.0047636347259739399 0 -0.0048266050310684103 -0.0048834549579066912 0 -0.0050048575372021965 -0.0045985362617392712 0 -0.0049099057409399171 -0.004961965223674274 0 -0.0050084594790050707 -0.0045861746866371969 0 -0.0050982059325041041 -0.0047121589072482662 0 -0.0051198102009758287 -0.0043992774631785251 0 -0.0050166984888394047 -0.0050473313211250254 0 -0.0050509771992526317 -0.0049819742805354951 0 -0.0046774873985600436 -0.0052623975182581042 0 -0.0044430014207240713 -0.0055252410082431364 0 -0.0047446677961217841 -0.0055912883334066788 0 -0.0046774873985600436 -0.0052623975182581042 0 -0.005002895617438336 -0.0050586903316071812 0 -0.0047446677961217841 -0.0055912883334066788 0 -0.0050084594790050707 -0.0045861746866371969 0 -0.0050982059325041041 -0.0047121589072482662 0 -0.0050338212155061667 -0.0050337869975965082 0 -0.0050982059325041041 -0.0047121589072482662 0 -0.005002895617438336 -0.0050586903316071812 0 -0.0053740631526183131 -0.00444998735191091 0 -0.0049270468783194233 -0.0047636347259739399 0 -0.0048145487677838279 -0.0049083962139417547 0 -0.0048266050310684103 -0.0048834549579066912 0 -0.0050982059325041041 -0.0047121589072482662 0 -0.005002895617438336 -0.0050586903316071812 0 -0.0050338212155061667 -0.0050337869975965082 0 -0.005002895617438336 -0.0050586903316071812 0 -0.0050338212155061667 -0.0050337869975965082 0 -0.0048593214882032276 -0.0051000021130261294 0 -0.0048145487677838279 -0.0049083962139417547 0 -0.0048266050310684103 -0.0048834549579066912 0 -0.0047238202567654831 -0.0049379921240932422 0 -0.0050338212155061667 -0.0050337869975965082 0 -0.0048593214882032276 -0.0051000021130261294 0 -0.0046637661901094817 -0.0050868721801484145 0 -0.0050338212155061667 -0.0050337869975965082 0 -0.0046637661901094817 -0.0050868721801484145 0 -0.004499459693848855 -0.0050141514751325614 0 -0.0046774873985600436 -0.0052623975182581042 0 -0.0048593214882032276 -0.0051000021130261294 0 -0.0046637661901094817 -0.0050868721801484145 0 -0.0046774873985600436 -0.0052623975182581042 0 -0.005002895617438336 -0.0050586903316071812 0 -0.0048593214882032276 -0.0051000021130261294 0 -0.0046774873985600436 -0.0052623975182581042 0 -0.0046637661901094817 -0.0050868721801484145 0 -0.0044764191676625251 -0.0052526572134344628 0 -0.0048145487677838279 -0.0049083962139417547 0 -0.004499459693848855 -0.0050141514751325614 0 -0.0047238202567654831 -0.0049379921240932422 0 -0.004499459693848855 -0.0050141514751325614 0 -0.0047238202567654831 -0.0049379921240932422 0 -0.0047389630916974601 -0.0049453842409833268 0 -0.0049099057409399171 -0.004961965223674274 0 -0.0045520967843540594 -0.0049898911778245136 0 -0.0048266050310684103 -0.0048834549579066912 0 -0.0047238202567654831 -0.0049379921240932422 0 -0.0047389630916974601 -0.0049453842409833268 0 -0.004499459693848855 -0.0050141514751325614 0 -0.0047389630916974601 -0.0049453842409833268 0 -0.0044309646002721054 -0.0049996877048487914 0 -0.004499459693848855 -0.0050141514751325614 0 -0.0044309646002721054 -0.0049996877048487914 0 -0.0043025038291026156 -0.0050424752789838684 0 -0.0044309646002721054 -0.0049996877048487914 0 -0.0043025038291026156 -0.0050424752789838684 0 -0.0039915244251651251 -0.004999898962617092 0 -0.0041788682589151719 -0.005141671426226623 0 -0.0043025038291026156 -0.0050424752789838684 0 -0.0039915244251651251 -0.004999898962617092 0 -0.0041788682589151719 -0.005141671426226623 0 -0.0043772647144743352 -0.0051259753231477044 0 -0.0043025038291026156 -0.0050424752789838684 0 -0.0046637661901094817 -0.0050868721801484145 0 -0.004499459693848855 -0.0050141514751325614 0 -0.0043772647144743352 -0.0051259753231477044 0 -0.004499459693848855 -0.0050141514751325614 0 -0.0043772647144743352 -0.0051259753231477044 0 -0.0043025038291026156 -0.0050424752789838684 0 -0.0039915244251651251 -0.004999898962617092 0 -0.0038721459733391367 -0.0051217232663856175 0 -0.0036402618173952761 -0.0051608863710635401 0 -0.0039915244251651251 -0.004999898962617092 0 -0.0039994377355324125 -0.0051847964861193759 0 -0.0038721459733391367 -0.0051217232663856175 0 -0.0041788682589151719 -0.005141671426226623 0 -0.0039915244251651251 -0.004999898962617092 0 -0.0039994377355324125 -0.0051847964861193759 0 -0.0039994377355324125 -0.0051847964861193759 0 -0.0038721459733391367 -0.0051217232663856175 0 -0.0037947226718122373 -0.0052886533985323121 0 -0.0038619099701529313 -0.0051337749274460416 0 -0.0037754787514950616 -0.0053225329040306702 0 -0.0039994377355324125 -0.0051847964861193759 0 -0.0039882626177866675 -0.0053157896718572725 0 -0.0037947226718122373 -0.0052886533985323121 0 -0.0041788682589151719 -0.005141671426226623 0 -0.0039994377355324125 -0.0051847964861193759 0 -0.0039882626177866675 -0.0053157896718572725 0 -0.0039882626177866675 -0.0053157896718572725 0 -0.0042514385969463714 -0.0053079929389916276 0 -0.0041340236427525271 -0.0055167866063103805 0 -0.0039882626177866675 -0.0053157896718572725 0 -0.0039360429271526947 -0.0055176559823493909 0 -0.0041340236427525271 -0.0055167866063103805 0 -0.0039882626177866675 -0.0053157896718572725 0 -0.0039360429271526947 -0.0055176559823493909 0 -0.003816417644237183 -0.005448426261832103 0 -0.0039882626177866675 -0.0053157896718572725 0 -0.0037947226718122373 -0.0052886533985323121 0 -0.003816417644237183 -0.005448426261832103 0 -0.0046637661901094817 -0.0050868721801484145 0 -0.0043772647144743352 -0.0051259753231477044 0 -0.0044764191676625251 -0.0052526572134344628 0 -0.0043772647144743352 -0.0051259753231477044 0 -0.0044764191676625251 -0.0052526572134344628 0 -0.0042514385969463714 -0.0053079929389916276 0 -0.0041788682589151719 -0.005141671426226623 0 -0.0039882626177866675 -0.0053157896718572725 0 -0.0042514385969463714 -0.0053079929389916276 0 -0.0041788682589151719 -0.005141671426226623 0 -0.0043772647144743352 -0.0051259753231477044 0 -0.0042514385969463714 -0.0053079929389916276 0 -0.0042514385969463714 -0.0053079929389916276 0 -0.0044430014207240713 -0.0055252410082431364 0 -0.0041340236427525271 -0.0055167866063103805 0 -0.0044764191676625251 -0.0052526572134344628 0 -0.0042514385969463714 -0.0053079929389916276 0 -0.0044430014207240713 -0.0055252410082431364 0 -0.0046774873985600436 -0.0052623975182581042 0 -0.0044764191676625251 -0.0052526572134344628 0 -0.0044430014207240713 -0.0055252410082431364 0 -0.0044430014207240713 -0.0055252410082431364 0 -0.0044702345529331498 -0.005728739181044034 0 -0.0047446677961217841 -0.0055912883334066788 0 -0.0044430014207240713 -0.0055252410082431364 0 -0.0042254875285591426 -0.0057308315039713564 0 -0.0044702345529331498 -0.005728739181044034 0 -0.0044430014207240713 -0.0055252410082431364 0 -0.0042254875285591426 -0.0057308315039713564 0 -0.0041340236427525271 -0.0055167866063103805 0 -0.0042254875285591426 -0.0057308315039713564 0 -0.0044702345529331498 -0.005728739181044034 0 -0.0043406101149649724 -0.0059014842827589571 0 -0.0044702345529331498 -0.005728739181044034 0 -0.0043406101149649724 -0.0059014842827589571 0 -0.0046187411050333943 -0.0058645366703065759 0 -0.0039360429271526947 -0.0055176559823493909 0 -0.003816417644237183 -0.005448426261832103 0 -0.0038127479643764017 -0.0056291052764980776 0 -0.0039360429271526947 -0.0055176559823493909 0 -0.0040011243356747822 -0.0057111240983033756 0 -0.0038127479643764017 -0.0056291052764980776 0 -0.0042254875285591426 -0.0057308315039713564 0 -0.0041340236427525271 -0.0055167866063103805 0 -0.0040011243356747822 -0.0057111240983033756 0 -0.0039360429271526947 -0.0055176559823493909 0 -0.0041340236427525271 -0.0055167866063103805 0 -0.0040011243356747822 -0.0057111240983033756 0 -0.0042254875285591426 -0.0057308315039713564 0 -0.0040011243356747822 -0.0057111240983033756 0 -0.0041166623293594617 -0.0060000768422378099 0 -0.0040011243356747822 -0.0057111240983033756 0 -0.0038753123413924773 -0.0058648821335277011 0 -0.0038127479643764017 -0.0056291052764980776 0 -0.0032027322509653134 -0.0044538474426651853 0 -0.0031653722701172511 -0.0044221786973097296 0 -0.0032002043485879258 -0.0044055718638374456 0 -0.0040011243356747822 -0.0057111240983033756 0 -0.0038753123413924773 -0.0058648821335277011 0 -0.0041166623293594617 -0.0060000768422378099 0 -0.0035561987531594176 -0.0051545006202703353 0 -0.0037489725131340927 -0.005355345324718006 0 -0.0024437551254067394 -0.0024740880382437074 0 -0.0023538107102739378 -0.0024741578905922994 0 -0.0024014683269842031 -0.00253762974626839 0 -0.0026794017658287482 -0.0033794851590562176 0 -0.0028209943743274114 -0.0034349629082476873 0 -0.0031653722701172511 -0.0044221786973097296 0 -0.0031645454294184023 -0.0044033105919427948 0 -0.0032002043485879258 -0.0044055718638374456 0 -0.0043406101149649724 -0.0059014842827589571 0 -0.0044662288628972016 -0.0060040556031859703 0 -0.0046187411050333943 -0.0058645366703065759 0 -0.0042254875285591426 -0.0057308315039713564 0 -0.0041166623293594617 -0.0060000768422378099 0 -0.0043406101149649724 -0.0059014842827589571 0 -0.0031653722701172511 -0.0044221786973097296 0 -0.0031645454294184023 -0.0044033105919427948 0 -0.0031403041113727513 -0.0043950002771058413 0 -0.0037489725131340927 -0.005355345324718006 0 -0.0033944043002926564 -0.0042308887418291115 0 -0.0026794017658287482 -0.0033794851590562176 0 -0.0033944043002926564 -0.0042308887418291115 0 -0.0041166623293594617 -0.0060000768422378099 0 -0.0043406101149649724 -0.0059014842827589571 0 -0.0043548535563072708 -0.0061172038461327774 0 -0.0044662288628972016 -0.0060040556031859703 0 -0.0043548535563072708 -0.0061172038461327774 0 -0.0045483619896461184 -0.0061296486433599024 0 -0.0033944043002926564 -0.0042308887418291115 0 -0.0047300771035980339 -0.004442964309852037 0 -0.0043406101149649724 -0.0059014842827589571 0 -0.0044662288628972016 -0.0060040556031859703 0 -0.0043548535563072708 -0.0061172038461327774 0 -0.0044662288628972016 -0.0060040556031859703 0 -0.0045483619896461184 -0.0061296486433599024 0 -0.0046187411050333943 -0.0058645366703065759 0 -0.0047300771035980339 -0.004442964309852037 0 -0.0050645200804094641 -0.0050992294242234414 0 -0.0054791686228099212 -0.0038217770977962001 0 -0.0054457557477274997 -0.0041027208633251681 0 -0.0053285458516910689 -0.0039263915860457878 0 -0.0054457557477274997 -0.0041027208633251681 0 -0.0053285458516910689 -0.0039263915860457878 0 -0.0051604300216683005 -0.0041534173012939503 0 -0.0054791686228099212 -0.0038217770977962001 0 -0.0053285458516910689 -0.0039263915860457878 0 -0.0052147076385630807 -0.0037798505999038137 0 -0.0051323871228282228 -0.0039507218899906696 0 -0.0049999258850934184 -0.0036922776602466576 0 -0.0052147076385630807 -0.0037798505999038137 0 -0.0053285458516910689 -0.0039263915860457878 0 -0.0051323871228282228 -0.0039507218899906696 0 -0.0052147076385630807 -0.0037798505999038137 0 -0.0050000252154721947 -0.0039775896049109001 0 -0.0051323871228282228 -0.0039507218899906696 0 -0.0049999258850934184 -0.0036922776602466576 0 -0.0050000252154721947 -0.0039775896049109001 0 -0.0051323871228282228 -0.0039507218899906696 0 -0.0051604300216683005 -0.0041534173012939503 0 -0.0053285458516910689 -0.0039263915860457878 0 -0.0051323871228282228 -0.0039507218899906696 0 -0.0051604300216683005 -0.0041534173012939503 0 -0.0051604300216683005 -0.0041534173012939503 0 -0.0049996615226187971 -0.0042631930895103099 0 -0.0051198102009758287 -0.0043992774631785251 0 -0.0050000252154721947 -0.0039775896049109001 0 -0.0051604300216683005 -0.0041534173012939503 0 -0.0049996615226187971 -0.0042631930895103099 0 -0.0050048575372021965 -0.0045985362617392712 0 -0.0049999724650087876 -0.0042631082564401433 0 -0.0050084594790050707 -0.0045861746866371969 0 -0.0049996615226187971 -0.0042631930895103099 0 -0.0051198102009758287 -0.0043992774631785251 0 -0.0050982059325041041 -0.0047121589072482662 0 -0.0051198102009758287 -0.0043992774631785251 0 -0.0053740631526183131 -0.00444998735191091 0 -0.0051604300216683005 -0.0041534173012939503 0 -0.0051198102009758287 -0.0043992774631785251 0 -0.0053740631526183131 -0.00444998735191091 0 -0.0044702345529331498 -0.005728739181044034 0 -0.0046187411050333943 -0.0058645366703065759 0 -0.0047446677961217841 -0.0055912883334066788 0 -0.0050645200804094641 -0.0050992294242234414 0 -0.0050509771992526317 -0.0049819742805354951 0 -0.0054457557477274997 -0.0041027208633251681 0 -0.0051604300216683005 -0.0041534173012939503 0 -0.0053740631526183131 -0.00444998735191091 0 -0.0022270771977603667 -0.0050796379722400278 0 -0.0023070333186050109 -0.0051221585016643931 0 -0.0023228532796417197 -0.005070311122517367 0 -0.0022270771977603667 -0.0050796379722400278 0 -0.0022346151326226959 -0.0049505336705322027 0 -0.0023228532796417197 -0.005070311122517367 0 -0.0022270771977603667 -0.0050796379722400278 0 -0.0020870917699353248 -0.004952202828943447 0 -0.0022346151326226959 -0.0049505336705322027 0 -0.0022270771977603667 -0.0050796379722400278 0 -0.0021091307733289168 -0.0050585830057532652 0 -0.0020870917699353248 -0.004952202828943447 0 -0.0021091307733289168 -0.0050585830057532652 0 -0.0021288744739958927 -0.0052149245202747453 0 -0.0019796949180608489 -0.005048479765279318 0 -0.0022270771977603667 -0.0050796379722400278 0 -0.0021091307733289168 -0.0050585830057532652 0 -0.0021288744739958927 -0.0052149245202747453 0 -0.0021091307733289168 -0.0050585830057532652 0 -0.0019796949180608489 -0.005048479765279318 0 -0.0020870917699353248 -0.004952202828943447 0 -0.0022270771977603667 -0.0050796379722400278 0 -0.0021288744739958927 -0.0052149245202747453 0 -0.0023126478835245336 -0.0051612158840543126 0 -0.0022270771977603667 -0.0050796379722400278 0 -0.0023126478835245336 -0.0051612158840543126 0 -0.0023070333186050109 -0.0051221585016643931 0 -0.0027172358541812016 -0.0053625447821954633 0 -0.0026755648517848714 -0.0051663888367701255 0 -0.0023921188454885233 -0.0051977589744428782 0 -0.0021288744739958927 -0.0052149245202747453 0 -0.0023126478835245336 -0.0051612158840543126 0 -0.0023921188454885233 -0.0051977589744428782 0 -0.0024350311938601495 -0.0052879323492228906 0 -0.0023766266081645376 -0.005201747422030732 0 -0.0026755648517848714 -0.0051663888367701255 0 -0.0024641764355727452 -0.0049999743295441402 0 -0.0023921188454885233 -0.0051977589744428782 0 -0.0027413847714122153 -0.0049999942598547417 0 -0.0026755648517848714 -0.0051663888367701255 0 -0.0024641764355727452 -0.0049999743295441402 0 -0.0027413847714122153 -0.0049999942598547417 0 -0.0026755648517848714 -0.0051663888367701255 0 -0.0029370629548611223 -0.0051701694876862478 0 -0.0027172358541812016 -0.0053625447821954633 0 -0.0026755648517848714 -0.0051663888367701255 0 -0.0028670303336873798 -0.0053177133548079807 0 -0.0029370629548611223 -0.0051701694876862478 0 -0.0029984351648767258 -0.0053751776242984143 0 -0.0028670303336873798 -0.0053177133548079807 0 -0.0026755648517848714 -0.0051663888367701255 0 -0.0029370629548611223 -0.0051701694876862478 0 -0.0028670303336873798 -0.0053177133548079807 0 -0.0027413847714122153 -0.0049999942598547417 0 -0.0029370629548611223 -0.0051701694876862478 0 -0.0030184698359929435 -0.0049999991774363275 0 -0.0029370629548611223 -0.0051701694876862478 0 -0.0030184698359929435 -0.0049999991774363275 0 -0.0031365742229027024 -0.0051032656037269079 0 -0.0029370629548611223 -0.0051701694876862478 0 -0.003145973435036995 -0.005240945381219172 0 -0.0031365742229027024 -0.0051032656037269079 0 -0.0029370629548611223 -0.0051701694876862478 0 -0.0029984351648767258 -0.0053751776242984143 0 -0.003145973435036995 -0.005240945381219172 0 -0.0030135941185049581 -0.0053622460103624134 0 -0.0031081899600711592 -0.0052717378739931741 0 -0.0029984351648767258 -0.0053751776242984143 0 -0.003078436953133405 -0.005382487238321498 0 -0.0030859340870831387 -0.0052876956970708301 0 -0.0030335873749738631 -0.0054238465766475981 0 -0.0029984351648767258 -0.0053751776242984143 0 -0.003078436953133405 -0.005382487238321498 0 -0.0030335873749738631 -0.0054238465766475981 0 -0.0030850124836707851 -0.0054662533683606795 0 -0.003078436953133405 -0.005382487238321498 0 -0.0030335873749738631 -0.0054238465766475981 0 -0.0029984351648767258 -0.0053751776242984143 0 -0.0029683197486152844 -0.0054735327532857659 0 -0.0027172358541812016 -0.0053625447821954633 0 -0.0028670303336873798 -0.0053177133548079807 0 -0.0029683197486152844 -0.0054735327532857659 0 -0.0029984351648767258 -0.0053751776242984143 0 -0.0028670303336873798 -0.0053177133548079807 0 -0.0029683197486152844 -0.0054735327532857659 0 -0.0024350311938601495 -0.0052879323492228906 0 -0.0023127114040535448 -0.0052671578128070176 0 -0.0021288744739958927 -0.0052149245202747453 0 -0.0019796949180608489 -0.005048479765279318 0 -0.0018108705462063677 -0.0051155969758701616 0 -0.0019796949180608489 -0.005048479765279318 0 -0.0019188023562352915 -0.0049203842943225176 0 -0.0020870917699353248 -0.004952202828943447 0 -0.0019796949180608489 -0.005048479765279318 0 -0.0018406381908763392 -0.0049859432333279573 0 -0.0018108705462063677 -0.0051155969758701616 0 -0.0019796949180608489 -0.005048479765279318 0 -0.0018406381908763392 -0.0049859432333279573 0 -0.0019188023562352915 -0.0049203842943225176 0 -0.0018108705462063677 -0.0051155969758701616 0 -0.001468652220215844 -0.0049530703767550347 0 -0.0016912323589134603 -0.0049471111870639378 0 -0.0030335873749738631 -0.0054238465766475981 0 -0.0029683197486152844 -0.0054735327532857659 0 -0.0030850124836707851 -0.0054662533683606795 0 -0.0023127114040535448 -0.0052671578128070176 0 -0.0026430050442392754 -0.0053302931577020752 0 -0.0018406381908763392 -0.0049859432333279573 0 -0.0018108705462063677 -0.0051155969758701616 0 -0.0016912323589134603 -0.0049471111870639378 0 -0.0032885788630375411 -0.0054124085468080247 0 -0.0026430050442392754 -0.0053302931577020752 0 -0.0032812205190400671 -0.0055545835448103419 0 -0.0032858181240320444 -0.0053381882238459485 0 -0.0032613436200715153 -0.0055822886679192654 0 -0.0030850124836707851 -0.0054662533683606795 0 -0.0031607054725482338 -0.0053801677950065996 0 -0.0031406617028328673 -0.0055585424112588877 0 -0.0029683197486152844 -0.0054735327532857659 0 -0.0030850124836707851 -0.0054662533683606795 0 -0.0031406617028328673 -0.0055585424112588877 0 -0.0032812205190400671 -0.0055545835448103419 0 -0.0033677372029952447 -0.0054546662685846592 0 -0.0033779621956553786 -0.0055766507061264766 0 -0.0032812205190400671 -0.0055545835448103419 0 -0.0033677372029952447 -0.0054546662685846592 0 -0.0032858181240320444 -0.0053381882238459485 0 -0.0034411486907770278 -0.0055505315887075975 0 -0.0033677372029952447 -0.0054546662685846592 0 -0.0033779621956553786 -0.0055766507061264766 0 -0.0034411486907770278 -0.0055505315887075975 0 -0.0033677372029952447 -0.0054546662685846592 0 -0.0035073899970501357 -0.005461182800583257 0 -0.0033677372029952447 -0.0054546662685846592 0 -0.0032858181240320444 -0.0053381882238459485 0 -0.0034814136632369754 -0.0053310281175507016 0 -0.0032858181240320444 -0.0053381882238459485 0 -0.0034272603895207599 -0.0051973971384148528 0 -0.0034814136632369754 -0.0053310281175507016 0 -0.0030850124836707851 -0.0054662533683606795 0 -0.0031607054725482338 -0.0053801677950065996 0 -0.003078436953133405 -0.005382487238321498 0 -0.0031607054725482338 -0.0053801677950065996 0 -0.003078436953133405 -0.005382487238321498 0 -0.0030859340870831387 -0.0052876956970708301 0 -0.0032885788630375411 -0.0054124085468080247 0 -0.003256679616031672 -0.0051133621016962727 0 -0.0031607054725482338 -0.0053801677950065996 0 -0.0030859340870831387 -0.0052876956970708301 0 -0.003178635287375069 -0.0051940082866584539 0 -0.0031081899600711592 -0.0052717378739931741 0 -0.003256679616031672 -0.0051133621016962727 0 -0.0030184698359929435 -0.0049999991774363275 0 -0.0031365742229027024 -0.0051032656037269079 0 -0.0032955729045793095 -0.0049999981772108609 0 -0.003145973435036995 -0.005240945381219172 0 -0.0031365742229027024 -0.0051032656037269079 0 -0.0032849993212922847 -0.0051062738544675919 0 -0.0031365742229027024 -0.0051032656037269079 0 -0.0032955729045793095 -0.0049999981772108609 0 -0.0032849993212922847 -0.0051062738544675919 0 -0.0033921013367780913 -0.0049999797236510088 0 -0.00330620487542995 -0.0050919231852027715 0 -0.0034272603895207599 -0.0051973971384148528 0 -0.0032955548411297692 -0.0050000455428688053 0 -0.003256679616031672 -0.0051133621016962727 0 -0.0033920502736646753 -0.0049999998350943615 0 -0.0032955761169710233 -0.0050000000468209968 0 -0.0032865694267895473 -0.0051066116297896714 0 -0.0033920354262646454 -0.0050000126458837977 0 -0.003256679616031672 -0.0051133621016962727 0 -0.0032858181240320444 -0.0053381882238459485 0 -0.00330620487542995 -0.0050919231852027715 0 -0.0034272603895207599 -0.0051973971384148528 0 -0.0034272603895207599 -0.0051973971384148528 0 -0.0036402618173952761 -0.0051608863710635401 0 -0.0034814136632369754 -0.0053310281175507016 0 -0.0039915244251651251 -0.004999898962617092 0 -0.0033921013367780913 -0.0049999797236510088 0 -0.0036402618173952761 -0.0051608863710635401 0 -0.0033921013367780913 -0.0049999797236510088 0 -0.0034272603895207599 -0.0051973971384148528 0 -0.0036402618173952761 -0.0051608863710635401 0 -0.0038721459733391367 -0.0051217232663856175 0 -0.0036402618173952761 -0.0051608863710635401 0 -0.0037228018896210942 -0.0053709143994619245 0 -0.0036402618173952761 -0.0051608863710635401 0 -0.0037228018896210942 -0.0053709143994619245 0 -0.0034814136632369754 -0.0053310281175507016 0 -0.0037228018896210942 -0.0053709143994619245 0 -0.0034814136632369754 -0.0053310281175507016 0 -0.0035073899970501357 -0.005461182800583257 0 -0.0033677372029952447 -0.0054546662685846592 0 -0.0034814136632369754 -0.0053310281175507016 0 -0.0035073899970501357 -0.005461182800583257 0 -0.0034411486907770278 -0.0055505315887075975 0 -0.0035073899970501357 -0.005461182800583257 0 -0.0035214091257902841 -0.0055671339676672616 0 -0.0035073899970501357 -0.005461182800583257 0 -0.00358604305987569 -0.0055256672392791761 0 -0.0035214091257902841 -0.0055671339676672616 0 -0.0035431417852472146 -0.0055500269254763175 0 -0.0035132174331947139 -0.0055631629592749901 0 -0.00358604305987569 -0.0055256672392791761 0 -0.0035821814285706402 -0.0055915287330248684 0 -0.0035214091257902841 -0.0055671339676672616 0 -0.0037947226718122373 -0.0052886533985323121 0 -0.003816417644237183 -0.005448426261832103 0 -0.00365323851691894 -0.0055289148706144514 0 -0.0037228018896210942 -0.0053709143994619245 0 -0.00358604305987569 -0.0055256672392791761 0 -0.0035840211453080548 -0.005596137285660825 0 -0.0037754787514950616 -0.0053225329040306702 0 -0.0035132174331947139 -0.0055631629592749901 0 -0.0037228018896210942 -0.0053709143994619245 0 -0.0035073899970501357 -0.005461182800583257 0 -0.00358604305987569 -0.0055256672392791761 0 -0.0038127479643764017 -0.0056291052764980776 0 -0.00365323851691894 -0.0055289148706144514 0 -0.0036502229448272835 -0.0057294175679502386 0 -0.003816417644237183 -0.005448426261832103 0 -0.0038127479643764017 -0.0056291052764980776 0 -0.00365323851691894 -0.0055289148706144514 0 -0.0032602980038351987 -0.005439909213023719 0 -0.0032530352713284428 -0.0051086564274548038 0 -0.0033906921521763161 -0.005188072476888711 0 -0.0035132174331947139 -0.0055631629592749901 0 -0.0032345941248370313 -0.0050429229007144753 0 -0.0034411486907770278 -0.0055505315887075975 0 -0.0035214091257902841 -0.0055671339676672616 0 -0.0035076423461149397 -0.005721024545419286 0 -0.0035821814285706402 -0.0055915287330248684 0 -0.0035214091257902841 -0.0055671339676672616 0 -0.0035076423461149397 -0.005721024545419286 0 -0.0035132174331947139 -0.0055631629592749901 0 -0.0030396209598267335 -0.0051288885998515025 0 -0.0023990051611056983 -0.0046689095240403837 0 -0.0026426108961679438 -0.0048095066461064312 0 -0.0028648924110584962 -0.0043780524725334381 0 -0.0032345941248370313 -0.0050429229007144753 0 -0.0030396209598267335 -0.0051288885998515025 0 -0.0024057349496529453 -0.0048536920078672578 0 -0.0025214175960242683 -0.0046242321843363663 0 -0.0025900392973250575 -0.0048116156764043518 0 -0.0030396209598267335 -0.0051288885998515025 0 -0.0027173471056531912 -0.0044637719147920191 0 -0.0038753123413924773 -0.0058648821335277011 0 -0.0038127479643764017 -0.0056291052764980776 0 -0.0036502229448272835 -0.0057294175679502386 0 -0.0035561987531594176 -0.0051545006202703353 0 -0.0032345941248370313 -0.0050429229007144753 0 -0.0032027322509653134 -0.0044538474426651853 0 -0.0032536130197175763 -0.0044884930108274549 0 -0.0032479469743986089 -0.0044081810618151083 0 -0.0032027322509653134 -0.0044538474426651853 0 -0.0032002043485879258 -0.0044055718638374456 0 -0.0032479469743986089 -0.0044081810618151083 0 -0.0032345941248370313 -0.0050429229007144753 0 -0.0026561979781637921 -0.0036372583078782697 0 -0.0023538107102739378 -0.0024741578905922994 0 -0.0022815926399279676 -0.0024768174396257651 0 -0.0023267224143868706 -0.0025218643371471908 0 -0.0028209943743274114 -0.0034349629082476873 0 -0.0026561979781637921 -0.0036372583078782697 0 -0.0023058905520548217 -0.0037761733849757772 0 -0.0026288514956784286 -0.0034670943128762908 0 -0.0022931468413951595 -0.0030147366728758575 0 -0.002380675407835005 -0.0037968800783353528 0 -0.0027401435971250339 -0.0041305315305083601 0 -0.0029726786899887431 -0.0038607833058451608 0 -0.0023058905520548217 -0.0037761733849757772 0 -0.0026288514956784286 -0.0034670943128762908 0 -0.0029726786899887431 -0.0038607833058451608 0 -0.0026561979781637921 -0.0036372583078782697 0 -0.0028097487230887039 -0.0038591545396976477 0 -0.0023990051611056983 -0.0046689095240403837 0 -0.0027401435971250339 -0.0041305315305083601 0 -0.0028648924110584962 -0.0043780524725334381 0 -0.0023990051611056983 -0.0046689095240403837 0 -0.002380675407835005 -0.0037968800783353528 0 -0.0027401435971250339 -0.0041305315305083601 0 -0.0012782516797761702 -0.004364303358848208 0 -0.0014885459784552721 -0.0045296482844769349 0 -0.0013508801535344409 -0.0046520012858446451 0 -0.0023486076010684896 -0.0041890536828694241 0 -0.0019555166855149803 -0.0046588022638470459 0 -0.0025214175960242683 -0.0046242321843363663 0 -0.0026390416576783202 -0.0043926877754539503 0 -0.0027097852431141557 -0.0047338177064310209 0 -0.0027401435971250339 -0.0041305315305083601 0 -0.0028648924110584962 -0.0043780524725334381 0 -0.0030937119276524682 -0.0039461726527013526 0 -0.0027173471056531912 -0.0044637719147920191 0 -0.0023486076010684896 -0.0041890536828694241 0 -0.0027401435971250339 -0.0041305315305083601 0 -0.0030937119276524682 -0.0039461726527013526 0 -0.0029726786899887431 -0.0038607833058451608 0 -0.0030937119276524682 -0.0039461726527013526 0 -0.0029726786899887431 -0.0038607833058451608 0 -0.0029457894496331834 -0.0032193285465906625 0 -0.0023486076010684896 -0.0041890536828694241 0 -0.0022996291412074477 -0.0029084592240933927 0 -0.0026288514956784286 -0.0034670943128762908 0 -0.0029726786899887431 -0.0038607833058451608 0 -0.0029457894496331834 -0.0032193285465906625 0 -0.0022449166219265307 -0.0040154981087082379 0 -0.0024421591473926169 -0.0036407904967559147 0 -0.0020557746605407456 -0.0030779441823100416 0 -0.0012782516797761702 -0.004364303358848208 0 -0.0013382823044311223 -0.0042495442416324754 0 -0.0014015692850177747 -0.0043478021421962257 0 -0.0023486076010684896 -0.0041890536828694241 0 -0.0018327933712449205 -0.0036822936150040925 0 -0.0018327933712449205 -0.0036822936150040925 0 -0.0016652021890300234 -0.0041198932495079658 0 -0.0018327933712449205 -0.0036822936150040925 0 -0.0022996291412074477 -0.0029084592240933927 0 -0.0014849140270517692 -0.004199694187596509 0 -0.0015518993504341791 -0.0043456307027157767 0 -0.0016729095070647307 -0.0041809286462434342 0 -0.0013168645867276457 -0.0042384456438831746 0 -0.0014849140270517692 -0.004199694187596509 0 -0.0014015692850177747 -0.0043478021421962257 0 -0.0014849140270517692 -0.004199694187596509 0 -0.0014015692850177747 -0.0043478021421962257 0 -0.0015518993504341791 -0.0043456307027157767 0 -0.0015518993504341791 -0.0043456307027157767 0 -0.0014885459784552721 -0.0045296482844769349 0 -0.0017024418745774511 -0.0044362586136861767 0 -0.0014015692850177747 -0.0043478021421962257 0 -0.0015518993504341791 -0.0043456307027157767 0 -0.0014885459784552721 -0.0045296482844769349 0 -0.0012782516797761702 -0.004364303358848208 0 -0.0014015692850177747 -0.0043478021421962257 0 -0.0014885459784552721 -0.0045296482844769349 0 -0.0014885459784552721 -0.0045296482844769349 0 -0.0015311506078498137 -0.0047705630736062463 0 -0.001687107680781993 -0.0046561097582148879 0 -0.0014885459784552721 -0.0045296482844769349 0 -0.0015311506078498137 -0.0047705630736062463 0 -0.0013508801535344409 -0.0046520012858446451 0 -0.0027097852431141557 -0.0047338177064310209 0 -0.0025900392973250575 -0.0048116156764043518 0 -0.0027782460712508939 -0.0050706712060117291 0 -0.0025214175960242683 -0.0046242321843363663 0 -0.0027097852431141557 -0.0047338177064310209 0 -0.0025900392973250575 -0.0048116156764043518 0 -0.0019555166855149803 -0.0046588022638470459 0 -0.0027326227562833295 -0.005228189032635288 0 -0.0034411486907770278 -0.0055505315887075975 0 -0.0035076423461149397 -0.005721024545419286 0 -0.0033779621956553786 -0.0055766507061264766 0 -0.0024057349496529453 -0.0048536920078672578 0 -0.0025900392973250575 -0.0048116156764043518 0 -0.0027782460712508939 -0.0050706712060117291 0 -0.0030396209598267335 -0.0051288885998515025 0 -0.0027326227562833295 -0.005228189032635288 0 -0.0035076423461149397 -0.005721024545419286 0 -0.0033779621956553786 -0.0055766507061264766 0 -0.0032903291452529154 -0.0055991762258486791 0 -0.0032812205190400671 -0.0055545835448103419 0 -0.0033779621956553786 -0.0055766507061264766 0 -0.0032903291452529154 -0.0055991762258486791 0 -0.0028848256869741279 -0.0054685937256769472 0 -0.0027326227562833295 -0.005228189032635288 0 -0.0032812205190400671 -0.0055545835448103419 0 -0.0032872664707928158 -0.005596542230385821 0 -0.0032613436200715153 -0.0055822886679192654 0 -0.0015311506078498137 -0.0047705630736062463 0 -0.0013508801535344409 -0.0046520012858446451 0 -0.0014268785124319583 -0.0049306044767264906 0 -0.0015311506078498137 -0.0047705630736062463 0 -0.0014268785124319583 -0.0049306044767264906 0 -0.001468652220215844 -0.0049530703767550347 0 -0.001468652220215844 -0.0049530703767550347 0 -0.0015736154227522815 -0.0048865729572055436 0 -0.0016912323589134603 -0.0049471111870639378 0 -0.0027326227562833295 -0.005228189032635288 0 -0.0026430050442392754 -0.0053302931577020752 0 -0.0015311506078498137 -0.0047705630736062463 0 -0.001468652220215844 -0.0049530703767550347 0 -0.0015736154227522815 -0.0048865729572055436 0 -0.0015311506078498137 -0.0047705630736062463 0 -0.0015736154227522815 -0.0048865729572055436 0 -0.0016852957661839607 -0.0048201618392606097 0 -0.0016852957661839607 -0.0048201618392606097 0 -0.001793433124123472 -0.0048902724891720156 0 -0.0018263422768247397 -0.0047760217122226039 0 -0.0015736154227522815 -0.0048865729572055436 0 -0.0016852957661839607 -0.0048201618392606097 0 -0.0016912323589134603 -0.0049471111870639378 0 -0.0016852957661839607 -0.0048201618392606097 0 -0.0016912323589134603 -0.0049471111870639378 0 -0.001793433124123472 -0.0048902724891720156 0 -0.0018406381908763392 -0.0049859432333279573 0 -0.0016912323589134603 -0.0049471111870639378 0 -0.001793433124123472 -0.0048902724891720156 0 -0.0018406381908763392 -0.0049859432333279573 0 -0.001793433124123472 -0.0048902724891720156 0 -0.0019188023562352915 -0.0049203842943225176 0 -0.0019188023562352915 -0.0049203842943225176 0 -0.0018263422768247397 -0.0047760217122226039 0 -0.0019907657352259546 -0.0047668017494343282 0 -0.0019188023562352915 -0.0049203842943225176 0 -0.0019907657352259546 -0.0047668017494343282 0 -0.0020870917699353248 -0.004952202828943447 0 -0.001793433124123472 -0.0048902724891720156 0 -0.0019188023562352915 -0.0049203842943225176 0 -0.0018263422768247397 -0.0047760217122226039 0 -0.0018263422768247397 -0.0047760217122226039 0 -0.0019907657352259546 -0.0047668017494343282 0 -0.001880837501468642 -0.004595297527194106 0 -0.0019907657352259546 -0.0047668017494343282 0 -0.001880837501468642 -0.004595297527194106 0 -0.0020890081536426041 -0.004577547717840586 0 -0.0018263422768247397 -0.0047760217122226039 0 -0.001880837501468642 -0.004595297527194106 0 -0.001687107680781993 -0.0046561097582148879 0 -0.0016852957661839607 -0.0048201618392606097 0 -0.0018263422768247397 -0.0047760217122226039 0 -0.001687107680781993 -0.0046561097582148879 0 -0.0015311506078498137 -0.0047705630736062463 0 -0.0016852957661839607 -0.0048201618392606097 0 -0.001687107680781993 -0.0046561097582148879 0 -0.0014885459784552721 -0.0045296482844769349 0 -0.001687107680781993 -0.0046561097582148879 0 -0.0017024418745774511 -0.0044362586136861767 0 -0.001880837501468642 -0.004595297527194106 0 -0.001687107680781993 -0.0046561097582148879 0 -0.0017024418745774511 -0.0044362586136861767 0 -0.0017024418745774511 -0.0044362586136861767 0 -0.0016729095070647307 -0.0041809286462434342 0 -0.0019664331567351362 -0.0043599508355354885 0 -0.0015518993504341791 -0.0043456307027157767 0 -0.0017024418745774511 -0.0044362586136861767 0 -0.0016729095070647307 -0.0041809286462434342 0 -0.0016729095070647307 -0.0041809286462434342 0 -0.0019664331567351362 -0.0043599508355354885 0 -0.0018542011236917033 -0.0039316080971489135 0 -0.001880837501468642 -0.004595297527194106 0 -0.0017024418745774511 -0.0044362586136861767 0 -0.0019664331567351362 -0.0043599508355354885 0 -0.001880837501468642 -0.004595297527194106 0 -0.0019664331567351362 -0.0043599508355354885 0 -0.0020890081536426041 -0.004577547717840586 0 -0.0019664331567351362 -0.0043599508355354885 0 -0.0020890081536426041 -0.004577547717840586 0 -0.0022610672564959029 -0.0043458435890700812 0 -0.001975436038627524 -0.0043383059313314406 0 -0.0022003069291146094 -0.0041192978361247372 0 -0.0019664331567351362 -0.0043599508355354885 0 -0.0022610672564959029 -0.0043458435890700812 0 -0.0021363450206376166 -0.0041513045053731693 0 -0.0022610672564959029 -0.0043458435890700812 0 -0.0022821333212184455 -0.004614689313993503 0 -0.0024536542392861577 -0.004493836593940247 0 -0.0020890081536426041 -0.004577547717840586 0 -0.0022610672564959029 -0.0043458435890700812 0 -0.0022821333212184455 -0.004614689313993503 0 -0.0020890081536426041 -0.004577547717840586 0 -0.0022821333212184455 -0.004614689313993503 0 -0.0021795256053211104 -0.0047767685072029175 0 -0.0022821333212184455 -0.004614689313993503 0 -0.0021795256053211104 -0.0047767685072029175 0 -0.0024175973823552049 -0.0047765659178889861 0 -0.0019907657352259546 -0.0047668017494343282 0 -0.0020890081536426041 -0.004577547717840586 0 -0.0021795256053211104 -0.0047767685072029175 0 -0.0019907657352259546 -0.0047668017494343282 0 -0.0021795256053211104 -0.0047767685072029175 0 -0.0020870917699353248 -0.004952202828943447 0 -0.0021795256053211104 -0.0047767685072029175 0 -0.0020870917699353248 -0.004952202828943447 0 -0.0022346151326226959 -0.0049505336705322027 0 -0.0021795256053211104 -0.0047767685072029175 0 -0.0022346151326226959 -0.0049505336705322027 0 -0.0024175973823552049 -0.0047765659178889861 0 -0.002119212312670574 -0.0031043299857399739 0 -0.0020750400553750021 -0.0030342061910950745 0 -0.0021369944778019787 -0.0030362112436660353 0 -0.002119212312670574 -0.0031043299857399739 0 -0.0020570613322934664 -0.003109706999790028 0 -0.0020750400553750021 -0.0030342061910950745 0 -0.0021627161063183572 -0.0032125696546228314 0 -0.0020187948826205487 -0.0030518241396272753 0 -0.0020570613322934664 -0.003109706999790028 0 -0.0020050727077454045 -0.0030313219371619357 0 -0.0020750400553750021 -0.0030342061910950745 0 -0.0022599874271094929 -0.0033634202980218687 0 -0.0019832782494484153 -0.0033148203457227078 0 -0.0020050727077454045 -0.0030313219371619357 0 -0.0022599874271094929 -0.0033634202980218687 0 -0.0020940830412508496 -0.0036489183668622022 0 -0.0019832782494484153 -0.0033148203457227078 0 -0.0021627161063183572 -0.0032125696546228314 0 -0.0021814457173240489 -0.0036150288237380953 0 -0.002119212312670574 -0.0031043299857399739 0 -0.0020570613322934664 -0.003109706999790028 0 -0.0021123875246352401 -0.0032119025680980699 0 -0.0022599874271094929 -0.0033634202980218687 0 -0.0024762448760321746 -0.0037092984897573482 0 -0.0020940830412508496 -0.0036489183668622022 0 -0.0021814457173240489 -0.0036150288237380953 0 -0.0022003069291146094 -0.0041192978361247372 0 -0.0022610672564959029 -0.0043458435890700812 0 -0.0023301174282465893 -0.0041641733984693237 0 -0.0021363450206376166 -0.0041513045053731693 0 -0.0023123988257089524 -0.0039175914356541974 0 -0.0023301174282465893 -0.0041641733984693237 0 -0.0021363450206376166 -0.0041513045053731693 0 -0.0022265171795832275 -0.0040332478771956488 0 -0.0020940830412508496 -0.0036489183668622022 0 -0.0018542011236917033 -0.0039316080971489135 0 -0.0024762448760321746 -0.0037092984897573482 0 -0.0022265171795832275 -0.0040332478771956488 0 -0.0020940830412508496 -0.0036489183668622022 0 -0.0020940830412508496 -0.0036489183668622022 0 -0.0018542011236917033 -0.0039316080971489135 0 -0.0016510153572370022 -0.0034629582691272864 0 -0.0019664331567351362 -0.0043599508355354885 0 -0.0022265171795832275 -0.0040332478771956488 0 -0.0018542011236917033 -0.0039316080971489135 0 -0.0016729095070647307 -0.0041809286462434342 0 -0.0018542011236917033 -0.0039316080971489135 0 -0.0014740977343747543 -0.003862762689973865 0 -0.0018542011236917033 -0.0039316080971489135 0 -0.0016510153572370022 -0.0034629582691272864 0 -0.0014740977343747543 -0.003862762689973865 0 -0.0018289880272682616 -0.0030815225686683439 0 -0.0017580767509239807 -0.0031863082374312809 0 -0.0020940830412508496 -0.0036489183668622022 0 -0.0016510153572370022 -0.0034629582691272864 0 -0.0019832782494484153 -0.0033148203457227078 0 -0.0019832782494484153 -0.0033148203457227078 0 -0.0018544566326480485 -0.0030659514417042113 0 -0.0020050727077454045 -0.0030313219371619357 0 -0.0016510153572370022 -0.0034629582691272864 0 -0.0019832782494484153 -0.0033148203457227078 0 -0.0018544566326480485 -0.0030659514417042113 0 -0.0020050918366993613 -0.0026800449045357713 0 -0.0020180586704416927 -0.0027708251641383641 0 -0.0019692297723310345 -0.0027702208297864803 0 -0.0018289880272682616 -0.0030815225686683439 0 -0.0019167051693008707 -0.0029180557443055479 0 -0.0020050918366993613 -0.0026800449045357713 0 -0.0020551310774044283 -0.0027088424755647446 0 -0.0020180586704416927 -0.0027708251641383641 0 -0.0021088649860686371 -0.0026810704744507203 0 -0.0021676830724037571 -0.002726052008476696 0 -0.0020773809972389175 -0.0027562979533573705 0 -0.0020551310774044283 -0.0027088424755647446 0 -0.0021088649860686371 -0.0026810704744507203 0 -0.0020773809972389175 -0.0027562979533573705 0 -0.0021088649860686371 -0.0026810704744507203 0 -0.0020728872400450483 -0.0026512059801424206 0 -0.0021150501189849172 -0.0026370536398395965 0 -0.0020551310774044283 -0.0027088424755647446 0 -0.0021088649860686371 -0.0026810704744507203 0 -0.0020728872400450483 -0.0026512059801424206 0 -0.0021088649860686371 -0.0026810704744507203 0 -0.0021150501189849172 -0.0026370536398395965 0 -0.0021473993467432855 -0.002648755732718572 0 -0.0020050918366993613 -0.0026800449045357713 0 -0.0020551310774044283 -0.0027088424755647446 0 -0.0020728872400450483 -0.0026512059801424206 0 -0.0020050918366993613 -0.0026800449045357713 0 -0.0020728872400450483 -0.0026512059801424206 0 -0.0020585781593086953 -0.0026121935696231586 0 -0.0020728872400450483 -0.0026512059801424206 0 -0.0020585781593086953 -0.0026121935696231586 0 -0.0020938402711360932 -0.0026096791105961218 0 -0.0013168645867276457 -0.0042384456438831746 0 -0.0014849140270517692 -0.004199694187596509 0 -0.0014740977343747543 -0.003862762689973865 0 -0.0014849140270517692 -0.004199694187596509 0 -0.0016729095070647307 -0.0041809286462434342 0 -0.0014740977343747543 -0.003862762689973865 0 -0.0018327933712449205 -0.0036822936150040925 0 -0.0017580767509239807 -0.0031863082374312809 0 -0.0020905267679218295 -0.002584136230403274 0 -0.0020585781593086953 -0.0026121935696231586 0 -0.0020938402711360932 -0.0026096791105961218 0 -0.0021054150348283176 -0.0025966956996838235 0 -0.0021258093991171202 -0.0026151224287786997 0 -0.0020938402711360932 -0.0026096791105961218 0 -0.0022996291412074477 -0.0029084592240933927 0 -0.0021043458964880614 -0.0025044037182801069 0 -0.0020905267679218295 -0.002584136230403274 0 -0.0021054150348283176 -0.0025966956996838235 0 -0.0020938402711360932 -0.0026096791105961218 0 -0.0021258093991171202 -0.0026151224287786997 0 -0.0020938402711360932 -0.0026096791105961218 0 -0.0021150501189849172 -0.0026370536398395965 0 -0.0020728872400450483 -0.0026512059801424206 0 -0.0020938402711360932 -0.0026096791105961218 0 -0.0021150501189849172 -0.0026370536398395965 0 -0.0021258093991171202 -0.0026151224287786997 0 -0.0021449626665993034 -0.0026270260390582065 0 -0.0021442361218780813 -0.0026091884475398178 0 -0.0021221021284539461 -0.0025843916416461734 0 -0.0021258093991171202 -0.0026151224287786997 0 -0.0021442361218780813 -0.0026091884475398178 0 -0.0021258093991171202 -0.0026151224287786997 0 -0.0021150501189849172 -0.0026370536398395965 0 -0.0021449626665993034 -0.0026270260390582065 0 -0.0026107514861930456 -0.00273970126087268 0 -0.0022931468413951595 -0.0030147366728758575 0 -0.0022814150656815415 -0.002266925347333245 0 -0.0021449626665993034 -0.0026270260390582065 0 -0.0021442361218780813 -0.0026091884475398178 0 -0.002192353114414946 -0.0026315868672997611 0 -0.0023843583542516381 -0.0026788508104355238 0 -0.0022652736247643305 -0.0025472135443414309 0 -0.0029457894496331834 -0.0032193285465906625 0 -0.0026107514861930456 -0.00273970126087268 0 -0.0022931468413951595 -0.0030147366728758575 0 -0.0026288514956784286 -0.0034670943128762908 0 -0.0029457894496331834 -0.0032193285465906625 0 -0.0022931468413951595 -0.0030147366728758575 0 -0.0022996291412074477 -0.0029084592240933927 0 -0.0023843583542516381 -0.0026788508104355238 0 -0.0022815926399279676 -0.0024768174396257651 0 -0.00227533395298773 -0.0025452348251059553 0 -0.0023267224143868706 -0.0025218643371471908 0 -0.0026561979781637921 -0.0036372583078782697 0 -0.0022534768054311301 -0.0026579430208615476 0 -0.00227533395298773 -0.0025452348251059553 0 -0.0023267224143868706 -0.0025218643371471908 0 -0.0023338580613495312 -0.0025809508068822479 0 -0.00227533395298773 -0.0025452348251059553 0 -0.002263258381512635 -0.0026215846484526238 0 -0.0023338580613495312 -0.0025809508068822479 0 -0.0022534768054311301 -0.0026579430208615476 0 -0.0022652736247643305 -0.0025472135443414309 0 -0.0023079361490426355 -0.002629647971677751 0 -0.002263258381512635 -0.0026215846484526238 0 -0.0022749717434685972 -0.0026823535060851908 0 -0.0023079361490426355 -0.002629647971677751 0 -0.002263258381512635 -0.0026215846484526238 0 -0.0023338580613495312 -0.0025809508068822479 0 -0.0022652736247643305 -0.0025472135443414309 0 -0.0022761516916425845 -0.0027008263489516735 0 -0.002192353114414946 -0.0026315868672997611 0 -0.0021741319286795726 -0.0026758355839984894 0 -0.0022749717434685972 -0.0026823535060851908 0 -0.0021449626665993034 -0.0026270260390582065 0 -0.002192353114414946 -0.0026315868672997611 0 -0.0021473993467432855 -0.002648755732718572 0 -0.0021088649860686371 -0.0026810704744507203 0 -0.0021473993467432855 -0.002648755732718572 0 -0.0021741319286795726 -0.0026758355839984894 0 -0.0021150501189849172 -0.0026370536398395965 0 -0.0021449626665993034 -0.0026270260390582065 0 -0.0021473993467432855 -0.002648755732718572 0 -0.002192353114414946 -0.0026315868672997611 0 -0.0021473993467432855 -0.002648755732718572 0 -0.0021741319286795726 -0.0026758355839984894 0 -0.0021088649860686371 -0.0026810704744507203 0 -0.0021741319286795726 -0.0026758355839984894 0 -0.0021676830724037571 -0.002726052008476696 0 -0.0022749717434685972 -0.0026823535060851908 0 -0.0022474589590604794 -0.0027532480442581742 0 -0.0021676830724037571 -0.002726052008476696 0 -0.0021741319286795726 -0.0026758355839984894 0 -0.0022749717434685972 -0.0026823535060851908 0 -0.0021676830724037571 -0.002726052008476696 0 -0.0022474589590604794 -0.0027532480442581742 0 -0.0021676830724037571 -0.002726052008476696 0 -0.0021529445557713933 -0.0027884327148357097 0 -0.0021676830724037571 -0.002726052008476696 0 -0.0021529445557713933 -0.0027884327148357097 0 -0.0020773809972389175 -0.0027562979533573705 0 -0.0022474589590604794 -0.0027532480442581742 0 -0.0021529445557713933 -0.0027884327148357097 0 -0.0022942258650644068 -0.0028046017152644396 0 -0.0021529445557713933 -0.0027884327148357097 0 -0.0022007486140813671 -0.0028530460311639414 0 -0.0022942258650644068 -0.0028046017152644396 0 -0.0022007486140813671 -0.0028530460311639414 0 -0.0022942258650644068 -0.0028046017152644396 0 -0.002317557018666273 -0.0028587598185741427 0 -0.0022007486140813671 -0.0028530460311639414 0 -0.0021307567475462429 -0.0029226404345581596 0 -0.0022414315222985086 -0.0029754033821868474 0 -0.0022007486140813671 -0.0028530460311639414 0 -0.002317557018666273 -0.0028587598185741427 0 -0.0022414315222985086 -0.0029754033821868474 0 -0.0022007486140813671 -0.0028530460311639414 0 -0.0021307567475462429 -0.0029226404345581596 0 -0.0020766388392636252 -0.0028485869631488386 0 -0.0021307567475462429 -0.0029226404345581596 0 -0.0020766388392636252 -0.0028485869631488386 0 -0.0020233412500949405 -0.0029282223389568486 0 -0.0021529445557713933 -0.0027884327148357097 0 -0.0022007486140813671 -0.0028530460311639414 0 -0.0020766388392636252 -0.0028485869631488386 0 -0.0020766388392636252 -0.0028485869631488386 0 -0.0019644045873986513 -0.0028507213094977786 0 -0.0020236101868749043 -0.0028118938669227972 0 -0.0021529445557713933 -0.0027884327148357097 0 -0.0020766388392636252 -0.0028485869631488386 0 -0.0020236101868749043 -0.0028118938669227972 0 -0.0020233412500949405 -0.0029282223389568486 0 -0.0019644045873986513 -0.0028507213094977786 0 -0.0019371448805238472 -0.0029667754730025599 0 -0.0020766388392636252 -0.0028485869631488386 0 -0.0020233412500949405 -0.0029282223389568486 0 -0.0019644045873986513 -0.0028507213094977786 0 -0.001953797334126739 -0.0028511271298461214 0 -0.0019103585672094869 -0.0028695266826751979 0 -0.0019644045873986513 -0.0028507213094977786 0 -0.0020236101868749043 -0.0028118938669227972 0 -0.0019823202120656008 -0.002833442101355253 0 -0.0020236101868749043 -0.0028118938669227972 0 -0.0019936818176144043 -0.0028193147026269721 0 -0.0019823202120656008 -0.002833442101355253 0 -0.0020236101868749043 -0.0028118938669227972 0 -0.0020180586704416927 -0.0027708251641383641 0 -0.0019936818176144043 -0.0028193147026269721 0 -0.0021529445557713933 -0.0027884327148357097 0 -0.0020236101868749043 -0.0028118938669227972 0 -0.0020773809972389175 -0.0027562979533573705 0 -0.0020236101868749043 -0.0028118938669227972 0 -0.0020773809972389175 -0.0027562979533573705 0 -0.0020180586704416927 -0.0027708251641383641 0 -0.0020551310774044283 -0.0027088424755647446 0 -0.0020773809972389175 -0.0027562979533573705 0 -0.0020180586704416927 -0.0027708251641383641 0 -0.0020180586704416927 -0.0027708251641383641 0 -0.0019692297723310345 -0.0027702208297864803 0 -0.0019881645047239828 -0.0028188226043273823 0 -0.0018544566326480485 -0.0030659514417042113 0 -0.0019996063968532878 -0.0028574671063398959 0 -0.0020050727077454045 -0.0030313219371619357 0 -0.0019692297723310345 -0.0027702208297864803 0 -0.0019881645047239828 -0.0028188226043273823 0 -0.0019996063968532878 -0.0028574671063398959 0 -0.0019167051693008707 -0.0029180557443055479 0 -0.0019901233083317667 -0.002855870731586121 0 -0.0019881645047239828 -0.0028188226043273823 0 -0.0019890346798196157 -0.0028332690672078259 0 -0.0019996063968532878 -0.0028574671063398959 0 -0.0020180586704416927 -0.0027708251641383641 0 -0.0019881645047239828 -0.0028188226043273823 0 -0.0019936818176144043 -0.0028193147026269721 0 -0.0019881645047239828 -0.0028188226043273823 0 -0.0019936818176144043 -0.0028193147026269721 0 -0.0019890346798196157 -0.0028332690672078259 0 -0.0019823202120656008 -0.002833442101355253 0 -0.001984237357402204 -0.0028032129901772907 0 -0.0019890346798196157 -0.0028332690672078259 0 -0.0019936818176144043 -0.0028193147026269721 0 -0.0019823202120656008 -0.002833442101355253 0 -0.0019890346798196157 -0.0028332690672078259 0 -0.0019644045873986513 -0.0028507213094977786 0 -0.0019823202120656008 -0.002833442101355253 0 -0.001984237357402204 -0.0028032129901772907 0 -0.0019644045873986513 -0.0028507213094977786 0 -0.001984237357402204 -0.0028032129901772907 0 -0.0019654760678645975 -0.0027626621029178751 0 -0.001984237357402204 -0.0028032129901772907 0 -0.0020248019234640835 -0.0028150619398847289 0 -0.0020442098364653119 -0.0027423838399236182 0 -0.0019890346798196157 -0.0028332690672078259 0 -0.0020248019234640835 -0.0028150619398847289 0 -0.0019996063968532878 -0.0028574671063398959 0 -0.001984237357402204 -0.0028032129901772907 0 -0.0019890346798196157 -0.0028332690672078259 0 -0.0020248019234640835 -0.0028150619398847289 0 -0.0020248019234640835 -0.0028150619398847289 0 -0.0021012908027543422 -0.0028203335745272799 0 -0.0020712011979717709 -0.0028731690402168828 0 -0.0020248019234640835 -0.0028150619398847289 0 -0.0020712011979717709 -0.0028731690402168828 0 -0.0019996063968532878 -0.0028574671063398959 0 -0.0020248019234640835 -0.0028150619398847289 0 -0.0021012908027543422 -0.0028203335745272799 0 -0.0020442098364653119 -0.0027423838399236182 0 -0.0021012908027543422 -0.0028203335745272799 0 -0.0020442098364653119 -0.0027423838399236182 0 -0.0021334682836736279 -0.0027568102788494806 0 -0.0021012908027543422 -0.0028203335745272799 0 -0.0020712011979717709 -0.0028731690402168828 0 -0.0021479205092576653 -0.0029094414276944836 0 -0.0021031600026872681 -0.0029530239993676884 0 -0.0020712011979717709 -0.0028731690402168828 0 -0.0021479205092576653 -0.0029094414276944836 0 -0.0021031600026872681 -0.0029530239993676884 0 -0.0020712011979717709 -0.0028731690402168828 0 -0.002056290099913767 -0.0029500758300262803 0 -0.0020712011979717709 -0.0028731690402168828 0 -0.0019996063968532878 -0.0028574671063398959 0 -0.002056290099913767 -0.0029500758300262803 0 -0.0019996063968532878 -0.0028574671063398959 0 -0.002056290099913767 -0.0029500758300262803 0 -0.0020050727077454045 -0.0030313219371619357 0 -0.002056290099913767 -0.0029500758300262803 0 -0.0020050727077454045 -0.0030313219371619357 0 -0.0020750400553750021 -0.0030342061910950745 0 -0.0021031600026872681 -0.0029530239993676884 0 -0.0020750400553750021 -0.0030342061910950745 0 -0.0021369944778019787 -0.0030362112436660353 0 -0.0021031600026872681 -0.0029530239993676884 0 -0.002056290099913767 -0.0029500758300262803 0 -0.0020750400553750021 -0.0030342061910950745 0 -0.0053926433409110614 -0.0033411025389111105 0 -0.0052479856813054592 -0.0032705246787719951 0 -0.0052268720244791483 -0.0034421114611845379 0 -0.0045822392433756227 -0.0032819099480367155 0 -0.0042979990668179794 -0.0031195643866961491 0 -0.0042375344082294462 -0.0034638287538770289 0 -0.0051534571290405692 -0.0032915356067851516 0 -0.0038751504115466903 -0.002967985912427511 0 -0.0055590417803237724 -0.0032402595481466614 0 -0.0055954355115825048 -0.0030537471064391243 0 -0.0053954429507906809 -0.0031030622006233419 0 -0.0053926433409110614 -0.0033411025389111105 0 -0.0055590417803237724 -0.0032402595481466614 0 -0.0053954429507906809 -0.0031030622006233419 0 -0.0053926433409110614 -0.0033411025389111105 0 -0.0052479856813054592 -0.0032705246787719951 0 -0.0053954429507906809 -0.0031030622006233419 0 -0.0052479856813054592 -0.0032705246787719951 0 -0.0053954429507906809 -0.0031030622006233419 0 -0.0052334887044408309 -0.0030988409250943746 0 -0.0051220984455583891 -0.0032353663289429674 0 -0.0052479856813054592 -0.0032705246787719951 0 -0.0052334887044408309 -0.0030988409250943746 0 -0.0051220984455583891 -0.0032353663289429674 0 -0.0049999887495106084 -0.0030668339463276067 0 -0.0052334887044408309 -0.0030988409250943746 0 -0.0051220984455583891 -0.0032353663289429674 0 -0.004999990797485622 -0.0033408264979276404 0 -0.0049999887495106084 -0.0030668339463276067 0 -0.0051220984455583891 -0.0032353663289429674 0 -0.004999990797485622 -0.0033408264979276404 0 -0.0051157454049526162 -0.0033846055449922026 0 -0.0049999993085565403 -0.0033409110826171768 0 -0.0051320568314532121 -0.003419022176983037 0 -0.0049999993384568318 -0.0034925817774054493 0 -0.005000019582094185 -0.0033409130777516658 0 -0.0051468836807245988 -0.0034170449237369547 0 -0.0051157454049526162 -0.0033846055449922026 0 -0.0052479856813054592 -0.0032705246787719951 0 -0.0052268720244791483 -0.0034421114611845379 0 -0.0051220984455583891 -0.0032353663289429674 0 -0.0051157454049526162 -0.0033846055449922026 0 -0.0052479856813054592 -0.0032705246787719951 0 -0.0051320568314532121 -0.003419022176983037 0 -0.0052615055709740646 -0.003494360413758087 0 -0.0051319125700992072 -0.0035683021274894849 0 -0.0051468836807245988 -0.0034170449237369547 0 -0.0050684529586613397 -0.0033822310508196569 0 -0.0050684529586613397 -0.0033822310508196569 0 -0.005069212265522505 -0.0036004067729542648 0 -0.0050313238316246752 -0.0036500010672051854 0 -0.0050243911852847272 -0.0036414286658026439 0 -0.0050333598354272936 -0.0036479122623551585 0 -0.0051320568314532121 -0.003419022176983037 0 -0.0049999993384568318 -0.0034925817774054493 0 -0.0051319125700992072 -0.0035683021274894849 0 -0.0049999993384568318 -0.0034925817774054493 0 -0.0051319125700992072 -0.0035683021274894849 0 -0.0049999990477725522 -0.0036442530483945801 0 -0.004999830197849533 -0.0036921988960145953 0 -0.0052237161309073221 -0.0036159576572494666 0 -0.0050243911852847272 -0.0036414286658026439 0 -0.0050001237356785654 -0.0036917802428624758 0 -0.0050333598354272936 -0.0036479122623551585 0 -0.0050243911852847272 -0.0036414286658026439 0 -0.0049998660432719472 -0.003644615243723291 0 -0.0050001237356785654 -0.0036917802428624758 0 -0.005069212265522505 -0.0036004067729542648 0 -0.0050000259954788998 -0.0036442429283607748 0 -0.0050001237356785654 -0.0036917802428624758 0 -0.0050347306009571871 -0.0036478014835424608 0 -0.0050333598354272936 -0.0036479122623551585 0 -0.0047300771035980339 -0.004442964309852037 0 -0.0052237161309073221 -0.0036159576572494666 0 -0.004986940824526576 -0.003632709624256809 0 -0.0050347306009571871 -0.0036478014835424608 0 -0.0050155306518684245 -0.0036546919939937292 0 -0.0050347306009571871 -0.0036478014835424608 0 -0.0050333598354272936 -0.0036479122623551585 0 -0.0050155306518684245 -0.0036546919939937292 0 -0.0051534571290405692 -0.0032915356067851516 0 -0.0050684529586613397 -0.0033822310508196569 0 -0.0050684529586613397 -0.0033822310508196569 0 -0.0049194104820130822 -0.0033382440104146602 0 -0.0045822392433756227 -0.0032819099480367155 0 -0.004928412165389493 -0.0030967106040814167 0 -0.0046423503997430181 -0.0029332601996115092 0 -0.0050313238316246752 -0.0036500010672051854 0 -0.0050333598354272936 -0.0036479122623551585 0 -0.0050155306518684245 -0.0036546919939937292 0 -0.0040001598043652329 -0.0030842464945924101 0 -0.0033936036138108327 -0.0028185670902493905 0 -0.0046423503997430181 -0.0029332601996115092 0 -0.0043571685876675334 -0.0027728174062183531 0 -0.0042979990668179794 -0.0031195643866961491 0 -0.0045822392433756227 -0.0032819099480367155 0 -0.0046423503997430181 -0.0029332601996115092 0 -0.0042979990668179794 -0.0031195643866961491 0 -0.0049194104820130822 -0.0033382440104146602 0 -0.0040001598043652329 -0.0030842464945924101 0 -0.004986940824526576 -0.003632709624256809 0 -0.0050155306518684245 -0.0036546919939937292 0 -0.0049835948415370502 -0.0036427026681836719 0 -0.0047300771035980339 -0.004442964309852037 0 -0.0040001598043652329 -0.0030842464945924101 0 -0.0036738832683997215 -0.0038865799065903772 0 -0.0042387258369864901 -0.0039496650710168554 0 -0.004198616877938946 -0.0041794225886666054 0 -0.0025437753286591679 -0.0024835868514157446 0 -0.0026201199351197618 -0.0025230777729596502 0 -0.0025068083824327267 -0.002549543791112511 0 -0.0033944043002926564 -0.0042308887418291115 0 -0.0040001598043652329 -0.0030842464945924101 0 -0.0024437551254067394 -0.0024740880382437074 0 -0.0025437753286591679 -0.0024835868514157446 0 -0.0025068083824327267 -0.002549543791112511 0 -0.0025068083824327267 -0.002549543791112511 0 -0.0024254428751043287 -0.0026005834353319641 0 -0.0025103614781308067 -0.0026258492195954746 0 -0.0025068083824327267 -0.002549543791112511 0 -0.0025996602281925831 -0.0026009995155546286 0 -0.0025103614781308067 -0.0026258492195954746 0 -0.0026201199351197618 -0.0025230777729596502 0 -0.0025068083824327267 -0.002549543791112511 0 -0.0025996602281925831 -0.0026009995155546286 0 -0.0023267224143868706 -0.0025218643371471908 0 -0.0024014683269842031 -0.00253762974626839 0 -0.0023338580613495312 -0.0025809508068822479 0 -0.0023538107102739378 -0.0024741578905922994 0 -0.0023267224143868706 -0.0025218643371471908 0 -0.0024014683269842031 -0.00253762974626839 0 -0.0024437551254067394 -0.0024740880382437074 0 -0.0025068083824327267 -0.002549543791112511 0 -0.0024014683269842031 -0.00253762974626839 0 -0.0025068083824327267 -0.002549543791112511 0 -0.0024014683269842031 -0.00253762974626839 0 -0.0024254428751043287 -0.0026005834353319641 0 -0.0024254428751043287 -0.0026005834353319641 0 -0.0023338580613495312 -0.0025809508068822479 0 -0.0023636183981253379 -0.0026465374072194444 0 -0.0024014683269842031 -0.00253762974626839 0 -0.0024254428751043287 -0.0026005834353319641 0 -0.0023338580613495312 -0.0025809508068822479 0 -0.0023079361490426355 -0.002629647971677751 0 -0.0022749717434685972 -0.0026823535060851908 0 -0.0023636183981253379 -0.0026465374072194444 0 -0.0023079361490426355 -0.002629647971677751 0 -0.0023338580613495312 -0.0025809508068822479 0 -0.0023636183981253379 -0.0026465374072194444 0 -0.0024254428751043287 -0.0026005834353319641 0 -0.0023636183981253379 -0.0026465374072194444 0 -0.0024512744295799955 -0.0026651792538402216 0 -0.0023636183981253379 -0.0026465374072194444 0 -0.0024512744295799955 -0.0026651792538402216 0 -0.002395018132262523 -0.002737128011342644 0 -0.0024512744295799955 -0.0026651792538402216 0 -0.0025024245428137293 -0.0027186027696638774 0 -0.002395018132262523 -0.002737128011342644 0 -0.0022749717434685972 -0.0026823535060851908 0 -0.0023636183981253379 -0.0026465374072194444 0 -0.002395018132262523 -0.002737128011342644 0 -0.0025996602281925831 -0.0026009995155546286 0 -0.0025545344141384369 -0.0026550060107313474 0 -0.0025873697286762699 -0.0026783752335864095 0 -0.0033936036138108327 -0.0028185670902493905 0 -0.0038751504115466903 -0.002967985912427511 0 -0.0025996602281925831 -0.0026009995155546286 0 -0.0025545344141384369 -0.0026550060107313474 0 -0.0025103614781308067 -0.0026258492195954746 0 -0.0024254428751043287 -0.0026005834353319641 0 -0.0024512744295799955 -0.0026651792538402216 0 -0.0025103614781308067 -0.0026258492195954746 0 -0.0024512744295799955 -0.0026651792538402216 0 -0.0025103614781308067 -0.0026258492195954746 0 -0.0025158949919255485 -0.0026715976662219599 0 -0.0025545344141384369 -0.0026550060107313474 0 -0.0025103614781308067 -0.0026258492195954746 0 -0.0025158949919255485 -0.0026715976662219599 0 -0.0025158949919255485 -0.0026715976662219599 0 -0.0025024245428137293 -0.0027186027696638774 0 -0.0025605552260490132 -0.0026943404414339813 0 -0.0024512744295799955 -0.0026651792538402216 0 -0.0025158949919255485 -0.0026715976662219599 0 -0.0025024245428137293 -0.0027186027696638774 0 -0.0038751504115466903 -0.002967985912427511 0 -0.0041124262133998583 -0.002911308441895008 0 -0.0025605552260490132 -0.0026943404414339813 0 -0.0026148514642514269 -0.0026686166032812656 0 -0.0025995571195666129 -0.0027866239855241005 0 -0.0025024245428137293 -0.0027186027696638774 0 -0.0025605552260490132 -0.0026943404414339813 0 -0.0025995571195666129 -0.0027866239855241005 0 -0.0027279298972265461 -0.0030570552611571193 0 -0.0038751504115466903 -0.002967985912427511 0 -0.0025545344141384369 -0.0026550060107313474 0 -0.0025158949919255485 -0.0026715976662219599 0 -0.0025605552260490132 -0.0026943404414339813 0 -0.0025545344141384369 -0.0026550060107313474 0 -0.0025605552260490132 -0.0026943404414339813 0 -0.0025873697286762699 -0.0026783752335864095 0 -0.0025024245428137293 -0.0027186027696638774 0 -0.0025995571195666129 -0.0027866239855241005 0 -0.0024997939452563395 -0.0027816949583786416 0 -0.0025995571195666129 -0.0027866239855241005 0 -0.0024997939452563395 -0.0027816949583786416 0 -0.0025333604164960439 -0.0028442549152417353 0 -0.0025024245428137293 -0.0027186027696638774 0 -0.0024997939452563395 -0.0027816949583786416 0 -0.002395018132262523 -0.002737128011342644 0 -0.0024997939452563395 -0.0027816949583786416 0 -0.0025333604164960439 -0.0028442549152417353 0 -0.0024607114880406348 -0.0028657213889065605 0 -0.0025333604164960439 -0.0028442549152417353 0 -0.0025283878785168912 -0.0029001469608249167 0 -0.0025921932377718712 -0.002912157782209122 0 -0.0024068849490305761 -0.0027808389004717335 0 -0.0024082015098451032 -0.0027989380905724093 0 -0.0024395548621443668 -0.0028318635072908656 0 -0.0024239896829831224 -0.0028365592654281176 0 -0.0027314930604126417 -0.0027392204849684826 0 -0.0024607114880406348 -0.0028657213889065605 0 -0.0025283878785168912 -0.0029001469608249167 0 -0.0025282580396038161 -0.0029798488462068336 0 -0.0025333604164960439 -0.0028442549152417353 0 -0.0024607114880406348 -0.0028657213889065605 0 -0.0025283878785168912 -0.0029001469608249167 0 -0.0025283878785168912 -0.0029001469608249167 0 -0.0025921932377718712 -0.002912157782209122 0 -0.0025282580396038161 -0.0029798488462068336 0 -0.005638088193930791 -0.0028454983756410843 0 -0.0055271782626177051 -0.0027143171593356028 0 -0.0054973697425237398 -0.0029115849041002942 0 -0.0041124262133998583 -0.002911308441895008 0 -0.0041230756557416124 -0.0028896556228495754 0 -0.0025995571195666129 -0.0027866239855241005 0 -0.0025333604164960439 -0.0028442549152417353 0 -0.0025921932377718712 -0.002912157782209122 0 -0.0055954355115825048 -0.0030537471064391243 0 -0.005638088193930791 -0.0028454983756410843 0 -0.0054973697425237398 -0.0029115849041002942 0 -0.0022749717434685972 -0.0026823535060851908 0 -0.0023365792328780958 -0.0027631531287484546 0 -0.002395018132262523 -0.002737128011342644 0 -0.0022749717434685972 -0.0026823535060851908 0 -0.0022474589590604794 -0.0027532480442581742 0 -0.0023365792328780958 -0.0027631531287484546 0 -0.0024997939452563395 -0.0027816949583786416 0 -0.0024607114880406348 -0.0028657213889065605 0 -0.002395018132262523 -0.002737128011342644 0 -0.0024239896829831224 -0.0028365592654281176 0 -0.0023978454245205398 -0.0027396202771442228 0 -0.0024068849490305761 -0.0027808389004717335 0 -0.0023365792328780958 -0.0027631531287484546 0 -0.002395018132262523 -0.002737128011342644 0 -0.0024068849490305761 -0.0027808389004717335 0 -0.0023365792328780958 -0.0027631531287484546 0 -0.002366054093953848 -0.0027939708895183884 0 -0.0024068849490305761 -0.0027808389004717335 0 -0.0024082015098451032 -0.0027989380905724093 0 -0.002366054093953848 -0.0027939708895183884 0 -0.0024082015098451032 -0.0027989380905724093 0 -0.002366054093953848 -0.0027939708895183884 0 -0.0023721519713562223 -0.0028332108905836746 0 -0.002366054093953848 -0.0027939708895183884 0 -0.0022942258650644068 -0.0028046017152644396 0 -0.0023721519713562223 -0.0028332108905836746 0 -0.0022474589590604794 -0.0027532480442581742 0 -0.0023365792328780958 -0.0027631531287484546 0 -0.0022942258650644068 -0.0028046017152644396 0 -0.0023365792328780958 -0.0027631531287484546 0 -0.002366054093953848 -0.0027939708895183884 0 -0.0022942258650644068 -0.0028046017152644396 0 -0.0022942258650644068 -0.0028046017152644396 0 -0.0023721519713562223 -0.0028332108905836746 0 -0.002317557018666273 -0.0028587598185741427 0 -0.0023721519713562223 -0.0028332108905836746 0 -0.0023891845383429947 -0.0028837137218538193 0 -0.002317557018666273 -0.0028587598185741427 0 -0.0024082015098451032 -0.0027989380905724093 0 -0.0023721519713562223 -0.0028332108905836746 0 -0.0024055622425044232 -0.0028373378364209244 0 -0.0023721519713562223 -0.0028332108905836746 0 -0.0024055622425044232 -0.0028373378364209244 0 -0.0023891845383429947 -0.0028837137218538193 0 -0.0025171978626022766 -0.0028423217384645227 0 -0.002317557018666273 -0.0028587598185741427 0 -0.0024969310994130793 -0.0029561183821449105 0 -0.0025171978626022766 -0.0028423217384645227 0 -0.0026193329113988872 -0.0029092954276970766 0 -0.0024969310994130793 -0.0029561183821449105 0 -0.0021755704378066017 -0.0028514093607320923 0 -0.0024378130003160151 -0.0028680658130535172 0 -0.002317557018666273 -0.0028587598185741427 0 -0.0024969310994130793 -0.0029561183821449105 0 -0.0023866605912008228 -0.0030036348973431774 0 -0.002317557018666273 -0.0028587598185741427 0 -0.0023866605912008228 -0.0030036348973431774 0 -0.0022414315222985086 -0.0029754033821868474 0 -0.005638088193930791 -0.0028454983756410843 0 -0.0055883120545593724 -0.0026638230826591487 0 -0.0055271782626177051 -0.0027143171593356028 0 -0.0041230756557416124 -0.0028896556228495754 0 -0.0039585859617748869 -0.0027725588527798281 0 -0.005638088193930791 -0.0028454983756410843 0 -0.0055883120545593724 -0.0026638230826591487 0 -0.0056713040848902618 -0.0026266075368381568 0 -0.0055883120545593724 -0.0026638230826591487 0 -0.0055271782626177051 -0.0027143171593356028 0 -0.0054645230407346194 -0.0025543208570629338 0 -0.0023891845383429947 -0.0028837137218538193 0 -0.002452506185435621 -0.0028378767773497961 0 -0.0024922613920335219 -0.0028999907531969378 0 -0.0025921932377718712 -0.002912157782209122 0 -0.0025282580396038161 -0.0029798488462068336 0 -0.0025832274531751211 -0.0030421640410128051 0 -0.0024264579575403139 -0.0027654912740053168 0 -0.0027314930604126417 -0.0027392204849684826 0 -0.0024082015098451032 -0.0027989380905724093 0 -0.0024055622425044232 -0.0028373378364209244 0 -0.002452506185435621 -0.0028378767773497961 0 -0.0024055622425044232 -0.0028373378364209244 0 -0.0023891845383429947 -0.0028837137218538193 0 -0.002452506185435621 -0.0028378767773497961 0 -0.0032935964766800424 -0.0025093010324396372 0 -0.0035124282479717514 -0.0029530823713036468 0 -0.0035316932521499834 -0.0028288935883226717 0 -0.0027314930604126417 -0.0027392204849684826 0 -0.0039585859617748869 -0.0027725588527798281 0 -0.0027314930604126417 -0.0027392204849684826 0 -0.0039858515791304653 -0.0026698299703923757 0 -0.0039858515791304653 -0.0026698299703923757 0 -0.0041476767101858046 -0.0026581139125271169 0 -0.0025171978626022766 -0.0028423217384645227 0 -0.0027110691219056349 -0.0028555410062207662 0 -0.0026193329113988872 -0.0029092954276970766 0 -0.0027110691219056349 -0.0028555410062207662 0 -0.0026193329113988872 -0.0029092954276970766 0 -0.0026768082157180703 -0.0030276857673706401 0 -0.0021755704378066017 -0.0028514093607320923 0 -0.0039858515791304653 -0.0026698299703923757 0 -0.0039858515791304653 -0.0026698299703923757 0 -0.0039585859617748869 -0.0027725588527798281 0 -0.0055883120545593724 -0.0026638230826591487 0 -0.0056410551604997878 -0.0025838097355666803 0 -0.0054645230407346194 -0.0025543208570629338 0 -0.0050320323500645725 -0.0027577321949672235 0 -0.0055620824225011429 -0.0025483830909002669 0 -0.0050320323500645725 -0.0027577321949672235 0 -0.0055277720477188647 -0.0023587188255858255 0 -0.0056096159156477175 -0.00255039023511361 0 -0.0054543714250489834 -0.0025298930814500547 0 -0.0055074295981656553 -0.0023938212455030931 0 -0.0055399327814173718 -0.0024555109386195633 0 -0.0055203321572282749 -0.0024518977882130345 0 -0.0055051723197353034 -0.0023212571475959777 0 -0.0055883120545593724 -0.0026638230826591487 0 -0.0056410551604997878 -0.0025838097355666803 0 -0.0056713040848902618 -0.0026266075368381568 0 -0.0043186831685894135 -0.0025821451933446924 0 -0.0042400130533659071 -0.0025720730204347357 0 -0.0043039375965086384 -0.0026650018222087683 0 -0.0039858515791304653 -0.0026698299703923757 0 -0.0050320323500645725 -0.0027577321949672235 0 -0.0050320323500645725 -0.0027577321949672235 0 -0.0039585859617748869 -0.0027725588527798281 0 -0.0055620824225011429 -0.0025483830909002669 0 -0.0052695153181905293 -0.0025151599089409814 0 -0.0054543714250489834 -0.0025298930814500547 0 -0.0052915743512872782 -0.0025162377314141616 0 -0.0054031226244366298 -0.0024539735531506949 0 -0.0054645230407346194 -0.0025543208570629338 0 -0.0052915743512872782 -0.0025162377314141616 0 -0.0054112659486199154 -0.0026713404312714234 0 -0.0053458089543883354 -0.0028015736538734006 0 -0.0051887819801499976 -0.0026830650767284254 0 -0.0052915743512872782 -0.0025162377314141616 0 -0.0053269651065414453 -0.0027714615405687467 0 -0.0051736309081449943 -0.0026388272781329345 0 -0.0052915743512872782 -0.0025162377314141616 0 -0.0053269651065414453 -0.0027714615405687467 0 -0.0054112659486199154 -0.0026713404312714234 0 -0.0055271782626177051 -0.0027143171593356028 0 -0.0054112659486199154 -0.0026713404312714234 0 -0.0054973697425237398 -0.0029115849041002942 0 -0.0053269651065414453 -0.0027714615405687467 0 -0.0054112659486199154 -0.0026713404312714234 0 -0.0054973697425237398 -0.0029115849041002942 0 -0.0055271782626177051 -0.0027143171593356028 0 -0.0054645230407346194 -0.0025543208570629338 0 -0.0054112659486199154 -0.0026713404312714234 0 -0.0053555020436003298 -0.0028273334359263467 0 -0.0054973697425237398 -0.0029115849041002942 0 -0.005382432107126414 -0.0029415992154302184 0 -0.0053458089543883354 -0.0028015736538734006 0 -0.0054863060784471791 -0.0029020176753276517 0 -0.0053555020436003298 -0.0028273334359263467 0 -0.0052748923241588376 -0.0029517898549749799 0 -0.005382432107126414 -0.0029415992154302184 0 -0.0052748923241588376 -0.0029517898549749799 0 -0.005382432107126414 -0.0029415992154302184 0 -0.0053954429507906809 -0.0031030622006233419 0 -0.0052748923241588376 -0.0029517898549749799 0 -0.0053954429507906809 -0.0031030622006233419 0 -0.0052334887044408309 -0.0030988409250943746 0 -0.0054973697425237398 -0.0029115849041002942 0 -0.005382432107126414 -0.0029415992154302184 0 -0.0053954429507906809 -0.0031030622006233419 0 -0.0055954355115825048 -0.0030537471064391243 0 -0.0054973697425237398 -0.0029115849041002942 0 -0.0053954429507906809 -0.0031030622006233419 0 -0.0049999887495106084 -0.0030668339463276067 0 -0.0052334887044408309 -0.0030988409250943746 0 -0.0051625420272786533 -0.0028390212110558878 0 -0.0053555020436003298 -0.0028273334359263467 0 -0.0052748923241588376 -0.0029517898549749799 0 -0.0051383387087837289 -0.0028590226864187731 0 -0.0052290934574729985 -0.0030824461497839942 0 -0.0051524824061052934 -0.0028568611527932373 0 -0.0052748923241588376 -0.0029517898549749799 0 -0.0052334887044408309 -0.0030988409250943746 0 -0.0051383387087837289 -0.0028590226864187731 0 -0.0049999887495106084 -0.0030668339463276067 0 -0.0051625420272786533 -0.0028390212110558878 0 -0.0049999932277873804 -0.0027927353626263341 0 -0.0051524824061052934 -0.0028568611527932373 0 -0.0050544282624366216 -0.0025707437511493544 0 -0.0051625420272786533 -0.0028390212110558878 0 -0.0049999932277873804 -0.0027927353626263341 0 -0.0050717535449362194 -0.0025674185601712966 0 -0.0053555020436003298 -0.0028273334359263467 0 -0.0051383387087837289 -0.0028590226864187731 0 -0.0052039266838528209 -0.0027258577871412939 0 -0.0051383387087837289 -0.0028590226864187731 0 -0.0052039266838528209 -0.0027258577871412939 0 -0.0050516604825859429 -0.0026247995080829825 0 -0.0051887819801499976 -0.0026830650767284254 0 -0.0050544282624366216 -0.0025707437511493544 0 -0.0051736309081449943 -0.0026388272781329345 0 -0.0051514359809047673 -0.0025084429218642703 0 -0.0050398411541757917 -0.0025213199622801529 0 -0.0052915743512872782 -0.0025162377314141616 0 -0.0051736309081449943 -0.0026388272781329345 0 -0.0051514359809047673 -0.0025084429218642703 0 -0.0049999932277873804 -0.0027927353626263341 0 -0.0050717535449362194 -0.0025674185601712966 0 -0.0050000014774356158 -0.0025186407525977692 0 -0.0051514359809047673 -0.0025084429218642703 0 -0.0050398411541757917 -0.0025213199622801529 0 -0.0050854519555853716 -0.0024436680603151617 0 -0.0050544282624366216 -0.0025707437511493544 0 -0.0050000348799943695 -0.0025186760063825794 0 -0.0050398411541757917 -0.0025213199622801529 0 -0.0049999485396532801 -0.0023700178078951179 0 -0.0050854519555853716 -0.0024436680603151617 0 -0.0050544282624366216 -0.0025707437511493544 0 -0.0050000052615324503 -0.0023701082824362568 0 -0.0049999485396532801 -0.0023700178078951179 0 -0.0050854519555853716 -0.0024436680603151617 0 -0.0051584476365766846 -0.0023796689895373697 0 -0.0050722963668912904 -0.0025664287564599172 0 -0.0049999995634294981 -0.0025186382976831291 0 -0.0050000000026376532 -0.0023700909043997214 0 -0.0052915743512872782 -0.0025162377314141616 0 -0.0051514359809047673 -0.0025084429218642703 0 -0.0051584476365766846 -0.0023796689895373697 0 -0.0051514359809047673 -0.0025084429218642703 0 -0.0050854519555853716 -0.0024436680603151617 0 -0.0051584476365766846 -0.0023796689895373697 0 -0.0051584476365766846 -0.0023796689895373697 0 -0.0051593607569679206 -0.0021855912749109679 0 -0.005269483789002629 -0.0022585354029152857 0 -0.0051593607569679206 -0.0021855912749109679 0 -0.005269483789002629 -0.0022585354029152857 0 -0.0052881677900242577 -0.0021425525465176972 0 -0.0049999485396532801 -0.0023700178078951179 0 -0.0051584476365766846 -0.0023796689895373697 0 -0.0051593607569679206 -0.0021855912749109679 0 -0.0049999485396532801 -0.0023700178078951179 0 -0.0051593607569679206 -0.0021855912749109679 0 -0.0049999880217881966 -0.0021694704111396134 0 -0.0055074295981656553 -0.0023938212455030931 0 -0.0054031226244366298 -0.0024539735531506949 0 -0.0053581497531908417 -0.002376209107385798 0 -0.0055074295981656553 -0.0023938212455030931 0 -0.0053581497531908417 -0.002376209107385798 0 -0.0053845751124460889 -0.0022198799389964051 0 -0.0054543714250489834 -0.0025298930814500547 0 -0.0055074295981656553 -0.0023938212455030931 0 -0.0054031226244366298 -0.0024539735531506949 0 -0.0052915743512872782 -0.0025162377314141616 0 -0.0051584476365766846 -0.0023796689895373697 0 -0.0053581497531908417 -0.002376209107385798 0 -0.0051584476365766846 -0.0023796689895373697 0 -0.0053581497531908417 -0.002376209107385798 0 -0.005269483789002629 -0.0022585354029152857 0 -0.0052915743512872782 -0.0025162377314141616 0 -0.0054031226244366298 -0.0024539735531506949 0 -0.0053581497531908417 -0.002376209107385798 0 -0.0053581497531908417 -0.002376209107385798 0 -0.005269483789002629 -0.0022585354029152857 0 -0.0053845751124460889 -0.0022198799389964051 0 -0.005269483789002629 -0.0022585354029152857 0 -0.0053845751124460889 -0.0022198799389964051 0 -0.0052881677900242577 -0.0021425525465176972 0 -0.0054607926707427685 -0.0023414063325331346 0 -0.0053845751124460889 -0.0022198799389964051 0 -0.0054987170506461984 -0.0021929338245324863 0 -0.0055277720477188647 -0.0023587188255858255 0 -0.0053827898622992379 -0.0022291696466191289 0 -0.0053845751124460889 -0.0022198799389964051 0 -0.005379929556308968 -0.0020662439719717832 0 -0.0054987170506461984 -0.0021929338245324863 0 -0.005379929556308968 -0.0020662439719717832 0 -0.005491629339151604 -0.002040732266195288 0 -0.0054987170506461984 -0.0021929338245324863 0 -0.005379929556308968 -0.0020662439719717832 0 -0.0052881677900242577 -0.0021425525465176972 0 -0.0052329197026230248 -0.002018982768468543 0 -0.0053845751124460889 -0.0022198799389964051 0 -0.005379929556308968 -0.0020662439719717832 0 -0.0052881677900242577 -0.0021425525465176972 0 -0.0053165253725033423 -0.0019120066259444551 0 -0.0052329197026230248 -0.002018982768468543 0 -0.0051873448042934929 -0.0018683772084638112 0 -0.005379929556308968 -0.0020662439719717832 0 -0.0053165253725033423 -0.0019120066259444551 0 -0.0052329197026230248 -0.002018982768468543 0 -0.005379929556308968 -0.0020662439719717832 0 -0.0054374752476922788 -0.0018780208249220775 0 -0.005491629339151604 -0.002040732266195288 0 -0.005379929556308968 -0.0020662439719717832 0 -0.0053165253725033423 -0.0019120066259444551 0 -0.0054374752476922788 -0.0018780208249220775 0 -0.0049999880217881966 -0.0021694704111396134 0 -0.0050957127900614109 -0.0020674711938086037 0 -0.0049999659593289976 -0.0019689210984695621 0 -0.0051593607569679206 -0.0021855912749109679 0 -0.0049999880217881966 -0.0021694704111396134 0 -0.0050957127900614109 -0.0020674711938086037 0 -0.0051593607569679206 -0.0021855912749109679 0 -0.0052881677900242577 -0.0021425525465176972 0 -0.0052329197026230248 -0.002018982768468543 0 -0.0051593607569679206 -0.0021855912749109679 0 -0.0050957127900614109 -0.0020674711938086037 0 -0.0052329197026230248 -0.002018982768468543 0 -0.005117524616440855 -0.0019523088030234366 0 -0.0052329197026230248 -0.002018982768468543 0 -0.0051873448042934929 -0.0018683772084638112 0 -0.0050957127900614109 -0.0020674711938086037 0 -0.005117524616440855 -0.0019523088030234366 0 -0.0052329197026230248 -0.002018982768468543 0 -0.0050957127900614109 -0.0020674711938086037 0 -0.005117524616440855 -0.0019523088030234366 0 -0.0049999659593289976 -0.0019689210984695621 0 -0.005117524616440855 -0.0019523088030234366 0 -0.0049999659593289976 -0.0019689210984695621 0 -0.0050866804197580197 -0.0018244880860719894 0 -0.0050000024307534996 -0.0019688535336223915 0 -0.0051273886670485085 -0.0017671066856328357 0 -0.0049999903451445303 -0.001669351892949146 0 -0.0050000216085079284 -0.0019688171140486935 0 -0.0051062878087183355 -0.0017945470052333511 0 -0.0051273886670485085 -0.0017671066856328357 0 -0.0049999903451445303 -0.001669351892949146 0 -0.0051106408460556297 -0.0015523832265182448 0 -0.0051062878087183355 -0.0017945470052333511 0 -0.0052067159974264494 -0.0016077131292398894 0 -0.0051689513726406004 -0.001655494873227693 0 -0.0051873448042934929 -0.0018683772084638112 0 -0.005277088540315015 -0.0018063178190603857 0 -0.0051273886670485085 -0.0017671066856328357 0 -0.0052457361243370519 -0.0015615267587361311 0 -0.0051106408460556297 -0.0015523832265182448 0 -0.005117524616440855 -0.0019523088030234366 0 -0.0050866804197580197 -0.0018244880860719894 0 -0.0051873448042934929 -0.0018683772084638112 0 -0.0050866804197580197 -0.0018244880860719894 0 -0.0051689513726406004 -0.001655494873227693 0 -0.0051873448042934929 -0.0018683772084638112 0 -0.0053165253725033423 -0.0019120066259444551 0 -0.005277088540315015 -0.0018063178190603857 0 -0.0054002865278783372 -0.0017979495257073081 0 -0.0053165253725033423 -0.0019120066259444551 0 -0.0051873448042934929 -0.0018683772084638112 0 -0.005277088540315015 -0.0018063178190603857 0 -0.0054374752476922788 -0.0018780208249220775 0 -0.0054002865278783372 -0.0017979495257073081 0 -0.005488885511917424 -0.0018140968801353902 0 -0.0053165253725033423 -0.0019120066259444551 0 -0.0054374752476922788 -0.0018780208249220775 0 -0.0054002865278783372 -0.0017979495257073081 0 -0.0054002865278783372 -0.0017979495257073081 0 -0.0054651593059833704 -0.0016790036439560865 0 -0.005488885511917424 -0.0018140968801353902 0 -0.0054002865278783372 -0.0017979495257073081 0 -0.0053592260754686816 -0.00167857830802751 0 -0.0054651593059833704 -0.0016790036439560865 0 -0.0051689513726406004 -0.001655494873227693 0 -0.005277088540315015 -0.0018063178190603857 0 -0.0053592260754686816 -0.00167857830802751 0 -0.005277088540315015 -0.0018063178190603857 0 -0.0054002865278783372 -0.0017979495257073081 0 -0.0053592260754686816 -0.00167857830802751 0 -0.0052067159974264494 -0.0016077131292398894 0 -0.0053138888695845729 -0.001398898778534507 0 -0.0051689513726406004 -0.001655494873227693 0 -0.0053592260754686816 -0.00167857830802751 0 -0.0052701205518792191 -0.0014428204804410522 0 -0.0053592260754686816 -0.00167857830802751 0 -0.0054951204094210613 -0.0015079713073327056 0 -0.0052701205518792191 -0.0014428204804410522 0 -0.0053592260754686816 -0.00167857830802751 0 -0.0054651593059833704 -0.0016790036439560865 0 -0.0054951204094210613 -0.0015079713073327056 0 -0.0054951204094210613 -0.0015079713073327056 0 -0.0052701205518792191 -0.0014428204804410522 0 -0.0055389882851104933 -0.0013186500904876167 0 -0.0052701205518792191 -0.0014428204804410522 0 -0.0055389882851104933 -0.0013186500904876167 0 -0.0054398072426080765 -0.0011855619853383861 0 -0.0053138888695845729 -0.001398898778534507 0 -0.0054310079561866297 -0.0012022027673765185 0 -0.0053503566506891663 -0.0013596473731872592 0 -0.0051814218233411933 -0.0013992759983543488 0 -0.0052184757709461717 -0.0011901139320082408 0 -0.0051814218233411933 -0.0013992759983543488 0 -0.0049999914915113252 -0.0013698621489209972 0 -0.0052184757709461717 -0.0011901139320082408 0 -0.0049999903451445303 -0.001669351892949146 0 -0.0049999914915113252 -0.0013698621489209972 0 -0.0051106408460556297 -0.0015523832265182448 0 -0.0051814218233411933 -0.0013992759983543488 0 -0.0049999914915113252 -0.0013698621489209972 0 -0.0051106408460556297 -0.0015523832265182448 0 -0.0052457361243370519 -0.0015615267587361311 0 -0.0053503566506891663 -0.0013596473731872592 0 -0.0051814218233411933 -0.0013992759983543488 0 -0.0052457361243370519 -0.0015615267587361311 0 -0.0051814218233411933 -0.0013992759983543488 0 -0.0051106408460556297 -0.0015523832265182448 0 -0.0050449152325381802 -0.001947882090036282 0 -0.0049706979447382204 -0.002010616933952145 0 -0.0050922016942195987 -0.0020944994178009437 0 -0.0052523345838012634 -0.0019112778698812535 0 -0.0050922016942195987 -0.0020944994178009437 0 -0.0053297200024551546 -0.0019839161717973954 0 -0.0050449152325381802 -0.001947882090036282 0 -0.0049706979447382204 -0.002010616933952145 0 -0.0049385956769168304 -0.0019060011565917648 0 -0.0051376716457413422 -0.0019710169318314643 0 -0.0051014340089243389 -0.0020824639024374487 0 -0.0049706979447382204 -0.002010616933952145 0 -0.0049385956769168304 -0.0019060011565917648 0 -0.0048459808287591079 -0.0020371735099305901 0 -0.0038650552975606121 -0.0020304221222218924 0 -0.0032779797934232337 -0.0014245996872123299 0 -0.0049706979447382204 -0.002010616933952145 0 -0.0049430189963316599 -0.0021196892899969038 0 -0.0048459808287591079 -0.0020371735099305901 0 -0.0049430189963316599 -0.0021196892899969038 0 -0.0048459808287591079 -0.0020371735099305901 0 -0.0048980142328952578 -0.0022177152425654663 0 -0.0055400922846170425 -0.0017346836598658186 0 -0.0055734414686696432 -0.0018617317334291505 0 -0.0050922016942195987 -0.0020944994178009437 0 -0.0053297200024551546 -0.0019839161717973954 0 -0.0050419342353652738 -0.0021874830803852319 0 -0.0049430189963316599 -0.0021196892899969038 0 -0.0050922016942195987 -0.0020944994178009437 0 -0.0050419342353652738 -0.0021874830803852319 0 -0.0049706979447382204 -0.002010616933952145 0 -0.0049430189963316599 -0.0021196892899969038 0 -0.0050922016942195987 -0.0020944994178009437 0 -0.0057893634280759779 -0.0013279799774531308 0 -0.0057714312891012287 -0.0015471169250724471 0 -0.0059589635342271055 -0.0012695794317501864 0 -0.0057893634280759779 -0.0013279799774531308 0 -0.0056716768418940905 -0.0014139477653412258 0 -0.0057714312891012287 -0.0015471169250724471 0 -0.0057893634280759779 -0.0013279799774531308 0 -0.0056716768418940905 -0.0014139477653412258 0 -0.0057086828738126391 -0.0012613820748335978 0 -0.0055389882851104933 -0.0013186500904876167 0 -0.0056716768418940905 -0.0014139477653412258 0 -0.0057086828738126391 -0.0012613820748335978 0 -0.0054951204094210613 -0.0015079713073327056 0 -0.0055389882851104933 -0.0013186500904876167 0 -0.0056716768418940905 -0.0014139477653412258 0 -0.0054951204094210613 -0.0015079713073327056 0 -0.0056716768418940905 -0.0014139477653412258 0 -0.005577156590661948 -0.0015945357183998481 0 -0.0056716768418940905 -0.0014139477653412258 0 -0.005577156590661948 -0.0015945357183998481 0 -0.0057714312891012287 -0.0015471169250724471 0 -0.0054651593059833704 -0.0016790036439560865 0 -0.0054951204094210613 -0.0015079713073327056 0 -0.005577156590661948 -0.0015945357183998481 0 -0.0053297200024551546 -0.0019839161717973954 0 -0.0053708469766946682 -0.0018537277107520552 0 -0.005488885511917424 -0.0018140968801353902 0 -0.0052523345838012634 -0.0019112778698812535 0 -0.0053708469766946682 -0.0018537277107520552 0 -0.0053572187745122473 -0.0018118704752558901 0 -0.0052523345838012634 -0.0019112778698812535 0 -0.0053297200024551546 -0.0019839161717973954 0 -0.0053708469766946682 -0.0018537277107520552 0 -0.0054651593059833704 -0.0016790036439560865 0 -0.005577156590661948 -0.0015945357183998481 0 -0.005488885511917424 -0.0018140968801353902 0 -0.005577156590661948 -0.0015945357183998481 0 -0.0057714312891012287 -0.0015471169250724471 0 -0.005488885511917424 -0.0018140968801353902 0 -0.0055400922846170425 -0.0017346836598658186 0 -0.0054982897725047997 -0.0018190553358913132 0 -0.0054374752476922788 -0.0018780208249220775 0 -0.0054281347515606638 -0.0018087887217040351 0 -0.0054279084214324102 -0.0018072177568802532 0 -0.0053708469766946682 -0.0018537277107520552 0 -0.005488885511917424 -0.0018140968801353902 0 -0.0054281347515606638 -0.0018087887217040351 0 -0.0054374752476922788 -0.0018780208249220775 0 -0.005488885511917424 -0.0018140968801353902 0 -0.0054281347515606638 -0.0018087887217040351 0 -0.0053572187745122473 -0.0018118704752558901 0 -0.0054281347515606638 -0.0018087887217040351 0 -0.0053903235166641974 -0.0017752788048332347 0 -0.0053708469766946682 -0.0018537277107520552 0 -0.0053572187745122473 -0.0018118704752558901 0 -0.0054281347515606638 -0.0018087887217040351 0 -0.0050399311132791726 -0.0018228632567477575 0 -0.0049385956769168304 -0.0019060011565917648 0 -0.0049097528907371584 -0.0017750351875102611 0 -0.0050449152325381802 -0.001947882090036282 0 -0.0050399311132791726 -0.0018228632567477575 0 -0.0049385956769168304 -0.0019060011565917648 0 -0.0051376716457413422 -0.0019710169318314643 0 -0.0052677156580055156 -0.0016954113145176233 0 -0.0049385956769168304 -0.0019060011565917648 0 -0.0047936133639851124 -0.0018731813669218274 0 -0.0048459808287591079 -0.0020371735099305901 0 -0.0049385956769168304 -0.0019060011565917648 0 -0.0049097528907371584 -0.0017750351875102611 0 -0.0047936133639851124 -0.0018731813669218274 0 -0.0049097528907371584 -0.0017750351875102611 0 -0.0048869078994327004 -0.0016277246167249685 0 -0.0047347926057290171 -0.0017182029604579756 0 -0.0049097528907371584 -0.0017750351875102611 0 -0.0048869078994327004 -0.0016277246167249685 0 -0.0050511128612619289 -0.0016934903328034987 0 -0.0050399311132791726 -0.0018228632567477575 0 -0.0049097528907371584 -0.0017750351875102611 0 -0.0050511128612619289 -0.0016934903328034987 0 -0.0024195086429608941 -0.0032646526448804605 0 -0.0026398352093706503 -0.003341576372226394 0 -0.0026555612039903657 -0.0031828415577343913 0 -0.0036452885702375881 -0.0024706458006781271 0 -0.0044551757437349473 -0.0022754854007168337 0 -0.0054374752476922788 -0.0018780208249220775 0 -0.005491629339151604 -0.002040732266195288 0 -0.0055566468577777604 -0.0019614095697637517 0 -0.005393586631682522 -0.0018545227816518255 0 -0.0056204986084977095 -0.0019433174506571294 0 -0.005491629339151604 -0.002040732266195288 0 -0.0055566468577777604 -0.0019614095697637517 0 -0.0055735219977263587 -0.0020842677215635961 0 -0.0054281347515606638 -0.0018087887217040351 0 -0.0054279084214324102 -0.0018072177568802532 0 -0.0053903235166641974 -0.0017752788048332347 0 -0.0055566468577777604 -0.0019614095697637517 0 -0.0056645551505190329 -0.0020221838242796084 0 -0.0055735219977263587 -0.0020842677215635961 0 -0.0052677156580055156 -0.0016954113145176233 0 -0.0044551757437349473 -0.0022754854007168337 0 -0.0056204986084977095 -0.0019433174506571294 0 -0.0044551757437349473 -0.0022754854007168337 0 -0.0044551757437349473 -0.0022754854007168337 0 -0.0041171894067973253 -0.0027675656785403047 0 -0.0056645551505190329 -0.0020221838242796084 0 -0.0055735219977263587 -0.0020842677215635961 0 -0.0056327388352866072 -0.002181249644134838 0 -0.0055735219977263587 -0.0020842677215635961 0 -0.0054987170506461984 -0.0021929338245324863 0 -0.0056327388352866072 -0.002181249644134838 0 -0.005491629339151604 -0.002040732266195288 0 -0.0055735219977263587 -0.0020842677215635961 0 -0.0054987170506461984 -0.0021929338245324863 0 -0.0054607926707427685 -0.0023414063325331346 0 -0.0054987170506461984 -0.0021929338245324863 0 -0.0055051723197353034 -0.0023212571475959777 0 -0.0054987170506461984 -0.0021929338245324863 0 -0.0055621803428347136 -0.0022495922212958778 0 -0.0055051723197353034 -0.0023212571475959777 0 -0.0054987170506461984 -0.0021929338245324863 0 -0.0055621803428347136 -0.0022495922212958778 0 -0.0056327388352866072 -0.002181249644134838 0 -0.0055621803428347136 -0.0022495922212958778 0 -0.0056327388352866072 -0.002181249644134838 0 -0.0055931440043212131 -0.0023312355004991999 0 -0.0041171894067973253 -0.0027675656785403047 0 -0.0041476767101858046 -0.0026581139125271169 0 -0.0026555612039903657 -0.0031828415577343913 0 -0.0026768082157180703 -0.0030276857673706401 0 -0.0024928060239735989 -0.0030972979921186521 0 -0.0026193329113988872 -0.0029092954276970766 0 -0.0026768082157180703 -0.0030276857673706401 0 -0.0024969310994130793 -0.0029561183821449105 0 -0.0055498634197649983 -0.0024807862980527774 0 -0.0055931440043212131 -0.0023312355004991999 0 -0.0055051723197353034 -0.0023212571475959777 0 -0.0055203321572282749 -0.0024518977882130345 0 -0.0054607926707427685 -0.0023414063325331346 0 -0.0055051723197353034 -0.0023212571475959777 0 -0.0039858515791304653 -0.0026698299703923757 0 -0.0058210970187742199 -0.0023882966985032581 0 -0.0055621803428347136 -0.0022495922212958778 0 -0.0055931440043212131 -0.0023312355004991999 0 -0.0055051723197353034 -0.0023212571475959777 0 -0.0024195086429608941 -0.0032646526448804605 0 -0.0023344627090430706 -0.0031453362795721041 0 -0.0024928060239735989 -0.0030972979921186521 0 -0.0023344627090430706 -0.0031453362795721041 0 -0.0024928060239735989 -0.0030972979921186521 0 -0.0023866605912008228 -0.0030036348973431774 0 -0.0024195086429608941 -0.0032646526448804605 0 -0.0026555612039903657 -0.0031828415577343913 0 -0.0024928060239735989 -0.0030972979921186521 0 -0.0026768082157180703 -0.0030276857673706401 0 -0.0024928060239735989 -0.0030972979921186521 0 -0.0024969310994130793 -0.0029561183821449105 0 -0.0024928060239735989 -0.0030972979921186521 0 -0.0024969310994130793 -0.0029561183821449105 0 -0.0023866605912008228 -0.0030036348973431774 0 -0.0023344627090430706 -0.0031453362795721041 0 -0.0023866605912008228 -0.0030036348973431774 0 -0.0022414315222985086 -0.0029754033821868474 0 -0.0022414315222985086 -0.0029754033821868474 0 -0.0021959258934227044 -0.0031236680574620993 0 -0.0021051248224880103 -0.0030106603049118606 0 -0.0023344627090430706 -0.0031453362795721041 0 -0.0022414315222985086 -0.0029754033821868474 0 -0.0021959258934227044 -0.0031236680574620993 0 -0.0023344627090430706 -0.0031453362795721041 0 -0.0021959258934227044 -0.0031236680574620993 0 -0.0022020179096590977 -0.0031790312621416861 0 -0.0026910956273031774 -0.0029805597554492217 0 -0.0029138815136592485 -0.0024135100418568767 0 -0.0013377505543624194 -0.0028202014758231244 0 -0.0015518631305261714 -0.0029132750194399339 0 -0.0014452921080605036 -0.002744838173490141 0 -0.0021959258934227044 -0.0031236680574620993 0 -0.0022014666313259815 -0.0031809561586877535 0 -0.0020532938707090958 -0.0031247083528619405 0 -0.0029138815136592485 -0.0024135100418568767 0 -0.001669389776744483 -0.0029572787897570534 0 -0.0021959258934227044 -0.0031236680574620993 0 -0.0020532938707090958 -0.0031247083528619405 0 -0.0021051248224880103 -0.0030106603049118606 0 -0.0021307567475462429 -0.0029226404345581596 0 -0.0022414315222985086 -0.0029754033821868474 0 -0.0021051248224880103 -0.0030106603049118606 0 -0.0020532938707090958 -0.0031247083528619405 0 -0.0021051248224880103 -0.0030106603049118606 0 -0.0019874472395791116 -0.0029938444514598173 0 -0.0021307567475462429 -0.0029226404345581596 0 -0.0020233412500949405 -0.0029282223389568486 0 -0.0021051248224880103 -0.0030106603049118606 0 -0.0020233412500949405 -0.0029282223389568486 0 -0.0019371448805238472 -0.0029667754730025599 0 -0.0019874472395791116 -0.0029938444514598173 0 -0.0020233412500949405 -0.0029282223389568486 0 -0.0021051248224880103 -0.0030106603049118606 0 -0.0019874472395791116 -0.0029938444514598173 0 -0.0019371448805238472 -0.0029667754730025599 0 -0.0019874472395791116 -0.0029938444514598173 0 -0.0018454787409062188 -0.003001793742917095 0 -0.0019644045873986513 -0.0028507213094977786 0 -0.0019165380318188071 -0.0027466806724010893 0 -0.0019654760678645975 -0.0027626621029178751 0 -0.0019644045873986513 -0.0028507213094977786 0 -0.0019371448805238472 -0.0029667754730025599 0 -0.0018946214597207578 -0.0030072348507339127 0 -0.0019371448805238472 -0.0029667754730025599 0 -0.0018946214597207578 -0.0030072348507339127 0 -0.0018454787409062188 -0.003001793742917095 0 -0.0019103585672094869 -0.0028695266826751979 0 -0.0019090652674620728 -0.0026866992879975128 0 -0.0018454787409062188 -0.003001793742917095 0 -0.0017265057536443591 -0.0027541031168036548 0 -0.0019286575865331583 -0.0027545598916492429 0 -0.0018946214597207578 -0.0030072348507339127 0 -0.0018454787409062188 -0.003001793742917095 0 -0.0019286575865331583 -0.0027545598916492429 0 -0.001669389776744483 -0.0029572787897570534 0 -0.0018835871734655873 -0.0030290848517827056 0 -0.0020532938707090958 -0.0031247083528619405 0 -0.0019874472395791116 -0.0029938444514598173 0 -0.0018454787409062188 -0.003001793742917095 0 -0.0015518631305261714 -0.0029132750194399339 0 -0.0018454787409062188 -0.003001793742917095 0 -0.0017265057536443591 -0.0027541031168036548 0 -0.0015518631305261714 -0.0029132750194399339 0 -0.0017265057536443591 -0.0027541031168036548 0 -0.001556401397221996 -0.0027049787679392736 0 -0.0017265057536443591 -0.0027541031168036548 0 -0.0016220141870987184 -0.0025441919300486313 0 -0.001556401397221996 -0.0027049787679392736 0 -0.0017265057536443591 -0.0027541031168036548 0 -0.0017912089788918787 -0.0025845545782161488 0 -0.0016220141870987184 -0.0025441919300486313 0 -0.0017265057536443591 -0.0027541031168036548 0 -0.0017912089788918787 -0.0025845545782161488 0 -0.0019286575865331583 -0.0027545598916492429 0 -0.0017912089788918787 -0.0025845545782161488 0 -0.0017585201615085693 -0.0024330364701001502 0 -0.0019071320879897951 -0.0024409735826263564 0 -0.0017912089788918787 -0.0025845545782161488 0 -0.0019286575865331583 -0.0027545598916492429 0 -0.0019071320879897951 -0.0024409735826263564 0 -0.0017912089788918787 -0.0025845545782161488 0 -0.0017585201615085693 -0.0024330364701001502 0 -0.0016220141870987184 -0.0025441919300486313 0 -0.0017585201615085693 -0.0024330364701001502 0 -0.0016220141870987184 -0.0025441919300486313 0 -0.0016138037247117553 -0.0023665778333012586 0 -0.0016220141870987184 -0.0025441919300486313 0 -0.0014651427987183924 -0.0023818500645925796 0 -0.0016138037247117553 -0.0023665778333012586 0 -0.0014565941707810539 -0.0025964015028053567 0 -0.0013107170620541154 -0.0025213784454902592 0 -0.0014651427987183924 -0.0023818500645925796 0 -0.0016220141870987184 -0.0025441919300486313 0 -0.0014565941707810539 -0.0025964015028053567 0 -0.0014651427987183924 -0.0023818500645925796 0 -0.0014565941707810539 -0.0025964015028053567 0 -0.0013107170620541154 -0.0025213784454902592 0 -0.0013524376314878082 -0.002681238446813239 0 -0.0026179321622664545 -0.0022308343435147107 0 -0.0015761772841592356 -0.0026203193863860094 0 -0.0024195086429608941 -0.0032646526448804605 0 -0.0023344627090430706 -0.0031453362795721041 0 -0.0022020179096590977 -0.0031790312621416861 0 -0.0013377505543624194 -0.0028202014758231244 0 -0.0013321783539948129 -0.00250796427995117 0 -0.0013524376314878082 -0.002681238446813239 0 -0.0029138815136592485 -0.0024135100418568767 0 -0.0026179321622664545 -0.0022308343435147107 0 -0.0048869078994327004 -0.0016277246167249685 0 -0.004703416705177303 -0.001565020990528703 0 -0.0047347926057290171 -0.0017182029604579756 0 -0.0036452885702375881 -0.0024706458006781271 0 -0.0029138815136592485 -0.0024135100418568767 0 -0.0013377505543624194 -0.0028202014758231244 0 -0.0013524376314878082 -0.002681238446813239 0 -0.0014452921080605036 -0.002744838173490141 0 -0.0015518631305261714 -0.0029132750194399339 0 -0.0014452921080605036 -0.002744838173490141 0 -0.001556401397221996 -0.0027049787679392736 0 -0.0014565941707810539 -0.0025964015028053567 0 -0.0014452921080605036 -0.002744838173490141 0 -0.001556401397221996 -0.0027049787679392736 0 -0.0016220141870987184 -0.0025441919300486313 0 -0.0014565941707810539 -0.0025964015028053567 0 -0.001556401397221996 -0.0027049787679392736 0 -0.0014565941707810539 -0.0025964015028053567 0 -0.0013524376314878082 -0.002681238446813239 0 -0.0014452921080605036 -0.002744838173490141 0 -0.0021222628483850668 -0.0026825316207761537 0 -0.0020442098364653119 -0.0027423838399236182 0 -0.0021334682836736279 -0.0027568102788494806 0 -0.0020442098364653119 -0.0027423838399236182 0 -0.0020694797046514027 -0.0026684248454454458 0 -0.002030095162444357 -0.0026461776754675365 0 -0.0021222628483850668 -0.0026825316207761537 0 -0.0020442098364653119 -0.0027423838399236182 0 -0.0020694797046514027 -0.0026684248454454458 0 -0.0020442098364653119 -0.0027423838399236182 0 -0.0019752410639576629 -0.0026951467770960739 0 -0.002030095162444357 -0.0026461776754675365 0 -0.0019752410639576629 -0.0026951467770960739 0 -0.0019751180796341115 -0.0026269273250016287 0 -0.002030095162444357 -0.0026461776754675365 0 -0.001984237357402204 -0.0028032129901772907 0 -0.0020442098364653119 -0.0027423838399236182 0 -0.0019654760678645975 -0.0027626621029178751 0 -0.0020442098364653119 -0.0027423838399236182 0 -0.0019654760678645975 -0.0027626621029178751 0 -0.0019752410639576629 -0.0026951467770960739 0 -0.0019165380318188071 -0.0027466806724010893 0 -0.0019654760678645975 -0.0027626621029178751 0 -0.0019752410639576629 -0.0026951467770960739 0 -0.0019165380318188071 -0.0027466806724010893 0 -0.0019752410639576629 -0.0026951467770960739 0 -0.0018966262218578325 -0.0026252497697515646 0 -0.0019752410639576629 -0.0026951467770960739 0 -0.0018966262218578325 -0.0026252497697515646 0 -0.0019751180796341115 -0.0026269273250016287 0 -0.0018966262218578325 -0.0026252497697515646 0 -0.0019751180796341115 -0.0026269273250016287 0 -0.0019924869939496985 -0.0025319684633612126 0 -0.0018966262218578325 -0.0026252497697515646 0 -0.0019071320879897951 -0.0024409735826263564 0 -0.0019924869939496985 -0.0025319684633612126 0 -0.0019071320879897951 -0.0024409735826263564 0 -0.0019924869939496985 -0.0025319684633612126 0 -0.002006334577149365 -0.002315298484827233 0 -0.0019090652674620728 -0.0026866992879975128 0 -0.0019153349718491451 -0.0024618410054684024 0 -0.0020194918689749545 -0.0025335792866142295 0 -0.0020631267614160858 -0.0025421755447983876 0 -0.0019751180796341115 -0.0026269273250016287 0 -0.0019924869939496985 -0.0025319684633612126 0 -0.002030095162444357 -0.0026461776754675365 0 -0.0019924869939496985 -0.0025319684633612126 0 -0.002030095162444357 -0.0026461776754675365 0 -0.0020775074646323635 -0.002582652619178095 0 -0.0020694797046514027 -0.0026684248454454458 0 -0.002030095162444357 -0.0026461776754675365 0 -0.0020775074646323635 -0.002582652619178095 0 -0.0019924869939496985 -0.0025319684633612126 0 -0.0021718574016213834 -0.0024998824174001892 0 -0.0021745661576673637 -0.0023751851101963825 0 -0.0021745661576673637 -0.0023751851101963825 0 -0.0023578313350078686 -0.0023483718425004242 0 -0.0023398152865502339 -0.0024865203227436112 0 -0.0020631267614160858 -0.0025421755447983876 0 -0.0024940554331842439 -0.0025181894939738381 0 -0.0021718574016213834 -0.0024998824174001892 0 -0.0021745661576673637 -0.0023751851101963825 0 -0.0023398152865502339 -0.0024865203227436112 0 -0.0021222628483850668 -0.0026825316207761537 0 -0.0020694797046514027 -0.0026684248454454458 0 -0.0020775074646323635 -0.002582652619178095 0 -0.0021222628483850668 -0.0026825316207761537 0 -0.0020775074646323635 -0.002582652619178095 0 -0.0021427873271743399 -0.0026005459547021464 0 -0.0022353293476115536 -0.0022641164193840714 0 -0.0022598002107974686 -0.0021424902714812098 0 -0.0023921144272150566 -0.0022089124628737514 0 -0.0022353293476115536 -0.0022641164193840714 0 -0.0021745661576673637 -0.0023751851101963825 0 -0.0023578313350078686 -0.0023483718425004242 0 -0.0021745661576673637 -0.0023751851101963825 0 -0.0021205110402133282 -0.0021800681729310187 0 -0.002006334577149365 -0.002315298484827233 0 -0.0022353293476115536 -0.0022641164193840714 0 -0.0021745661576673637 -0.0023751851101963825 0 -0.0021205110402133282 -0.0021800681729310187 0 -0.0022353293476115536 -0.0022641164193840714 0 -0.0022598002107974686 -0.0021424902714812098 0 -0.0021205110402133282 -0.0021800681729310187 0 -0.0021205110402133282 -0.0021800681729310187 0 -0.0019674834913387422 -0.0021378547040009637 0 -0.002006334577149365 -0.002315298484827233 0 -0.0019924869939496985 -0.0025319684633612126 0 -0.0021745661576673637 -0.0023751851101963825 0 -0.002006334577149365 -0.002315298484827233 0 -0.0019071320879897951 -0.0024409735826263564 0 -0.002006334577149365 -0.002315298484827233 0 -0.0018392867425681143 -0.0022482764845169218 0 -0.0019674834913387422 -0.0021378547040009637 0 -0.002006334577149365 -0.002315298484827233 0 -0.0018392867425681143 -0.0022482764845169218 0 -0.0019674834913387422 -0.0021378547040009637 0 -0.0018392867425681143 -0.0022482764845169218 0 -0.0018143214363640814 -0.0020528083331916233 0 -0.0019674834913387422 -0.0021378547040009637 0 -0.0018143214363640814 -0.0020528083331916233 0 -0.0019000112657505358 -0.0020033597184724639 0 -0.0018143214363640814 -0.0020528083331916233 0 -0.0019000112657505358 -0.0020033597184724639 0 -0.0018284157818529378 -0.0019328350538308737 0 -0.0018284157818529378 -0.0019328350538308737 0 -0.0018420583084164629 -0.0018366947418206822 0 -0.0018837411619725692 -0.001858951491116922 0 -0.0019000112657505358 -0.0020033597184724639 0 -0.0018284157818529378 -0.0019328350538308737 0 -0.0018837411619725692 -0.001858951491116922 0 -0.0018837411619725692 -0.001858951491116922 0 -0.0020176520515426751 -0.0020284061985148152 0 -0.0021697877047450391 -0.0019787365479097025 0 -0.0019088196217257377 -0.0018642487895329282 0 -0.0019812643167356897 -0.001911051454119531 0 -0.0018837411619725692 -0.001858951491116922 0 -0.0018999808897525007 -0.0018430780051382008 0 -0.0018643022939616406 -0.0017728583392361435 0 -0.0021205110402133282 -0.0021800681729310187 0 -0.0019674834913387422 -0.0021378547040009637 0 -0.0020176520515426751 -0.0020284061985148152 0 -0.0019000112657505358 -0.0020033597184724639 0 -0.0018837411619725692 -0.001858951491116922 0 -0.0020176520515426751 -0.0020284061985148152 0 -0.0019674834913387422 -0.0021378547040009637 0 -0.0019000112657505358 -0.0020033597184724639 0 -0.0020176520515426751 -0.0020284061985148152 0 -0.0021205110402133282 -0.0021800681729310187 0 -0.0020176520515426751 -0.0020284061985148152 0 -0.0021697877047450391 -0.0019787365479097025 0 -0.0022598002107974686 -0.0021424902714812098 0 -0.0021205110402133282 -0.0021800681729310187 0 -0.0021697877047450391 -0.0019787365479097025 0 -0.0018999808897525007 -0.0018430780051382008 0 -0.0019684643284884114 -0.0018085434931786066 0 -0.0019976840482737509 -0.001875728797222418 0 -0.0018999808897525007 -0.0018430780051382008 0 -0.0019684643284884114 -0.0018085434931786066 0 -0.00190763069244125 -0.0017652643176891479 0 -0.0019812643167356897 -0.001911051454119531 0 -0.0023974011050987201 -0.0019292471293987353 0 -0.0022598002107974686 -0.0021424902714812098 0 -0.0021697877047450391 -0.0019787365479097025 0 -0.0023592748182174176 -0.0020736023680634442 0 -0.001258419682762372 -0.0021713242889349442 0 -0.0015227965316090503 -0.0022179320053343078 0 -0.0014410114949295085 -0.0020446630973269837 0 -0.0028196441456253105 -0.0020626355783646285 0 -0.0028444556265805176 -0.0020368404920825113 0 -0.0027710039431973334 -0.0018056048835989988 0 -0.0049097528907371584 -0.0017750351875102611 0 -0.0047347926057290171 -0.0017182029604579756 0 -0.0047936133639851124 -0.0018731813669218274 0 -0.0026179321622664545 -0.0022308343435147107 0 -0.0019765766399649923 -0.0021097784325073638 0 -0.0028473790592069372 -0.0022859957809044998 0 -0.0028196441456253105 -0.0020626355783646285 0 -0.0028444556265805176 -0.0020368404920825113 0 -0.0026179321622664545 -0.0022308343435147107 0 -0.0039407290555013895 -0.00191301250744503 0 -0.001258419682762372 -0.0021713242889349442 0 -0.0014651427987183924 -0.0023818500645925796 0 -0.0015227965316090503 -0.0022179320053343078 0 -0.0013107170620541154 -0.0025213784454902592 0 -0.001258419682762372 -0.0021713242889349442 0 -0.0014651427987183924 -0.0023818500645925796 0 -0.0017585201615085693 -0.0024330364701001502 0 -0.0016138037247117553 -0.0023665778333012586 0 -0.0016839787322045488 -0.0022720646162564914 0 -0.0016138037247117553 -0.0023665778333012586 0 -0.0016839787322045488 -0.0022720646162564914 0 -0.0015227965316090503 -0.0022179320053343078 0 -0.0014651427987183924 -0.0023818500645925796 0 -0.0016138037247117553 -0.0023665778333012586 0 -0.0015227965316090503 -0.0022179320053343078 0 -0.0017585201615085693 -0.0024330364701001502 0 -0.0018392867425681143 -0.0022482764845169218 0 -0.0016839787322045488 -0.0022720646162564914 0 -0.0017585201615085693 -0.0024330364701001502 0 -0.0019071320879897951 -0.0024409735826263564 0 -0.0018392867425681143 -0.0022482764845169218 0 -0.0018392867425681143 -0.0022482764845169218 0 -0.0016839787322045488 -0.0022720646162564914 0 -0.0016482219788207374 -0.002103155506485013 0 -0.0018392867425681143 -0.0022482764845169218 0 -0.0018143214363640814 -0.0020528083331916233 0 -0.0016482219788207374 -0.002103155506485013 0 -0.0015227965316090503 -0.0022179320053343078 0 -0.0016482219788207374 -0.002103155506485013 0 -0.0014410114949295085 -0.0020446630973269837 0 -0.0016839787322045488 -0.0022720646162564914 0 -0.0015227965316090503 -0.0022179320053343078 0 -0.0016482219788207374 -0.002103155506485013 0 -0.0016482219788207374 -0.002103155506485013 0 -0.001672433976424243 -0.0019419120026151844 0 -0.0014410114949295085 -0.0020446630973269837 0 -0.0015270780238398523 -0.0018775157405650368 0 -0.0014144863406737021 -0.0018291767209627848 0 -0.0014410114949295085 -0.0020446630973269837 0 -0.001593139150634294 -0.001915412145012409 0 -0.0014434590848264189 -0.0020375378158015291 0 -0.0018143214363640814 -0.0020528083331916233 0 -0.0016482219788207374 -0.002103155506485013 0 -0.001672433976424243 -0.0019419120026151844 0 -0.0018143214363640814 -0.0020528083331916233 0 -0.0018284157818529378 -0.0019328350538308737 0 -0.001672433976424243 -0.0019419120026151844 0 -0.0018284157818529378 -0.0019328350538308737 0 -0.0018420583084164629 -0.0018366947418206822 0 -0.001672433976424243 -0.0019419120026151844 0 -0.0016106531689441717 -0.0017677669702416345 0 -0.0015270780238398523 -0.0018775157405650368 0 -0.0014885837655397673 -0.0017681696469632612 0 -0.0017236512454879658 -0.0018033585016240261 0 -0.001593139150634294 -0.001915412145012409 0 -0.0015270780238398523 -0.0018775157405650368 0 -0.0014885837655397673 -0.0017681696469632612 0 -0.0014144863406737021 -0.0018291767209627848 0 -0.0014144863406737021 -0.0018291767209627848 0 -0.0012299694004637219 -0.0018573417230829006 0 -0.0013273753820368622 -0.0017202575572795495 0 -0.0014144863406737021 -0.0018291767209627848 0 -0.0014410114949295085 -0.0020446630973269837 0 -0.0012299694004637219 -0.0018573417230829006 0 -0.0019765766399649923 -0.0021097784325073638 0 -0.0020229548424612401 -0.0019277961730793331 0 -0.0039407290555013895 -0.00191301250744503 0 -0.0038650552975606121 -0.0020304221222218924 0 -0.001258419682762372 -0.0021713242889349442 0 -0.0014410114949295085 -0.0020446630973269837 0 -0.0012299694004637219 -0.0018573417230829006 0 -0.0028444556265805176 -0.0020368404920825113 0 -0.0027710039431973334 -0.0018056048835989988 0 -0.0028267567626707375 -0.0017455401018697703 0 -0.0027710039431973334 -0.0018056048835989988 0 -0.0028267567626707375 -0.0017455401018697703 0 -0.0027098015742392208 -0.0015141657978196305 0 -0.0012299694004637219 -0.0018573417230829006 0 -0.0012252926491211557 -0.0016256501815874321 0 -0.0013273753820368622 -0.0017202575572795495 0 -0.0020229548424612401 -0.0019277961730793331 0 -0.0021505888613952921 -0.00093958032717323585 0 -0.0028267567626707375 -0.0017455401018697703 0 -0.0027995994822499785 -0.0014161227112584216 0 -0.0027098015742392208 -0.0015141657978196305 0 -0.0021505888613952921 -0.00093958032717323585 0 -0.0032779797934232337 -0.0014245996872123299 0 -0.0021881213178252981 0.00012091685364961812 0 -0.0021796548801389184 0.00014321849777002864 0 -0.0021619360559235546 0.00016512409058335904 0 -0.0021881213178252981 0.00012091685364961812 0 -0.0021851090954875495 0.00013124565330379734 0 -0.0021796548801389184 0.00014321849777002864 0 -0.0021505888613952921 -0.00093958032717323585 0 -0.0021595571222643461 0.00041383481791291093 0 -0.0022194465548403776 6.6862170261616584e-05 0 -0.0021851090954875495 0.00013124565330379734 0 -0.0021778104061702121 0.00010355378265794306 0 -0.0021505888613952921 -0.00093958032717323585 0 -0.001678710474132581 -0.0006518632524238439 0 -0.0012252926491211557 -0.0016256501815874321 0 -0.0013484643495713894 -0.0016205758649261398 0 -0.0013480911882402075 -0.0014948812384146663 0 -0.0013484643495713894 -0.0016205758649261398 0 -0.0014340876831470562 -0.0015874035628662567 0 -0.0013480911882402075 -0.0014948812384146663 0 -0.0014144863406737021 -0.0018291767209627848 0 -0.0013273753820368622 -0.0017202575572795495 0 -0.0014115256721589585 -0.0016856215472593266 0 -0.0013484643495713894 -0.0016205758649261398 0 -0.0013273753820368622 -0.0017202575572795495 0 -0.0014115256721589585 -0.0016856215472593266 0 -0.0012252926491211557 -0.0016256501815874321 0 -0.0013484643495713894 -0.0016205758649261398 0 -0.0013273753820368622 -0.0017202575572795495 0 -0.0014885837655397673 -0.0017681696469632612 0 -0.0014144863406737021 -0.0018291767209627848 0 -0.0014115256721589585 -0.0016856215472593266 0 -0.0014885837655397673 -0.0017681696469632612 0 -0.0014115256721589585 -0.0016856215472593266 0 -0.0015148632890528005 -0.0016744182906928086 0 -0.0016106531689441717 -0.0017677669702416345 0 -0.0014885837655397673 -0.0017681696469632612 0 -0.0015148632890528005 -0.0016744182906928086 0 -0.001524466189011449 -0.0015678336945353034 0 -0.0014340876831470562 -0.0015874035628662567 0 -0.0014564108623374872 -0.0014906033995072975 0 -0.0015148632890528005 -0.0016744182906928086 0 -0.001524466189011449 -0.0015678336945353034 0 -0.0014340876831470562 -0.0015874035628662567 0 -0.0015148632890528005 -0.0016744182906928086 0 -0.001524466189011449 -0.0015678336945353034 0 -0.0016082141191707726 -0.0016435255285997298 0 -0.0014115256721589585 -0.0016856215472593266 0 -0.0015148632890528005 -0.0016744182906928086 0 -0.0014340876831470562 -0.0015874035628662567 0 -0.0013484643495713894 -0.0016205758649261398 0 -0.0014115256721589585 -0.0016856215472593266 0 -0.0014340876831470562 -0.0015874035628662567 0 -0.0014340876831470562 -0.0015874035628662567 0 -0.0014564108623374872 -0.0014906033995072975 0 -0.0013480911882402075 -0.0014948812384146663 0 -0.0014564108623374872 -0.0014906033995072975 0 -0.0014357541904258448 -0.0013582699237875461 0 -0.0013480911882402075 -0.0014948812384146663 0 -0.001524466189011449 -0.0015678336945353034 0 -0.0014564108623374872 -0.0014906033995072975 0 -0.0015359582970417296 -0.0014467165271955622 0 -0.0014357541904258448 -0.0013582699237875461 0 -0.0015359582970417296 -0.0014467165271955622 0 -0.0015775879419882002 -0.0013150430661531052 0 -0.0014564108623374872 -0.0014906033995072975 0 -0.0014357541904258448 -0.0013582699237875461 0 -0.0015359582970417296 -0.0014467165271955622 0 -0.00175557711570585 -0.00059196642248820965 0 -0.001678710474132581 -0.0006518632524238439 0 -0.0020543745799343526 0.00017463645820276543 0 -0.002141464317644027 0.00015931262727830051 0 -0.0021375725344284498 0.00012861942367908306 0 -0.0020543745799343526 0.00017463645820276543 0 -0.002141464317644027 0.00015931262727830051 0 -0.0021619360559235546 0.00016512409058335904 0 -0.0039147601508348331 9.1174858501810784e-05 0 -0.0041807424873950561 1.467609835596878e-05 0 -0.002141464317644027 0.00015931262727830051 0 -0.0021838026639323096 0.00016326257687481743 0 -0.0021375725344284498 0.00012861942367908306 0 -0.005918580597823 -0.00017934934489064364 0 -0.0059108654228062236 -0.00013364076260841392 0 -0.0059453158395228753 -0.00010614415838061957 0 -0.005918580597823 -0.00017934934489064364 0 -0.0059108654228062236 -0.00013364076260841392 0 -0.0058635706510481887 -0.00018034694176729982 0 -0.0039147601508348331 9.1174858501810784e-05 0 -0.0049203853514793007 -0.00084131011320383526 0 -0.0021838026639323096 0.00016326257687481743 0 -0.0021851090954875495 0.00013124565330379734 0 -0.0021778104061702121 0.00010355378265794306 0 -0.0021838026639323096 0.00016326257687481743 0 -0.0021851090954875495 0.00013124565330379734 0 -0.0021796548801389184 0.00014321849777002864 0 -0.002141464317644027 0.00015931262727830051 0 -0.0021838026639323096 0.00016326257687481743 0 -0.0021619360559235546 0.00016512409058335904 0 -0.0021838026639323096 0.00016326257687481743 0 -0.0021796548801389184 0.00014321849777002864 0 -0.0021619360559235546 0.00016512409058335904 0 -0.001872471215861178 -0.0015524584041651545 0 -0.0019464266622283186 -0.0016868793896710457 0 -0.0018624066254187082 -0.0016349620405145915 0 -0.0018638897236052578 -0.0015419092780695482 0 -0.0019936359022523051 -0.0017159565037297019 0 -0.0018638897236052578 -0.0015419092780695482 0 -0.0019243146485757507 -0.0016550522771170261 0 -0.0019379886659323751 -0.0015608902335724568 0 -0.00190763069244125 -0.0017652643176891479 0 -0.0018624066254187082 -0.0016349620405145915 0 -0.0019936359022523051 -0.0017159565037297019 0 -0.0019684643284884114 -0.0018085434931786066 0 -0.00190763069244125 -0.0017652643176891479 0 -0.0019936359022523051 -0.0017159565037297019 0 -0.00190763069244125 -0.0017652643176891479 0 -0.0018624066254187082 -0.0016349620405145915 0 -0.0018643022939616406 -0.0017728583392361435 0 -0.0018999808897525007 -0.0018430780051382008 0 -0.00190763069244125 -0.0017652643176891479 0 -0.0018643022939616406 -0.0017728583392361435 0 -0.0018624066254187082 -0.0016349620405145915 0 -0.0017074659163926627 -0.0016916742133278521 0 -0.0017725873647400268 -0.0015578212850346895 0 -0.001867610558818933 -0.0016408686640009406 0 -0.0017913796862186894 -0.001726049686286385 0 -0.0018624066254187082 -0.0016349620405145915 0 -0.0017725873647400268 -0.0015578212850346895 0 -0.0018638897236052578 -0.0015419092780695482 0 -0.0016793734236729516 -0.0015912170564974025 0 -0.0017074659163926627 -0.0016916742133278521 0 -0.0016082141191707726 -0.0016435255285997298 0 -0.0016793734236729516 -0.0015912170564974025 0 -0.0017074659163926627 -0.0016916742133278521 0 -0.0017725873647400268 -0.0015578212850346895 0 -0.0017236512454879658 -0.0018033585016240261 0 -0.0017913796862186894 -0.001726049686286385 0 -0.0018420583084164629 -0.0018366947418206822 0 -0.0018837411619725692 -0.001858951491116922 0 -0.0018643022939616406 -0.0017728583392361435 0 -0.0016106531689441717 -0.0017677669702416345 0 -0.0015148632890528005 -0.0016744182906928086 0 -0.0016082141191707726 -0.0016435255285997298 0 -0.0016106531689441717 -0.0017677669702416345 0 -0.0017074659163926627 -0.0016916742133278521 0 -0.0016082141191707726 -0.0016435255285997298 0 -0.0016793734236729516 -0.0015912170564974025 0 -0.0016082141191707726 -0.0016435255285997298 0 -0.0016133656395286536 -0.0015376798123730941 0 -0.001524466189011449 -0.0015678336945353034 0 -0.0016082141191707726 -0.0016435255285997298 0 -0.0016133656395286536 -0.0015376798123730941 0 -0.0015359582970417296 -0.0014467165271955622 0 -0.0016133656395286536 -0.0015376798123730941 0 -0.0016446991235397313 -0.001430796953412127 0 -0.001524466189011449 -0.0015678336945353034 0 -0.0015359582970417296 -0.0014467165271955622 0 -0.0016133656395286536 -0.0015376798123730941 0 -0.0015359582970417296 -0.0014467165271955622 0 -0.0016446991235397313 -0.001430796953412127 0 -0.0015775879419882002 -0.0013150430661531052 0 -0.0016446991235397313 -0.001430796953412127 0 -0.0016815978843733759 -0.0013576136304450036 0 -0.0015775879419882002 -0.0013150430661531052 0 -0.0016446991235397313 -0.001430796953412127 0 -0.0016815978843733759 -0.0013576136304450036 0 -0.0017473146362150262 -0.0014285794282093698 0 -0.0016446991235397313 -0.001430796953412127 0 -0.0017060715652688441 -0.001518002230427252 0 -0.0017473146362150262 -0.0014285794282093698 0 -0.0016793734236729516 -0.0015912170564974025 0 -0.0016133656395286536 -0.0015376798123730941 0 -0.0017060715652688441 -0.001518002230427252 0 -0.0016133656395286536 -0.0015376798123730941 0 -0.0016446991235397313 -0.001430796953412127 0 -0.0017060715652688441 -0.001518002230427252 0 -0.0016793734236729516 -0.0015912170564974025 0 -0.0017060715652688441 -0.001518002230427252 0 -0.0017725873647400268 -0.0015578212850346895 0 -0.0017060715652688441 -0.001518002230427252 0 -0.0017725873647400268 -0.0015578212850346895 0 -0.0017473146362150262 -0.0014285794282093698 0 -0.0017725873647400268 -0.0015578212850346895 0 -0.0017473146362150262 -0.0014285794282093698 0 -0.0018397145838306879 -0.0014555678200269128 0 -0.0017725873647400268 -0.0015578212850346895 0 -0.0018397145838306879 -0.0014555678200269128 0 -0.0018638897236052578 -0.0015419092780695482 0 -0.0017473146362150262 -0.0014285794282093698 0 -0.0018397145838306879 -0.0014555678200269128 0 -0.0017686065184217522 -0.0013101839544193616 0 -0.0016815978843733759 -0.0013576136304450036 0 -0.0017473146362150262 -0.0014285794282093698 0 -0.0017686065184217522 -0.0013101839544193616 0 -0.001909881848308888 -0.0013877824630727815 0 -0.0018397145838306879 -0.0014555678200269128 0 -0.0017686065184217522 -0.0013101839544193616 0 -0.001909881848308888 -0.0013877824630727815 0 -0.0019113429059037768 -0.0014932984406334671 0 -0.0018397145838306879 -0.0014555678200269128 0 -0.0019113429059037768 -0.0014932984406334671 0 -0.0018638897236052578 -0.0015419092780695482 0 -0.0019379886659323751 -0.0015608902335724568 0 -0.0019113429059037768 -0.0014932984406334671 0 -0.0018397145838306879 -0.0014555678200269128 0 -0.0018638897236052578 -0.0015419092780695482 0 -0.0011568355838640853 -0.00082825886275954903 0 -0.0010768526779436813 -0.0011090695915592084 0 -0.00083984264705033057 -0.00097745597372912545 0 -0.0011568355838640853 -0.00082825886275954903 0 -0.0013534981889160439 -0.0011528198145862531 0 -0.0010768526779436813 -0.0011090695915592084 0 -0.001909881848308888 -0.0013877824630727815 0 -0.0018626569091491076 -0.0012095014949992811 0 -0.0017686065184217522 -0.0013101839544193616 0 -0.0018626569091491076 -0.0012095014949992811 0 -0.0017686065184217522 -0.0013101839544193616 0 -0.0016741273914829919 -0.0012028388988254602 0 -0.0016815978843733759 -0.0013576136304450036 0 -0.0017686065184217522 -0.0013101839544193616 0 -0.0016506281122581519 -0.0012628221434991609 0 -0.0017686065184217522 -0.0013101839544193616 0 -0.0016741273914829919 -0.0012028388988254602 0 -0.0016506281122581519 -0.0012628221434991609 0 -0.0011568355838640853 -0.00082825886275954903 0 -0.001575810376597081 -0.0010684370559894954 0 -0.0013534981889160439 -0.0011528198145862531 0 -0.0018626569091491076 -0.0012095014949992811 0 -0.0016741273914829919 -0.0012028388988254602 0 -0.001575810376597081 -0.0010684370559894954 0 -0.0014829901559938222 -0.0010218580938158328 0 -0.0015834186513618404 -0.0010657876722103333 0 -0.001575810376597081 -0.0010684370559894954 0 -0.0015784130271556396 -0.0011663581835949499 0 -0.0015903230183290545 -0.0011051927219853457 0 -0.0016741273914829919 -0.0012028388988254602 0 -0.001575810376597081 -0.0010684370559894954 0 -0.0015784130271556396 -0.0011663581835949499 0 -0.0016815978843733759 -0.0013576136304450036 0 -0.0016506281122581519 -0.0012628221434991609 0 -0.0015775879419882002 -0.0013150430661531052 0 -0.0016741273914829919 -0.0012028388988254602 0 -0.0015784130271556396 -0.0011663581835949499 0 -0.0016506281122581519 -0.0012628221434991609 0 -0.0015784130271556396 -0.0011663581835949499 0 -0.0016506281122581519 -0.0012628221434991609 0 -0.0015775879419882002 -0.0013150430661531052 0 -0.0015784130271556396 -0.0011663581835949499 0 -0.0015775879419882002 -0.0013150430661531052 0 -0.0015241598361437337 -0.0011913192414951693 0 -0.0017015549778412523 -0.00053874099392045983 0 -0.0016189040520966853 -0.00055257277258607539 0 -0.0018841392615652549 0.0001212203283829329 0 -0.0018261097605623896 -3.1241753906725969e-05 0 -0.0019569889252283065 2.9542651982615123e-05 0 -0.0015784130271556396 -0.0011663581835949499 0 -0.0015241598361437337 -0.0011913192414951693 0 -0.0015903230183290545 -0.0011051927219853457 0 -0.0018841392615652549 0.0001212203283829329 0 -0.0018261097605623896 -3.1241753906725969e-05 0 -0.0016611391764021753 1.1451927166610444e-05 0 -0.0018261097605623896 -3.1241753906725969e-05 0 -0.0017444122473368945 -8.3617109455685857e-05 0 -0.0016611391764021753 1.1451927166610444e-05 0 -0.0016443077157310664 -0.00017442081214969217 0 -0.0018904074726147156 -0.00015621051383706537 0 -0.0017341255308079859 -0.00031431935371375449 0 -0.0018261097605623896 -3.1241753906725969e-05 0 -0.0017444122473368945 -8.3617109455685857e-05 0 -0.0018904074726147156 -0.00015621051383706537 0 -0.0017444122473368945 -8.3617109455685857e-05 0 -0.0016443077157310664 -0.00017442081214969217 0 -0.0018904074726147156 -0.00015621051383706537 0 -0.0016443077157310664 -0.00017442081214969217 0 -0.0016611391764021753 1.1451927166610444e-05 0 -0.001395712221665267 -0.00016616944794400031 0 -0.0017444122473368945 -8.3617109455685857e-05 0 -0.0016443077157310664 -0.00017442081214969217 0 -0.0016611391764021753 1.1451927166610444e-05 0 -0.001575810376597081 -0.0010684370559894954 0 -0.0015903230183290545 -0.0011051927219853457 0 -0.0013534981889160439 -0.0011528198145862531 0 -0.0015903230183290545 -0.0011051927219853457 0 -0.0013534981889160439 -0.0011528198145862531 0 -0.0012667884881884292 -0.0013579506031322361 0 -0.0016189040520966853 -0.00055257277258607539 0 -0.001333032394160208 -0.00075850960735124187 0 -0.0012667884881884292 -0.0013579506031322361 0 -0.0010768526779436813 -0.0011090695915592084 0 -0.00090404725687215142 -0.0012773309765933612 0 -0.0013534981889160439 -0.0011528198145862531 0 -0.0012667884881884292 -0.0013579506031322361 0 -0.0010768526779436813 -0.0011090695915592084 0 -0.0059484640797541769 -8.2256084679787115e-05 0 -0.0059298082218508423 -9.6461728792225418e-05 0 -0.0059453158395228753 -0.00010614415838061957 0 -0.0059484640797541769 -8.2256084679787115e-05 0 -0.0059453158395228753 -0.00010614415838061957 0 -0.0059188626338348418 -7.7621830989171416e-05 0 -0.0059484640797541769 -8.2256084679787115e-05 0 -0.0059298082218508423 -9.6461728792225418e-05 0 -0.0059780087146765011 -6.9873880741479476e-05 0 -0.0059298082218508423 -9.6461728792225418e-05 0 -0.0059108654228062236 -0.00013364076260841392 0 -0.0059453158395228753 -0.00010614415838061957 0 -0.0020543745799343526 0.00017463645820276543 0 -0.0021375725344284498 0.00012861942367908306 0 -0.0020475815239689686 0.00011327635096792056 0 -0.00175557711570585 -0.00059196642248820965 0 -0.0017015549778412523 -0.00053874099392045983 0 -0.0020543745799343526 0.00017463645820276543 0 -0.0018841392615652549 0.0001212203283829329 0 -0.0020475815239689686 0.00011327635096792056 0 -0.0014357541904258448 -0.0013582699237875461 0 -0.0015775879419882002 -0.0013150430661531052 0 -0.0015241598361437337 -0.0011913192414951693 0 -0.0018841392615652549 0.0001212203283829329 0 -0.0020475815239689686 0.00011327635096792056 0 -0.0019821290911821872 7.6359386465487628e-05 0 -0.0018841392615652549 0.0001212203283829329 0 -0.0019821290911821872 7.6359386465487628e-05 0 -0.0019569889252283065 2.9542651982615123e-05 0 -0.0019821290911821872 7.6359386465487628e-05 0 -0.0019569889252283065 2.9542651982615123e-05 0 -0.0020384110541044873 2.5743277528631621e-05 0 -0.0041807424873950561 1.467609835596878e-05 0 -0.0031867479212959659 4.8774839373203475e-05 0 -0.0021375725344284498 0.00012861942367908306 0 -0.0020475815239689686 0.00011327635096792056 0 -0.0020384110541044873 2.5743277528631621e-05 0 -0.0020475815239689686 0.00011327635096792056 0 -0.0019821290911821872 7.6359386465487628e-05 0 -0.0020384110541044873 2.5743277528631621e-05 0 -0.0031867479212959659 4.8774839373203475e-05 0 -0.0041204824156503422 -0.0001656554191144359 0 -0.0059188626338348418 -7.7621830989171416e-05 0 -0.005915522245869065 -9.7266750830680222e-05 0 -0.0059384634575158817 -8.0454933981533293e-05 0 -0.0021149782934825668 0.0001334970446626254 0 -0.0020028151488872248 -9.798883977014165e-06 0 -0.0021931987157536308 -8.4622997898656764e-05 0 -0.0018261097605623896 -3.1241753906725969e-05 0 -0.0019569889252283065 2.9542651982615123e-05 0 -0.0019645477553340853 -6.1996900694644133e-05 0 -0.0031867479212959659 4.8774839373203475e-05 0 -0.0019494093729651783 -0.00013680437735055399 0 -0.0019569889252283065 2.9542651982615123e-05 0 -0.0020384110541044873 2.5743277528631621e-05 0 -0.0019645477553340853 -6.1996900694644133e-05 0 -0.0018261097605623896 -3.1241753906725969e-05 0 -0.0019645477553340853 -6.1996900694644133e-05 0 -0.0018904074726147156 -0.00015621051383706537 0 -0.0020028151488872248 -9.798883977014165e-06 0 -0.0020303632767085448 -0.00020007852988640262 0 -0.0018904074726147156 -0.00015621051383706537 0 -0.0019494093729651783 -0.00013680437735055399 0 -0.0019234150769642153 -0.00011735630101536673 0 -0.0041204824156503422 -0.0001656554191144359 0 -0.0041781614905370325 -2.3724250243280809e-06 0 -0.0020028151488872248 -9.798883977014165e-06 0 -0.0020303632767085448 -0.00020007852988640262 0 -0.0021931987157536308 -8.4622997898656764e-05 0 -0.0020303632767085448 -0.00020007852988640262 0 -0.0021931987157536308 -8.4622997898656764e-05 0 -0.0021271837268574956 -0.0002655615360360197 0 -0.005915522245869065 -9.7266750830680222e-05 0 -0.0059451075089371717 -0.0001078743105538922 0 -0.0059161123746577947 -0.00013660486432519783 0 -0.0060401460486177233 9.1066279426052716e-05 0 -0.0041781614905370325 -2.3724250243280809e-06 0 -0.0060401460486177233 9.1066279426052716e-05 0 -0.0059709327614574032 -0.00010055383444840012 0 -0.005915522245869065 -9.7266750830680222e-05 0 -0.0059451075089371717 -0.0001078743105538922 0 -0.0059384634575158817 -8.0454933981533293e-05 0 -0.0059484640797541769 -8.2256084679787115e-05 0 -0.0059188626338348418 -7.7621830989171416e-05 0 -0.0059384634575158817 -8.0454933981533293e-05 0 -0.0059451075089371717 -0.0001078743105538922 0 -0.0059384634575158817 -8.0454933981533293e-05 0 -0.0059780087146765011 -6.9873880741479476e-05 0 -0.0059484640797541769 -8.2256084679787115e-05 0 -0.0059384634575158817 -8.0454933981533293e-05 0 -0.0059780087146765011 -6.9873880741479476e-05 0 -0.0059298082218508423 -9.6461728792225418e-05 0 -0.0059780087146765011 -6.9873880741479476e-05 0 -0.0059327101523344045 -5.8909397513540566e-05 0 -0.0059780087146765011 -6.9873880741479476e-05 0 -0.0059653580084991767 -3.3764587648147454e-06 0 -0.0059327101523344045 -5.8909397513540566e-05 0 -0.0059653580084991767 -3.3764587648147454e-06 0 -0.0059184217611721011 4.5234291058883098e-05 0 -0.0060223393626666309 0.00012595417806067645 0 -0.0060818645783342687 1.9463515266639458e-05 0 -0.0059653580084991767 -3.3764587648147454e-06 0 -0.0060223393626666309 0.00012595417806067645 0 -0.0060818645783342687 1.9463515266639458e-05 0 -0.0059780087146765011 -6.9873880741479476e-05 0 -0.0059653580084991767 -3.3764587648147454e-06 0 -0.0059184217611721011 4.5234291058883098e-05 0 -0.0059127817618518557 -2.3456026593338717e-05 0 -0.0058833480189696237 -8.7149333760257847e-06 0 -0.0059653580084991767 -3.3764587648147454e-06 0 -0.0059184217611721011 4.5234291058883098e-05 0 -0.0059127817618518557 -2.3456026593338717e-05 0 -0.0058833480189696237 -8.7149333760257847e-06 0 -0.0059719709676290993 -0.00026058333692568629 0 -0.0057565983477947469 -8.2116046151246884e-05 0 -0.0059184217611721011 4.5234291058883098e-05 0 -0.0058833480189696237 -8.7149333760257847e-06 0 -0.0058188695756131179 3.5549498012055546e-05 0 -0.0059127817618518557 -2.3456026593338717e-05 0 -0.0058833480189696237 -8.7149333760257847e-06 0 -0.005886820419991467 -6.8559694966598218e-05 0 -0.0058895329407637866 -2.1523487692386726e-05 0 -0.0059282498807046334 -0.00016421123486738671 0 -0.0059127817618518557 -2.3456026593338717e-05 0 -0.005886820419991467 -6.8559694966598218e-05 0 -0.0059327101523344045 -5.8909397513540566e-05 0 -0.0059653580084991767 -3.3764587648147454e-06 0 -0.0059127817618518557 -2.3456026593338717e-05 0 -0.0059327101523344045 -5.8909397513540566e-05 0 -0.0059298082218508423 -9.6461728792225418e-05 0 -0.005886820419991467 -6.8559694966598218e-05 0 -0.0059327101523344045 -5.8909397513540566e-05 0 -0.0059298082218508423 -9.6461728792225418e-05 0 -0.005886820419991467 -6.8559694966598218e-05 0 -0.0058791185289027463 -0.00011897905941634463 0 -0.0059719709676290993 -0.00026058333692568629 0 -0.0060349248475471649 -0.00050956329584802553 0 -0.0058444142348029792 -0.00041829771904130397 0 -0.0059282498807046334 -0.00016421123486738671 0 -0.0059465954501369137 -0.00031880010936374511 0 -0.0060349248475471649 -0.00050956329584802553 0 -0.0057634958608069192 -0.00059969494306096906 0 -0.0058444142348029792 -0.00041829771904130397 0 -0.0059298082218508423 -9.6461728792225418e-05 0 -0.0059108654228062236 -0.00013364076260841392 0 -0.0058791185289027463 -0.00011897905941634463 0 -0.0057634958608069192 -0.00059969494306096906 0 -0.0056647542981877385 -0.00043462074228442737 0 -0.0054945830344659335 -0.00060959700702302693 0 -0.0057634958608069192 -0.00059969494306096906 0 -0.0058444142348029792 -0.00041829771904130397 0 -0.0056647542981877385 -0.00043462074228442737 0 -0.0059719709676290993 -0.00026058333692568629 0 -0.0058444142348029792 -0.00041829771904130397 0 -0.0057187355510113442 -0.000264700193976117 0 -0.0058444142348029792 -0.00041829771904130397 0 -0.0056647542981877385 -0.00043462074228442737 0 -0.0057187355510113442 -0.000264700193976117 0 -0.0056647542981877385 -0.00043462074228442737 0 -0.0057187355510113442 -0.000264700193976117 0 -0.0055269537809927004 -0.00035119332357874775 0 -0.0057187355510113442 -0.000264700193976117 0 -0.0057565983477947469 -8.2116046151246884e-05 0 -0.0055374056287562307 -0.00011395925267935339 0 -0.0057187355510113442 -0.000264700193976117 0 -0.0055374056287562307 -0.00011395925267935339 0 -0.0055269537809927004 -0.00035119332357874775 0 -0.0059719709676290993 -0.00026058333692568629 0 -0.0057187355510113442 -0.000264700193976117 0 -0.0057565983477947469 -8.2116046151246884e-05 0 -0.0058833480189696237 -8.7149333760257847e-06 0 -0.0057565983477947469 -8.2116046151246884e-05 0 -0.0058188695756131179 3.5549498012055546e-05 0 -0.0057565983477947469 -8.2116046151246884e-05 0 -0.0055374056287562307 -0.00011395925267935339 0 -0.0056164492756095117 7.1718570343538233e-05 0 -0.0055374056287562307 -0.00011395925267935339 0 -0.0052616608767624548 -8.8859467728960283e-05 0 -0.0054081801830079077 0.0001151530171694738 0 -0.0055374056287562307 -0.00011395925267935339 0 -0.0053789079941721244 -0.00025679609516604047 0 -0.0052616608767624548 -8.8859467728960283e-05 0 -0.0055374056287562307 -0.00011395925267935339 0 -0.0053789079941721244 -0.00025679609516604047 0 -0.0055269537809927004 -0.00035119332357874775 0 -0.0052616608767624548 -8.8859467728960283e-05 0 -0.0049999855404696475 -0.00017191190629470756 0 -0.0051156154329016056 1.1092337692397671e-05 0 -0.0049999855404696475 -0.00017191190629470756 0 -0.0049999848476685229 0.00012759139452947978 0 -0.0051156154329016056 1.1092337692397671e-05 0 -0.0053789079941721244 -0.00025679609516604047 0 -0.0052616608767624548 -8.8859467728960283e-05 0 -0.0052015834002072268 -0.00034774169589533852 0 -0.0052616608767624548 -8.8859467728960283e-05 0 -0.0049999855404696475 -0.00017191190629470756 0 -0.0052015834002072268 -0.00034774169589533852 0 -0.0049999855404696475 -0.00017191190629470756 0 -0.0052015834002072268 -0.00034774169589533852 0 -0.0049999847775368308 -0.00047139861208180195 0 -0.0052015834002072268 -0.00034774169589533852 0 -0.0052301496064918324 -0.00059779726194383019 0 -0.0053667014178708644 -0.00043669358682984886 0 -0.0052015834002072268 -0.00034774169589533852 0 -0.0052301496064918324 -0.00059779726194383019 0 -0.0049999847775368308 -0.00047139861208180195 0 -0.0052301496064918324 -0.00059779726194383019 0 -0.0049999847775368308 -0.00047139861208180195 0 -0.0049999795652451891 -0.00077089590875502193 0 -0.0053789079941721244 -0.00025679609516604047 0 -0.0055269537809927004 -0.00035119332357874775 0 -0.0053667014178708644 -0.00043669358682984886 0 -0.0053789079941721244 -0.00025679609516604047 0 -0.0052015834002072268 -0.00034774169589533852 0 -0.0053667014178708644 -0.00043669358682984886 0 -0.0052301496064918324 -0.00059779726194383019 0 -0.0053667014178708644 -0.00043669358682984886 0 -0.0054945830344659335 -0.00060959700702302693 0 -0.0056647542981877385 -0.00043462074228442737 0 -0.0055269537809927004 -0.00035119332357874775 0 -0.0054945830344659335 -0.00060959700702302693 0 -0.0055269537809927004 -0.00035119332357874775 0 -0.0053667014178708644 -0.00043669358682984886 0 -0.0054945830344659335 -0.00060959700702302693 0 -0.0052301496064918324 -0.00059779726194383019 0 -0.0054945830344659335 -0.00060959700702302693 0 -0.0052857849318310611 -0.00088856257457533216 0 -0.0054945830344659335 -0.00060959700702302693 0 -0.0052857849318310611 -0.00088856257457533216 0 -0.00552448391577595 -0.00091838596207676154 0 -0.0052857849318310611 -0.00088856257457533216 0 -0.0049999795652451891 -0.00077089590875502193 0 -0.004999982970992323 -0.0010703865015799646 0 -0.0052301496064918324 -0.00059779726194383019 0 -0.0052857849318310611 -0.00088856257457533216 0 -0.0049999795652451891 -0.00077089590875502193 0 -0.0052857849318310611 -0.00088856257457533216 0 -0.004999982970992323 -0.0010703865015799646 0 -0.0052184757709461717 -0.0011901139320082408 0 -0.0049999914915113252 -0.0013698621489209972 0 -0.004999982970992323 -0.0010703865015799646 0 -0.0052184757709461717 -0.0011901139320082408 0 -0.0052857849318310611 -0.00088856257457533216 0 -0.00552448391577595 -0.00091838596207676154 0 -0.0054398072426080765 -0.0011855619853383861 0 -0.00552448391577595 -0.00091838596207676154 0 -0.0054398072426080765 -0.0011855619853383861 0 -0.0056329760032241888 -0.0011266634110375187 0 -0.0052857849318310611 -0.00088856257457533216 0 -0.0052184757709461717 -0.0011901139320082408 0 -0.0054398072426080765 -0.0011855619853383861 0 -0.0053503566506891663 -0.0013596473731872592 0 -0.0052184757709461717 -0.0011901139320082408 0 -0.0054398072426080765 -0.0011855619853383861 0 -0.0055389882851104933 -0.0013186500904876167 0 -0.0054398072426080765 -0.0011855619853383861 0 -0.0056329760032241888 -0.0011266634110375187 0 -0.0055389882851104933 -0.0013186500904876167 0 -0.0056329760032241888 -0.0011266634110375187 0 -0.0057086828738126391 -0.0012613820748335978 0 -0.00552448391577595 -0.00091838596207676154 0 -0.0056329760032241888 -0.0011266634110375187 0 -0.005785067872889375 -0.00094463975762236691 0 -0.0056329760032241888 -0.0011266634110375187 0 -0.005785067872889375 -0.00094463975762236691 0 -0.0058138923300809567 -0.0011559480306139814 0 -0.005785067872889375 -0.00094463975762236691 0 -0.0058138923300809567 -0.0011559480306139814 0 -0.005939721868370957 -0.0010593509978035728 0 -0.0056329760032241888 -0.0011266634110375187 0 -0.0058138923300809567 -0.0011559480306139814 0 -0.0057086828738126391 -0.0012613820748335978 0 -0.0057893634280759779 -0.0013279799774531308 0 -0.0058138923300809567 -0.0011559480306139814 0 -0.0057086828738126391 -0.0012613820748335978 0 -0.0057893634280759779 -0.0013279799774531308 0 -0.0058138923300809567 -0.0011559480306139814 0 -0.0059589635342271055 -0.0012695794317501864 0 -0.0058138923300809567 -0.0011559480306139814 0 -0.0059589635342271055 -0.0012695794317501864 0 -0.005939721868370957 -0.0010593509978035728 0 -0.0059589635342271055 -0.0012695794317501864 0 -0.0061294559671867992 -0.0010097835965442346 0 -0.005939721868370957 -0.0010593509978035728 0 -0.0049508330293994672 -0.0022087350472774162 0 -0.0048980142328952578 -0.0022177152425654663 0 -0.004910158754905425 -0.0022936201560488584 0 -0.0055734414686696432 -0.0018617317334291505 0 -0.0049203853514793007 -0.00084131011320383526 0 -0.0050419342353652738 -0.0021874830803852319 0 -0.0049508330293994672 -0.0022087350472774162 0 -0.004910158754905425 -0.0022936201560488584 0 -0.0049430189963316599 -0.0021196892899969038 0 -0.0049508330293994672 -0.0022087350472774162 0 -0.0048980142328952578 -0.0022177152425654663 0 -0.0049430189963316599 -0.0021196892899969038 0 -0.0050419342353652738 -0.0021874830803852319 0 -0.0049508330293994672 -0.0022087350472774162 0 -0.0022194465548403776 6.6862170261616584e-05 0 -0.0021891478264719098 1.5748894428033088e-05 0 -0.0021778104061702121 0.00010355378265794306 0 -0.0032779797934232337 -0.0014245996872123299 0 -0.0049203853514793007 -0.00084131011320383526 0 -0.005785067872889375 -0.00094463975762236691 0 -0.005939721868370957 -0.0010593509978035728 0 -0.0059687872469155849 -0.0009038595546904712 0 -0.0061294559671867992 -0.0010097835965442346 0 -0.005939721868370957 -0.0010593509978035728 0 -0.0059687872469155849 -0.0009038595546904712 0 -0.0059687872469155849 -0.0009038595546904712 0 -0.0060850918529651507 -0.00075790982480934872 0 -0.0058970633457589459 -0.00074935553605228042 0 -0.005785067872889375 -0.00094463975762236691 0 -0.0059687872469155849 -0.0009038595546904712 0 -0.0058970633457589459 -0.00074935553605228042 0 -0.0061294559671867992 -0.0010097835965442346 0 -0.0059687872469155849 -0.0009038595546904712 0 -0.0060850918529651507 -0.00075790982480934872 0 -0.0049203853514793007 -0.00084131011320383526 0 -0.0060779102854538287 -0.00045032928141245461 0 -0.005918580597823 -0.00017934934489064364 0 -0.00586001079299349 -0.00026558733925392114 0 -0.0058635706510481887 -0.00018034694176729982 0 -0.0059465954501369137 -0.00031880010936374511 0 -0.0060779102854538287 -0.00045032928141245461 0 -0.0059108654228062236 -0.00013364076260841392 0 -0.0058791185289027463 -0.00011897905941634463 0 -0.0058635706510481887 -0.00018034694176729982 0 -0.0060349248475471649 -0.00050956329584802553 0 -0.0057634958608069192 -0.00059969494306096906 0 -0.0058970633457589459 -0.00074935553605228042 0 -0.0060349248475471649 -0.00050956329584802553 0 -0.0060850918529651507 -0.00075790982480934872 0 -0.0058970633457589459 -0.00074935553605228042 0 -0.0057634958608069192 -0.00059969494306096906 0 -0.0058970633457589459 -0.00074935553605228042 0 -0.0056796748625717007 -0.00078065052043457231 0 -0.0054945830344659335 -0.00060959700702302693 0 -0.00552448391577595 -0.00091838596207676154 0 -0.0056796748625717007 -0.00078065052043457231 0 -0.0057634958608069192 -0.00059969494306096906 0 -0.0054945830344659335 -0.00060959700702302693 0 -0.0056796748625717007 -0.00078065052043457231 0 -0.00552448391577595 -0.00091838596207676154 0 -0.005785067872889375 -0.00094463975762236691 0 -0.0056796748625717007 -0.00078065052043457231 0 -0.005785067872889375 -0.00094463975762236691 0 -0.0058970633457589459 -0.00074935553605228042 0 -0.0056796748625717007 -0.00078065052043457231 0 -2.802211449628203e-05 -0.0029317118926622306 0 9.0942336874619642e-06 -0.002982686100488885 0 -5.263221760112237e-05 -0.0029989754906345357 0 -2.802211449628203e-05 -0.0029317118926622306 0 2.1861527914265128e-05 -0.0029025528053446925 0 9.0942336874619642e-06 -0.002982686100488885 0 -2.802211449628203e-05 -0.0029317118926622306 0 -7.1275269424031057e-05 -0.0029016437182242962 0 -5.263221760112237e-05 -0.0029989754906345357 0 -2.802211449628203e-05 -0.0029317118926622306 0 -7.1275269424031057e-05 -0.0029016437182242962 0 -5.5071560412755971e-05 -0.0028228448393055332 0 -7.1275269424031057e-05 -0.0029016437182242962 0 -0.0001127852536997213 -0.0028442524374594383 0 -5.5071560412755971e-05 -0.0028228448393055332 0 -2.802211449628203e-05 -0.0029317118926622306 0 2.1861527914265128e-05 -0.0029025528053446925 0 -5.5071560412755971e-05 -0.0028228448393055332 0 2.1861527914265128e-05 -0.0029025528053446925 0 -5.5071560412755971e-05 -0.0028228448393055332 0 6.6266287203259254e-05 -0.0028171447494640799 0 5.1913971569656937e-05 -0.0027604271730264454 0 8.3995229103241113e-06 -0.002806682197784923 0 2.0106229987581304e-05 -0.0027275457214803972 0 2.1861527914265128e-05 -0.0029025528053446925 0 6.4397742142572115e-05 -0.0029304394430068521 0 6.6266287203259254e-05 -0.0028171447494640799 0 3.6790444659758055e-05 -0.0028679369009177308 0 4.0376605143747267e-05 -0.0027700247883329374 0 5.1913971569656937e-05 -0.0027604271730264454 0 4.4332928405275396e-05 -0.0028117493283098772 0 8.3995229103241113e-06 -0.002806682197784923 0 5.1913971569656937e-05 -0.0027604271730264454 0 4.4332928405275396e-05 -0.0028117493283098772 0 7.2368608252396728e-05 -0.0027754259096873573 0 4.4332928405275396e-05 -0.0028117493283098772 0 8.3995229103241113e-06 -0.002806682197784923 0 8.5301883867596929e-06 -0.0028982378115005318 0 3.6790444659758055e-05 -0.0028679369009177308 0 2.9404935106346223e-05 -0.0029457811199025646 0 6.4397742142572115e-05 -0.0029304394430068521 0 4.6525890954674091e-05 -0.0029940811076413412 0 9.0942336874619642e-06 -0.002982686100488885 0 2.1861527914265128e-05 -0.0029025528053446925 0 6.4397742142572115e-05 -0.0029304394430068521 0 9.0942336874619642e-06 -0.002982686100488885 0 4.6525890954674091e-05 -0.0029940811076413412 0 1.254560748806775e-05 -0.0030208806371045918 0 9.0942336874619642e-06 -0.002982686100488885 0 1.254560748806775e-05 -0.0030208806371045918 0 3.2780045012641903e-05 -0.0030057405100341762 0 5.1220766565117422e-06 -0.0030455902481949819 0 4.6525890954674091e-05 -0.0029940811076413412 0 1.254560748806775e-05 -0.0030208806371045918 0 3.2780045012641903e-05 -0.0030057405100341762 0 2.9404935106346223e-05 -0.0029457811199025646 0 3.4984382684329127e-05 -0.0030007989060365889 0 1.254560748806775e-05 -0.0030208806371045918 0 -2.2657261909964128e-05 -0.0030552336958448419 0 5.1220766565117422e-06 -0.0030455902481949819 0 -3.2521448760230327e-05 -0.0030379494687651381 0 -5.5688184655090629e-05 -0.0030728100516760498 0 -2.2657261909964128e-05 -0.0030552336958448419 0 1.254560748806775e-05 -0.0030208806371045918 0 -3.2521448760230327e-05 -0.0030379494687651381 0 -2.2657261909964128e-05 -0.0030552336958448419 0 1.254560748806775e-05 -0.0030208806371045918 0 -3.2521448760230327e-05 -0.0030379494687651381 0 9.0942336874619642e-06 -0.002982686100488885 0 -3.2521448760230327e-05 -0.0030379494687651381 0 9.0942336874619642e-06 -0.002982686100488885 0 -5.263221760112237e-05 -0.0029989754906345357 0 -3.2521448760230327e-05 -0.0030379494687651381 0 -5.263221760112237e-05 -0.0029989754906345357 0 -6.6308781180787906e-05 -0.0030616570878764736 0 -6.6308781180787906e-05 -0.0030616570878764736 0 -5.5688184655090629e-05 -0.0030728100516760498 0 -7.6296574255614553e-05 -0.0030939707701931889 0 -3.2521448760230327e-05 -0.0030379494687651381 0 -6.6308781180787906e-05 -0.0030616570878764736 0 -5.5688184655090629e-05 -0.0030728100516760498 0 -6.6308781180787906e-05 -0.0030616570878764736 0 -8.6013103981040742e-05 -0.0030956445288539002 0 -7.6296574255614553e-05 -0.0030939707701931889 0 -6.6308781180787906e-05 -0.0030616570878764736 0 -8.6013103981040742e-05 -0.0030956445288539002 0 -8.60985920833656e-05 -0.0030477502833333022 0 -9.7872509206166599e-05 -0.0031067624510172091 0 -8.6013103981040742e-05 -0.0030956445288539002 0 -8.4748772746353379e-05 -0.0031355061721487936 0 -9.7872509206166599e-05 -0.0031067624510172091 0 -8.6013103981040742e-05 -0.0030956445288539002 0 -8.60985920833656e-05 -0.0030477502833333022 0 -8.60985920833656e-05 -0.0030477502833333022 0 -9.2749970124924122e-05 -0.002967058145027074 0 -0.00011079879244209199 -0.0030278928627861402 0 -9.7872509206166599e-05 -0.0031067624510172091 0 -8.60985920833656e-05 -0.0030477502833333022 0 -0.00011079879244209199 -0.0030278928627861402 0 -5.263221760112237e-05 -0.0029989754906345357 0 -8.60985920833656e-05 -0.0030477502833333022 0 -9.2749970124924122e-05 -0.002967058145027074 0 -5.263221760112237e-05 -0.0029989754906345357 0 -6.6308781180787906e-05 -0.0030616570878764736 0 -8.60985920833656e-05 -0.0030477502833333022 0 -9.2547240960058933e-05 -0.0031882488157317047 0 -8.8793598607316685e-05 -0.0031870159661120823 0 -0.00011257641181732507 -0.0031374687649323193 0 -9.2547240960058933e-05 -0.0031882488157317047 0 -8.8793598607316685e-05 -0.0031870159661120823 0 -6.3865326938083606e-05 -0.0032341606931379917 0 -9.2547240960058933e-05 -0.0031882488157317047 0 -0.00011257641181732507 -0.0031374687649323193 0 -0.00010896826259481974 -0.0031784665362734944 0 -9.2547240960058933e-05 -0.0031882488157317047 0 -0.00010896826259481974 -0.0031784665362734944 0 -6.3865326938083606e-05 -0.0032341606931379917 0 -9.7872509206166599e-05 -0.0031067624510172091 0 -9.6128834795684915e-05 -0.0031439085268602715 0 -0.00011257641181732507 -0.0031374687649323193 0 -9.7872509206166599e-05 -0.0031067624510172091 0 -9.6128834795684915e-05 -0.0031439085268602715 0 -8.4748772746353379e-05 -0.0031355061721487936 0 -8.8793598607316685e-05 -0.0031870159661120823 0 -9.6128834795684915e-05 -0.0031439085268602715 0 -0.00011257641181732507 -0.0031374687649323193 0 -8.8793598607316685e-05 -0.0031870159661120823 0 -9.6128834795684915e-05 -0.0031439085268602715 0 -8.4748772746353379e-05 -0.0031355061721487936 0 -9.7872509206166599e-05 -0.0031067624510172091 0 -0.00012676050645295446 -0.0030687204816363198 0 -0.00011079879244209199 -0.0030278928627861402 0 -9.7872509206166599e-05 -0.0031067624510172091 0 -0.00012676050645295446 -0.0030687204816363198 0 -0.00011257641181732507 -0.0031374687649323193 0 -0.00012676050645295446 -0.0030687204816363198 0 -0.00011257641181732507 -0.0031374687649323193 0 -0.00014346947860350206 -0.0031043235197603198 0 -0.00014346947860350206 -0.0031043235197603198 0 -0.00015755402971544377 -0.003145499636838296 0 -0.00010896826259481974 -0.0031784665362734944 0 -0.00011257641181732507 -0.0031374687649323193 0 -0.00014346947860350206 -0.0031043235197603198 0 -0.00010896826259481974 -0.0031784665362734944 0 -0.00018268309775823299 -0.0030560933773211688 0 -0.00016896120318597553 -0.0030002511527564757 0 -0.00021839486729713812 -0.0029766754692500258 0 -0.00014346947860350206 -0.0031043235197603198 0 -0.00018268309775823299 -0.0030560933773211688 0 -0.00015755402971544377 -0.003145499636838296 0 -0.00012676050645295446 -0.0030687204816363198 0 -0.00014346947860350206 -0.0031043235197603198 0 -0.00016896120318597553 -0.0030002511527564757 0 -0.00014346947860350206 -0.0031043235197603198 0 -0.00018268309775823299 -0.0030560933773211688 0 -0.00016896120318597553 -0.0030002511527564757 0 -0.00016896120318597553 -0.0030002511527564757 0 -0.00014003867497689612 -0.0029891697150498976 0 -0.00016559650371275814 -0.0029046088845962347 0 -0.00012676050645295446 -0.0030687204816363198 0 -0.00016896120318597553 -0.0030002511527564757 0 -0.00014003867497689612 -0.0029891697150498976 0 -0.00012676050645295446 -0.0030687204816363198 0 -0.00014003867497689612 -0.0029891697150498976 0 -0.00011079879244209199 -0.0030278928627861402 0 -0.00016896120318597553 -0.0030002511527564757 0 -0.00016559650371275814 -0.0029046088845962347 0 -0.00021583213994855953 -0.0028705653233943428 0 -0.00014003867497689612 -0.0029891697150498976 0 -0.00016559650371275814 -0.0029046088845962347 0 -0.00012785003858720501 -0.0029295380976599263 0 -0.00016896120318597553 -0.0030002511527564757 0 -0.00021583213994855953 -0.0028705653233943428 0 -0.00021839486729713812 -0.0029766754692500258 0 -0.00021583213994855953 -0.0028705653233943428 0 -0.00025793895074570117 -0.0028910532390176063 0 -0.00021839486729713812 -0.0029766754692500258 0 -7.1275269424031057e-05 -0.0029016437182242962 0 -5.263221760112237e-05 -0.0029989754906345357 0 -9.2749970124924122e-05 -0.002967058145027074 0 -9.2749970124924122e-05 -0.002967058145027074 0 -0.00011079879244209199 -0.0030278928627861402 0 -0.00012785003858720501 -0.0029295380976599263 0 -0.00014003867497689612 -0.0029891697150498976 0 -0.00011079879244209199 -0.0030278928627861402 0 -0.00012785003858720501 -0.0029295380976599263 0 -0.00016559650371275814 -0.0029046088845962347 0 -0.00012785003858720501 -0.0029295380976599263 0 -0.00014759856235903313 -0.0028241667217963847 0 -0.00012785003858720501 -0.0029295380976599263 0 -0.0001127852536997213 -0.0028442524374594383 0 -0.00014759856235903313 -0.0028241667217963847 0 -7.1275269424031057e-05 -0.0029016437182242962 0 -9.2749970124924122e-05 -0.002967058145027074 0 -0.0001127852536997213 -0.0028442524374594383 0 -9.2749970124924122e-05 -0.002967058145027074 0 -0.00012785003858720501 -0.0029295380976599263 0 -0.0001127852536997213 -0.0028442524374594383 0 -0.0001127852536997213 -0.0028442524374594383 0 -0.00013728711586809354 -0.0027371596941401367 0 -5.5071560412755971e-05 -0.0028228448393055332 0 -0.0001127852536997213 -0.0028442524374594383 0 -0.00013728711586809354 -0.0027371596941401367 0 -0.00014759856235903313 -0.0028241667217963847 0 -0.00014759856235903313 -0.0028241667217963847 0 -0.00016914261393882954 -0.0027214829463503894 0 -0.00019185463418131397 -0.0027682561531853994 0 -0.00013728711586809354 -0.0027371596941401367 0 -0.00014759856235903313 -0.0028241667217963847 0 -0.00016914261393882954 -0.0027214829463503894 0 -0.00013728711586809354 -0.0027371596941401367 0 -0.00016914261393882954 -0.0027214829463503894 0 -0.00018364746939143257 -0.0026213510760633575 0 -0.00018485507033082799 -0.0026298755875215568 0 -0.00016914261393882954 -0.0027214829463503894 0 -0.00018364746939143257 -0.0026213510760633575 0 -0.00018485507033082799 -0.0026298755875215568 0 -0.00016914261393882954 -0.0027214829463503894 0 -0.00019185463418131397 -0.0027682561531853994 0 -0.00018364746939143257 -0.0026213510760633575 0 -0.00014728855759837367 -0.0025658798369266101 0 -0.00010767229983042963 -0.0026842344543882503 0 -0.00013728711586809354 -0.0027371596941401367 0 -0.00018364746939143257 -0.0026213510760633575 0 -0.00010767229983042963 -0.0026842344543882503 0 -0.00021583213994855953 -0.0028705653233943428 0 -0.00025793895074570117 -0.0028910532390176063 0 -0.00026635692432971155 -0.0027624595019984767 0 -0.00040521117478484279 -0.0030158766843559723 0 -0.00026635692432971155 -0.0027624595019984767 0 -0.00048073055204568695 -0.0027811658697200945 0 -0.0003476536441669765 -0.0029589288938614996 0 -0.00025970332293946956 -0.0027740905592850279 0 -0.00016559650371275814 -0.0029046088845962347 0 -0.00021583213994855953 -0.0028705653233943428 0 -0.00019185463418131397 -0.0027682561531853994 0 -0.00021583213994855953 -0.0028705653233943428 0 -0.00026635692432971155 -0.0027624595019984767 0 -0.00019185463418131397 -0.0027682561531853994 0 -0.00016559650371275814 -0.0029046088845962347 0 -0.00014759856235903313 -0.0028241667217963847 0 -0.00019185463418131397 -0.0027682561531853994 0 -0.00026635692432971155 -0.0027624595019984767 0 -0.00019185463418131397 -0.0027682561531853994 0 -0.00019548376831865372 -0.0026038085841869323 0 -0.00018485507033082799 -0.0026298755875215568 0 -0.00019185463418131397 -0.0027682561531853994 0 -0.00019548376831865372 -0.0026038085841869323 0 -0.00026635692432971155 -0.0027624595019984767 0 -0.00019548376831865372 -0.0026038085841869323 0 -0.00041364410635415401 -0.0025873440003085619 0 -0.00026635692432971155 -0.0027624595019984767 0 -0.00041364410635415401 -0.0025873440003085619 0 -0.00048073055204568695 -0.0027811658697200945 0 -0.00019548376831865372 -0.0026038085841869323 0 -0.00041364410635415401 -0.0025873440003085619 0 -0.00032294633040860695 -0.002423881045916833 0 -0.00032294633040860695 -0.002423881045916833 0 -0.00033276536830601991 -0.0021995412708565882 0 -0.00053104124437940593 -0.0023701177437226322 0 -0.00041364410635415401 -0.0025873440003085619 0 -0.00032294633040860695 -0.002423881045916833 0 -0.00053104124437940593 -0.0023701177437226322 0 -0.00019548376831865372 -0.0026038085841869323 0 -0.00032294633040860695 -0.002423881045916833 0 -0.0001374926230452322 -0.0023388831356683107 0 -0.00032294633040860695 -0.002423881045916833 0 -0.0001374926230452322 -0.0023388831356683107 0 -0.00033276536830601991 -0.0021995412708565882 0 -0.00019548376831865372 -0.0026038085841869323 0 -0.0001374926230452322 -0.0023388831356683107 0 0.00011268296707306145 -0.0023544819313573236 0 -0.00019639712363488749 -0.0025996374246169194 0 2.8663496349317479e-07 -0.0024504202337147203 0 -0.00018485507033082799 -0.0026298755875215568 0 -0.00019548376831865372 -0.0026038085841869323 0 -0.00019875898906645151 -0.0025760944527583218 0 -0.0001374926230452322 -0.0023388831356683107 0 3.7706645038612416e-05 -0.0020671918044870077 0 -0.00016647931798716433 -0.0021332770940758654 0 -0.0001374926230452322 -0.0023388831356683107 0 3.7706645038612416e-05 -0.0020671918044870077 0 0.00011268296707306145 -0.0023544819313573236 0 -0.00033276536830601991 -0.0021995412708565882 0 -0.00060544447893074002 -0.002024701357167257 0 -0.00022109599167774758 -0.0019300997799574537 0 -0.00016647931798716433 -0.0021332770940758654 0 -0.00033276536830601991 -0.0021995412708565882 0 -0.00022109599167774758 -0.0019300997799574537 0 -0.0001374926230452322 -0.0023388831356683107 0 -0.00016647931798716433 -0.0021332770940758654 0 -0.00033276536830601991 -0.0021995412708565882 0 -0.00018364746939143257 -0.0026213510760633575 0 -0.00022458754407105711 -0.0025230738781991963 0 -0.00019875898906645151 -0.0025760944527583218 0 -0.00018364746939143257 -0.0026213510760633575 0 -0.00022458754407105711 -0.0025230738781991963 0 -0.00014728855759837367 -0.0025658798369266101 0 -0.00018485507033082799 -0.0026298755875215568 0 -0.00018364746939143257 -0.0026213510760633575 0 -0.00019875898906645151 -0.0025760944527583218 0 3.7706645038612416e-05 -0.0020671918044870077 0 0.00011268296707306145 -0.0023544819313573236 0 0.00020377283290819777 -0.0020698314747544595 0 0.00011268296707306145 -0.0023544819313573236 0 0.00020377283290819777 -0.0020698314747544595 0 0.00036701239158323258 -0.0021296700779090882 0 2.8663496349317479e-07 -0.0024504202337147203 0 -0.00027504027117741705 -0.0022666269191939986 0 -0.00036476736080310061 -0.0023173575782696344 0 -0.00017959220986636017 -0.002342576271437493 0 -0.00025305587255086606 -0.0021206778864937344 0 -0.00022458754407105711 -0.0025230738781991963 0 -0.00019875898906645151 -0.0025760944527583218 0 -0.00021759259136910119 -0.0025520727359224825 0 -0.00022458754407105711 -0.0025230738781991963 0 -0.00036476736080310061 -0.0023173575782696344 0 -0.00017959220986636017 -0.002342576271437493 0 -0.00021895807144818222 -0.0025478005638806655 0 -0.00027504027117741705 -0.0022666269191939986 0 -0.00017959220986636017 -0.002342576271437493 0 -6.990687397888177e-05 -0.0023235605492847181 0 -0.00011344962502655009 -0.0021549601226123864 0 -0.00017959220986636017 -0.002342576271437493 0 -6.990687397888177e-05 -0.0023235605492847181 0 -7.7881771669445921e-05 -0.0024778698153816513 0 2.7487833690224745e-05 -0.0022112832304458144 0 -6.990687397888177e-05 -0.0023235605492847181 0 -0.00011344962502655009 -0.0021549601226123864 0 -6.990687397888177e-05 -0.0023235605492847181 0 1.0790082226344447e-05 -0.0024075242605882206 0 -7.7881771669445921e-05 -0.0024778698153816513 0 2.7487833690224745e-05 -0.0022112832304458144 0 -6.990687397888177e-05 -0.0023235605492847181 0 1.0790082226344447e-05 -0.0024075242605882206 0 1.0790082226344447e-05 -0.0024075242605882206 0 -7.7881771669445921e-05 -0.0024778698153816513 0 -5.2175398943850202e-06 -0.002543020398956704 0 -7.7881771669445921e-05 -0.0024778698153816513 0 -5.2175398943850202e-06 -0.002543020398956704 0 -6.2701536653693213e-05 -0.0026138304390133523 0 1.0790082226344447e-05 -0.0024075242605882206 0 -5.2175398943850202e-06 -0.002543020398956704 0 8.7585107220863396e-05 -0.0025422721768260143 0 -0.00017959220986636017 -0.002342576271437493 0 -7.7881771669445921e-05 -0.0024778698153816513 0 -0.00014728855759837367 -0.0025658798369266101 0 -0.00022458754407105711 -0.0025230738781991963 0 -0.00017959220986636017 -0.002342576271437493 0 -0.00014728855759837367 -0.0025658798369266101 0 -7.7881771669445921e-05 -0.0024778698153816513 0 -0.00014728855759837367 -0.0025658798369266101 0 -6.2701536653693213e-05 -0.0026138304390133523 0 -0.00010767229983042963 -0.0026842344543882503 0 -6.2701536653693213e-05 -0.0026138304390133523 0 -3.853861847547302e-05 -0.0027256722127899278 0 -0.00014728855759837367 -0.0025658798369266101 0 -0.00010767229983042963 -0.0026842344543882503 0 -6.2701536653693213e-05 -0.0026138304390133523 0 -5.2175398943850202e-06 -0.002543020398956704 0 -6.2701536653693213e-05 -0.0026138304390133523 0 1.6729315223373959e-05 -0.0026467237768115527 0 -5.2175398943850202e-06 -0.002543020398956704 0 1.6729315223373959e-05 -0.0026467237768115527 0 8.7585107220863396e-05 -0.0025422721768260143 0 -6.2701536653693213e-05 -0.0026138304390133523 0 1.6729315223373959e-05 -0.0026467237768115527 0 -3.853861847547302e-05 -0.0027256722127899278 0 -3.853861847547302e-05 -0.0027256722127899278 0 -5.5071560412755971e-05 -0.0028228448393055332 0 6.6266287203259254e-05 -0.0028171447494640799 0 1.6729315223373959e-05 -0.0026467237768115527 0 -3.853861847547302e-05 -0.0027256722127899278 0 6.6266287203259254e-05 -0.0028171447494640799 0 -0.00010767229983042963 -0.0026842344543882503 0 -3.853861847547302e-05 -0.0027256722127899278 0 -5.5071560412755971e-05 -0.0028228448393055332 0 -0.00013728711586809354 -0.0027371596941401367 0 -0.00010767229983042963 -0.0026842344543882503 0 -5.5071560412755971e-05 -0.0028228448393055332 0 5.1913971569656937e-05 -0.0027604271730264454 0 7.5017486435801256e-05 -0.0027030392864225085 0 8.7407324569839103e-05 -0.002730159965298619 0 5.1913971569656937e-05 -0.0027604271730264454 0 7.5017486435801256e-05 -0.0027030392864225085 0 2.0106229987581304e-05 -0.0027275457214803972 0 1.5606869317154136e-05 -0.0026583107933808 0 4.0376605143747267e-05 -0.0027700247883329374 0 7.5017486435801256e-05 -0.0027030392864225085 0 2.0106229987581304e-05 -0.0027275457214803972 0 6.1759863839656453e-05 -0.0026600479068755105 0 1.6729315223373959e-05 -0.0026467237768115527 0 2.0106229987581304e-05 -0.0027275457214803972 0 6.1759863839656453e-05 -0.0026600479068755105 0 0.00024357250995671556 -0.0026981465559271075 0 6.1450131660066261e-05 -0.002532710466980313 0 6.1759863839656453e-05 -0.0026600479068755105 0 8.8364952944953114e-05 -0.0026557300033065124 0 8.7585107220863396e-05 -0.0025422721768260143 0 1.6729315223373959e-05 -0.0026467237768115527 0 6.1759863839656453e-05 -0.0026600479068755105 0 8.7585107220863396e-05 -0.0025422721768260143 0 0.00024357250995671556 -0.0026981465559271075 0 0.00018872245594762216 -0.0021012189988805735 0 7.5017486435801256e-05 -0.0027030392864225085 0 8.8364952944953114e-05 -0.0026557300033065124 0 9.9000386825676695e-05 -0.0027016158887273184 0 7.5017486435801256e-05 -0.0027030392864225085 0 6.1759863839656453e-05 -0.0026600479068755105 0 8.8364952944953114e-05 -0.0026557300033065124 0 0.00027435338369290494 -0.002440317112557191 0 0.000337269352323481 -0.0022280162408975534 0 0.0005265586967645677 -0.002451090951276446 0 0.0002907967214739572 -0.0026292958674782284 0 0.00027435338369290494 -0.002440317112557191 0 8.7585107220863396e-05 -0.0025422721768260143 0 0.0002907967214739572 -0.0026292958674782284 0 0.00027435338369290494 -0.002440317112557191 0 0.0005265586967645677 -0.002451090951276446 0 1.0790082226344447e-05 -0.0024075242605882206 0 8.7585107220863396e-05 -0.0025422721768260143 0 0.00015352915698711852 -0.0023196102694620808 0 0.00027435338369290494 -0.002440317112557191 0 8.7585107220863396e-05 -0.0025422721768260143 0 0.00015352915698711852 -0.0023196102694620808 0 2.7487833690224745e-05 -0.0022112832304458144 0 0.00015352915698711852 -0.0023196102694620808 0 0.00018674457638462772 -0.0020823384955254267 0 2.7487833690224745e-05 -0.0022112832304458144 0 1.0790082226344447e-05 -0.0024075242605882206 0 0.00015352915698711852 -0.0023196102694620808 0 0.00027435338369290494 -0.002440317112557191 0 0.00015352915698711852 -0.0023196102694620808 0 0.000337269352323481 -0.0022280162408975534 0 0.00015352915698711852 -0.0023196102694620808 0 0.000337269352323481 -0.0022280162408975534 0 0.00018674457638462772 -0.0020823384955254267 0 0.000337269352323481 -0.0022280162408975534 0 0.0005265586967645677 -0.002451090951276446 0 0.00053992034107024707 -0.0021141539321203754 0 0.00042314496979832213 -0.0016929740913169686 0 0.00038889122640230786 -0.0017263596152198989 0 0.00026835401905788152 -0.001072657719315554 0 3.9423382982802649e-05 -0.0011093406803083618 0 0.00013187590816127862 -0.00092864775682226209 0 3.1670441646104067e-05 -0.0012698192137328649 0 3.9423382982802649e-05 -0.0011093406803083618 0 0.00025321313309435906 -0.0012983406384553648 0 0.00026835401905788152 -0.001072657719315554 0 3.9423382982802649e-05 -0.0011093406803083618 0 0.00025321313309435906 -0.0012983406384553648 0 3.1670441646104067e-05 -0.0012698192137328649 0 -0.00014559660543421175 -0.0012008990591712658 0 -7.8352953927841596e-05 -0.0013233749454780921 0 3.1670441646104067e-05 -0.0012698192137328649 0 -0.00014559660543421175 -0.0012008990591712658 0 3.9423382982802649e-05 -0.0011093406803083618 0 -0.00014559660543421175 -0.0012008990591712658 0 -0.00026423018690593784 -0.0013465519666337402 0 -7.8352953927841596e-05 -0.0013233749454780921 0 3.9423382982802649e-05 -0.0011093406803083618 0 -6.9765248057102887e-05 -0.0008730180640101143 0 -0.00023710002502064188 -0.001038107711514281 0 -0.00014559660543421175 -0.0012008990591712658 0 3.9423382982802649e-05 -0.0011093406803083618 0 -0.00023710002502064188 -0.001038107711514281 0 3.9423382982802649e-05 -0.0011093406803083618 0 -6.9765248057102887e-05 -0.0008730180640101143 0 0.00013187590816127862 -0.00092864775682226209 0 -8.1269442162682537e-05 -0.00088291401752521148 0 -0.00025919570195551459 -0.001060016392704735 0 -6.9765248057102887e-05 -0.0008730180640101143 0 -0.00028483687264234766 -0.001088032421560045 0 -0.0003556758447171645 -0.00087336915546209852 0 -6.9765248057102887e-05 -0.0008730180640101143 0 -0.00020697514687493287 -0.00073664365143678336 0 -0.0003556758447171645 -0.00087336915546209852 0 -6.9765248057102887e-05 -0.0008730180640101143 0 -0.00020697514687493287 -0.00073664365143678336 0 -7.1908616963653089e-05 -0.00058772123705388036 0 -6.9765248057102887e-05 -0.0008730180640101143 0 0.00012219028010697079 -0.00072014090564465863 0 -7.1908616963653089e-05 -0.00058772123705388036 0 -6.9765248057102887e-05 -0.0008730180640101143 0 0.00012219028010697079 -0.00072014090564465863 0 0.00013187590816127862 -0.00092864775682226209 0 0.00012219028010697079 -0.00072014090564465863 0 0.00029855383951796395 -0.00084585006367312004 0 0.00013187590816127862 -0.00092864775682226209 0 0.00011203657505163924 -0.0017059885011702349 0 0.00018872245594762216 -0.0021012189988805735 0 0.00012124205165792046 -0.0027459030072291926 0 8.8102990500027041e-05 -0.0027092145616966772 0 9.8550060858669161e-05 -0.0027536537784968785 0 8.7407324569839103e-05 -0.002730159965298619 0 8.8102990500027041e-05 -0.0027092145616966772 0 9.8550060858669161e-05 -0.0027536537784968785 0 7.5017486435801256e-05 -0.0027030392864225085 0 8.7407324569839103e-05 -0.002730159965298619 0 9.9000386825676695e-05 -0.0027016158887273184 0 9.648391951858476e-05 -0.0027233686271071677 0 0.00018872245594762216 -0.0021012189988805735 0 0.0002907967214739572 -0.0026292958674782284 0 0.0005265586967645677 -0.002451090951276446 0 0.00048316597004576667 -0.0027459898404225036 0 0.00026835401905788152 -0.001072657719315554 0 0.00029855383951796395 -0.00084585006367312004 0 0.00013187590816127862 -0.00092864775682226209 0 0.00042314496979832213 -0.0016929740913169686 0 0.00018872245594762216 -0.0021012189988805735 0 -0.0010768526779436813 -0.0011090695915592084 0 -0.00090404725687215142 -0.0012773309765933612 0 -0.00083984264705033057 -0.00097745597372912545 0 -0.00090404725687215142 -0.0012773309765933612 0 -0.00068746618682176853 -0.0012028305316319975 0 -0.00083984264705033057 -0.00097745597372912545 0 -0.00090404725687215142 -0.0012773309765933612 0 -0.00068746618682176853 -0.0012028305316319975 0 -0.00065115390356577658 -0.0014582503177069533 0 -0.00068746618682176853 -0.0012028305316319975 0 -0.00061685864850837143 -0.00098843127950966228 0 -0.00083984264705033057 -0.00097745597372912545 0 -0.00049363097052814841 -0.0012913225501891938 0 -0.00028483687264234766 -0.001088032421560045 0 -0.00061685864850837143 -0.00098843127950966228 0 -0.00068746618682176853 -0.0012028305316319975 0 -0.00049363097052814841 -0.0012913225501891938 0 -0.00061685864850837143 -0.00098843127950966228 0 -0.00068746618682176853 -0.0012028305316319975 0 -0.00049363097052814841 -0.0012913225501891938 0 -0.00065115390356577658 -0.0014582503177069533 0 -0.00014559660543421175 -0.0012008990591712658 0 -0.00044007192552437171 -0.0012219869137843765 0 -0.00023710002502064188 -0.001038107711514281 0 -0.00014559660543421175 -0.0012008990591712658 0 -0.00044007192552437171 -0.0012219869137843765 0 -0.00026423018690593784 -0.0013465519666337402 0 -0.00046802154364395673 -0.0012609556534232682 0 -0.00025919570195551459 -0.001060016392704735 0 -0.00028483687264234766 -0.001088032421560045 0 -0.0003556758447171645 -0.00087336915546209852 0 -0.00061685864850837143 -0.00098843127950966228 0 -0.00020697514687493287 -0.00073664365143678336 0 -0.0003556758447171645 -0.00087336915546209852 0 -0.00040967773406213719 -0.00072625049862087658 0 -0.00020697514687493287 -0.00073664365143678336 0 -0.00040967773406213719 -0.00072625049862087658 0 -0.00028154620882442138 -0.00062465130437656827 0 -0.0003556758447171645 -0.00087336915546209852 0 -0.00040967773406213719 -0.00072625049862087658 0 -0.00051558882550380831 -0.00079562255808718438 0 -0.00051558882550380831 -0.00079562255808718438 0 -0.00061685864850837143 -0.00098843127950966228 0 -0.00067045751177838384 -0.00073241326946632155 0 -0.00040967773406213719 -0.00072625049862087658 0 -0.00051558882550380831 -0.00079562255808718438 0 -0.00053130481121191667 -0.00065992935268349641 0 -0.00051558882550380831 -0.00079562255808718438 0 -0.00067045751177838384 -0.00073241326946632155 0 -0.00053130481121191667 -0.00065992935268349641 0 -0.0003556758447171645 -0.00087336915546209852 0 -0.00051558882550380831 -0.00079562255808718438 0 -0.00061685864850837143 -0.00098843127950966228 0 -0.00061685864850837143 -0.00098843127950966228 0 -0.00067045751177838384 -0.00073241326946632155 0 -0.00083984264705033057 -0.00097745597372912545 0 -0.00067045751177838384 -0.00073241326946632155 0 -0.00083497222896106236 -0.000694930896046508 0 -0.00083984264705033057 -0.00097745597372912545 0 -0.0014829901559938222 -0.0010218580938158328 0 -0.0015476851374279451 -0.00098848384741991968 0 -0.001909881848308888 -0.0013877824630727815 0 -0.0018626569091491076 -0.0012095014949992811 0 -0.0020122682553225524 -0.0013355638169722246 0 -0.0011568355838640853 -0.00082825886275954903 0 -0.00083497222896106236 -0.000694930896046508 0 -0.00083984264705033057 -0.00097745597372912545 0 -0.0020219778821525835 -0.0014963158790896431 0 -0.0019379886659323751 -0.0015608902335724568 0 -0.001984007529988739 -0.001610662476177787 0 -0.0019113429059037768 -0.0014932984406334671 0 -0.0020219778821525835 -0.0014963158790896431 0 -0.0019379886659323751 -0.0015608902335724568 0 -0.001909881848308888 -0.0013877824630727815 0 -0.0019113429059037768 -0.0014932984406334671 0 -0.0020219778821525835 -0.0014963158790896431 0 -0.001909881848308888 -0.0013877824630727815 0 -0.0020122682553225524 -0.0013355638169722246 0 -0.0020219778821525835 -0.0014963158790896431 0 -0.0020122682553225524 -0.0013355638169722246 0 -0.0020683370261238144 -0.0014413793050299429 0 -0.0021400308957651199 -0.0014282984077283593 0 -0.0015476851374279451 -0.00098848384741991968 0 -0.00066675849552755696 -0.0013487484911397303 0 -0.00067045751177838384 -0.00073241326946632155 0 -0.00083497222896106236 -0.000694930896046508 0 -0.00054054913665152753 -0.00056922171184667955 0 -0.0020122682553225524 -0.0013355638169722246 0 -0.0020683370261238144 -0.0014413793050299429 0 -0.0020219778821525835 -0.0014963158790896431 0 -0.0020683370261238144 -0.0014413793050299429 0 -0.0020977063994247723 -0.0015049585351793117 0 -0.0020219778821525835 -0.0014963158790896431 0 -0.0020219778821525835 -0.0014963158790896431 0 -0.0020872272493458019 -0.0015568668784182618 0 -0.0020496683379853599 -0.0015923610495527116 0 -0.0020977063994247723 -0.0015049585351793117 0 -0.0020219778821525835 -0.0014963158790896431 0 -0.0020872272493458019 -0.0015568668784182618 0 -0.00066675849552755696 -0.0013487484911397303 0 -0.00098601396774472896 -0.0023161559641584682 0 9.0428068141731863e-05 -0.0026637635354602503 0 0.00019528114249171168 -0.00221276236716017 0 0.00023316545753714337 -0.0028709366851182062 0 -0.0020977063994247723 -0.0015049585351793117 0 -0.0021400308957651199 -0.0014282984077283593 0 -0.0021288283502318003 -0.0015924135798044909 0 -4.8887070329518888e-07 -0.0025092383298836443 0 9.0428068141731863e-05 -0.0026637635354602503 0 0.00019528114249171168 -0.00221276236716017 0 -0.0020977063994247723 -0.0015049585351793117 0 -0.0020872272493458019 -0.0015568668784182618 0 -0.0021288283502318003 -0.0015924135798044909 0 -0.0020683370261238144 -0.0014413793050299429 0 -0.0020977063994247723 -0.0015049585351793117 0 -0.0021400308957651199 -0.0014282984077283593 0 -0.00067045751177838384 -0.00073241326946632155 0 -0.00054054913665152753 -0.00056922171184667955 0 -0.00053130481121191667 -0.00065992935268349641 0 -0.0005356408192056536 -0.00058184049518343519 0 -0.00053130481121191667 -0.00065992935268349641 0 -0.00040663709053045537 -0.00061009316584522007 0 -0.00066675849552755696 -0.0013487484911397303 0 -0.00063884251501450417 -0.00067659738790604011 0 -0.00040663709053045537 -0.00061009316584522007 0 -0.00028154620882442138 -0.00062465130437656827 0 -0.00027424463701863021 -0.00045897611629694006 0 -0.0005356408192056536 -0.00058184049518343519 0 -0.00040663709053045537 -0.00061009316584522007 0 -0.00027424463701863021 -0.00045897611629694006 0 -0.00040967773406213719 -0.00072625049862087658 0 -0.00040663709053045537 -0.00061009316584522007 0 -0.00028154620882442138 -0.00062465130437656827 0 -0.00040967773406213719 -0.00072625049862087658 0 -0.00053130481121191667 -0.00065992935268349641 0 -0.00040663709053045537 -0.00061009316584522007 0 -4.8887070329518888e-07 -0.0025092383298836443 0 0.00019528114249171168 -0.00221276236716017 0 -0.00038725418287619245 -0.0025322863462527078 0 -4.8887070329518888e-07 -0.0025092383298836443 0 9.0428068141731863e-05 -0.0026637635354602503 0 -0.00038725418287619245 -0.0025322863462527078 0 -2.7401000766312933e-06 -0.0022590644238916248 0 0.00017411582868957597 -0.0030102600064071889 0 -0.00066675849552755696 -0.0013487484911397303 0 -2.7401000766312933e-06 -0.0022590644238916248 0 9.0428068141731863e-05 -0.0026637635354602503 0 -0.00038725418287619245 -0.0025322863462527078 0 0.00019465056904562737 -0.0028894367616777075 0 0.00016050648985392103 -0.0028877049648874265 0 0.00016977874853965342 -0.0029063764413338224 0 0.00015441346049986301 -0.0029160582426875832 0 0.00016050648985392103 -0.0028877049648874265 0 0.00016977874853965342 -0.0029063764413338224 0 0.00019465056904562737 -0.0028894367616777075 0 0.00016977874853965342 -0.0029063764413338224 0 0.00018327319664120098 -0.0029205836310954398 0 0.00019465056904562737 -0.0028894367616777075 0 0.00016977874853965342 -0.0029063764413338224 0 0.00018327319664120098 -0.0029205836310954398 0 0.00016627895989148963 -0.0029463700341901514 0 0.00016977874853965342 -0.0029063764413338224 0 0.00016627895989148963 -0.0029463700341901514 0 0.00015441346049986301 -0.0029160582426875832 0 0.00016627895989148963 -0.0029463700341901514 0 0.00018847786971905344 -0.0029465703415596264 0 0.00018083172013079322 -0.0029796201835994422 0 0.00018327319664120098 -0.0029205836310954398 0 0.00016627895989148963 -0.0029463700341901514 0 0.00018847786971905344 -0.0029465703415596264 0 -0.00089155993845245452 -0.0023814935727957311 0 -0.00098601396774472896 -0.0023161559641584682 0 0.00018847786971905344 -0.0029465703415596264 0 0.00021604419388286609 -0.002978253151656382 0 0.00020060349418557188 -0.0029151542089309356 0 0.00018327319664120098 -0.0029205836310954398 0 0.00018847786971905344 -0.0029465703415596264 0 0.00020060349418557188 -0.0029151542089309356 0 0.00021604419388286609 -0.002978253151656382 0 0.00020060349418557188 -0.0029151542089309356 0 0.00023316545753714337 -0.0028709366851182062 0 -0.0021109738559533971 -0.0017609751136492995 0 -0.0021288283502318003 -0.0015924135798044909 0 -0.0020815659084317483 -0.0016416674169834858 0 0.00018847786971905344 -0.0029465703415596264 0 0.00021604419388286609 -0.002978253151656382 0 0.00018083172013079322 -0.0029796201835994422 0 0.00020060349418557188 -0.0029151542089309356 0 0.00019465056904562737 -0.0028894367616777075 0 0.00023316545753714337 -0.0028709366851182062 0 -0.0021288283502318003 -0.0015924135798044909 0 -0.0020867240755406066 -0.001595804764394331 0 -0.0020815659084317483 -0.0016416674169834858 0 0.00018327319664120098 -0.0029205836310954398 0 0.00020060349418557188 -0.0029151542089309356 0 0.00019465056904562737 -0.0028894367616777075 0 9.0428068141731863e-05 -0.0026637635354602503 0 0.00019465056904562737 -0.0028894367616777075 0 0.00023316545753714337 -0.0028709366851182062 0 -0.0020872272493458019 -0.0015568668784182618 0 -0.0021288283502318003 -0.0015924135798044909 0 -0.0020867240755406066 -0.001595804764394331 0 -0.0020219778821525835 -0.0014963158790896431 0 -0.0020496683379853599 -0.0015923610495527116 0 -0.001984007529988739 -0.001610662476177787 0 -0.0020872272493458019 -0.0015568668784182618 0 -0.0020867240755406066 -0.001595804764394331 0 -0.0020496683379853599 -0.0015923610495527116 0 -0.0020496683379853599 -0.0015923610495527116 0 -0.0020243765380546118 -0.0016699945405280552 0 -0.001984007529988739 -0.001610662476177787 0 -0.0020496683379853599 -0.0015923610495527116 0 -0.0020815659084317483 -0.0016416674169834858 0 -0.0020243765380546118 -0.0016699945405280552 0 -0.0020867240755406066 -0.001595804764394331 0 -0.0020496683379853599 -0.0015923610495527116 0 -0.0020815659084317483 -0.0016416674169834858 0 -0.0021109738559533971 -0.0017609751136492995 0 -0.0020815659084317483 -0.0016416674169834858 0 -0.0020243765380546118 -0.0016699945405280552 0 -0.0021109738559533971 -0.0017609751136492995 0 -0.0020243765380546118 -0.0016699945405280552 0 -0.0020017500498482506 -0.00179462128752751 0 -0.0019684643284884114 -0.0018085434931786066 0 -0.0019936359022523051 -0.0017159565037297019 0 -0.0020429533157755955 -0.0018148027075481498 0 -0.0019464266622283186 -0.0016868793896710457 0 -0.0021050621509206119 -0.0017626320199187456 0 -0.0020243765380546118 -0.0016699945405280552 0 -0.0019243146485757507 -0.0016550522771170261 0 -0.0020017500498482506 -0.00179462128752751 0 -0.0020243765380546118 -0.0016699945405280552 0 -0.0019243146485757507 -0.0016550522771170261 0 -0.001984007529988739 -0.001610662476177787 0 -0.0019243146485757507 -0.0016550522771170261 0 -0.0019379886659323751 -0.0015608902335724568 0 -0.001984007529988739 -0.001610662476177787 0 0.00012161951656880854 -0.0028073608744328652 0 0.00013865725393182425 -0.0028984036251028219 0 8.3551909783107317e-05 -0.0029058029789101295 0 0.00012161951656880854 -0.0028073608744328652 0 8.0050517956102129e-05 -0.0028257555355050809 0 8.3551909783107317e-05 -0.0029058029789101295 0 4.4332928405275396e-05 -0.0028117493283098772 0 8.5301883867596929e-06 -0.0028982378115005318 0 8.0050517956102129e-05 -0.0028257555355050809 0 4.4332928405275396e-05 -0.0028117493283098772 0 8.0050517956102129e-05 -0.0028257555355050809 0 7.2368608252396728e-05 -0.0027754259096873573 0 8.0050517956102129e-05 -0.0028257555355050809 0 7.2368608252396728e-05 -0.0027754259096873573 0 9.8550060858669161e-05 -0.0027536537784968785 0 5.1913971569656937e-05 -0.0027604271730264454 0 8.7407324569839103e-05 -0.002730159965298619 0 7.2368608252396728e-05 -0.0027754259096873573 0 8.7407324569839103e-05 -0.002730159965298619 0 7.2368608252396728e-05 -0.0027754259096873573 0 9.8550060858669161e-05 -0.0027536537784968785 0 0.00012161951656880854 -0.0028073608744328652 0 8.0050517956102129e-05 -0.0028257555355050809 0 9.8550060858669161e-05 -0.0027536537784968785 0 0.00012124205165792046 -0.0027459030072291926 0 0.00012161951656880854 -0.0028073608744328652 0 9.8550060858669161e-05 -0.0027536537784968785 0 0.00012124205165792046 -0.0027459030072291926 0 0.00012161951656880854 -0.0028073608744328652 0 0.00017163163571491129 -0.002785477777260363 0 0.00011203657505163924 -0.0017059885011702349 0 1.635540809149197e-05 -0.0016227092777659116 0 -0.00028154620882442138 -0.00062465130437656827 0 -0.00027424463701863021 -0.00045897611629694006 0 -7.1908616963653089e-05 -0.00058772123705388036 0 -0.00020697514687493287 -0.00073664365143678336 0 -0.00028154620882442138 -0.00062465130437656827 0 -7.1908616963653089e-05 -0.00058772123705388036 0 0.00024600942036896245 -0.0028336880320085954 0 0.00017163163571491129 -0.002785477777260363 0 0.00013865725393182425 -0.0028984036251028219 0 -2.7401000766312933e-06 -0.0022590644238916248 0 0.00017728879363475066 -0.003057074238846312 0 -2.7401000766312933e-06 -0.0022590644238916248 0 1.635540809149197e-05 -0.0016227092777659116 0 0.00012161951656880854 -0.0028073608744328652 0 0.00017163163571491129 -0.002785477777260363 0 0.00013865725393182425 -0.0028984036251028219 0 0.00016050648985392103 -0.0028877049648874265 0 0.00013865725393182425 -0.0028984036251028219 0 0.00015441346049986301 -0.0029160582426875832 0 0.00013865725393182425 -0.0028984036251028219 0 0.00015441346049986301 -0.0029160582426875832 0 0.00013225330640376112 -0.0029676273910570743 0 0.00016627895989148963 -0.0029463700341901514 0 0.00013225330640376112 -0.0029676273910570743 0 0.00015338508086551784 -0.0030139886817201552 0 0.00016627895989148963 -0.0029463700341901514 0 0.00015441346049986301 -0.0029160582426875832 0 0.00013225330640376112 -0.0029676273910570743 0 0.00013865725393182425 -0.0028984036251028219 0 0.00013225330640376112 -0.0029676273910570743 0 9.9542679866713413e-05 -0.0029655357730880975 0 0.00013225330640376112 -0.0029676273910570743 0 9.9542679866713413e-05 -0.0029655357730880975 0 7.9893510066724984e-05 -0.0030292140130021221 0 0.00013865725393182425 -0.0028984036251028219 0 9.9542679866713413e-05 -0.0029655357730880975 0 8.3551909783107317e-05 -0.0029058029789101295 0 8.5301883867596929e-06 -0.0028982378115005318 0 8.3551909783107317e-05 -0.0029058029789101295 0 3.2780045012641903e-05 -0.0030057405100341762 0 8.5301883867596929e-06 -0.0028982378115005318 0 8.0050517956102129e-05 -0.0028257555355050809 0 8.3551909783107317e-05 -0.0029058029789101295 0 9.9542679866713413e-05 -0.0029655357730880975 0 8.3551909783107317e-05 -0.0029058029789101295 0 3.2780045012641903e-05 -0.0030057405100341762 0 3.2780045012641903e-05 -0.0030057405100341762 0 2.773997870385175e-05 -0.0030584199679966648 0 7.9893510066724984e-05 -0.0030292140130021221 0 2.773997870385175e-05 -0.0030584199679966648 0 4.6280561817095996e-05 -0.0030814196146325837 0 7.9893510066724984e-05 -0.0030292140130021221 0 2.773997870385175e-05 -0.0030584199679966648 0 4.6280561817095996e-05 -0.0030814196146325837 0 1.7126974633887836e-05 -0.0031063342586843362 0 7.9893510066724984e-05 -0.0030292140130021221 0 0.00010198379303593595 -0.0030690181301518318 0 7.0195740319065126e-05 -0.0030929229390611866 0 4.6280561817095996e-05 -0.0030814196146325837 0 7.9893510066724984e-05 -0.0030292140130021221 0 7.0195740319065126e-05 -0.0030929229390611866 0 9.9542679866713413e-05 -0.0029655357730880975 0 3.2780045012641903e-05 -0.0030057405100341762 0 7.9893510066724984e-05 -0.0030292140130021221 0 0.00013225330640376112 -0.0029676273910570743 0 7.9893510066724984e-05 -0.0030292140130021221 0 0.00012016583319573467 -0.0030272702367114823 0 0.00013225330640376112 -0.0029676273910570743 0 0.00012016583319573467 -0.0030272702367114823 0 0.00015338508086551784 -0.0030139886817201552 0 0.00012016583319573467 -0.0030272702367114823 0 0.00012811082915501016 -0.0030811372103373121 0 0.00015338508086551784 -0.0030139886817201552 0 7.9893510066724984e-05 -0.0030292140130021221 0 0.00012016583319573467 -0.0030272702367114823 0 0.00010198379303593595 -0.0030690181301518318 0 0.00012016583319573467 -0.0030272702367114823 0 0.00010198379303593595 -0.0030690181301518318 0 0.00012811082915501016 -0.0030811372103373121 0 0.00010198379303593595 -0.0030690181301518318 0 8.9623416567415415e-05 -0.0031103244982107563 0 7.0195740319065126e-05 -0.0030929229390611866 0 0.00010198379303593595 -0.0030690181301518318 0 8.9623416567415415e-05 -0.0031103244982107563 0 0.00012811082915501016 -0.0030811372103373121 0 8.9623416567415415e-05 -0.0031103244982107563 0 0.00012811082915501016 -0.0030811372103373121 0 0.00011061961134607102 -0.0031332771342793384 0 0.00011061961134607102 -0.0031332771342793384 0 0.00015299288527454051 -0.0031281093859434877 0 0.00012145405875041915 -0.0031879555097878943 0 0.00012811082915501016 -0.0030811372103373121 0 0.00011061961134607102 -0.0031332771342793384 0 0.00015299288527454051 -0.0031281093859434877 0 8.9623416567415415e-05 -0.0031103244982107563 0 0.00011061961134607102 -0.0031332771342793384 0 6.9536006710203715e-05 -0.0031531233956778176 0 0.00011061961134607102 -0.0031332771342793384 0 6.9536006710203715e-05 -0.0031531233956778176 0 8.9387410116155219e-05 -0.0031728849440507746 0 5.5633911615306125e-05 -0.0031347969066994269 0 2.9603222353413003e-05 -0.003153840743571733 0 3.8079642155829555e-05 -0.0031824713362622607 0 6.9536006710203715e-05 -0.0031531233956778176 0 5.5633911615306125e-05 -0.0031347969066994269 0 3.8079642155829555e-05 -0.0031824713362622607 0 8.9623416567415415e-05 -0.0031103244982107563 0 6.9536006710203715e-05 -0.0031531233956778176 0 5.5633911615306125e-05 -0.0031347969066994269 0 2.9603222353413003e-05 -0.003153840743571733 0 1.9486497263172865e-05 -0.0031778618692320957 0 3.8079642155829555e-05 -0.0031824713362622607 0 2.9603222353413003e-05 -0.003153840743571733 0 1.9486497263172865e-05 -0.0031778618692320957 0 9.9989387704548524e-06 -0.0031647958963409691 0 2.9603222353413003e-05 -0.003153840743571733 0 3.9214133345561177e-05 -0.0031172560496826817 0 1.3483919931903484e-05 -0.0031407275279978272 0 2.9603222353413003e-05 -0.003153840743571733 0 9.9989387704548524e-06 -0.0031647958963409691 0 1.3483919931903484e-05 -0.0031407275279978272 0 5.5633911615306125e-05 -0.0031347969066994269 0 2.9603222353413003e-05 -0.003153840743571733 0 3.9214133345561177e-05 -0.0031172560496826817 0 3.9214133345561177e-05 -0.0031172560496826817 0 1.3483919931903484e-05 -0.0031407275279978272 0 1.7126974633887836e-05 -0.0031063342586843362 0 4.6280561817095996e-05 -0.0030814196146325837 0 3.9214133345561177e-05 -0.0031172560496826817 0 1.7126974633887836e-05 -0.0031063342586843362 0 4.6280561817095996e-05 -0.0030814196146325837 0 3.9214133345561177e-05 -0.0031172560496826817 0 7.0195740319065126e-05 -0.0030929229390611866 0 8.9623416567415415e-05 -0.0031103244982107563 0 5.5633911615306125e-05 -0.0031347969066994269 0 7.0195740319065126e-05 -0.0030929229390611866 0 5.5633911615306125e-05 -0.0031347969066994269 0 3.9214133345561177e-05 -0.0031172560496826817 0 7.0195740319065126e-05 -0.0030929229390611866 0 -0.0022598002107974686 -0.0021424902714812098 0 -0.0023592748182174176 -0.0020736023680634442 0 -0.0023921144272150566 -0.0022089124628737514 0 -0.0019976840482737509 -0.001875728797222418 0 -0.0020429533157755955 -0.0018148027075481498 0 -0.0020535618545397699 -0.0018727690865445389 0 -0.0023592748182174176 -0.0020736023680634442 0 -0.0025291673562026357 -0.0021366965981276221 0 -0.0023921144272150566 -0.0022089124628737514 0 -0.0019684643284884114 -0.0018085434931786066 0 -0.0019976840482737509 -0.001875728797222418 0 -0.0020429533157755955 -0.0018148027075481498 0 -0.0021109738559533971 -0.0017609751136492995 0 -0.0020017500498482506 -0.00179462128752751 0 -0.0020879014940534254 -0.0019356891888168979 0 -0.0021050621509206119 -0.0017626320199187456 0 -0.0013729789383214366 -0.0023603042260256367 0 -0.0023974011050987201 -0.0019292471293987353 0 -0.0012471045407831964 -0.002547529286969896 0 -0.0020429533157755955 -0.0018148027075481498 0 -0.0020535618545397699 -0.0018727690865445389 0 -0.0020871280178479394 -0.0018956731842783927 0 -0.0019976840482737509 -0.001875728797222418 0 -0.0020535618545397699 -0.0018727690865445389 0 -0.0020862373570694512 -0.0019047160796075468 0 -0.0020535618545397699 -0.0018727690865445389 0 -0.0020871280178479394 -0.0018956731842783927 0 -0.0020862373570694512 -0.0019047160796075468 0 -0.0012471045407831964 -0.002547529286969896 0 0.00066954539133070581 -0.0030656009620680436 0 0.00019781774215399484 -0.0030347560726814026 0 0.00018353332134445728 -0.0030139456040148616 0 0.00016343158713519464 -0.0030782753760440038 0 0.00021449950757138994 -0.0030456192026968045 0 0.0002144156536782904 -0.0030525752136461954 0 0.00016343158713519464 -0.0030782753760440038 0 0.00019781774215399484 -0.0030347560726814026 0 0.00021449950757138994 -0.0030456192026968045 0 0.00016343158713519464 -0.0030782753760440038 0 -0.0013729789383214366 -0.0023603042260256367 0 -0.0012471045407831964 -0.002547529286969896 0 0.00021604419388286609 -0.002978253151656382 0 0.00019781774215399484 -0.0030347560726814026 0 0.00021449950757138994 -0.0030456192026968045 0 0.00021604419388286609 -0.002978253151656382 0 0.00019781774215399484 -0.0030347560726814026 0 0.00018353332134445728 -0.0030139456040148616 0 -0.00089155993845245452 -0.0023814935727957311 0 -0.0013729789383214366 -0.0023603042260256367 0 0.00021604419388286609 -0.002978253151656382 0 0.00018353332134445728 -0.0030139456040148616 0 0.00018083172013079322 -0.0029796201835994422 0 0.00018353332134445728 -0.0030139456040148616 0 0.00018083172013079322 -0.0029796201835994422 0 0.00015338508086551784 -0.0030139886817201552 0 0.00016627895989148963 -0.0029463700341901514 0 0.00018083172013079322 -0.0029796201835994422 0 0.00015338508086551784 -0.0030139886817201552 0 0.00012811082915501016 -0.0030811372103373121 0 0.00015338508086551784 -0.0030139886817201552 0 0.00016343158713519464 -0.0030782753760440038 0 0.00018353332134445728 -0.0030139456040148616 0 0.00015338508086551784 -0.0030139886817201552 0 0.00016343158713519464 -0.0030782753760440038 0 0.00012811082915501016 -0.0030811372103373121 0 0.00016343158713519464 -0.0030782753760440038 0 0.00015299288527454051 -0.0031281093859434877 0 0.00016343158713519464 -0.0030782753760440038 0 0.00015299288527454051 -0.0031281093859434877 0 0.00016943628415670809 -0.0030971007497255327 0 0.00015299288527454051 -0.0031281093859434877 0 0.00016943628415670809 -0.0030971007497255327 0 0.00018144961379683733 -0.0031143707482539137 0 0.00015299288527454051 -0.0031281093859434877 0 0.00018144961379683733 -0.0031143707482539137 0 0.00015682900621342876 -0.003165478419172136 0 0.00017352586458994372 -0.0030758011353701664 0 0.00016343158713519464 -0.0030782753760440038 0 0.00016943628415670809 -0.0030971007497255327 0 0.00017352586458994372 -0.0030758011353701664 0 0.00016943628415670809 -0.0030971007497255327 0 0.00018144961379683733 -0.0031143707482539137 0 -0.0012471045407831964 -0.002547529286969896 0 -0.0011609610308737398 -0.0027194284596559499 0 -0.0025291673562026357 -0.0021366965981276221 0 -0.0025158123673609972 -0.0023114252796653024 0 -0.0023921144272150566 -0.0022089124628737514 0 -0.0025158123673609972 -0.0023114252796653024 0 -0.0023578313350078686 -0.0023483718425004242 0 -0.0024950524581778917 -0.0024873255071738206 0 -0.0022353293476115536 -0.0022641164193840714 0 -0.0023578313350078686 -0.0023483718425004242 0 -0.0023921144272150566 -0.0022089124628737514 0 -0.0025158123673609972 -0.0023114252796653024 0 -0.0023578313350078686 -0.0023483718425004242 0 -0.0023921144272150566 -0.0022089124628737514 0 -0.0021222628483850668 -0.0026825316207761537 0 -0.0021677485105820859 -0.0026429587054135743 0 -0.0021427873271743399 -0.0026005459547021464 0 -0.0021677485105820859 -0.0026429587054135743 0 -0.0021427873271743399 -0.0026005459547021464 0 -0.0022001902937560701 -0.0026098022603912182 0 -0.0024940554331842439 -0.0025181894939738381 0 -0.0011516916484340329 -0.0028505566279021866 0 -0.0023578313350078686 -0.0023483718425004242 0 -0.0023398152865502339 -0.0024865203227436112 0 -0.0024950524581778917 -0.0024873255071738206 0 -0.0011609610308737398 -0.0027194284596559499 0 -0.0011516916484340329 -0.0028505566279021866 0 -0.0011516916484340329 -0.0028505566279021866 0 -0.0010933147861322736 -0.003004871788402396 0 -0.0021677485105820859 -0.0026429587054135743 0 -0.0022001902937560701 -0.0026098022603912182 0 -0.0022013227127011671 -0.0026831008158798137 0 -9.7025252225944927e-06 -0.0032591297325255978 0 -1.7548304410261777e-05 -0.0032664755357372901 0 -2.0337273083636903e-05 -0.003274920844032326 0 -9.7025252225944927e-06 -0.0032591297325255978 0 -2.0337273083636903e-05 -0.003274920844032326 0 3.7114521892522333e-06 -0.0032859147229730716 0 -0.0011516916484340329 -0.0028505566279021866 0 0.00032241365758535262 -0.00324036372920988 0 0.00018144961379683733 -0.0031143707482539137 0 0.00017798265097994744 -0.0031551109700070907 0 0.00015682900621342876 -0.003165478419172136 0 0.00015299288527454051 -0.0031281093859434877 0 0.00015682900621342876 -0.003165478419172136 0 0.00012145405875041915 -0.0031879555097878943 0 0.00032241365758535262 -0.00324036372920988 0 2.7176037540071967e-06 -0.0032219055488612769 0 -1.7548304410261777e-05 -0.0032664755357372901 0 -2.0337273083636903e-05 -0.003274920844032326 0 -2.4673300944181253e-06 -0.0032571818241208051 0 -2.8125776890223969e-05 -0.0033453068787288676 0 -3.7165068891199393e-05 -0.0033217507958157567 0 -2.0337273083636903e-05 -0.003274920844032326 0 -3.2283395001904479e-05 -0.003345778628704445 0 -2.1994501406766184e-05 -0.0032747466854806942 0 -2.0337273083636903e-05 -0.003274920844032326 0 -3.2283395001904479e-05 -0.003345778628704445 0 3.7114521892522333e-06 -0.0032859147229730716 0 -0.0022013227127011671 -0.0026831008158798137 0 -0.0021334682836736279 -0.0027568102788494806 0 -0.0021996094052586274 -0.0027711835476345826 0 -0.0010933147861322736 -0.003004871788402396 0 -0.0010977951368192082 -0.0030553503034451736 0 -3.2283395001904479e-05 -0.003345778628704445 0 3.7114521892522333e-06 -0.0032859147229730716 0 7.1835379360308349e-06 -0.0033492703877282424 0 -0.0021222628483850668 -0.0026825316207761537 0 -0.0022013227127011671 -0.0026831008158798137 0 -0.0021334682836736279 -0.0027568102788494806 0 -0.0021222628483850668 -0.0026825316207761537 0 -0.0021677485105820859 -0.0026429587054135743 0 -0.0022013227127011671 -0.0026831008158798137 0 -9.8751763070322604e-05 -0.0033419532840517261 0 -7.7958678050085102e-05 -0.0033583830622374885 0 -9.5134745773957089e-05 -0.0033620391101096183 0 -3.6979445885583128e-05 -0.003276976762141396 0 -2.5368568641915068e-05 -0.003300068664744563 0 2.5627581439264212e-05 -0.0032092385374423772 0 4.3971407265952214e-05 -0.0032201352542458712 0 2.6659162915774516e-05 -0.0032388358846736536 0 -9.8751763070322604e-05 -0.0033419532840517261 0 -0.00011464354063422202 -0.0033682163994383273 0 -0.00011955968561194593 -0.0033418311716752716 0 -9.8751763070322604e-05 -0.0033419532840517261 0 -9.5134745773957089e-05 -0.0033620391101096183 0 -0.00011464354063422202 -0.0033682163994383273 0 2.5627581439264212e-05 -0.0032092385374423772 0 1.9486497263172865e-05 -0.0031778618692320957 0 -6.3669706858603513e-06 -0.0031770083221591577 0 -3.6979445885583128e-05 -0.003276976762141396 0 -6.0486027478143563e-05 -0.0032439915722854069 0 2.5627581439264212e-05 -0.0032092385374423772 0 1.9486497263172865e-05 -0.0031778618692320957 0 3.8079642155829555e-05 -0.0031824713362622607 0 6.9536006710203715e-05 -0.0031531233956778176 0 3.8079642155829555e-05 -0.0031824713362622607 0 4.3971407265952214e-05 -0.0032201352542458712 0 2.5627581439264212e-05 -0.0032092385374423772 0 3.8079642155829555e-05 -0.0031824713362622607 0 4.3971407265952214e-05 -0.0032201352542458712 0 6.2024188108048724e-05 -0.0032215960426632798 0 2.7176037540071967e-06 -0.0032219055488612769 0 6.9536006710203715e-05 -0.0031531233956778176 0 8.9387410116155219e-05 -0.0031728849440507746 0 4.3971407265952214e-05 -0.0032201352542458712 0 8.9387410116155219e-05 -0.0031728849440507746 0 4.3971407265952214e-05 -0.0032201352542458712 0 0.00012145405875041915 -0.0031879555097878943 0 0.00011061961134607102 -0.0031332771342793384 0 8.9387410116155219e-05 -0.0031728849440507746 0 0.00012145405875041915 -0.0031879555097878943 0 -1.7548304410261777e-05 -0.0032664755357372901 0 -1.3253263903876146e-06 -0.0032617792447837161 0 -2.4673300944181253e-06 -0.0032571818241208051 0 4.3971407265952214e-05 -0.0032201352542458712 0 -2.4673300944181253e-06 -0.0032571818241208051 0 2.6659162915774516e-05 -0.0032388358846736536 0 4.3971407265952214e-05 -0.0032201352542458712 0 -1.3253263903876146e-06 -0.0032617792447837161 0 -2.4673300944181253e-06 -0.0032571818241208051 0 -2.5368568641915068e-05 -0.003300068664744563 0 -3.7165068891199393e-05 -0.0033217507958157567 0 -7.7958678050085102e-05 -0.0033583830622374885 0 -7.5324403721293713e-05 -0.0033758367112216386 0 -9.0285033930949271e-05 -0.0033800402657369892 0 -7.7958678050085102e-05 -0.0033583830622374885 0 -6.122915104111983e-05 -0.0033643124157049678 0 -7.5324403721293713e-05 -0.0033758367112216386 0 -2.4673300944181253e-06 -0.0032571818241208051 0 2.6659162915774516e-05 -0.0032388358846736536 0 -2.1994501406766184e-05 -0.0032747466854806942 0 -2.0337273083636903e-05 -0.003274920844032326 0 -2.4673300944181253e-06 -0.0032571818241208051 0 -2.1994501406766184e-05 -0.0032747466854806942 0 -3.2283395001904479e-05 -0.003345778628704445 0 -6.122915104111983e-05 -0.0033643124157049678 0 -6.8051143205131377e-05 -0.0033815627931866282 0 -6.122915104111983e-05 -0.0033643124157049678 0 -7.5324403721293713e-05 -0.0033758367112216386 0 -6.8051143205131377e-05 -0.0033815627931866282 0 -7.5324403721293713e-05 -0.0033758367112216386 0 -6.8051143205131377e-05 -0.0033815627931866282 0 -8.0855835880338007e-05 -0.0033971860728799572 0 -7.5324403721293713e-05 -0.0033758367112216386 0 -9.0285033930949271e-05 -0.0033800402657369892 0 -8.0855835880338007e-05 -0.0033971860728799572 0 -7.7958678050085102e-05 -0.0033583830622374885 0 -9.0285033930949271e-05 -0.0033800402657369892 0 -9.5134745773957089e-05 -0.0033620391101096183 0 -9.0285033930949271e-05 -0.0033800402657369892 0 -9.5134745773957089e-05 -0.0033620391101096183 0 -0.00011464354063422202 -0.0033682163994383273 0 -6.6063283325882864e-05 -0.0033538519367009765 0 -7.4661192950296158e-05 -0.0033980961495767323 0 -9.0285033930949271e-05 -0.0033800402657369892 0 -0.00011464354063422202 -0.0033682163994383273 0 -0.000108064942455564 -0.0033982236170070129 0 -6.4494292559837477e-05 -0.0033916185489924998 0 -6.0054250277230287e-05 -0.0033465152059304801 0 -1.5750945991723236e-05 -0.0033439394447756297 0 -6.4494292559837477e-05 -0.0033916185489924998 0 -1.5750945991723236e-05 -0.0033439394447756297 0 -4.122022131339023e-05 -0.0034031979773618578 0 -6.4494292559837477e-05 -0.0033916185489924998 0 -6.0054250277230287e-05 -0.0033465152059304801 0 -9.8791749978833522e-05 -0.0033824715537253171 0 -6.0054250277230287e-05 -0.0033465152059304801 0 -9.4084575201962181e-05 -0.0033305945240245955 0 -4.9553535823462048e-05 -0.0032938066476081666 0 -6.0054250277230287e-05 -0.0033465152059304801 0 -1.5750945991723236e-05 -0.0033439394447756297 0 -4.9553535823462048e-05 -0.0032938066476081666 0 -0.00014052734959427591 -0.0033708347307385674 0 -9.8791749978833522e-05 -0.0033824715537253171 0 -9.4084575201962181e-05 -0.0033305945240245955 0 -0.00014052734959427591 -0.0033708347307385674 0 -9.8791749978833522e-05 -0.0033824715537253171 0 -0.00012350945555790127 -0.0034105175937366324 0 -6.0054250277230287e-05 -0.0033465152059304801 0 -9.8791749978833522e-05 -0.0033824715537253171 0 -9.4084575201962181e-05 -0.0033305945240245955 0 -0.00014052734959427591 -0.0033708347307385674 0 -9.4084575201962181e-05 -0.0033305945240245955 0 -0.00013091781300868125 -0.0033011603996137432 0 -0.00014052734959427591 -0.0033708347307385674 0 -0.00013091781300868125 -0.0033011603996137432 0 -0.00018430316616413616 -0.0033342616010322498 0 -9.4084575201962181e-05 -0.0033305945240245955 0 -0.00013091781300868125 -0.0033011603996137432 0 -8.4394964913277065e-05 -0.0032761158445267107 0 -0.00013091781300868125 -0.0033011603996137432 0 -8.4394964913277065e-05 -0.0032761158445267107 0 -9.8532623169869709e-05 -0.0032171858320141629 0 -9.4084575201962181e-05 -0.0033305945240245955 0 -8.4394964913277065e-05 -0.0032761158445267107 0 -4.9553535823462048e-05 -0.0032938066476081666 0 -8.4394964913277065e-05 -0.0032761158445267107 0 -9.8532623169869709e-05 -0.0032171858320141629 0 -4.901566126192402e-05 -0.0032340970114164368 0 -9.8532623169869709e-05 -0.0032171858320141629 0 -4.901566126192402e-05 -0.0032340970114164368 0 -4.6214621708627696e-05 -0.0031803579060961486 0 -0.00013091781300868125 -0.0033011603996137432 0 -9.8532623169869709e-05 -0.0032171858320141629 0 -0.00017892249028269338 -0.0032625392192172087 0 -9.8532623169869709e-05 -0.0032171858320141629 0 -0.00016673761051282419 -0.0031867300611288793 0 -0.00017892249028269338 -0.0032625392192172087 0 -1.5750945991723236e-05 -0.0033439394447756297 0 -2.3811274165937103e-06 -0.0032655303661270015 0 -4.9553535823462048e-05 -0.0032938066476081666 0 -6.6063283325882864e-05 -0.0033538519367009765 0 -6.0998257719280569e-05 -0.0033047153164146 0 -8.4394964913277065e-05 -0.0032761158445267107 0 -4.9553535823462048e-05 -0.0032938066476081666 0 -4.901566126192402e-05 -0.0032340970114164368 0 -2.3811274165937103e-06 -0.0032655303661270015 0 -4.9553535823462048e-05 -0.0032938066476081666 0 -4.901566126192402e-05 -0.0032340970114164368 0 -4.901566126192402e-05 -0.0032340970114164368 0 -1.3374099898766923e-06 -0.0032059384555191196 0 -6.7500130355236355e-06 -0.0031696654490792528 0 -2.3811274165937103e-06 -0.0032655303661270015 0 -4.901566126192402e-05 -0.0032340970114164368 0 -1.3374099898766923e-06 -0.0032059384555191196 0 -9.8751763070322604e-05 -0.0033419532840517261 0 -0.00011955968561194593 -0.0033418311716752716 0 -0.00012264525874768214 -0.0033239624431457121 0 -6.0998257719280569e-05 -0.0033047153164146 0 -6.0486027478143563e-05 -0.0032439915722854069 0 1.9486497263172865e-05 -0.0031778618692320957 0 -6.3669706858603513e-06 -0.0031770083221591577 0 9.9989387704548524e-06 -0.0031647958963409691 0 -6.3669706858603513e-06 -0.0031770083221591577 0 9.9989387704548524e-06 -0.0031647958963409691 0 -6.7500130355236355e-06 -0.0031696654490792528 0 -6.0486027478143563e-05 -0.0032439915722854069 0 -3.9604169445958609e-05 -0.0031847835229770745 0 -6.7500130355236355e-06 -0.0031696654490792528 0 1.3483919931903484e-05 -0.0031407275279978272 0 -1.1426742582045351e-05 -0.0031301657156191688 0 9.9989387704548524e-06 -0.0031647958963409691 0 -6.7500130355236355e-06 -0.0031696654490792528 0 1.3483919931903484e-05 -0.0031407275279978272 0 -1.1426742582045351e-05 -0.0031301657156191688 0 1.7126974633887836e-05 -0.0031063342586843362 0 -7.4987771993764588e-06 -0.0030888625010598676 0 1.3483919931903484e-05 -0.0031407275279978272 0 -1.1426742582045351e-05 -0.0031301657156191688 0 1.7126974633887836e-05 -0.0031063342586843362 0 -1.1426742582045351e-05 -0.0031301657156191688 0 -2.5685393164778216e-05 -0.00311336260137117 0 -7.4987771993764588e-06 -0.0030888625010598676 0 -2.5685393164778216e-05 -0.00311336260137117 0 -4.3621357251153229e-05 -0.0031367022890830746 0 -4.1824335105953686e-05 -0.0031001806900597391 0 -1.1426742582045351e-05 -0.0031301657156191688 0 -2.5685393164778216e-05 -0.00311336260137117 0 -4.3621357251153229e-05 -0.0031367022890830746 0 -1.1426742582045351e-05 -0.0031301657156191688 0 -4.3621357251153229e-05 -0.0031367022890830746 0 -2.5284791887910402e-05 -0.0031555546079917425 0 -4.3621357251153229e-05 -0.0031367022890830746 0 -2.5284791887910402e-05 -0.0031555546079917425 0 -4.6214621708627696e-05 -0.0031803579060961486 0 -6.7500130355236355e-06 -0.0031696654490792528 0 -2.5284791887910402e-05 -0.0031555546079917425 0 -4.6214621708627696e-05 -0.0031803579060961486 0 -6.7500130355236355e-06 -0.0031696654490792528 0 -1.1426742582045351e-05 -0.0031301657156191688 0 -2.5284791887910402e-05 -0.0031555546079917425 0 -4.901566126192402e-05 -0.0032340970114164368 0 -6.7500130355236355e-06 -0.0031696654490792528 0 -4.6214621708627696e-05 -0.0031803579060961486 0 -9.8532623169869709e-05 -0.0032171858320141629 0 -4.6214621708627696e-05 -0.0031803579060961486 0 -8.8154073647355043e-05 -0.0031611070976316135 0 -4.3621357251153229e-05 -0.0031367022890830746 0 -4.6214621708627696e-05 -0.0031803579060961486 0 -8.8154073647355043e-05 -0.0031611070976316135 0 -8.8154073647355043e-05 -0.0031611070976316135 0 -0.00011038867298539495 -0.0031417587103336531 0 -0.00014340498297761223 -0.0031827729708197271 0 -9.8532623169869709e-05 -0.0032171858320141629 0 -8.8154073647355043e-05 -0.0031611070976316135 0 -0.00014340498297761223 -0.0031827729708197271 0 -0.00020291112954735365 -0.003160230367452875 0 8.9918332378385572e-05 -0.0033274246933619432 0 -0.00011038867298539495 -0.0031417587103336531 0 -0.00013118446741122678 -0.0031063839953720212 0 -0.00014340498297761223 -0.0031827729708197271 0 -8.8154073647355043e-05 -0.0031611070976316135 0 -0.00011038867298539495 -0.0031417587103336531 0 -7.7770700212294284e-05 -0.0031106941645590394 0 -0.00011038867298539495 -0.0031417587103336531 0 -7.7770700212294284e-05 -0.0031106941645590394 0 -0.00013118446741122678 -0.0031063839953720212 0 -4.3621357251153229e-05 -0.0031367022890830746 0 -8.8154073647355043e-05 -0.0031611070976316135 0 -6.0182085118858157e-05 -0.0031224590800605105 0 -8.8154073647355043e-05 -0.0031611070976316135 0 -6.0182085118858157e-05 -0.0031224590800605105 0 -7.7770700212294284e-05 -0.0031106941645590394 0 -6.0182085118858157e-05 -0.0031224590800605105 0 -4.1824335105953686e-05 -0.0031001806900597391 0 -7.7770700212294284e-05 -0.0031106941645590394 0 -4.3621357251153229e-05 -0.0031367022890830746 0 -6.0182085118858157e-05 -0.0031224590800605105 0 -4.1824335105953686e-05 -0.0031001806900597391 0 -4.1824335105953686e-05 -0.0031001806900597391 0 -5.3629218752506111e-05 -0.0030872300396709287 0 -2.3489493270757988e-05 -0.0030743957130306707 0 -4.1824335105953686e-05 -0.0031001806900597391 0 -5.3629218752506111e-05 -0.0030872300396709287 0 -7.7770700212294284e-05 -0.0031106941645590394 0 -0.00010591232604630982 -0.0031164618115288108 0 -2.4844677710287538e-05 -0.0031863864055380574 0 -7.4004835948896942e-05 -0.003104152669217874 0 -7.6090086202311712e-05 -0.0031027586651957719 0 -7.7282281456291226e-05 -0.0031085192760272802 0 -7.7770700212294284e-05 -0.0031106941645590394 0 -7.4004835948896942e-05 -0.003104152669217874 0 -7.7282281456291226e-05 -0.0031085192760272802 0 -5.3629218752506111e-05 -0.0030872300396709287 0 -7.7770700212294284e-05 -0.0031106941645590394 0 -7.4004835948896942e-05 -0.003104152669217874 0 -5.3629218752506111e-05 -0.0030872300396709287 0 -7.4004835948896942e-05 -0.003104152669217874 0 -6.6264937741864223e-05 -0.0030912619501433859 0 -7.4004835948896942e-05 -0.003104152669217874 0 -6.6264937741864223e-05 -0.0030912619501433859 0 -7.6090086202311712e-05 -0.0031027586651957719 0 -6.6264937741864223e-05 -0.0030912619501433859 0 -7.6296574255614553e-05 -0.0030939707701931889 0 -7.6090086202311712e-05 -0.0031027586651957719 0 -5.3629218752506111e-05 -0.0030872300396709287 0 -6.6264937741864223e-05 -0.0030912619501433859 0 -5.5688184655090629e-05 -0.0030728100516760498 0 -6.6264937741864223e-05 -0.0030912619501433859 0 -5.5688184655090629e-05 -0.0030728100516760498 0 -7.6296574255614553e-05 -0.0030939707701931889 0 -5.3629218752506111e-05 -0.0030872300396709287 0 -5.5688184655090629e-05 -0.0030728100516760498 0 -2.2657261909964128e-05 -0.0030552336958448419 0 -5.3629218752506111e-05 -0.0030872300396709287 0 -2.2657261909964128e-05 -0.0030552336958448419 0 -2.3489493270757988e-05 -0.0030743957130306707 0 -2.2657261909964128e-05 -0.0030552336958448419 0 5.1220766565117422e-06 -0.0030455902481949819 0 -2.3489493270757988e-05 -0.0030743957130306707 0 3.2780045012641903e-05 -0.0030057405100341762 0 2.773997870385175e-05 -0.0030584199679966648 0 5.1220766565117422e-06 -0.0030455902481949819 0 2.773997870385175e-05 -0.0030584199679966648 0 5.1220766565117422e-06 -0.0030455902481949819 0 -7.4987771993764588e-06 -0.0030888625010598676 0 2.773997870385175e-05 -0.0030584199679966648 0 1.7126974633887836e-05 -0.0031063342586843362 0 -7.4987771993764588e-06 -0.0030888625010598676 0 5.1220766565117422e-06 -0.0030455902481949819 0 -7.4987771993764588e-06 -0.0030888625010598676 0 -2.3489493270757988e-05 -0.0030743957130306707 0 -4.1824335105953686e-05 -0.0031001806900597391 0 -7.4987771993764588e-06 -0.0030888625010598676 0 -2.3489493270757988e-05 -0.0030743957130306707 0 -2.5685393164778216e-05 -0.00311336260137117 0 -4.1824335105953686e-05 -0.0031001806900597391 0 -7.4987771993764588e-06 -0.0030888625010598676 0 0.00011409392763594078 -0.0033017369632371073 0 0.00011083328988279272 -0.0033021740794020472 0 0.00011293939147353757 -0.0033013493019622758 0 -7.781114762456118e-05 -0.00312018675853569 0 -6.7323471338177614e-05 -0.0031110071780753703 0 -8.5342024657521275e-05 -0.0031105608621369179 0 1.8660755418337195e-05 -0.0032018713715409979 0 2.1845684286317658e-05 -0.0032081748573554577 0 -7.781114762456118e-05 -0.00312018675853569 0 -6.7323471338177614e-05 -0.0031110071780753703 0 -6.1058088888071095e-05 -0.0031243025818403626 0 0.00011409392763594078 -0.0033017369632371073 0 0.00011459130346035186 -0.0033015853475095499 0 0.00011293939147353757 -0.0033013493019622758 0 0.00011459130346035186 -0.0033015853475095499 0 0.0001140068656033463 -0.0033013198697687375 0 0.00011401945504024266 -0.0033012876388581148 0 1.8660755418337195e-05 -0.0032018713715409979 0 4.9729095909396782e-05 -0.0032744639648803375 0 -8.231731129135297e-05 -0.0031642943799011303 0 4.9729095909396782e-05 -0.0032744639648803375 0 0.00011409392763594078 -0.0033017369632371073 0 0.00011459130346035186 -0.0033015853475095499 0 0.00011401945504024266 -0.0033012876388581148 0 -6.7323471338177614e-05 -0.0031110071780753703 0 -6.1058088888071095e-05 -0.0031243025818403626 0 -3.7529594607322885e-05 -0.0031149883406211601 0 -6.0625702715517533e-05 -0.0032379351749054768 0 -8.1949096306088983e-05 -0.0032061591469633114 0 -4.4065723247222067e-05 -0.0032322073641353343 0 0.00021814112175972544 -0.0033794019226640526 0 0.0001365509048780011 -0.0033157018346308344 0 -8.8793598607316685e-05 -0.0031870159661120823 0 -6.0625702715517533e-05 -0.0032379351749054768 0 -6.3865326938083606e-05 -0.0032341606931379917 0 -8.8793598607316685e-05 -0.0031870159661120823 0 -6.0625702715517533e-05 -0.0032379351749054768 0 -8.1949096306088983e-05 -0.0032061591469633114 0 -7.781114762456118e-05 -0.00312018675853569 0 -6.1058088888071095e-05 -0.0031243025818403626 0 -8.4748772746353379e-05 -0.0031355061721487936 0 -8.231731129135297e-05 -0.0031642943799011303 0 -8.2553882765829735e-05 -0.0031455041408600796 0 -8.8793598607316685e-05 -0.0031870159661120823 0 -8.1949096306088983e-05 -0.0032061591469633114 0 -8.4748772746353379e-05 -0.0031355061721487936 0 -8.6013103981040742e-05 -0.0030956445288539002 0 -8.4748772746353379e-05 -0.0031355061721487936 0 -8.6864054625137598e-05 -0.0031153309778008701 0 -7.781114762456118e-05 -0.00312018675853569 0 -8.4748772746353379e-05 -0.0031355061721487936 0 -8.6864054625137598e-05 -0.0031153309778008701 0 -8.6013103981040742e-05 -0.0030956445288539002 0 -8.6864054625137598e-05 -0.0031153309778008701 0 -7.6296574255614553e-05 -0.0030939707701931889 0 -8.6864054625137598e-05 -0.0031153309778008701 0 -7.6296574255614553e-05 -0.0030939707701931889 0 -8.2268893457882906e-05 -0.0031075342987136874 0 -7.6296574255614553e-05 -0.0030939707701931889 0 -7.6090086202311712e-05 -0.0031027586651957719 0 -8.2268893457882906e-05 -0.0031075342987136874 0 -2.4844677710287538e-05 -0.0031863864055380574 0 2.1845684286317658e-05 -0.0032081748573554577 0 -7.7282281456291226e-05 -0.0031085192760272802 0 -8.0134865464595554e-05 -0.0031077108342208062 0 -8.5342024657521275e-05 -0.0031105608621369179 0 -7.6090086202311712e-05 -0.0031027586651957719 0 -8.2268893457882906e-05 -0.0031075342987136874 0 -8.0134865464595554e-05 -0.0031077108342208062 0 -8.2268893457882906e-05 -0.0031075342987136874 0 -8.0134865464595554e-05 -0.0031077108342208062 0 -8.5342024657521275e-05 -0.0031105608621369179 0 -7.6090086202311712e-05 -0.0031027586651957719 0 -7.7282281456291226e-05 -0.0031085192760272802 0 -8.0134865464595554e-05 -0.0031077108342208062 0 -8.6864054625137598e-05 -0.0031153309778008701 0 -8.2268893457882906e-05 -0.0031075342987136874 0 -8.5342024657521275e-05 -0.0031105608621369179 0 -7.781114762456118e-05 -0.00312018675853569 0 -8.6864054625137598e-05 -0.0031153309778008701 0 -8.5342024657521275e-05 -0.0031105608621369179 0 0.00011083328988279272 -0.0033021740794020472 0 0.00011229470423359533 -0.0032997100997003751 0 0.00010908628385342517 -0.0033003023957246889 0 0.00011083328988279272 -0.0033021740794020472 0 0.00011229470423359533 -0.0032997100997003751 0 0.00011293939147353757 -0.0033013493019622758 0 0.00010588908913261477 -0.0033016131844610828 0 0.00011083328988279272 -0.0033021740794020472 0 0.00010908628385342517 -0.0033003023957246889 0 0.00010588908913261477 -0.0033016131844610828 0 0.00010908628385342517 -0.0033003023957246889 0 0.00010738605749572393 -0.0032972476124999419 0 0.00011229470423359533 -0.0032997100997003751 0 0.00010908628385342517 -0.0033003023957246889 0 0.00010738605749572393 -0.0032972476124999419 0 -2.4844677710287538e-05 -0.0031863864055380574 0 8.9918332378385572e-05 -0.0033274246933619432 0 0.00032351366891427753 -0.003412131037158859 0 8.9918332378385572e-05 -0.0033274246933619432 0 0.00043674823765324993 -0.003480758096854187 0 0.00056899740720418618 -0.0035316823176186648 0 0.00047426325084637183 -0.0036029944247444544 0 0.00043674823765324993 -0.003480758096854187 0 0.00033901885370830973 -0.0036135269475019833 0 0.00047426325084637183 -0.0036029944247444544 0 0.00043674823765324993 -0.003480758096854187 0 0.00029704204150165446 -0.0035245228846881057 0 0.00033901885370830973 -0.0036135269475019833 0 0.00043674823765324993 -0.003480758096854187 0 0.00031879955429851766 -0.003450594399122322 0 0.00029704204150165446 -0.0035245228846881057 0 0.00032351366891427753 -0.003412131037158859 0 0.00021814112175972544 -0.0033794019226640526 0 0.00011229470423359533 -0.0032997100997003751 0 0.00011459130346035186 -0.0033015853475095499 0 0.00011293939147353757 -0.0033013493019622758 0 0.00031879955429851766 -0.003450594399122322 0 0.00029704204150165446 -0.0035245228846881057 0 0.00022176016965525847 -0.0035043790837792342 0 0.00031879955429851766 -0.003450594399122322 0 0.00023418399905181917 -0.0034313922609849334 0 0.00022176016965525847 -0.0035043790837792342 0 0.00029704204150165446 -0.0035245228846881057 0 0.00022176016965525847 -0.0035043790837792342 0 0.0002199572904520303 -0.0035772656281335175 0 0.00029704204150165446 -0.0035245228846881057 0 0.00033901885370830973 -0.0036135269475019833 0 0.0002199572904520303 -0.0035772656281335175 0 0.00033901885370830973 -0.0036135269475019833 0 0.00022066439347032428 -0.0036813382789997132 0 0.0002199572904520303 -0.0035772656281335175 0 0.00033901885370830973 -0.0036135269475019833 0 0.00034336819769945624 -0.0037564224726047376 0 0.00045893412560021435 -0.0037331882733417417 0 0.00033901885370830973 -0.0036135269475019833 0 0.00034336819769945624 -0.0037564224726047376 0 0.00022066439347032428 -0.0036813382789997132 0 0.00034336819769945624 -0.0037564224726047376 0 0.00022066439347032428 -0.0036813382789997132 0 0.00025727157424040045 -0.0038655273906771604 0 8.9918332378385572e-05 -0.0033274246933619432 0 0.00020504474318945983 -0.0034700711347569412 0 0.00056899740720418618 -0.0035316823176186648 0 0.00056788053609138362 -0.0036719102492777243 0 0.00047426325084637183 -0.0036029944247444544 0 0.00033901885370830973 -0.0036135269475019833 0 0.00047426325084637183 -0.0036029944247444544 0 0.00045893412560021435 -0.0037331882733417417 0 0.00056788053609138362 -0.0036719102492777243 0 0.00047426325084637183 -0.0036029944247444544 0 0.00045893412560021435 -0.0037331882733417417 0 0.00020504474318945983 -0.0034700711347569412 0 0.00019211145738404526 -0.0036102213605448321 0 0.00056788053609138362 -0.0036719102492777243 0 0.00045893412560021435 -0.0037331882733417417 0 0.00057585578430568562 -0.0038456614640587439 0 -0.00013091781300868125 -0.0033011603996137432 0 -0.00017892249028269338 -0.0032625392192172087 0 -0.00018430316616413616 -0.0033342616010322498 0 0.00034336819769945624 -0.0037564224726047376 0 0.00045893412560021435 -0.0037331882733417417 0 0.00044826261522795029 -0.0039299798324603447 0 0.00045893412560021435 -0.0037331882733417417 0 0.00057585578430568562 -0.0038456614640587439 0 0.00044826261522795029 -0.0039299798324603447 0 0.00057585578430568562 -0.0038456614640587439 0 0.00044826261522795029 -0.0039299798324603447 0 0.00056563843875598481 -0.0040583293328115781 0 0.00044826261522795029 -0.0039299798324603447 0 0.00045352384239374049 -0.0040594862011230394 0 0.00034285064214895208 -0.0040958670903198423 0 0.00044826261522795029 -0.0039299798324603447 0 0.00045352384239374049 -0.0040594862011230394 0 0.00056563843875598481 -0.0040583293328115781 0 -0.00014052734959427591 -0.0033708347307385674 0 -0.00018626226166396586 -0.0033956320057506586 0 -0.00015306584561304549 -0.0034224204678758542 0 0.00019211145738404526 -0.0036102213605448321 0 0.00019503712323902333 -0.0036328278503736161 0 -0.00014052734959427591 -0.0033708347307385674 0 -0.00018430316616413616 -0.0033342616010322498 0 -0.00018626226166396586 -0.0033956320057506586 0 0.00022066439347032428 -0.0036813382789997132 0 0.00025727157424040045 -0.0038655273906771604 0 8.6418135978973847e-05 -0.0037350804609237137 0 0.00034336819769945624 -0.0037564224726047376 0 0.00044826261522795029 -0.0039299798324603447 0 0.00025727157424040045 -0.0038655273906771604 0 0.00044826261522795029 -0.0039299798324603447 0 0.00025727157424040045 -0.0038655273906771604 0 0.00034285064214895208 -0.0040958670903198423 0 0.00025727157424040045 -0.0038655273906771604 0 0.00034285064214895208 -0.0040958670903198423 0 0.00013706188549579679 -0.0040373859143807336 0 0.00034285064214895208 -0.0040958670903198423 0 0.00017918401356784681 -0.004311441959693363 0 0.00013706188549579679 -0.0040373859143807336 0 0.00034285064214895208 -0.0040958670903198423 0 0.00017918401356784681 -0.004311441959693363 0 0.0003172603211297326 -0.0043104025547788206 0 0.00034015521126112895 -0.0041034898051499798 0 0.00045916393663207231 -0.0042419057189550212 0 0.00034285064214895208 -0.0040958670903198423 0 0.0003172603211297326 -0.0043104025547788206 0 0.00043835378619873377 -0.004251682794884944 0 0.0003172603211297326 -0.0043104025547788206 0 0.00024328361411337865 -0.0045508721348763029 0 0.00039944126224898658 -0.0044482256883044769 0 0.00017918401356784681 -0.004311441959693363 0 0.0003172603211297326 -0.0043104025547788206 0 0.00024328361411337865 -0.0045508721348763029 0 0.0003172603211297326 -0.0043104025547788206 0 0.00039944126224898658 -0.0044482256883044769 0 0.00043835378619873377 -0.004251682794884944 0 0.00017918401356784681 -0.004311441959693363 0 0.00024328361411337865 -0.0045508721348763029 0 3.2969002569198579e-05 -0.0045222556872081187 0 0.00024328361411337865 -0.0045508721348763029 0 7.2270540465953781e-05 -0.0047502950518559959 0 3.2969002569198579e-05 -0.0045222556872081187 0 0.00024328361411337865 -0.0045508721348763029 0 0.00018785584698762208 -0.0049060984008272466 0 7.2270540465953781e-05 -0.0047502950518559959 0 0.00024328361411337865 -0.0045508721348763029 0 0.00018785584698762208 -0.0049060984008272466 0 0.00044435021933653498 -0.0047503719759804967 0 6.1890793014828953e-05 -0.0052558851978396787 0 0.00011871229133241541 -0.005285787848539069 0 7.4761306960383081e-05 -0.0052978542066543241 0 6.1890793014828953e-05 -0.0052558851978396787 0 7.4761306960383081e-05 -0.0052978542066543241 0 3.7116895504796166e-05 -0.0052769121900225376 0 0.00028506148367721761 -0.0051368515826641795 0 0.00019773237748216586 -0.0050717019883747419 0 0.00018785584698762208 -0.0049060984008272466 0 0.00044435021933653498 -0.0047503719759804967 0 0.000178493149024569 -0.0051428535790364032 0 6.1890793014828953e-05 -0.0052558851978396787 0 0.00011871229133241541 -0.005285787848539069 0 0.000178493149024569 -0.0051428535790364032 0 0.00024328361411337865 -0.0045508721348763029 0 0.00044435021933653498 -0.0047503719759804967 0 0.00039944126224898658 -0.0044482256883044769 0 0.00028506148367721761 -0.0051368515826641795 0 0.00018732210971776603 -0.0043124512270706072 0 0.00044435021933653498 -0.0047503719759804967 0 0.00039944126224898658 -0.0044482256883044769 0 0.00055651023754390986 -0.0043886656224973218 0 0.00011871229133241541 -0.005285787848539069 0 7.4761306960383081e-05 -0.0052978542066543241 0 9.1909910702758001e-05 -0.0053384351412963773 0 7.4761306960383081e-05 -0.0052978542066543241 0 5.1884671087385911e-05 -0.0053124314775257709 0 9.1909910702758001e-05 -0.0053384351412963773 0 7.4761306960383081e-05 -0.0052978542066543241 0 5.1884671087385911e-05 -0.0053124314775257709 0 3.7116895504796166e-05 -0.0052769121900225376 0 -0.00015488954252847482 -0.0034782791687755685 0 -0.00018824774987179977 -0.0034514200804577622 0 -0.00015341775871426368 -0.0034515112406429782 0 -0.00018824774987179977 -0.0034514200804577622 0 -0.00015306584561304549 -0.0034224204678758542 0 -0.00015341775871426368 -0.0034515112406429782 0 -5.610636123978061e-05 -0.0044309347337782457 0 0.00018732210971776603 -0.0043124512270706072 0 0.00018732210971776603 -0.0043124512270706072 0 0.00045916393663207231 -0.0042419057189550212 0 0.00039944126224898658 -0.0044482256883044769 0 0.00055651023754390986 -0.0043886656224973218 0 0.00043835378619873377 -0.004251682794884944 0 0.00056563843875598481 -0.0040583293328115781 0 0.00053534892284660073 -0.004264328010783771 0 0.00043875066312760682 -0.0041707867487624714 0 0.00045352384239374049 -0.0040594862011230394 0 0.00056563843875598481 -0.0040583293328115781 0 0.00043875066312760682 -0.0041707867487624714 0 0.00045352384239374049 -0.0040594862011230394 0 0.00034285064214895208 -0.0040958670903198423 0 0.00043875066312760682 -0.0041707867487624714 0 0.00019503712323902333 -0.0036328278503736161 0 0.00018732210971776603 -0.0043124512270706072 0 -0.00018626226166396586 -0.0033956320057506586 0 -0.00018824774987179977 -0.0034514200804577622 0 -0.00015306584561304549 -0.0034224204678758542 0 -0.00015306584561304549 -0.0034224204678758542 0 -0.00012350945555790127 -0.0034105175937366324 0 -0.00012876717450077479 -0.0034517086379050313 0 -0.00014052734959427591 -0.0033708347307385674 0 -0.00015306584561304549 -0.0034224204678758542 0 -0.00012350945555790127 -0.0034105175937366324 0 -9.8791749978833522e-05 -0.0033824715537253171 0 -0.00012350945555790127 -0.0034105175937366324 0 -9.8306985765925488e-05 -0.0034191880424848955 0 -0.00012350945555790127 -0.0034105175937366324 0 -9.8306985765925488e-05 -0.0034191880424848955 0 -0.00012876717450077479 -0.0034517086379050313 0 -9.8476137768011284e-05 -0.0034459364898099414 0 -0.00012876717450077479 -0.0034517086379050313 0 -0.00011711239993714021 -0.0034680064852968167 0 -9.8306985765925488e-05 -0.0034191880424848955 0 -9.8476137768011284e-05 -0.0034459364898099414 0 -0.00012876717450077479 -0.0034517086379050313 0 -0.00015306584561304549 -0.0034224204678758542 0 -0.00012876717450077479 -0.0034517086379050313 0 -0.00015341775871426368 -0.0034515112406429782 0 -0.00015488954252847482 -0.0034782791687755685 0 -0.00015341775871426368 -0.0034515112406429782 0 -0.00014182979644883199 -0.0034694213286094763 0 -0.00012876717450077479 -0.0034517086379050313 0 -0.00015341775871426368 -0.0034515112406429782 0 -0.00014182979644883199 -0.0034694213286094763 0 -7.3698836454011793e-05 -0.0034302160791569603 0 -4.122022131339023e-05 -0.0034031979773618578 0 -8.0219043519032411e-05 -0.0034303215665313332 0 -6.4494292559837477e-05 -0.0033916185489924998 0 -7.3698836454011793e-05 -0.0034302160791569603 0 -4.122022131339023e-05 -0.0034031979773618578 0 -6.4494292559837477e-05 -0.0033916185489924998 0 -9.8791749978833522e-05 -0.0033824715537253171 0 -9.8306985765925488e-05 -0.0034191880424848955 0 -6.4494292559837477e-05 -0.0033916185489924998 0 -9.8306985765925488e-05 -0.0034191880424848955 0 -7.3698836454011793e-05 -0.0034302160791569603 0 -9.8306985765925488e-05 -0.0034191880424848955 0 -9.8476137768011284e-05 -0.0034459364898099414 0 -7.3698836454011793e-05 -0.0034302160791569603 0 -9.8476137768011284e-05 -0.0034459364898099414 0 -7.3698836454011793e-05 -0.0034302160791569603 0 -8.5454688768694503e-05 -0.0034601677440818132 0 -7.3698836454011793e-05 -0.0034302160791569603 0 -7.7743275443026871e-05 -0.0034367493991035582 0 -8.5454688768694503e-05 -0.0034601677440818132 0 -7.3698836454011793e-05 -0.0034302160791569603 0 -7.7743275443026871e-05 -0.0034367493991035582 0 -8.0219043519032411e-05 -0.0034303215665313332 0 -0.00011618464731738441 -0.0034807111071774844 0 -0.00010503545360947881 -0.0034610279718253678 0 -0.00014267338330219067 -0.0035028884077057273 0 -0.0001384886143431621 -0.0035002382752649659 0 -0.0001324182924978979 -0.0034829672109629494 0 -7.7743275443026871e-05 -0.0034367493991035582 0 -8.5454688768694503e-05 -0.0034601677440818132 0 -8.0593728042435345e-05 -0.0034369099733933921 0 -0.00014267338330219067 -0.0035028884077057273 0 -0.00014308178605261385 -0.0035089790841968858 0 -0.00014318741413672171 -0.0035046209399570904 0 -0.00014267338330219067 -0.0035028884077057273 0 -0.00014308178605261385 -0.0035089790841968858 0 -0.0001384886143431621 -0.0035002382752649659 0 -0.0001384886143431621 -0.0035002382752649659 0 -0.00013899973800607252 -0.003510117579614001 0 -0.0001280871877122362 -0.0035000848243593621 0 -0.00014308178605261385 -0.0035089790841968858 0 -0.0001384886143431621 -0.0035002382752649659 0 -0.00013899973800607252 -0.003510117579614001 0 -0.00014363850614399759 -0.0034917849754290253 0 -0.00014240726992860529 -0.0034977475138999198 0 -0.00013877745536418777 -0.0035070791572055886 0 -5.610636123978061e-05 -0.0044309347337782457 0 -6.046849834905565e-05 -0.0040399323128575571 0 5.1884671087385911e-05 -0.0053124314775257709 0 -7.613550203172063e-06 -0.0052712754213580792 0 3.7116895504796166e-05 -0.0052769121900225376 0 -0.00015488954252847482 -0.0034782791687755685 0 -0.00014363850614399759 -0.0034917849754290253 0 -0.00013877745536418777 -0.0035070791572055886 0 -0.00015488954252847482 -0.0034782791687755685 0 -0.00014363850614399759 -0.0034917849754290253 0 -0.00014182979644883199 -0.0034694213286094763 0 -0.00014363850614399759 -0.0034917849754290253 0 -0.00013263047303223649 -0.0034695232609714141 0 -0.00011711239993714021 -0.0034680064852968167 0 -0.00012876717450077479 -0.0034517086379050313 0 -0.00014182979644883199 -0.0034694213286094763 0 -0.00013263047303223649 -0.0034695232609714141 0 -0.00014363850614399759 -0.0034917849754290253 0 -0.00014182979644883199 -0.0034694213286094763 0 -0.00013263047303223649 -0.0034695232609714141 0 -0.00012876717450077479 -0.0034517086379050313 0 -0.00013263047303223649 -0.0034695232609714141 0 -0.00011711239993714021 -0.0034680064852968167 0 -0.00014267338330219067 -0.0035028884077057273 0 -0.00014240726992860529 -0.0034977475138999198 0 -0.00014318741413672171 -0.0035046209399570904 0 -8.5454688768694503e-05 -0.0034601677440818132 0 -0.00014363850614399759 -0.0034917849754290253 0 -0.00011711239993714021 -0.0034680064852968167 0 -0.00011618464731738441 -0.0034807111071774844 0 -0.00014412863237891685 -0.0034903760159622579 0 -0.00014267338330219067 -0.0035028884077057273 0 -0.00014363850614399759 -0.0034917849754290253 0 -0.00014240726992860529 -0.0034977475138999198 0 -9.8476137768011284e-05 -0.0034459364898099414 0 -8.5454688768694503e-05 -0.0034601677440818132 0 -0.00011711239993714021 -0.0034680064852968167 0 -0.00014240726992860529 -0.0034977475138999198 0 -0.00014318741413672171 -0.0035046209399570904 0 -0.00014427011023004726 -0.0035022613697167676 0 -1.6813423556705747e-05 -0.0052458633500600408 0 -7.613550203172063e-06 -0.0052712754213580792 0 -4.0605149532796357e-05 -0.0052331177649902602 0 -0.00014318741413672171 -0.0035046209399570904 0 -0.00014605020228703402 -0.0035183080308397348 0 -0.00014427011023004726 -0.0035022613697167676 0 -0.00014605020228703402 -0.0035183080308397348 0 -0.00011420087215644197 -0.0035498879004813135 0 -0.0001450541348847126 -0.00351360973781193 0 -6.046849834905565e-05 -0.0040399323128575571 0 -6.6834135015544661e-05 -0.0044414173764266074 0 -0.00014308178605261385 -0.0035089790841968858 0 -0.00014318741413672171 -0.0035046209399570904 0 -0.00014605020228703402 -0.0035183080308397348 0 -0.0002374747970779143 -0.0034164991689738552 0 -6.046849834905565e-05 -0.0040399323128575571 0 -1.6813423556705747e-05 -0.0052458633500600408 0 -5.5021183337558487e-06 -0.0052526237239178958 0 -7.0802909705359201e-06 -0.0052389037309427296 0 -1.6813423556705747e-05 -0.0052458633500600408 0 -5.5021183337558487e-06 -0.0052526237239178958 0 -7.613550203172063e-06 -0.0052712754213580792 0 -5.5021183337558487e-06 -0.0052526237239178958 0 -7.613550203172063e-06 -0.0052712754213580792 0 1.4686939373379162e-05 -0.0052545926364537671 0 -5.5021183337558487e-06 -0.0052526237239178958 0 1.4686939373379162e-05 -0.0052545926364537671 0 -7.0802909705359201e-06 -0.0052389037309427296 0 -0.00018974299153443779 -0.0037305316727138135 0 -6.046849834905565e-05 -0.0040399323128575571 0 6.1890793014828953e-05 -0.0052558851978396787 0 3.7116895504796166e-05 -0.0052769121900225376 0 1.4686939373379162e-05 -0.0052545926364537671 0 -7.613550203172063e-06 -0.0052712754213580792 0 3.7116895504796166e-05 -0.0052769121900225376 0 1.4686939373379162e-05 -0.0052545926364537671 0 6.1890793014828953e-05 -0.0052558851978396787 0 1.4686939373379162e-05 -0.0052545926364537671 0 2.9012083540322402e-05 -0.0052185364179309643 0 1.4686939373379162e-05 -0.0052545926364537671 0 2.9012083540322402e-05 -0.0052185364179309643 0 -7.0802909705359201e-06 -0.0052389037309427296 0 2.9012083540322402e-05 -0.0052185364179309643 0 -2.1960769998596923e-05 -0.0052258810696597475 0 6.3117834917300338e-06 -0.0052113365778863763 0 2.9012083540322402e-05 -0.0052185364179309643 0 -2.1960769998596923e-05 -0.0052258810696597475 0 -7.0802909705359201e-06 -0.0052389037309427296 0 -2.1960769998596923e-05 -0.0052258810696597475 0 -7.0802909705359201e-06 -0.0052389037309427296 0 -2.3162507443197535e-05 -0.005234701998545338 0 -1.6813423556705747e-05 -0.0052458633500600408 0 -7.0802909705359201e-06 -0.0052389037309427296 0 -2.3162507443197535e-05 -0.005234701998545338 0 -1.6813423556705747e-05 -0.0052458633500600408 0 -2.3162507443197535e-05 -0.005234701998545338 0 -4.0605149532796357e-05 -0.0052331177649902602 0 -2.1960769998596923e-05 -0.0052258810696597475 0 -2.3162507443197535e-05 -0.005234701998545338 0 -4.0605149532796357e-05 -0.0052331177649902602 0 -6.6834135015544661e-05 -0.0044414173764266074 0 -0.00012082623253624936 -0.0043245311700874896 0 -0.00014605020228703402 -0.0035183080308397348 0 -0.0001450541348847126 -0.00351360973781193 0 -0.00014620389269915163 -0.0035163893805651336 0 -2.1960769998596923e-05 -0.0052258810696597475 0 -4.0605149532796357e-05 -0.0052331177649902602 0 -4.5921256030845169e-05 -0.0052248762323758354 0 -4.0605149532796357e-05 -0.0052331177649902602 0 -4.5921256030845169e-05 -0.0052248762323758354 0 -6.7564370168126802e-05 -0.0052220062678854729 0 -2.1960769998596923e-05 -0.0052258810696597475 0 -4.5921256030845169e-05 -0.0052248762323758354 0 -3.3011595546267276e-05 -0.0052221237433852817 0 -4.5921256030845169e-05 -0.0052248762323758354 0 -6.0745926244345683e-05 -0.0052273836908943629 0 -6.7564370168126802e-05 -0.0052220062678854729 0 -6.0745926244345683e-05 -0.0052273836908943629 0 -6.7564370168126802e-05 -0.0052220062678854729 0 -8.3960393804487178e-05 -0.0052378599905104429 0 -6.0745926244345683e-05 -0.0052273836908943629 0 -3.3011595546267276e-05 -0.0052221237433852817 0 -5.9038418232182921e-05 -0.0052341333810992574 0 -4.5921256030845169e-05 -0.0052248762323758354 0 -6.0745926244345683e-05 -0.0052273836908943629 0 -3.3011595546267276e-05 -0.0052221237433852817 0 -3.3011595546267276e-05 -0.0052221237433852817 0 6.3117834917300338e-06 -0.0052113365778863763 0 -3.1066770753386292e-06 -0.0052253587926522323 0 -2.1960769998596923e-05 -0.0052258810696597475 0 -3.3011595546267276e-05 -0.0052221237433852817 0 6.3117834917300338e-06 -0.0052113365778863763 0 -0.00013899973800607252 -0.003510117579614001 0 -0.0001280871877122362 -0.0035000848243593621 0 -0.00013344564665082704 -0.0035196029683860499 0 -0.00013899973800607252 -0.003510117579614001 0 -0.00014096914525360606 -0.0035217170144108455 0 -0.00013344564665082704 -0.0035196029683860499 0 -0.00013899973800607252 -0.003510117579614001 0 -0.00014096914525360606 -0.0035217170144108455 0 -0.00014402220170602579 -0.0035169675780247446 0 -0.00014402220170602579 -0.0035169675780247446 0 -0.00014620389269915163 -0.0035163893805651336 0 -0.00015001162099835836 -0.0035325474855743347 0 -0.0001450541348847126 -0.00351360973781193 0 -0.00014620389269915163 -0.0035163893805651336 0 -0.00015001162099835836 -0.0035325474855743347 0 -0.00014096914525360606 -0.0035217170144108455 0 -0.00014402220170602579 -0.0035169675780247446 0 -0.00015001162099835836 -0.0035325474855743347 0 -0.00014308178605261385 -0.0035089790841968858 0 -0.00013899973800607252 -0.003510117579614001 0 -0.00014402220170602579 -0.0035169675780247446 0 -0.00014308178605261385 -0.0035089790841968858 0 -0.00014605020228703402 -0.0035183080308397348 0 -0.00014620389269915163 -0.0035163893805651336 0 -0.00014308178605261385 -0.0035089790841968858 0 -0.00014402220170602579 -0.0035169675780247446 0 -0.00014620389269915163 -0.0035163893805651336 0 -0.00015001162099835836 -0.0035325474855743347 0 -0.00013866842750230807 -0.0035306992411227867 0 -0.00014473527998559032 -0.0035512667866633299 0 -0.00014096914525360606 -0.0035217170144108455 0 -0.00015001162099835836 -0.0035325474855743347 0 -0.00013866842750230807 -0.0035306992411227867 0 -0.00013866842750230807 -0.0035306992411227867 0 -0.00014473527998559032 -0.0035512667866633299 0 -0.00012828320576501592 -0.0035339895937950869 0 -0.00014096914525360606 -0.0035217170144108455 0 -0.00013866842750230807 -0.0035306992411227867 0 -0.00013344564665082704 -0.0035196029683860499 0 -0.00022581697910003151 -0.0046999208210734304 0 -0.0002471452316778002 -0.0040833442437198655 0 -6.7564370168126802e-05 -0.0052220062678854729 0 -7.010574675157634e-05 -0.0052346074269577787 0 -8.3960393804487178e-05 -0.0052378599905104429 0 -0.00012082623253624936 -0.0043245311700874896 0 -0.00022581697910003151 -0.0046999208210734304 0 -0.00022581697910003151 -0.0046999208210734304 0 -8.0009673331443887e-06 -0.0052165034098041949 0 -8.6761545301767111e-05 -0.0052336565833585626 0 -8.3960393804487178e-05 -0.0052378599905104429 0 -0.00011846199414756332 -0.0052603345424946284 0 -0.00011846199414756332 -0.0052603345424946284 0 -3.9819356273226245e-05 -0.0052921662997262404 0 -0.00018473016897498895 -0.0053218504026868842 0 -0.00036841020324113687 -0.0053245995530196519 0 -0.00015695409558635741 -0.0053552610351482567 0 -0.00022581697910003151 -0.0046999208210734304 0 -0.00036841020324113687 -0.0053245995530196519 0 -0.00034778686677345433 -0.0047889086495582741 0 -0.00037996173601603496 -0.0047416188154122164 0 -0.00041684657473193106 -0.0047765230767094673 0 -8.6761545301767111e-05 -0.0052336565833585626 0 -0.00011846199414756332 -0.0052603345424946284 0 -3.9819356273226245e-05 -0.0052921662997262404 0 -3.1066770753386292e-06 -0.0052253587926522323 0 -5.9038418232182921e-05 -0.0052341333810992574 0 -8.7917867239933314e-05 -0.005258705224177122 0 -3.3011595546267276e-05 -0.0052221237433852817 0 -3.1066770753386292e-06 -0.0052253587926522323 0 -5.9038418232182921e-05 -0.0052341333810992574 0 -8.3960393804487178e-05 -0.0052378599905104429 0 -0.00011846199414756332 -0.0052603345424946284 0 -8.7917867239933314e-05 -0.005258705224177122 0 -6.0745926244345683e-05 -0.0052273836908943629 0 -8.3960393804487178e-05 -0.0052378599905104429 0 -5.9038418232182921e-05 -0.0052341333810992574 0 -8.3960393804487178e-05 -0.0052378599905104429 0 -5.9038418232182921e-05 -0.0052341333810992574 0 -8.7917867239933314e-05 -0.005258705224177122 0 -0.00011846199414756332 -0.0052603345424946284 0 -8.7917867239933314e-05 -0.005258705224177122 0 -0.00018473016897498895 -0.0053218504026868842 0 -8.7917867239933314e-05 -0.005258705224177122 0 -9.3581724298292333e-05 -0.0052568915669716403 0 -0.00018473016897498895 -0.0053218504026868842 0 -3.1066770753386292e-06 -0.0052253587926522323 0 -8.7917867239933314e-05 -0.005258705224177122 0 -3.4778985489869056e-05 -0.0052496341849957301 0 -8.7917867239933314e-05 -0.005258705224177122 0 -3.4778985489869056e-05 -0.0052496341849957301 0 -9.3581724298292333e-05 -0.0052568915669716403 0 -3.1066770753386292e-06 -0.0052253587926522323 0 -3.4778985489869056e-05 -0.0052496341849957301 0 2.1442205412581752e-05 -0.0052381968028379763 0 -3.1066770753386292e-06 -0.0052253587926522323 0 2.1442205412581752e-05 -0.0052381968028379763 0 6.0473232631341635e-05 -0.0052124053868227976 0 -3.1066770753386292e-06 -0.0052253587926522323 0 6.0473232631341635e-05 -0.0052124053868227976 0 7.0687648693852089e-05 -0.0051878478266212365 0 6.0473232631341635e-05 -0.0052124053868227976 0 6.0995374022490342e-05 -0.0052294713592405829 0 0.0001020701100633405 -0.0051845569530819466 0 2.1442205412581752e-05 -0.0052381968028379763 0 6.0473232631341635e-05 -0.0052124053868227976 0 6.0995374022490342e-05 -0.0052294713592405829 0 2.1442205412581752e-05 -0.0052381968028379763 0 6.0995374022490342e-05 -0.0052294713592405829 0 4.7400552534452064e-05 -0.0052369530119166247 0 9.8316409763203673e-05 -0.0051521197743566302 0 4.7400552534452064e-05 -0.0052369530119166247 0 1.8643246477630733e-05 -0.0052160409437856268 0 7.7276720253873467e-05 -0.005188156950244255 0 5.3117247180721183e-05 -0.0052319082702649107 0 9.8316409763203673e-05 -0.0051521197743566302 0 3.0449493401036075e-07 -0.0050703148555365472 0 1.8643246477630733e-05 -0.0052160409437856268 0 6.0995374022490342e-05 -0.0052294713592405829 0 0.0001020701100633405 -0.0051845569530819466 0 5.2310448859854368e-05 -0.005125386483855689 0 0.0001020701100633405 -0.0051845569530819466 0 5.2310448859854368e-05 -0.005125386483855689 0 0.000178493149024569 -0.0051428535790364032 0 7.7276720253873467e-05 -0.005188156950244255 0 8.6021858187530217e-05 -0.0050431239404810767 0 0.00011615099680884006 -0.0049729209446758285 0 4.8058588937911574e-06 -0.0048816844526089285 0 3.0449493401036075e-07 -0.0050703148555365472 0 9.8316409763203673e-05 -0.0051521197743566302 0 0.00011615099680884006 -0.0049729209446758285 0 3.0449493401036075e-07 -0.0050703148555365472 0 6.7729918391264596e-05 -0.0047726765741857753 0 8.6021858187530217e-05 -0.0050431239404810767 0 0.00018785584698762208 -0.0049060984008272466 0 7.2270540465953781e-05 -0.0047502950518559959 0 5.2310448859854368e-05 -0.005125386483855689 0 7.2270540465953781e-05 -0.0047502950518559959 0 0.00011615099680884006 -0.0049729209446758285 0 4.8058588937911574e-06 -0.0048816844526089285 0 0.00018785584698762208 -0.0049060984008272466 0 5.2310448859854368e-05 -0.005125386483855689 0 0.000178493149024569 -0.0051428535790364032 0 6.1890793014828953e-05 -0.0052558851978396787 0 2.9012083540322402e-05 -0.0052185364179309643 0 0.000178493149024569 -0.0051428535790364032 0 2.9012083540322402e-05 -0.0052185364179309643 0 0.000178493149024569 -0.0051428535790364032 0 7.0687648693852089e-05 -0.0051878478266212365 0 6.3117834917300338e-06 -0.0052113365778863763 0 -3.1066770753386292e-06 -0.0052253587926522323 0 7.0687648693852089e-05 -0.0051878478266212365 0 2.9012083540322402e-05 -0.0052185364179309643 0 6.3117834917300338e-06 -0.0052113365778863763 0 7.0687648693852089e-05 -0.0051878478266212365 0 6.0473232631341635e-05 -0.0052124053868227976 0 0.0001020701100633405 -0.0051845569530819466 0 7.0687648693852089e-05 -0.0051878478266212365 0 0.0001020701100633405 -0.0051845569530819466 0 0.000178493149024569 -0.0051428535790364032 0 7.0687648693852089e-05 -0.0051878478266212365 0 -0.0021031600026872681 -0.0029530239993676884 0 -0.0021489947715186736 -0.0029720504263031832 0 -0.0021369944778019787 -0.0030362112436660353 0 -0.0021489947715186736 -0.0029720504263031832 0 -0.0021369944778019787 -0.0030362112436660353 0 -0.002203401808126235 -0.0029793106176898856 0 -9.5175382349030078e-06 -0.0034586488479351053 0 -3.2755882079891687e-05 -0.0034573853944480809 0 -2.348772589104375e-05 -0.0034803766272021698 0 -9.5175382349030078e-06 -0.0034586488479351053 0 3.7755621599112949e-07 -0.0034088884456267405 0 -3.2755882079891687e-05 -0.0034573853944480809 0 -0.0011215257915924751 -0.00320914375353989 0 -0.0010984424491267103 -0.0031391499686064459 0 -0.002203401808126235 -0.0029793106176898856 0 -0.0021479205092576653 -0.0029094414276944836 0 -0.002200407651805084 -0.0028628072109014549 0 -0.0021489947715186736 -0.0029720504263031832 0 -0.002203401808126235 -0.0029793106176898856 0 -0.0021479205092576653 -0.0029094414276944836 0 -0.0021031600026872681 -0.0029530239993676884 0 -0.0021489947715186736 -0.0029720504263031832 0 -0.0021479205092576653 -0.0029094414276944836 0 -0.0021012908027543422 -0.0028203335745272799 0 -0.0021479205092576653 -0.0029094414276944836 0 -0.002200407651805084 -0.0028628072109014549 0 -0.0021012908027543422 -0.0028203335745272799 0 -0.0021334682836736279 -0.0027568102788494806 0 -0.002200407651805084 -0.0028628072109014549 0 -0.0021334682836736279 -0.0027568102788494806 0 -0.0021996094052586274 -0.0027711835476345826 0 -0.002200407651805084 -0.0028628072109014549 0 -0.0010977951368192082 -0.0030553503034451736 0 -0.0010984424491267103 -0.0031391499686064459 0 7.1835379360308349e-06 -0.0033492703877282424 0 3.7755621599112949e-07 -0.0034088884456267405 0 -3.2275811309092165e-05 -0.0034029581932660531 0 -3.2283395001904479e-05 -0.003345778628704445 0 7.1835379360308349e-06 -0.0033492703877282424 0 -3.2275811309092165e-05 -0.0034029581932660531 0 -3.2283395001904479e-05 -0.003345778628704445 0 -6.4792204641775069e-05 -0.0034037411117778462 0 -6.8051143205131377e-05 -0.0033815627931866282 0 -3.2283395001904479e-05 -0.003345778628704445 0 -3.2275811309092165e-05 -0.0034029581932660531 0 -6.4792204641775069e-05 -0.0034037411117778462 0 -3.2275811309092165e-05 -0.0034029581932660531 0 -5.659965735919461e-05 -0.0034440367783565833 0 -6.4792204641775069e-05 -0.0034037411117778462 0 -3.2275811309092165e-05 -0.0034029581932660531 0 -5.659965735919461e-05 -0.0034440367783565833 0 -3.2755882079891687e-05 -0.0034573853944480809 0 3.7755621599112949e-07 -0.0034088884456267405 0 -3.2275811309092165e-05 -0.0034029581932660531 0 -3.2755882079891687e-05 -0.0034573853944480809 0 -5.659965735919461e-05 -0.0034440367783565833 0 -3.2755882079891687e-05 -0.0034573853944480809 0 -5.3704326022990552e-05 -0.0034750175974936235 0 -3.2755882079891687e-05 -0.0034573853944480809 0 -5.3704326022990552e-05 -0.0034750175974936235 0 -4.2942037014774604e-05 -0.0034911135779258817 0 -3.2755882079891687e-05 -0.0034573853944480809 0 -4.2942037014774604e-05 -0.0034911135779258817 0 -2.348772589104375e-05 -0.0034803766272021698 0 -5.659965735919461e-05 -0.0034440367783565833 0 -5.3704326022990552e-05 -0.0034750175974936235 0 -7.8266119919671225e-05 -0.0034801103772283061 0 -7.8266119919671225e-05 -0.0034801103772283061 0 -9.597310368026023e-05 -0.0034526212514359748 0 -0.00010308648671912828 -0.0034992886272466588 0 -7.8266119919671225e-05 -0.0034801103772283061 0 -9.597310368026023e-05 -0.0034526212514359748 0 -7.769018254217484e-05 -0.0034395230514379727 0 -9.597310368026023e-05 -0.0034526212514359748 0 -7.769018254217484e-05 -0.0034395230514379727 0 -9.0611588538243074e-05 -0.0034276011256643667 0 -5.659965735919461e-05 -0.0034440367783565833 0 -7.769018254217484e-05 -0.0034395230514379727 0 -6.4792204641775069e-05 -0.0034037411117778462 0 -5.659965735919461e-05 -0.0034440367783565833 0 -7.8266119919671225e-05 -0.0034801103772283061 0 -7.769018254217484e-05 -0.0034395230514379727 0 -6.4792204641775069e-05 -0.0034037411117778462 0 -8.0855835880338007e-05 -0.0033971860728799572 0 -9.0611588538243074e-05 -0.0034276011256643667 0 -7.769018254217484e-05 -0.0034395230514379727 0 -6.4792204641775069e-05 -0.0034037411117778462 0 -9.0611588538243074e-05 -0.0034276011256643667 0 -6.4792204641775069e-05 -0.0034037411117778462 0 -6.8051143205131377e-05 -0.0033815627931866282 0 -8.0855835880338007e-05 -0.0033971860728799572 0 -9.0611588538243074e-05 -0.0034276011256643667 0 -9.0135480056168391e-05 -0.0034093667118399577 0 -8.0219043519032411e-05 -0.0034303215665313332 0 -9.0285033930949271e-05 -0.0033800402657369892 0 -8.0855835880338007e-05 -0.0033971860728799572 0 -9.0135480056168391e-05 -0.0034093667118399577 0 -8.0855835880338007e-05 -0.0033971860728799572 0 -9.0611588538243074e-05 -0.0034276011256643667 0 -9.0135480056168391e-05 -0.0034093667118399577 0 -9.0285033930949271e-05 -0.0033800402657369892 0 -9.0135480056168391e-05 -0.0034093667118399577 0 -0.000108064942455564 -0.0033982236170070129 0 -9.0135480056168391e-05 -0.0034093667118399577 0 -0.000108064942455564 -0.0033982236170070129 0 -8.0219043519032411e-05 -0.0034303215665313332 0 -7.4661192950296158e-05 -0.0033980961495767323 0 -7.9100348949659151e-05 -0.0034246337787450891 0 -9.0611588538243074e-05 -0.0034276011256643667 0 -8.0219043519032411e-05 -0.0034303215665313332 0 -8.0593728042435345e-05 -0.0034369099733933921 0 -7.7743275443026871e-05 -0.0034367493991035582 0 -8.0219043519032411e-05 -0.0034303215665313332 0 -8.0593728042435345e-05 -0.0034369099733933921 0 -9.4182868202833655e-05 -0.0034534853890409167 0 -0.00010503545360947881 -0.0034610279718253678 0 -9.597310368026023e-05 -0.0034526212514359748 0 -9.0611588538243074e-05 -0.0034276011256643667 0 -8.0593728042435345e-05 -0.0034369099733933921 0 -9.597310368026023e-05 -0.0034526212514359748 0 -0.0001280871877122362 -0.0035000848243593621 0 -0.00010308648671912828 -0.0034992886272466588 0 -9.597310368026023e-05 -0.0034526212514359748 0 -0.0001324182924978979 -0.0034829672109629494 0 -0.0001280871877122362 -0.0035000848243593621 0 -0.0001384886143431621 -0.0035002382752649659 0 -0.0001324182924978979 -0.0034829672109629494 0 -0.0001280871877122362 -0.0035000848243593621 0 -0.0001280871877122362 -0.0035000848243593621 0 -0.00013344564665082704 -0.0035196029683860499 0 -0.00011961416291850617 -0.0035185837675778668 0 -0.00011961416291850617 -0.0035185837675778668 0 -0.00010595630712742936 -0.0035283960005934394 0 -0.00010308648671912828 -0.0034992886272466588 0 -0.0001280871877122362 -0.0035000848243593621 0 -0.00011961416291850617 -0.0035185837675778668 0 -0.00010308648671912828 -0.0034992886272466588 0 -0.00011961416291850617 -0.0035185837675778668 0 -0.00012828320576501592 -0.0035339895937950869 0 -0.00011743711737172377 -0.0035411372327396576 0 -0.00011961416291850617 -0.0035185837675778668 0 -0.00011743711737172377 -0.0035411372327396576 0 -0.00010595630712742936 -0.0035283960005934394 0 -0.00013866842750230807 -0.0035306992411227867 0 -0.00013344564665082704 -0.0035196029683860499 0 -0.00012828320576501592 -0.0035339895937950869 0 -0.00013344564665082704 -0.0035196029683860499 0 -0.00011961416291850617 -0.0035185837675778668 0 -0.00012828320576501592 -0.0035339895937950869 0 -0.00012828320576501592 -0.0035339895937950869 0 -0.00012852595119194925 -0.0035513979433446641 0 -0.00011743711737172377 -0.0035411372327396576 0 -0.00014473527998559032 -0.0035512667866633299 0 -0.00012828320576501592 -0.0035339895937950869 0 -0.00012852595119194925 -0.0035513979433446641 0 -0.00037996173601603496 -0.0047416188154122164 0 -0.00041684657473193106 -0.0047765230767094673 0 -0.00043325645059625131 -0.0047520532114979841 0 -0.00036841020324113687 -0.0053245995530196519 0 -0.00069039383459439986 -0.0053097661615839915 0 -0.00044530073901640665 -0.0056703059752090772 0 -0.00077628604111860489 -0.005774813239213362 0 -0.00059216835759091685 -0.0054421922033257531 0 -0.0002471452316778002 -0.0040833442437198655 0 -0.00051301178695220963 -0.004439752573639686 0 -0.00077628604111860489 -0.005774813239213362 0 -0.0011041343487781816 -0.0058851887628333308 0 -0.0010056513081106817 -0.005554829908915219 0 -0.00041684657473193106 -0.0047765230767094673 0 -0.00043325645059625131 -0.0047520532114979841 0 -0.00048620365929744741 -0.0047603991124012283 0 -0.00069039383459439986 -0.0053097661615839915 0 -0.00051301178695220963 -0.004439752573639686 0 -0.00012852595119194925 -0.0035513979433446641 0 -0.00011743711737172377 -0.0035411372327396576 0 -0.00011125487058379108 -0.003554232841187032 0 -0.00051301178695220963 -0.004439752573639686 0 -5.5910281504226984e-05 -0.003540648291668746 0 -0.00010540152449739459 -0.0035424072750959604 0 -0.00011125487058379108 -0.003554232841187032 0 -9.8377612856248806e-05 -0.0035485914520122564 0 -0.00011743711737172377 -0.0035411372327396576 0 -0.00010540152449739459 -0.0035424072750959604 0 -0.00010595630712742936 -0.0035283960005934394 0 -0.00011743711737172377 -0.0035411372327396576 0 -0.00010540152449739459 -0.0035424072750959604 0 -0.00011125487058379108 -0.003554232841187032 0 -0.00010540152449739459 -0.0035424072750959604 0 -9.8377612856248806e-05 -0.0035485914520122564 0 -9.6752557902014962e-05 -0.003536416413355491 0 -0.0011041343487781816 -0.0058851887628333308 0 -0.0013948166905566933 -0.0056891590315947026 0 -0.0016096602055885917 -0.0058063137889334494 0 -0.0011041343487781816 -0.0058851887628333308 0 -0.001211026080967504 -0.0056610506478900827 0 -0.0010056513081106817 -0.005554829908915219 0 -0.00051301178695220963 -0.004439752573639686 0 -0.00091866007743169969 -0.0047425178447310532 0 -0.0011041343487781816 -0.0058851887628333308 0 -0.001211026080967504 -0.0056610506478900827 0 -0.0013948166905566933 -0.0056891590315947026 0 -0.00029775993935100955 -0.0036182182441160766 0 -0.00013588627001345777 -0.0036167610153641614 0 -0.00019200294208988967 -0.0035746571102685809 0 -0.0013948166905566933 -0.0056891590315947026 0 -0.0016096602055885917 -0.0058063137889334494 0 -0.0016699864650965819 -0.0055702431747077308 0 -9.8377612856248806e-05 -0.0035485914520122564 0 -9.6752557902014962e-05 -0.003536416413355491 0 -9.7509435708792658e-05 -0.0035566699130483836 0 -0.00013588627001345777 -0.0036167610153641614 0 -0.00019200294208988967 -0.0035746571102685809 0 -9.7509435708792658e-05 -0.0035566699130483836 0 -5.5910281504226984e-05 -0.003540648291668746 0 -0.00013266464832382757 -0.0035633759891894128 0 -9.6752557902014962e-05 -0.003536416413355491 0 -8.258154301103978e-05 -0.0035203487265757592 0 -9.7509435708792658e-05 -0.0035566699130483836 0 -9.6752557902014962e-05 -0.003536416413355491 0 -9.1119453684614704e-05 -0.0035072634690424087 0 -8.258154301103978e-05 -0.0035203487265757592 0 -9.6752557902014962e-05 -0.003536416413355491 0 -0.00010595630712742936 -0.0035283960005934394 0 -9.1119453684614704e-05 -0.0035072634690424087 0 -0.00010540152449739459 -0.0035424072750959604 0 -9.6752557902014962e-05 -0.003536416413355491 0 -0.00010595630712742936 -0.0035283960005934394 0 -0.00010595630712742936 -0.0035283960005934394 0 -0.00010308648671912828 -0.0034992886272466588 0 -9.1119453684614704e-05 -0.0035072634690424087 0 -7.8266119919671225e-05 -0.0034801103772283061 0 -0.00010308648671912828 -0.0034992886272466588 0 -9.1119453684614704e-05 -0.0035072634690424087 0 -7.8266119919671225e-05 -0.0034801103772283061 0 -9.1119453684614704e-05 -0.0035072634690424087 0 -8.258154301103978e-05 -0.0035203487265757592 0 -7.8266119919671225e-05 -0.0034801103772283061 0 -6.4408472332061305e-05 -0.0035036485401702495 0 -8.258154301103978e-05 -0.0035203487265757592 0 -5.3704326022990552e-05 -0.0034750175974936235 0 -7.8266119919671225e-05 -0.0034801103772283061 0 -6.4408472332061305e-05 -0.0035036485401702495 0 -5.3704326022990552e-05 -0.0034750175974936235 0 -6.4408472332061305e-05 -0.0035036485401702495 0 -4.2942037014774604e-05 -0.0034911135779258817 0 -4.2942037014774604e-05 -0.0034911135779258817 0 -5.133569099426459e-05 -0.0035235939875977161 0 -3.3003789631826135e-05 -0.0035074187161547644 0 -6.4408472332061305e-05 -0.0035036485401702495 0 -4.2942037014774604e-05 -0.0034911135779258817 0 -5.133569099426459e-05 -0.0035235939875977161 0 -6.4408472332061305e-05 -0.0035036485401702495 0 -5.133569099426459e-05 -0.0035235939875977161 0 -7.2650694212414907e-05 -0.0035347899753523874 0 -5.133569099426459e-05 -0.0035235939875977161 0 -6.0106454419733657e-05 -0.0035616799891326112 0 -3.4108325906955062e-05 -0.0035409716670495341 0 -5.133569099426459e-05 -0.0035235939875977161 0 -7.2650694212414907e-05 -0.0035347899753523874 0 -6.0106454419733657e-05 -0.0035616799891326112 0 -7.2650694212414907e-05 -0.0035347899753523874 0 -8.258154301103978e-05 -0.0035203487265757592 0 -9.7509435708792658e-05 -0.0035566699130483836 0 -6.4408472332061305e-05 -0.0035036485401702495 0 -7.2650694212414907e-05 -0.0035347899753523874 0 -8.258154301103978e-05 -0.0035203487265757592 0 -7.2650694212414907e-05 -0.0035347899753523874 0 -9.7509435708792658e-05 -0.0035566699130483836 0 -6.0106454419733657e-05 -0.0035616799891326112 0 -0.00091866007743169969 -0.0047425178447310532 0 -0.0009832547103142842 -0.0046532102033018715 0 -0.00013588627001345777 -0.0036167610153641614 0 -9.7509435708792658e-05 -0.0035566699130483836 0 -6.2772668734595384e-05 -0.0036103352747536904 0 -0.0016096602055885917 -0.0058063137889334494 0 -0.0020150395028561432 -0.005679923457449507 0 -0.0016699864650965819 -0.0055702431747077308 0 -6.2772668734595384e-05 -0.0036103352747536904 0 -6.0106454419733657e-05 -0.0035616799891326112 0 -3.774505910845687e-05 -0.0035962535921497149 0 -9.7509435708792658e-05 -0.0035566699130483836 0 -6.2772668734595384e-05 -0.0036103352747536904 0 -6.0106454419733657e-05 -0.0035616799891326112 0 -6.0106454419733657e-05 -0.0035616799891326112 0 -3.774505910845687e-05 -0.0035962535921497149 0 -3.4108325906955062e-05 -0.0035409716670495341 0 -3.774505910845687e-05 -0.0035962535921497149 0 -1.0837637119218175e-05 -0.0035571465727283662 0 -3.4108325906955062e-05 -0.0035409716670495341 0 -0.0009832547103142842 -0.0046532102033018715 0 -0.0013366498014896636 -0.0045450428377077929 0 -3.774505910845687e-05 -0.0035962535921497149 0 -1.7780592699412681e-05 -0.0036109461186834215 0 -1.0837637119218175e-05 -0.0035571465727283662 0 -0.0020150395028561432 -0.005679923457449507 0 -0.002259843211216511 -0.0055804544733029241 0 -0.0021664947550602974 -0.0055522861503643772 0 -6.2772668734595384e-05 -0.0036103352747536904 0 -3.774505910845687e-05 -0.0035962535921497149 0 -2.3029164805284887e-05 -0.003617524520228497 0 -3.774505910845687e-05 -0.0035962535921497149 0 -1.7780592699412681e-05 -0.0036109461186834215 0 -2.3029164805284887e-05 -0.003617524520228497 0 -0.0021814457173240489 -0.0036150288237380953 0 -0.0013780770042871042 -0.004087422181512753 0 -0.0013780770042871042 -0.004087422181512753 0 -0.0006196580738106112 -0.0035808940586602792 0 -0.0023123988257089524 -0.0039175914356541974 0 -0.0023301174282465893 -0.0041641733984693237 0 -0.0024742338796642643 -0.0041796890813554912 0 -0.0023301174282465893 -0.0041641733984693237 0 -0.0024742338796642643 -0.0041796890813554912 0 -0.0024711241529021097 -0.0042259392792035376 0 -0.0013780770042871042 -0.004087422181512753 0 -0.0016184590598703468 -0.0045433175310651457 0 -0.0014503195087345871 -0.0043770909000217769 0 -0.0015530075067115296 -0.0045434347776267319 0 -0.001433165598961221 -0.0045634586387566537 0 -0.0013366498014896636 -0.0045450428377077929 0 -0.0016184590598703468 -0.0045433175310651457 0 -0.0013780770042871042 -0.004087422181512753 0 -0.0013366498014896636 -0.0045450428377077929 0 -0.0012646401462154241 -0.0036659116816216948 0 -0.0013695393885691616 -0.0038424339218216699 0 -0.0013841630145403983 -0.0036635041697659662 0 -0.0012646401462154241 -0.0036659116816216948 0 -0.0013841630145403983 -0.0036635041697659662 0 -0.0013961830556574574 -0.0034870153536691669 0 -0.0006196580738106112 -0.0035808940586602792 0 -0.00096528579452085988 -0.0033323610586862978 0 -0.002119212312670574 -0.0031043299857399739 0 -0.0021123875246352401 -0.0032119025680980699 0 -0.0021926059710586951 -0.0031031834743680065 0 -0.0021814457173240489 -0.0036150288237380953 0 -0.00096528579452085988 -0.0033323610586862978 0 -1.0837637119218175e-05 -0.0035571465727283662 0 -3.4108325906955062e-05 -0.0035409716670495341 0 -1.0440834155201391e-05 -0.003504320102408327 0 -3.4108325906955062e-05 -0.0035409716670495341 0 -3.3003789631826135e-05 -0.0035074187161547644 0 -1.0440834155201391e-05 -0.003504320102408327 0 -5.133569099426459e-05 -0.0035235939875977161 0 -3.4108325906955062e-05 -0.0035409716670495341 0 -3.3003789631826135e-05 -0.0035074187161547644 0 -9.5175382349030078e-06 -0.0034586488479351053 0 -2.348772589104375e-05 -0.0034803766272021698 0 -2.3469959712821703e-05 -0.0034934108022351014 0 -3.3003789631826135e-05 -0.0035074187161547644 0 -2.348772589104375e-05 -0.0034803766272021698 0 -1.0440834155201391e-05 -0.003504320102408327 0 -0.0011215257915924751 -0.00320914375353989 0 -0.00096528579452085988 -0.0033323610586862978 0 -4.2942037014774604e-05 -0.0034911135779258817 0 -3.3003789631826135e-05 -0.0035074187161547644 0 -2.348772589104375e-05 -0.0034803766272021698 0 3.3655228121213728e-05 -0.0036881117726736195 0 -0.00096528579452085988 -0.0033323610586862978 0 -0.0021369944778019787 -0.0030362112436660353 0 -0.002203401808126235 -0.0029793106176898856 0 -0.0021926059710586951 -0.0031031834743680065 0 -0.002119212312670574 -0.0031043299857399739 0 -0.0021369944778019787 -0.0030362112436660353 0 -0.0021926059710586951 -0.0031031834743680065 0 -0.0022346151326226959 -0.0049505336705322027 0 -0.0024175973823552049 -0.0047765659178889861 0 -0.0023228532796417197 -0.005070311122517367 0 -0.0022598769875894625 -0.0051293937130528168 0 -0.0022943300546779469 -0.0052302415060075319 0 -0.0023228532796417197 -0.005070311122517367 0 -0.0022598769875894625 -0.0051293937130528168 0 -0.0022152377740586376 -0.0051781422828261741 0 -0.0022943300546779469 -0.0052302415060075319 0 -0.0023501756756948628 -0.0049888747972542296 0 -0.0023306316286286701 -0.0050653309809925925 0 -0.0021651502585348596 -0.0051525672866684323 0 -0.0022152377740586376 -0.0051781422828261741 0 -0.0022100639900196821 -0.0051217616851081471 0 -0.0022598769875894625 -0.0051293937130528168 0 -0.0022152377740586376 -0.0051781422828261741 0 -0.0022100639900196821 -0.0051217616851081471 0 -0.0021651502585348596 -0.0051525672866684323 0 -0.002108749964904602 -0.0051640076731063805 0 -0.0021524290409635637 -0.0051188178909998159 0 -0.0021651502585348596 -0.0051525672866684323 0 -0.0021355149399498504 -0.0052094112820320528 0 -0.002108749964904602 -0.0051640076731063805 0 -0.0021651502585348596 -0.0051525672866684323 0 -0.0021355149399498504 -0.0052094112820320528 0 -0.0022152377740586376 -0.0051781422828261741 0 -0.0021355149399498504 -0.0052094112820320528 0 -0.0022152377740586376 -0.0051781422828261741 0 -0.0021982459589949951 -0.0052723513436156765 0 -0.0021355149399498504 -0.0052094112820320528 0 -0.0021982459589949951 -0.0052723513436156765 0 -0.0020990503974683029 -0.0052819104858680774 0 -0.0021982459589949951 -0.0052723513436156765 0 -0.002152989077424847 -0.0053704969836021153 0 -0.0020990503974683029 -0.0052819104858680774 0 -0.0021982459589949951 -0.0052723513436156765 0 -0.0022943300546779469 -0.0052302415060075319 0 -0.0022888970473091542 -0.0053830980826606208 0 -0.0023501756756948628 -0.0049888747972542296 0 -0.0024248378312719744 -0.0050045442554100964 0 -0.0022821333212184455 -0.004614689313993503 0 -0.0024175973823552049 -0.0047765659178889861 0 -0.0024536542392861577 -0.004493836593940247 0 -0.0022152377740586376 -0.0051781422828261741 0 -0.0021982459589949951 -0.0052723513436156765 0 -0.0022943300546779469 -0.0052302415060075319 0 -0.0022610672564959029 -0.0043458435890700812 0 -0.0023301174282465893 -0.0041641733984693237 0 -0.0024711241529021097 -0.0042259392792035376 0 -0.0024248378312719744 -0.0050045442554100964 0 -0.0016184590598703468 -0.0045433175310651457 0 -0.0022888970473091542 -0.0053830980826606208 0 -0.0022797676023473975 -0.0055766113882417803 0 -0.0022119253045187097 -0.0054652833609673979 0 -0.0022610672564959029 -0.0043458435890700812 0 -0.0024536542392861577 -0.004493836593940247 0 -0.0024711241529021097 -0.0042259392792035376 0 -0.0022472100763629393 -0.0055641995289676229 0 -0.0022797676023473975 -0.0055766113882417803 0 -0.0022119253045187097 -0.0054652833609673979 0 -0.0022578406071676665 -0.0055801400355933025 0 -0.0022472100763629393 -0.0055641995289676229 0 -0.0022797676023473975 -0.0055766113882417803 0 -0.0013366498014896636 -0.0045450428377077929 0 -0.0014981288426033578 -0.0047789264915613534 0 -0.0022472100763629393 -0.0055641995289676229 0 -0.0021664947550602974 -0.0055522861503643772 0 -0.0022119253045187097 -0.0054652833609673979 0 -0.002259843211216511 -0.0055804544733029241 0 -0.0022472100763629393 -0.0055641995289676229 0 -0.0021664947550602974 -0.0055522861503643772 0 -0.0021664947550602974 -0.0055522861503643772 0 -0.0022119253045187097 -0.0054652833609673979 0 -0.002086753372519005 -0.0054775860821101785 0 -0.0021982459589949951 -0.0052723513436156765 0 -0.0022888970473091542 -0.0053830980826606208 0 -0.002152989077424847 -0.0053704969836021153 0 -0.0022888970473091542 -0.0053830980826606208 0 -0.0022119253045187097 -0.0054652833609673979 0 -0.002152989077424847 -0.0053704969836021153 0 -0.0022119253045187097 -0.0054652833609673979 0 -0.002152989077424847 -0.0053704969836021153 0 -0.002086753372519005 -0.0054775860821101785 0 -0.002152989077424847 -0.0053704969836021153 0 -0.0020113109602721349 -0.0053632669847039688 0 -0.0020990503974683029 -0.0052819104858680774 0 -0.0020113109602721349 -0.0053632669847039688 0 -0.0020087291561140053 -0.0052737778083965783 0 -0.0020990503974683029 -0.0052819104858680774 0 -0.0020113109602721349 -0.0053632669847039688 0 -0.0019271045786481609 -0.0052915985101065384 0 -0.0020087291561140053 -0.0052737778083965783 0 -0.002152989077424847 -0.0053704969836021153 0 -0.0020113109602721349 -0.0053632669847039688 0 -0.002086753372519005 -0.0054775860821101785 0 -0.0020150395028561432 -0.005679923457449507 0 -0.0021664947550602974 -0.0055522861503643772 0 -0.002086753372519005 -0.0054775860821101785 0 -0.0020150395028561432 -0.005679923457449507 0 -0.002086753372519005 -0.0054775860821101785 0 -0.0019259889245010326 -0.0054863444792215632 0 -0.0020113109602721349 -0.0053632669847039688 0 -0.002086753372519005 -0.0054775860821101785 0 -0.0019259889245010326 -0.0054863444792215632 0 -0.0020150395028561432 -0.005679923457449507 0 -0.0019259889245010326 -0.0054863444792215632 0 -0.0016699864650965819 -0.0055702431747077308 0 -0.0019259889245010326 -0.0054863444792215632 0 -0.0017892683940574055 -0.005373428022300784 0 -0.0016699864650965819 -0.0055702431747077308 0 -0.0020113109602721349 -0.0053632669847039688 0 -0.0017892683940574055 -0.005373428022300784 0 -0.0019271045786481609 -0.0052915985101065384 0 -0.0018031851970618574 -0.0053249462101433009 0 -0.0017999223235776697 -0.0051675285173057766 0 -0.0017892683940574055 -0.005373428022300784 0 -0.0017659132297514304 -0.0049329442965841052 0 -0.0015344821926164059 -0.0051579385529273002 0 -0.0020113109602721349 -0.0053632669847039688 0 -0.0019259889245010326 -0.0054863444792215632 0 -0.0017892683940574055 -0.005373428022300784 0 -0.0017892683940574055 -0.005373428022300784 0 -0.0019271045786481609 -0.0052915985101065384 0 -0.0018847300512949286 -0.0052263448012468492 0 -0.0017999223235776697 -0.0051675285173057766 0 -0.0019195795774364928 -0.0052073076320744704 0 -0.0019478533699480959 -0.0052398901054052987 0 -0.0020060145155957484 -0.0052318027595289812 0 -0.0019980475088749771 -0.0052037330390258376 0 -0.0019460870355408426 -0.0052361540399531786 0 -0.0019478533699480959 -0.0052398901054052987 0 -0.0019980475088749771 -0.0052037330390258376 0 -0.0019478533699480959 -0.0052398901054052987 0 -0.0020087291561140053 -0.0052737778083965783 0 -0.0020060145155957484 -0.0052318027595289812 0 -0.0019271045786481609 -0.0052915985101065384 0 -0.0018847300512949286 -0.0052263448012468492 0 -0.0019478533699480959 -0.0052398901054052987 0 -0.0019271045786481609 -0.0052915985101065384 0 -0.0019478533699480959 -0.0052398901054052987 0 -0.0020087291561140053 -0.0052737778083965783 0 -0.0020087291561140053 -0.0052737778083965783 0 -0.0020634889970961084 -0.0052373514158569187 0 -0.0020060145155957484 -0.0052318027595289812 0 -0.0020087291561140053 -0.0052737778083965783 0 -0.0020990503974683029 -0.0052819104858680774 0 -0.0020634889970961084 -0.0052373514158569187 0 -0.0021355149399498504 -0.0052094112820320528 0 -0.0020634889970961084 -0.0052373514158569187 0 -0.0020594249035614048 -0.0051945880253067341 0 -0.0021355149399498504 -0.0052094112820320528 0 -0.0020990503974683029 -0.0052819104858680774 0 -0.0020634889970961084 -0.0052373514158569187 0 -0.0020060145155957484 -0.0052318027595289812 0 -0.0020594249035614048 -0.0051945880253067341 0 -0.0019980475088749771 -0.0052037330390258376 0 -0.0020634889970961084 -0.0052373514158569187 0 -0.0020060145155957484 -0.0052318027595289812 0 -0.0020594249035614048 -0.0051945880253067341 0 -0.0020594249035614048 -0.0051945880253067341 0 -0.0020473276344403477 -0.0051579388822522842 0 -0.0019980475088749771 -0.0052037330390258376 0 -0.0021355149399498504 -0.0052094112820320528 0 -0.0020594249035614048 -0.0051945880253067341 0 -0.002108749964904602 -0.0051640076731063805 0 -0.0020594249035614048 -0.0051945880253067341 0 -0.002108749964904602 -0.0051640076731063805 0 -0.0020473276344403477 -0.0051579388822522842 0 -0.002108749964904602 -0.0051640076731063805 0 -0.0020473276344403477 -0.0051579388822522842 0 -0.0020905447371122716 -0.0051281664241011023 0 -0.0020473276344403477 -0.0051579388822522842 0 -0.0019918752816959822 -0.005157130613473916 0 -0.0019980475088749771 -0.0052037330390258376 0 -0.0019460870355408426 -0.0052361540399531786 0 -0.0019918752816959822 -0.005157130613473916 0 -0.0019980475088749771 -0.0052037330390258376 0 -0.0017594465824738925 -0.0052329483205667037 0 -0.0017605393909174783 -0.0052432170744086933 0 -0.0017631069071776919 -0.0052381060773603822 0 -0.0017999223235776697 -0.0051675285173057766 0 -0.0018799229827957172 -0.0052018155249317546 0 -0.0017631069071776919 -0.0052381060773603822 0 -0.0017648571773796627 -0.0052444158345815233 0 -0.0017670893954135965 -0.0052350675089531421 0 -0.0017758241849764322 -0.0054025853790113914 0 -0.0015676559499303592 -0.0051861023997870365 0 -0.0017605393909174783 -0.0052432170744086933 0 -0.0017631069071776919 -0.0052381060773603822 0 -0.0017648571773796627 -0.0052444158345815233 0 -0.0017952236503465582 -0.0054781996074496154 0 -0.001727917034835215 -0.0056130350237752558 0 -0.0016533411369400856 -0.0054732236286560267 0 -0.001727917034835215 -0.0056130350237752558 0 -0.0015524129726210629 -0.00557740014990191 0 -0.0016533411369400856 -0.0054732236286560267 0 -0.0013342001412468259 -0.0049146570529564112 0 -0.0010698365938185503 -0.0052383953574189962 0 -0.00087268586621562928 -0.0047593971096244287 0 -0.0015676559499303592 -0.0051861023997870365 0 -0.0011116072481475231 -0.0051881161127820445 0 -0.0013342001412468259 -0.0049146570529564112 0 -0.0013611927957184293 -0.0048564244787073644 0 -0.00087268586621562928 -0.0047593971096244287 0 -0.0015624530355964191 -0.0051237901393607595 0 -0.0015676559499303592 -0.0051861023997870365 0 -0.0017659132297514304 -0.0049329442965841052 0 -0.0013613145367892452 -0.0048544549201599042 0 -0.0015426193566784553 -0.0049882363691153434 0 -0.0014314560545403969 -0.0050109844816428302 0 -0.0015426193566784553 -0.0049882363691153434 0 -0.0015344821926164059 -0.0051579385529273002 0 -0.0017594465824738925 -0.0052329483205667037 0 -0.0017631069071776919 -0.0052381060773603822 0 -0.0017670893954135965 -0.0052350675089531421 0 -0.0017999223235776697 -0.0051675285173057766 0 -0.0015676559499303592 -0.0051861023997870365 0 -0.0013613145367892452 -0.0048544549201599042 0 -0.0014314560545403969 -0.0050109844816428302 0 -0.0015426193566784553 -0.0049882363691153434 0 -0.0013342001412468259 -0.0049146570529564112 0 -0.0014314560545403969 -0.0050109844816428302 0 -0.0013372274020046768 -0.0051412183780005938 0 -0.0013342001412468259 -0.0049146570529564112 0 -0.0013613145367892452 -0.0048544549201599042 0 -0.0014314560545403969 -0.0050109844816428302 0 -0.0017659132297514304 -0.0049329442965841052 0 -0.0015426193566784553 -0.0049882363691153434 0 -0.0015344821926164059 -0.0051579385529273002 0 -0.0017892683940574055 -0.005373428022300784 0 -0.0015344821926164059 -0.0051579385529273002 0 -0.001418768254985252 -0.0053314780532054545 0 -0.0015344821926164059 -0.0051579385529273002 0 -0.001418768254985252 -0.0053314780532054545 0 -0.0013372274020046768 -0.0051412183780005938 0 -0.0014314560545403969 -0.0050109844816428302 0 -0.0015344821926164059 -0.0051579385529273002 0 -0.0013372274020046768 -0.0051412183780005938 0 -0.0013948166905566933 -0.0056891590315947026 0 -0.0016699864650965819 -0.0055702431747077308 0 -0.0012973954041949052 -0.0055133199634202455 0 -0.0017892683940574055 -0.005373428022300784 0 -0.001418768254985252 -0.0053314780532054545 0 -0.0016699864650965819 -0.0055702431747077308 0 -0.001418768254985252 -0.0053314780532054545 0 -0.0016699864650965819 -0.0055702431747077308 0 -0.0012973954041949052 -0.0055133199634202455 0 -0.0012973954041949052 -0.0055133199634202455 0 -0.0010698365938185503 -0.0052383953574189962 0 -0.0010056513081106817 -0.005554829908915219 0 -0.001211026080967504 -0.0056610506478900827 0 -0.0012973954041949052 -0.0055133199634202455 0 -0.0010056513081106817 -0.005554829908915219 0 -0.001211026080967504 -0.0056610506478900827 0 -0.0013948166905566933 -0.0056891590315947026 0 -0.0012973954041949052 -0.0055133199634202455 0 -0.001418768254985252 -0.0053314780532054545 0 -0.0012973954041949052 -0.0055133199634202455 0 -0.0010698365938185503 -0.0052383953574189962 0 -0.001418768254985252 -0.0053314780532054545 0 -0.0013372274020046768 -0.0051412183780005938 0 -0.0010698365938185503 -0.0052383953574189962 0 -0.0013342001412468259 -0.0049146570529564112 0 -0.0013372274020046768 -0.0051412183780005938 0 -0.0010698365938185503 -0.0052383953574189962 0 -0.0010698365938185503 -0.0052383953574189962 0 -0.00078883952847772962 -0.0053255623535145638 0 -0.0010056513081106817 -0.005554829908915219 0 -0.0010698365938185503 -0.0052383953574189962 0 -0.00078883952847772962 -0.0053255623535145638 0 -0.00077319764633346992 -0.0051294430185816675 0 -0.00078883952847772962 -0.0053255623535145638 0 -0.0010056513081106817 -0.005554829908915219 0 -0.00079273824082584285 -0.0055114081556452074 0 -0.00077628604111860489 -0.005774813239213362 0 -0.0010056513081106817 -0.005554829908915219 0 -0.00079273824082584285 -0.0055114081556452074 0 -0.00077628604111860489 -0.005774813239213362 0 -0.00079273824082584285 -0.0055114081556452074 0 -0.00059216835759091685 -0.0054421922033257531 0 -0.00078883952847772962 -0.0053255623535145638 0 -0.00079273824082584285 -0.0055114081556452074 0 -0.00059216835759091685 -0.0054421922033257531 0 -0.00078883952847772962 -0.0053255623535145638 0 -0.00059216835759091685 -0.0054421922033257531 0 -0.00050672769694271882 -0.005289077791489764 0 -0.00078883952847772962 -0.0053255623535145638 0 -0.00060160279184030992 -0.0051679936332705081 0 -0.00077319764633346992 -0.0051294430185816675 0 -0.00078883952847772962 -0.0053255623535145638 0 -0.00060160279184030992 -0.0051679936332705081 0 -0.00050672769694271882 -0.005289077791489764 0 -0.00077319764633346992 -0.0051294430185816675 0 -0.00086395369346082933 -0.004980401909219407 0 -0.0006002472123642741 -0.0049900076308558913 0 -0.00060160279184030992 -0.0051679936332705081 0 -0.00077319764633346992 -0.0051294430185816675 0 -0.0006002472123642741 -0.0049900076308558913 0 -0.00097283100177853864 -0.0050856567742837882 0 -0.0011116072481475231 -0.0051881161127820445 0 -0.0010698365938185503 -0.0052383953574189962 0 -0.00077319764633346992 -0.0051294430185816675 0 -0.00086395369346082933 -0.004980401909219407 0 -0.0011116072481475231 -0.0051881161127820445 0 -0.0012755335316709153 -0.0054040626284000059 0 -0.0015524129726210629 -0.00557740014990191 0 -0.0014977653658238628 -0.0054515324098080038 0 -0.0016533411369400856 -0.0054732236286560267 0 -0.0011116072481475231 -0.0051881161127820445 0 -0.0007397432585793945 -0.0051594678034751268 0 -0.0010505743359896639 -0.0053661819437945801 0 -0.00091921904962296132 -0.0053402902481854827 0 -0.0010029650602303714 -0.0052555928023088885 0 -0.00091921904962296132 -0.0053402902481854827 0 -0.0010029650602303714 -0.0052555928023088885 0 -0.00087150843148151643 -0.0052279046759375397 0 -0.0010029650602303714 -0.0052555928023088885 0 -0.00095579628666581172 -0.005144140039620145 0 -0.00087150843148151643 -0.0052279046759375397 0 -0.0012755335316709153 -0.0054040626284000059 0 -0.0011668814375885609 -0.0052703964253497434 0 -0.0011668814375885609 -0.0052703964253497434 0 -0.00086322329265761362 -0.0052596697093508522 0 -0.0014977653658238628 -0.0054515324098080038 0 -0.0016000884401916877 -0.0053420318683850632 0 -0.0016533411369400856 -0.0054732236286560267 0 -0.0014977653658238628 -0.0054515324098080038 0 -0.0016000884401916877 -0.0053420318683850632 0 -0.001440940639364442 -0.0053228127439514227 0 -0.0016000884401916877 -0.0053420318683850632 0 -0.001440940639364442 -0.0053228127439514227 0 -0.0015917407611580755 -0.0051664565649339441 0 -0.0011668814375885609 -0.0052703964253497434 0 -0.0015905373903671303 -0.005200882657853117 0 -0.00098625244663695026 -0.0052026211159696498 0 -0.00097625568758898855 -0.0051199582802825029 0 -0.00085065890382583428 -0.0051892695777713271 0 -0.0011668814375885609 -0.0052703964253497434 0 -0.0010975697838125041 -0.0052048534869875759 0 -0.0012781962496302777 -0.00547216276488517 0 -0.0012043366149840197 -0.0052994654447356959 0 -0.0015326143497479015 -0.0052051048041549461 0 -0.0012043366149840197 -0.0052994654447356959 0 -0.0012846173060198126 -0.0051425942103035822 0 -0.0015326143497479015 -0.0052051048041549461 0 -0.0012043366149840197 -0.0052994654447356959 0 -0.0012846173060198126 -0.0051425942103035822 0 -0.0010827490777861049 -0.0050760817304726126 0 -0.0012846173060198126 -0.0051425942103035822 0 -0.0013311191555064532 -0.0050516954673704012 0 -0.0015326143497479015 -0.0052051048041549461 0 -0.0013311191555064532 -0.0050516954673704012 0 -0.0014490926308523362 -0.0049999419940745075 0 -0.0011642129832590956 -0.0049999579229142808 0 -0.0012846173060198126 -0.0051425942103035822 0 -0.0012039671805152512 -0.0050372214193904761 0 -0.0010827490777861049 -0.0050760817304726126 0 -0.0012846173060198126 -0.0051425942103035822 0 -0.0013311191555064532 -0.0050516954673704012 0 -0.0012039671805152512 -0.0050372214193904761 0 -0.0013311191555064532 -0.0050516954673704012 0 -0.0012039671805152512 -0.0050372214193904761 0 -0.0011642129832590956 -0.0049999579229142808 0 -0.0013311191555064532 -0.0050516954673704012 0 -0.0014490926308523362 -0.0049999419940745075 0 -0.0015326143497479015 -0.0052051048041549461 0 -0.0015917407611580755 -0.0051664565649339441 0 -0.0017538566128321891 -0.0051608042726648852 0 -0.0016959444670002913 -0.0052614377317685432 0 -0.0014490926308523362 -0.0049999419940745075 0 -0.0015326143497479015 -0.0052051048041549461 0 -0.0017339595816955487 -0.0050000271572579885 0 -0.0015905373903671303 -0.005200882657853117 0 -0.0017338843341854217 -0.0050000273088068687 0 -0.0015917407611580755 -0.0051664565649339441 0 -0.001733969318449333 -0.0049999926212968802 0 -0.0017538566128321891 -0.0051608042726648852 0 -0.001733969318449333 -0.0049999926212968802 0 -0.0018716135489758932 -0.0050893714117507538 0 -0.001960643293041648 -0.0049999362908601701 0 -0.001733969318449333 -0.0049999926212968802 0 -0.0018716135489758932 -0.0050893714117507538 0 -0.0017538566128321891 -0.0051608042726648852 0 -0.0018716135489758932 -0.0050893714117507538 0 -0.0017538566128321891 -0.0051608042726648852 0 -0.0018777425938593054 -0.0052093518711945532 0 -0.0017538566128321891 -0.0051608042726648852 0 -0.0017970110051374394 -0.0052740941917391463 0 -0.0016959444670002913 -0.0052614377317685432 0 -0.0017538566128321891 -0.0051608042726648852 0 -0.0017970110051374394 -0.0052740941917391463 0 -0.0018777425938593054 -0.0052093518711945532 0 -0.0017970110051374394 -0.0052740941917391463 0 -0.0017429081425626356 -0.0053660942408504265 0 -0.0018668322710596883 -0.0053424792920887618 0 -0.0017970110051374394 -0.0052740941917391463 0 -0.0018668322710596883 -0.0053424792920887618 0 -0.0018777425938593054 -0.0052093518711945532 0 -0.0017970110051374394 -0.0052740941917391463 0 -0.0016959444670002913 -0.0052614377317685432 0 -0.0017429081425626356 -0.0053660942408504265 0 -0.0016000884401916877 -0.0053420318683850632 0 -0.0016959444670002913 -0.0052614377317685432 0 -0.0017429081425626356 -0.0053660942408504265 0 -0.0016000884401916877 -0.0053420318683850632 0 -0.0015917407611580755 -0.0051664565649339441 0 -0.0016959444670002913 -0.0052614377317685432 0 -0.0017952236503465582 -0.0054781996074496154 0 -0.0016533411369400856 -0.0054732236286560267 0 -0.0017429081425626356 -0.0053660942408504265 0 -0.0016000884401916877 -0.0053420318683850632 0 -0.0016533411369400856 -0.0054732236286560267 0 -0.0017429081425626356 -0.0053660942408504265 0 -0.0017758241849764322 -0.0054025853790113914 0 -0.001879521915433632 -0.0052544349458419895 0 -0.0017605393909174783 -0.0052432170744086933 0 -0.0017648571773796627 -0.0052444158345815233 0 -0.0017630495388632293 -0.0052535830402888721 0 -0.0017952236503465582 -0.0054781996074496154 0 -0.0017429081425626356 -0.0053660942408504265 0 -0.0018668322710596883 -0.0053424792920887618 0 -0.0019918752816959822 -0.005157130613473916 0 -0.0020540136047081277 -0.0051173484859658646 0 -0.0020278418940228487 -0.0050940204345129043 0 -0.0018799229827957172 -0.0052018155249317546 0 -0.001879521915433632 -0.0052544349458419895 0 -0.0020473276344403477 -0.0051579388822522842 0 -0.0019918752816959822 -0.005157130613473916 0 -0.0020540136047081277 -0.0051173484859658646 0 -0.0020473276344403477 -0.0051579388822522842 0 -0.0020540136047081277 -0.0051173484859658646 0 -0.0020905447371122716 -0.0051281664241011023 0 -0.002108749964904602 -0.0051640076731063805 0 -0.0020905447371122716 -0.0051281664241011023 0 -0.0021524290409635637 -0.0051188178909998159 0 -0.0020905447371122716 -0.0051281664241011023 0 -0.0021051277375589484 -0.0050915472075337247 0 -0.0021524290409635637 -0.0051188178909998159 0 -0.0020540136047081277 -0.0051173484859658646 0 -0.0020905447371122716 -0.0051281664241011023 0 -0.0021051277375589484 -0.0050915472075337247 0 -0.0020540136047081277 -0.0051173484859658646 0 -0.0021051277375589484 -0.0050915472075337247 0 -0.0020613020444711738 -0.0050889848005481238 0 -0.0021051277375589484 -0.0050915472075337247 0 -0.0020807288237725033 -0.0050803134506580234 0 -0.0020613020444711738 -0.0050889848005481238 0 -0.0021051277375589484 -0.0050915472075337247 0 -0.0021114599477295489 -0.0050759626575125711 0 -0.002139588511327175 -0.0050786323509118729 0 -0.0021051277375589484 -0.0050915472075337247 0 -0.0020807288237725033 -0.0050803134506580234 0 -0.0021114599477295489 -0.0050759626575125711 0 -0.001879521915433632 -0.0052544349458419895 0 -0.0018777745037496883 -0.005266792268853856 0 -0.0018887423986010876 -0.0054096900621970504 0 -0.0018777425938593054 -0.0052093518711945532 0 -0.0019622788383586989 -0.0052504964745506534 0 -0.0020807288237725033 -0.0050803134506580234 0 -0.0020613020444711738 -0.0050889848005481238 0 -0.0020637256038642214 -0.0050752715928973485 0 -0.0020540136047081277 -0.0051173484859658646 0 -0.0020613020444711738 -0.0050889848005481238 0 -0.0020278418940228487 -0.0050940204345129043 0 -0.001879521915433632 -0.0052544349458419895 0 -0.0020103514844008563 -0.0051559573667692088 0 -0.0020613020444711738 -0.0050889848005481238 0 -0.0020278418940228487 -0.0050940204345129043 0 -0.0020637256038642214 -0.0050752715928973485 0 -0.0018777425938593054 -0.0052093518711945532 0 -0.0019622788383586989 -0.0052504964745506534 0 -0.0020427285337695088 -0.0050873558312598205 0 -0.0020807288237725033 -0.0050803134506580234 0 -0.0020637256038642214 -0.0050752715928973485 0 -0.0020754198544265016 -0.0050798850827796374 0 -0.0020637256038642214 -0.0050752715928973485 0 -0.0020427285337695088 -0.0050873558312598205 0 -0.0020754198544265016 -0.0050798850827796374 0 -0.0020103514844008563 -0.0051559573667692088 0 -0.0020397064029556685 -0.0050970294168206937 0 -0.0018716135489758932 -0.0050893714117507538 0 -0.0018777425938593054 -0.0052093518711945532 0 -0.0020427285337695088 -0.0050873558312598205 0 -0.0018716135489758932 -0.0050893714117507538 0 -0.0020427285337695088 -0.0050873558312598205 0 -0.001960643293041648 -0.0049999362908601701 0 -0.0020427285337695088 -0.0050873558312598205 0 -0.0021870229287769046 -0.005000007891429621 0 -0.0021131618432510685 -0.005070830509422454 0 -0.0020427285337695088 -0.0050873558312598205 0 -0.001960643293041648 -0.0049999362908601701 0 -0.0021870229287769046 -0.005000007891429621 0 -0.0020427285337695088 -0.0050873558312598205 0 -0.0021131618432510685 -0.005070830509422454 0 -0.0020754198544265016 -0.0050798850827796374 0 -0.0020807288237725033 -0.0050803134506580234 0 -0.0020754198544265016 -0.0050798850827796374 0 -0.0021114599477295489 -0.0050759626575125711 0 -0.0021131618432510685 -0.005070830509422454 0 -0.0020754198544265016 -0.0050798850827796374 0 -0.0021114599477295489 -0.0050759626575125711 0 -0.0021131618432510685 -0.005070830509422454 0 -0.0021114599477295489 -0.0050759626575125711 0 -0.0021483093792659586 -0.0050668158928003039 0 -0.0021872045046407861 -0.0050000024583794853 0 -0.0022406986503104593 -0.0051229019819634828 0 -0.0021873033665288991 -0.0050000448915806794 0 -0.0023444997043275363 -0.0051105831997788533 0 -0.0024641764355727452 -0.0049999743295441402 0 -0.0021873033665288991 -0.0050000448915806794 0 -0.0023288986073829831 -0.0051935032412749925 0 -0.0023444997043275363 -0.0051105831997788533 0 -0.0021870229287769046 -0.005000007891429621 0 -0.0021131618432510685 -0.005070830509422454 0 -0.0021483093792659586 -0.0050668158928003039 0 -0.0023444997043275363 -0.0051105831997788533 0 -0.0024641764355727452 -0.0049999743295441402 0 -0.0023921188454885233 -0.0051977589744428782 0 -0.0023126478835245336 -0.0051612158840543126 0 -0.0023288986073829831 -0.0051935032412749925 0 -0.0023921188454885233 -0.0051977589744428782 0 -0.0023288986073829831 -0.0051935032412749925 0 -0.0023444997043275363 -0.0051105831997788533 0 -0.0023921188454885233 -0.0051977589744428782 0 -0.0023126478835245336 -0.0051612158840543126 0 -0.0023288986073829831 -0.0051935032412749925 0 -0.0023070333186050109 -0.0051221585016643931 0 -0.0023288986073829831 -0.0051935032412749925 0 -0.0023070333186050109 -0.0051221585016643931 0 -0.0022766659216821301 -0.0050950259461559387 0 -0.0021483093792659586 -0.0050668158928003039 0 -0.0021735986293784869 -0.0050892924665429454 0 -0.0022766659216821301 -0.0050950259461559387 0 -0.0022406986503104593 -0.0051229019819634828 0 -0.0022722740833932575 -0.0051091306579383652 0 -0.0021483093792659586 -0.0050668158928003039 0 -0.002139588511327175 -0.0050786323509118729 0 -0.0021735986293784869 -0.0050892924665429454 0 -0.0021114599477295489 -0.0050759626575125711 0 -0.0021483093792659586 -0.0050668158928003039 0 -0.002139588511327175 -0.0050786323509118729 0 -0.0021051277375589484 -0.0050915472075337247 0 -0.002139588511327175 -0.0050786323509118729 0 -0.0021735986293784869 -0.0050892924665429454 0 -0.0021735986293784869 -0.0050892924665429454 0 -0.0022100639900196821 -0.0051217616851081471 0 -0.0022766659216821301 -0.0050950259461559387 0 -0.0021051277375589484 -0.0050915472075337247 0 -0.0021735986293784869 -0.0050892924665429454 0 -0.0021524290409635637 -0.0051188178909998159 0 -0.0021735986293784869 -0.0050892924665429454 0 -0.0021524290409635637 -0.0051188178909998159 0 -0.0022100639900196821 -0.0051217616851081471 0 -0.0021651502585348596 -0.0051525672866684323 0 -0.0021524290409635637 -0.0051188178909998159 0 -0.0022100639900196821 -0.0051217616851081471 0 -0.0022598769875894625 -0.0051293937130528168 0 -0.0022100639900196821 -0.0051217616851081471 0 -0.0022766659216821301 -0.0050950259461559387 0 -0.0022598769875894625 -0.0051293937130528168 0 -0.0023228532796417197 -0.005070311122517367 0 -0.0022766659216821301 -0.0050950259461559387 0 -0.0023070333186050109 -0.0051221585016643931 0 -0.0023228532796417197 -0.005070311122517367 0 -0.0022766659216821301 -0.0050950259461559387 0 9.6826118819116849e-06 -0.00523791821369289 0 8.7834634500494591e-06 -0.0052466540496520385 0 3.4027586462322706e-05 -0.0052601412522060194 0 9.6826118819116849e-06 -0.00523791821369289 0 -8.0666165193579471e-06 -0.0052353136118066124 0 -3.0041370022327932e-05 -0.0052270367388740384 0 9.6826118819116849e-06 -0.00523791821369289 0 -8.0666165193579471e-06 -0.0052353136118066124 0 8.7834634500494591e-06 -0.0052466540496520385 0 -9.2603351580044579e-06 -0.0052372625104063972 0 8.7834634500494591e-06 -0.0052466540496520385 0 -3.8318952745812062e-06 -0.0052348993361050018 0 -8.0666165193579471e-06 -0.0052353136118066124 0 -9.2603351580044579e-06 -0.0052372625104063972 0 8.7834634500494591e-06 -0.0052466540496520385 0 8.7834634500494591e-06 -0.0052466540496520385 0 2.5894315259137507e-05 -0.0052629837485418645 0 1.3969292597599115e-05 -0.0052449194768952991 0 8.7834634500494591e-06 -0.0052466540496520385 0 2.5894315259137507e-05 -0.0052629837485418645 0 3.4027586462322706e-05 -0.0052601412522060194 0 2.5894315259137507e-05 -0.0052629837485418645 0 3.4027586462322706e-05 -0.0052601412522060194 0 3.635885483626958e-05 -0.0053140163289240655 0 3.4027586462322706e-05 -0.0052601412522060194 0 3.2679548322016816e-05 -0.0052483212047987815 0 3.0942510573631879e-05 -0.0052765521220247335 0 3.4027586462322706e-05 -0.0052601412522060194 0 3.635885483626958e-05 -0.0053140163289240655 0 3.0942510573631879e-05 -0.0052765521220247335 0 3.4027586462322706e-05 -0.0052601412522060194 0 3.2679548322016816e-05 -0.0052483212047987815 0 4.7400552534452064e-05 -0.0052369530119166247 0 9.6826118819116849e-06 -0.00523791821369289 0 3.4027586462322706e-05 -0.0052601412522060194 0 4.7400552534452064e-05 -0.0052369530119166247 0 3.2679548322016816e-05 -0.0052483212047987815 0 4.7400552534452064e-05 -0.0052369530119166247 0 1.8643246477630733e-05 -0.0052160409437856268 0 2.1442205412581752e-05 -0.0052381968028379763 0 4.7400552534452064e-05 -0.0052369530119166247 0 -7.5454102949441072e-06 -0.0052361110401247662 0 9.6826118819116849e-06 -0.00523791821369289 0 4.7400552534452064e-05 -0.0052369530119166247 0 -7.5454102949441072e-06 -0.0052361110401247662 0 9.6826118819116849e-06 -0.00523791821369289 0 -7.5454102949441072e-06 -0.0052361110401247662 0 -3.0041370022327932e-05 -0.0052270367388740384 0 -3.4778985489869056e-05 -0.0052496341849957301 0 2.1442205412581752e-05 -0.0052381968028379763 0 -7.5454102949441072e-06 -0.0052361110401247662 0 -3.4778985489869056e-05 -0.0052496341849957301 0 -7.5454102949441072e-06 -0.0052361110401247662 0 -9.3581724298292333e-05 -0.0052568915669716403 0 -9.3581724298292333e-05 -0.0052568915669716403 0 -0.00018473016897498895 -0.0053218504026868842 0 -0.00024816537219225407 -0.0052451488599866017 0 -9.3581724298292333e-05 -0.0052568915669716403 0 -0.00024816537219225407 -0.0052451488599866017 0 -0.00026673847357474797 -0.0052033625272958264 0 -0.00024816537219225407 -0.0052451488599866017 0 -0.00026673847357474797 -0.0052033625272958264 0 -0.00032283984711485234 -0.0051911635395535541 0 -7.5454102949441072e-06 -0.0052361110401247662 0 -9.3581724298292333e-05 -0.0052568915669716403 0 -3.0041370022327932e-05 -0.0052270367388740384 0 -0.00010487611332711083 -0.0052662270117769241 0 -0.00014886687746797162 -0.0052292734618491783 0 -0.00050487737782765722 -0.0055338184755168692 0 -0.00059216835759091685 -0.0054421922033257531 0 -0.00039442305540722484 -0.005334361069616168 0 -0.00059216835759091685 -0.0054421922033257531 0 -0.00039442305540722484 -0.005334361069616168 0 -0.00050672769694271882 -0.005289077791489764 0 -0.00036841020324113687 -0.0053245995530196519 0 -0.00051873500923134181 -0.0054864662716284816 0 -0.00050487737782765722 -0.0055338184755168692 0 -0.00018473016897498895 -0.0053218504026868842 0 -0.00039442305540722484 -0.005334361069616168 0 -0.00018473016897498895 -0.0053218504026868842 0 -0.00024816537219225407 -0.0052451488599866017 0 -0.00039442305540722484 -0.005334361069616168 0 -0.00024816537219225407 -0.0052451488599866017 0 -0.00039442305540722484 -0.005334361069616168 0 -0.00038322349766567009 -0.0052351748616509186 0 -0.00024816537219225407 -0.0052451488599866017 0 -0.00038322349766567009 -0.0052351748616509186 0 -0.00032283984711485234 -0.0051911635395535541 0 -0.00039442305540722484 -0.005334361069616168 0 -0.00038322349766567009 -0.0052351748616509186 0 -0.00050672769694271882 -0.005289077791489764 0 -0.00038322349766567009 -0.0052351748616509186 0 -0.00047158785157991144 -0.0051939137515875696 0 -0.00050672769694271882 -0.005289077791489764 0 -0.00038322349766567009 -0.0052351748616509186 0 -0.00047158785157991144 -0.0051939137515875696 0 -0.00038389220348845584 -0.0051726355389113314 0 -0.00060160279184030992 -0.0051679936332705081 0 -0.00047158785157991144 -0.0051939137515875696 0 -0.00050672769694271882 -0.005289077791489764 0 -0.00060160279184030992 -0.0051679936332705081 0 -0.0006002472123642741 -0.0049900076308558913 0 -0.00046064884989810765 -0.0051161303197138786 0 -0.00060160279184030992 -0.0051679936332705081 0 -0.00047158785157991144 -0.0051939137515875696 0 -0.00046064884989810765 -0.0051161303197138786 0 -0.00047158785157991144 -0.0051939137515875696 0 -0.00046064884989810765 -0.0051161303197138786 0 -0.00038389220348845584 -0.0051726355389113314 0 -0.00046064884989810765 -0.0051161303197138786 0 -0.00038389220348845584 -0.0051726355389113314 0 -0.00036435500121845379 -0.005148509867336659 0 -0.00038322349766567009 -0.0052351748616509186 0 -0.00038389220348845584 -0.0051726355389113314 0 -0.00032283984711485234 -0.0051911635395535541 0 -0.00038389220348845584 -0.0051726355389113314 0 -0.00036435500121845379 -0.005148509867336659 0 -0.00032283984711485234 -0.0051911635395535541 0 -0.00069980587034924695 -0.0053913252651765472 0 -0.00047827502244412263 -0.0052840581197473686 0 -0.00068634327460053747 -0.0052557857275174584 0 -0.00036435500121845379 -0.005148509867336659 0 -0.00027235379398533405 -0.0052457369768189746 0 -0.00047827502244412263 -0.0052840581197473686 0 -0.00058057070846761095 -0.0052471041715201833 0 -0.0004621263428206577 -0.0052862649941064904 0 -0.00046064884989810765 -0.0051161303197138786 0 -0.00036435500121845379 -0.005148509867336659 0 -0.00041238634099794249 -0.0050419968263696463 0 -0.00041813960646157816 -0.0052104727773418678 0 -0.00058057070846761095 -0.0052471041715201833 0 -0.0007397432585793945 -0.0051594678034751268 0 -0.00058057070846761095 -0.0052471041715201833 0 -0.00091921904962296132 -0.0053402902481854827 0 -0.00078572514398468152 -0.0053133146153303322 0 -0.00087150843148151643 -0.0052279046759375397 0 -0.0006002472123642741 -0.0049900076308558913 0 -0.00046064884989810765 -0.0051161303197138786 0 -0.00041238634099794249 -0.0050419968263696463 0 -8.0666165193579471e-06 -0.0052353136118066124 0 -3.0041370022327932e-05 -0.0052270367388740384 0 -1.5617578025188294e-05 -0.0052361667455488098 0 -0.00014886687746797162 -0.0052292734618491783 0 -0.00021229645433028225 -0.0052469217960710206 0 -0.00026673847357474797 -0.0052033625272958264 0 -0.00037925598900402993 -0.0052038512258338445 0 -0.00041539120311730876 -0.0052471863984244402 0 -0.00026673847357474797 -0.0052033625272958264 0 -0.00032283984711485234 -0.0051911635395535541 0 -0.00037925598900402993 -0.0052038512258338445 0 -0.00036435500121845379 -0.005148509867336659 0 -0.00032283984711485234 -0.0051911635395535541 0 -0.00037925598900402993 -0.0052038512258338445 0 -0.00047827502244412263 -0.0052840581197473686 0 -0.00041539120311730876 -0.0052471863984244402 0 -0.00052487553720433294 -0.0052394486972088122 0 -0.00037925598900402993 -0.0052038512258338445 0 -0.00047827502244412263 -0.0052840581197473686 0 -0.00041539120311730876 -0.0052471863984244402 0 -0.00036435500121845379 -0.005148509867336659 0 -0.00037925598900402993 -0.0052038512258338445 0 -0.00047827502244412263 -0.0052840581197473686 0 -8.0666165193579471e-06 -0.0052353136118066124 0 -9.2603351580044579e-06 -0.0052372625104063972 0 -1.5617578025188294e-05 -0.0052361667455488098 0 -0.00021229645433028225 -0.0052469217960710206 0 -0.00022949337684846473 -0.0052130700564053424 0 -9.2603351580044579e-06 -0.0052372625104063972 0 -1.5617578025188294e-05 -0.0052361667455488098 0 -2.502392050812092e-05 -0.0052267728072433739 0 -0.00041539120311730876 -0.0052471863984244402 0 -0.00046005984506395357 -0.0052207150317067335 0 -0.00052487553720433294 -0.0052394486972088122 0 -0.00052487553720433294 -0.0052394486972088122 0 -0.00060086788309752202 -0.0051264029186279397 0 -0.000703315798149902 -0.0051818324339019091 0 -0.00046005984506395357 -0.0052207150317067335 0 -0.00060086788309752202 -0.0051264029186279397 0 -0.00046116627698523596 -0.0050517839057184089 0 -0.00046005984506395357 -0.0052207150317067335 0 -0.00052487553720433294 -0.0052394486972088122 0 -0.00060086788309752202 -0.0051264029186279397 0 -2.502392050812092e-05 -0.0052267728072433739 0 -2.1834233000785544e-05 -0.0052166297844380566 0 -1.2641271640698494e-05 -0.0052224763980805384 0 -2.502392050812092e-05 -0.0052267728072433739 0 -2.1834233000785544e-05 -0.0052166297844380566 0 -3.0140985451872518e-05 -0.0052078355714300943 0 -0.00022949337684846473 -0.0052130700564053424 0 -0.00036398515047848177 -0.0051713919940093627 0 -0.00069980587034924695 -0.0053913252651765472 0 -0.00086129568352484207 -0.0052894989111654514 0 -0.00068634327460053747 -0.0052557857275174584 0 -0.00058057070846761095 -0.0052471041715201833 0 -0.00086322329265761362 -0.0052596697093508522 0 -0.00086129568352484207 -0.0052894989111654514 0 -0.00068634327460053747 -0.0052557857275174584 0 -0.00085065890382583428 -0.0051892695777713271 0 -0.00052487553720433294 -0.0052394486972088122 0 -0.00068634327460053747 -0.0052557857275174584 0 -0.000703315798149902 -0.0051818324339019091 0 -0.00047827502244412263 -0.0052840581197473686 0 -0.00052487553720433294 -0.0052394486972088122 0 -0.00068634327460053747 -0.0052557857275174584 0 -0.00060086788309752202 -0.0051264029186279397 0 -0.000703315798149902 -0.0051818324339019091 0 -0.0008569743152269198 -0.0051152252440327759 0 -0.00068634327460053747 -0.0052557857275174584 0 -0.000703315798149902 -0.0051818324339019091 0 -0.00085065890382583428 -0.0051892695777713271 0 -0.00098625244663695026 -0.0052026211159696498 0 -0.00086129568352484207 -0.0052894989111654514 0 -0.00085065890382583428 -0.0051892695777713271 0 -0.00097625568758898855 -0.0051199582802825029 0 -0.00085065890382583428 -0.0051892695777713271 0 -0.0008569743152269198 -0.0051152252440327759 0 -0.000703315798149902 -0.0051818324339019091 0 -0.00085065890382583428 -0.0051892695777713271 0 -0.0008569743152269198 -0.0051152252440327759 0 -0.00097625568758898855 -0.0051199582802825029 0 -0.0008569743152269198 -0.0051152252440327759 0 -0.0010827490777861049 -0.0050760817304726126 0 -0.0008569743152269198 -0.0051152252440327759 0 -0.00071068730428012388 -0.0049845704513945327 0 -0.0010827490777861049 -0.0050760817304726126 0 -0.0010975697838125041 -0.0052048534869875759 0 -0.0010682823740750199 -0.0050858059733400567 0 -0.00060086788309752202 -0.0051264029186279397 0 -0.0008569743152269198 -0.0051152252440327759 0 -0.00071068730428012388 -0.0049845704513945327 0 -0.0010039422542567386 -0.005146923618895999 0 -0.0011642129832590956 -0.0049999579229142808 0 -0.00087966941180675734 -0.0049999995364892061 0 -0.0012039671805152512 -0.0050372214193904761 0 -0.0010039422542567386 -0.005146923618895999 0 -0.0011642129832590956 -0.0049999579229142808 0 -0.0012039671805152512 -0.0050372214193904761 0 -0.00071068730428012388 -0.0049845704513945327 0 -0.0010827490777861049 -0.0050760817304726126 0 -0.0011455462950919111 -0.0050383018365181692 0 -0.00091345786926915363 -0.0050624430880083122 0 -2.1834233000785544e-05 -0.0052166297844380566 0 -3.0140985451872518e-05 -0.0052078355714300943 0 -1.309172577078377e-05 -0.0052095801628811878 0 -0.00010447834676524606 -0.0051901258829727438 0 -0.00010797738143370663 -0.0051305790973531556 0 -2.3521939289175479e-05 -0.0051900956897995044 0 -0.00036398515047848177 -0.0051713919940093627 0 9.8984872672472886e-05 -0.0052341230987763433 0 -0.0005300195803323081 -0.0050780491453857445 0 -0.00025735812130731962 -0.0052135001719196368 0 -0.00036398515047848177 -0.0051713919940093627 0 -0.0005300195803323081 -0.0050780491453857445 0 -0.00091345786926915363 -0.0050624430880083122 0 -0.00036398515047848177 -0.0051713919940093627 0 -0.0010039422542567386 -0.005146923618895999 0 -0.0007362624270118264 -0.0052358592909367788 0 -0.00084054415390561398 -0.0051176996669616403 0 -0.00060086788309752202 -0.0051264029186279397 0 -0.00071068730428012388 -0.0049845704513945327 0 -0.00046116627698523596 -0.0050517839057184089 0 -0.0010039422542567386 -0.005146923618895999 0 -0.00084054415390561398 -0.0051176996669616403 0 -0.00087966941180675734 -0.0049999995364892061 0 -0.00084054415390561398 -0.0051176996669616403 0 -0.00087966941180675734 -0.0049999995364892061 0 -0.00074099708859502798 -0.005093626264566469 0 -0.00087957364270861346 -0.0050000006785511416 0 -0.00073952745628775272 -0.0050575831000537379 0 -0.00073865283981590119 -0.0050971952591435448 0 -0.00087963843405013359 -0.0049999464843580258 0 -0.0005300195803323081 -0.0050780491453857445 0 -0.00073797843056554527 -0.0050969474519881996 0 -0.00060573842235620359 -0.0051122527691431201 0 -0.00052829516578528461 -0.0052198870421970153 0 -0.00087957364270861346 -0.0050000006785511416 0 -0.00073952745628775272 -0.0050575831000537379 0 -0.00062763734703985877 -0.0049999904495598956 0 -0.00073952745628775272 -0.0050575831000537379 0 -0.00073797843056554527 -0.0050969474519881996 0 -0.00067163844056687834 -0.0050702634864823815 0 -0.0007362624270118264 -0.0052358592909367788 0 -0.00084054415390561398 -0.0051176996669616403 0 -0.00074099708859502798 -0.005093626264566469 0 -0.00055987347813184879 -0.0050740311985529125 0 -0.0005300195803323081 -0.0050780491453857445 0 -0.00073797843056554527 -0.0050969474519881996 0 -0.00067163844056687834 -0.0050702634864823815 0 -0.00060573842235620359 -0.0051122527691431201 0 -0.00062763734703985877 -0.0049999904495598956 0 -0.00067163844056687834 -0.0050702634864823815 0 -0.00060573842235620359 -0.0051122527691431201 0 -0.00073952745628775272 -0.0050575831000537379 0 -0.00062763734703985877 -0.0049999904495598956 0 -0.00067163844056687834 -0.0050702634864823815 0 -0.00062763734703985877 -0.0049999904495598956 0 -0.0004878798779459091 -0.0051012538699990104 0 -0.00060573842235620359 -0.0051122527691431201 0 -0.00062763734703985877 -0.0049999904495598956 0 -0.0004878798779459091 -0.0051012538699990104 0 -0.00037571026381146575 -0.0049999817818438073 0 -0.0004878798779459091 -0.0051012538699990104 0 -0.00037571026381146575 -0.0049999817818438073 0 -0.00034295287384651939 -0.0051634805967430393 0 -0.00025735812130731962 -0.0052135001719196368 0 -0.00015448375871506592 -0.0052665795311104147 0 -0.00034295287384651939 -0.0051634805967430393 0 -0.00052829516578528461 -0.0052198870421970153 0 -0.00030919865190549563 -0.0053195982312202912 0 -0.0004878798779459091 -0.0051012538699990104 0 -0.00034295287384651939 -0.0051634805967430393 0 -0.00052829516578528461 -0.0052198870421970153 0 -0.00010447834676524606 -0.0051901258829727438 0 -1.309172577078377e-05 -0.0052095801628811878 0 -2.3521939289175479e-05 -0.0051900956897995044 0 -1.309172577078377e-05 -0.0052095801628811878 0 -2.3521939289175479e-05 -0.0051900956897995044 0 1.3532223007070977e-05 -0.005225050999549505 0 -0.0004878798779459091 -0.0051012538699990104 0 -0.00060573842235620359 -0.0051122527691431201 0 -0.00052829516578528461 -0.0052198870421970153 0 -2.1834233000785544e-05 -0.0052166297844380566 0 -1.309172577078377e-05 -0.0052095801628811878 0 -1.2641271640698494e-05 -0.0052224763980805384 0 -1.2641271640698494e-05 -0.0052224763980805384 0 1.3532223007070977e-05 -0.005225050999549505 0 -3.8318952745812062e-06 -0.0052348993361050018 0 -1.309172577078377e-05 -0.0052095801628811878 0 -1.2641271640698494e-05 -0.0052224763980805384 0 1.3532223007070977e-05 -0.005225050999549505 0 1.3532223007070977e-05 -0.005225050999549505 0 1.3969292597599115e-05 -0.0052449194768952991 0 -3.8318952745812062e-06 -0.0052348993361050018 0 8.7834634500494591e-06 -0.0052466540496520385 0 1.3969292597599115e-05 -0.0052449194768952991 0 -3.8318952745812062e-06 -0.0052348993361050018 0 -9.2603351580044579e-06 -0.0052372625104063972 0 -2.502392050812092e-05 -0.0052267728072433739 0 -3.8318952745812062e-06 -0.0052348993361050018 0 -2.502392050812092e-05 -0.0052267728072433739 0 -1.2641271640698494e-05 -0.0052224763980805384 0 -3.8318952745812062e-06 -0.0052348993361050018 0 -9.5936360114431613e-05 -0.0053766063282295893 0 4.03721190194989e-05 -0.0053333728226546036 0 3.635885483626958e-05 -0.0053140163289240655 0 -3.8064950341271498e-05 -0.0053091087251224672 0 2.0303853302378004e-05 -0.0053134288803351583 0 2.5894315259137507e-05 -0.0052629837485418645 0 2.9553125102079076e-05 -0.005252683918748083 0 3.635885483626958e-05 -0.0053140163289240655 0 2.5894315259137507e-05 -0.0052629837485418645 0 1.3969292597599115e-05 -0.0052449194768952991 0 2.9553125102079076e-05 -0.005252683918748083 0 1.3532223007070977e-05 -0.005225050999549505 0 1.3969292597599115e-05 -0.0052449194768952991 0 2.9553125102079076e-05 -0.005252683918748083 0 -0.00015448375871506592 -0.0052665795311104147 0 -3.8064950341271498e-05 -0.0053091087251224672 0 -0.00030919865190549563 -0.0053195982312202912 0 -9.5936360114431613e-05 -0.0053766063282295893 0 -0.00016114366310622999 -0.0052274501337074442 0 -9.5936360114431613e-05 -0.0053766063282295893 0 -0.00016114366310622999 -0.0052274501337074442 0 6.5563968166158759e-06 -0.0052260009852282841 0 -9.5936360114431613e-05 -0.0053766063282295893 0 6.5563968166158759e-06 -0.0052260009852282841 0 4.03721190194989e-05 -0.0053333728226546036 0 -0.00016114366310622999 -0.0052274501337074442 0 -0.00012380242481729888 -0.0049999895457536105 0 6.5563968166158759e-06 -0.0052260009852282841 0 -0.00034295287384651939 -0.0051634805967430393 0 -0.00030919865190549563 -0.0053195982312202912 0 -0.00016114366310622999 -0.0052274501337074442 0 -0.00034295287384651939 -0.0051634805967430393 0 -0.00016114366310622999 -0.0052274501337074442 0 -0.00012380242481729888 -0.0049999895457536105 0 -0.00037571026381146575 -0.0049999817818438073 0 -0.00034295287384651939 -0.0051634805967430393 0 -0.00012380242481729888 -0.0049999895457536105 0 -0.00012380242481729888 -0.0049999895457536105 0 0.00012804818098684871 -0.0049999968623207804 0 6.5563968166158759e-06 -0.0052260009852282841 0 0.00012804818098684871 -0.0049999968623207804 0 0.00023591273443689283 -0.0051699357108340839 0 0.00037997197650310261 -0.0049999572002181894 0 0.00023591273443689283 -0.0051699357108340839 0 6.5563968166158759e-06 -0.0052260009852282841 0 0.00013407387482030034 -0.0053470603568471645 0 0.00012804818098684871 -0.0049999968623207804 0 0.00023591273443689283 -0.0051699357108340839 0 6.5563968166158759e-06 -0.0052260009852282841 0 0.00037997197650310261 -0.0049999572002181894 0 0.00049257384814317749 -0.0051469262715691322 0 0.00063185108113818526 -0.0049999783312285259 0 0.00049257384814317749 -0.0051469262715691322 0 0.0006746670192284179 -0.0051612869228691207 0 0.00063185108113818526 -0.0049999783312285259 0 0.00023591273443689283 -0.0051699357108340839 0 0.00037997197650310261 -0.0049999572002181894 0 0.00049257384814317749 -0.0051469262715691322 0 0.00023591273443689283 -0.0051699357108340839 0 0.00049257384814317749 -0.0051469262715691322 0 0.00043266415328124753 -0.0053268670489078273 0 0.00048898586924189477 -0.005139349356326043 0 0.00048709657625752966 -0.0053448338102508016 0 0.00049257384814317749 -0.0051469262715691322 0 0.00063139298570528144 -0.0052619494476086144 0 0.0006746670192284179 -0.0051612869228691207 0 0.00049257384814317749 -0.0051469262715691322 0 0.0005156490032998854 -0.0052908722103654693 0 0.00063139298570528144 -0.0052619494476086144 0 0.0005156490032998854 -0.0052908722103654693 0 0.00066255490365120279 -0.005396462444119155 0 0.00063139298570528144 -0.0052619494476086144 0 0.00023591273443689283 -0.0051699357108340839 0 0.00043266415328124753 -0.0053268670489078273 0 0.00013407387482030034 -0.0053470603568471645 0 0.00043266415328124753 -0.0053268670489078273 0 0.00041454228164590994 -0.0055729528258785053 0 0.00013407387482030034 -0.0053470603568471645 0 0.00024120450611144238 -0.0053120815395491716 0 0.00013356670726752672 -0.0053954752595042612 0 1.13015062680434e-05 -0.0053256371521865605 0 0.00013407387482030034 -0.0053470603568471645 0 5.4121667353479531e-05 -0.0053155120664440869 0 0.0005156490032998854 -0.0052908722103654693 0 0.00050714486951790533 -0.005450514966506388 0 0.00066255490365120279 -0.005396462444119155 0 0.00048709657625752966 -0.0053448338102508016 0 0.00024120450611144238 -0.0053120815395491716 0 0.00050714486951790533 -0.005450514966506388 0 0.00070785758362525684 -0.0054959337752788391 0 0.00066255490365120279 -0.005396462444119155 0 6.5563968166158759e-06 -0.0052260009852282841 0 0.00013407387482030034 -0.0053470603568471645 0 4.03721190194989e-05 -0.0053333728226546036 0 0.00013407387482030034 -0.0053470603568471645 0 4.03721190194989e-05 -0.0053333728226546036 0 5.4121667353479531e-05 -0.0053155120664440869 0 4.03721190194989e-05 -0.0053333728226546036 0 3.635885483626958e-05 -0.0053140163289240655 0 5.4121667353479531e-05 -0.0053155120664440869 0 3.635885483626958e-05 -0.0053140163289240655 0 3.0942510573631879e-05 -0.0052765521220247335 0 5.4121667353479531e-05 -0.0053155120664440869 0 3.0942510573631879e-05 -0.0052765521220247335 0 1.2183575637782788e-05 -0.0052639191802240273 0 1.8382861059792194e-05 -0.0052476100660270629 0 3.0942510573631879e-05 -0.0052765521220247335 0 1.2183575637782788e-05 -0.0052639191802240273 0 5.4121667353479531e-05 -0.0053155120664440869 0 1.13015062680434e-05 -0.0053256371521865605 0 5.4121667353479531e-05 -0.0053155120664440869 0 -8.8169739042068071e-06 -0.0052807704717538215 0 0.00024120450611144238 -0.0053120815395491716 0 0.00045322685738990288 -0.0052931848811169713 0 0.00024120450611144238 -0.0053120815395491716 0 -7.630133711865832e-06 -0.0051011629344215144 0 2.3956064088071729e-05 -0.0049094892455925666 0 5.4760994546366077e-05 -0.0049804632481483136 0 2.0017898027039739e-05 -0.0049990553900523607 0 2.3956064088071729e-05 -0.0049094892455925666 0 0.00013614591028446004 -0.0049845302463133205 0 0.00010632218461386249 -0.0049833954607991244 0 2.3956064088071729e-05 -0.0049094892455925666 0 5.4760994546366077e-05 -0.0049804632481483136 0 0.00010632218461386249 -0.0049833954607991244 0 6.7864585905945803e-05 -0.0050274045809158988 0 2.0017898027039739e-05 -0.0049990553900523607 0 4.405879328823765e-06 -0.0050860283898231141 0 5.4760994546366077e-05 -0.0049804632481483136 0 6.7864585905945803e-05 -0.0050274045809158988 0 0.00010632218461386249 -0.0049833954607991244 0 5.4760994546366077e-05 -0.0049804632481483136 0 6.7864585905945803e-05 -0.0050274045809158988 0 2.0017898027039739e-05 -0.0049990553900523607 0 1.2183575637782788e-05 -0.0052639191802240273 0 5.4121667353479531e-05 -0.0053155120664440869 0 -8.8169739042068071e-06 -0.0052807704717538215 0 -7.630133711865832e-06 -0.0051011629344215144 0 -8.3405025312977702e-06 -0.0051703319357722915 0 1.2183575637782788e-05 -0.0052639191802240273 0 -8.8169739042068071e-06 -0.0052807704717538215 0 -2.3157766627867971e-05 -0.005236587210556279 0 1.2183575637782788e-05 -0.0052639191802240273 0 -2.3157766627867971e-05 -0.005236587210556279 0 -1.4572689869817929e-05 -0.0052192636593685719 0 4.405879328823765e-06 -0.0050860283898231141 0 8.396988203407575e-05 -0.0050763602518850842 0 6.1141403593497628e-05 -0.0051319590650257298 0 6.7864585905945803e-05 -0.0050274045809158988 0 4.405879328823765e-06 -0.0050860283898231141 0 8.396988203407575e-05 -0.0050763602518850842 0 6.1141403593497628e-05 -0.0051319590650257298 0 -1.9284707504059679e-05 -0.0051914480006133561 0 7.8041548660437253e-05 -0.0051885201364695417 0 4.405879328823765e-06 -0.0050860283898231141 0 6.1141403593497628e-05 -0.0051319590650257298 0 -1.9284707504059679e-05 -0.0051914480006133561 0 -2.3157766627867971e-05 -0.005236587210556279 0 -1.9284707504059679e-05 -0.0051914480006133561 0 -1.4572689869817929e-05 -0.0052192636593685719 0 -8.3405025312977702e-06 -0.0051703319357722915 0 -1.7225729990254177e-05 -0.0051872852274853984 0 -1.4572689869817929e-05 -0.0052192636593685719 0 1.8382861059792194e-05 -0.0052476100660270629 0 1.8643246477630733e-05 -0.0052160409437856268 0 3.2679548322016816e-05 -0.0052483212047987815 0 1.8382861059792194e-05 -0.0052476100660270629 0 1.8643246477630733e-05 -0.0052160409437856268 0 3.2679548322016816e-05 -0.0052483212047987815 0 3.0942510573631879e-05 -0.0052765521220247335 0 1.8382861059792194e-05 -0.0052476100660270629 0 1.2183575637782788e-05 -0.0052639191802240273 0 -1.4572689869817929e-05 -0.0052192636593685719 0 1.8382861059792194e-05 -0.0052476100660270629 0 0.0009619635371391767 -0.0057668913788779339 0 0.0011069011476975161 -0.0058581947885816051 0 0.0010764797477391006 -0.005644044213813159 0 0.00025164360333016823 -0.0050958586624413197 0 0.00024087219961653906 -0.0050490145126295865 0 0.0003200094729721764 -0.0050966192038968249 0 0.00095480708297636927 -0.0055002064067945795 0 0.0011279023853350242 -0.0056847671199809161 0 0.00055747756498052744 -0.0053739616382347203 0 0.00095480708297636927 -0.0055002064067945795 0 0.00025164360333016823 -0.0050958586624413197 0 0.00024087219961653906 -0.0050490145126295865 0 0.00020845507354475814 -0.0050313719876782194 0 0.0013066141393159923 -0.005783701360413394 0 0.00117686492374718 -0.0058166852015899464 0 0.0012921281518738178 -0.0056592658074608579 0 0.0013066141393159923 -0.005783701360413394 0 0.00117686492374718 -0.0058166852015899464 0 0.0013167538899983061 -0.005898288398824226 0 0.0011889783271076403 -0.0053311576567133161 0 0.0011216760678527792 -0.0052870556881024263 0 0.0011742222717823956 -0.0052387185823805794 0 0.00095480708297636927 -0.0055002064067945795 0 0.0007513437004536698 -0.0052077101616934754 0 0.00095480708297636927 -0.0055002064067945795 0 0.0012402196217614655 -0.0056045670953836918 0 0.0011216760678527792 -0.0052870556881024263 0 0.0011742222717823956 -0.0052387185823805794 0 0.0011115976280430069 -0.0052189187506180394 0 0.0003200094729721764 -0.0050966192038968249 0 0.00033533928282835675 -0.0051741114237502991 0 0.00026907525046870418 -0.0051469558159724397 0 0.00033533928282835675 -0.0051741114237502991 0 0.00029058655612875482 -0.0051783546227492702 0 0.00026907525046870418 -0.0051469558159724397 0 0.00025164360333016823 -0.0050958586624413197 0 0.0003200094729721764 -0.0050966192038968249 0 0.00026907525046870418 -0.0051469558159724397 0 0.00023642712302797127 -0.0051243946047550672 0 0.00026907525046870418 -0.0051469558159724397 0 0.00022001672384930321 -0.0051458952521271535 0 0.00025164360333016823 -0.0050958586624413197 0 0.00023642712302797127 -0.0051243946047550672 0 0.00026907525046870418 -0.0051469558159724397 0 0.00029058655612875482 -0.0051783546227492702 0 0.00026907525046870418 -0.0051469558159724397 0 0.00025860774928412682 -0.0051929980060876502 0 0.00026907525046870418 -0.0051469558159724397 0 0.00022967491604296842 -0.0051746972401492675 0 0.00022001672384930321 -0.0051458952521271535 0 0.00026907525046870418 -0.0051469558159724397 0 0.00022967491604296842 -0.0051746972401492675 0 0.00025860774928412682 -0.0051929980060876502 0 0.0001946447619501467 -0.0051790408619262884 0 0.00018868603094891886 -0.005150059257882679 0 0.00022001672384930321 -0.0051458952521271535 0 0.00022967491604296842 -0.0051746972401492675 0 0.0001946447619501467 -0.0051790408619262884 0 0.00022001672384930321 -0.0051458952521271535 0 0.00016176860912971587 -0.0051692741653864326 0 0.00018868603094891886 -0.005150059257882679 0 0.000159133522769869 -0.0051339132423170201 0 0.0001946447619501467 -0.0051790408619262884 0 0.00016176860912971587 -0.0051692741653864326 0 0.00018868603094891886 -0.005150059257882679 0 0.00018868603094891886 -0.005150059257882679 0 0.000159133522769869 -0.0051339132423170201 0 0.00020508418623671045 -0.0051089103248970497 0 0.000159133522769869 -0.0051339132423170201 0 0.00020508418623671045 -0.0051089103248970497 0 0.00016570221549571328 -0.005101391803672189 0 0.00023642712302797127 -0.0051243946047550672 0 0.00022001672384930321 -0.0051458952521271535 0 0.00020508418623671045 -0.0051089103248970497 0 0.00018868603094891886 -0.005150059257882679 0 0.00022001672384930321 -0.0051458952521271535 0 0.00020508418623671045 -0.0051089103248970497 0 6.1141403593497628e-05 -0.0051319590650257298 0 0.00011807254178728557 -0.005154111465963054 0 7.8041548660437253e-05 -0.0051885201364695417 0 0.00011807254178728557 -0.005154111465963054 0 7.8041548660437253e-05 -0.0051885201364695417 0 0.00013029428991069247 -0.0051921034337354477 0 0.00016176860912971587 -0.0051692741653864326 0 0.000159133522769869 -0.0051339132423170201 0 0.00011807254178728557 -0.005154111465963054 0 0.00016176860912971587 -0.0051692741653864326 0 0.00011807254178728557 -0.005154111465963054 0 0.00013029428991069247 -0.0051921034337354477 0 0.000159133522769869 -0.0051339132423170201 0 0.00011807254178728557 -0.005154111465963054 0 0.00012077358266409478 -0.0051096830450460123 0 0.000159133522769869 -0.0051339132423170201 0 0.00012077358266409478 -0.0051096830450460123 0 0.00016570221549571328 -0.005101391803672189 0 6.1141403593497628e-05 -0.0051319590650257298 0 0.00011807254178728557 -0.005154111465963054 0 0.00012077358266409478 -0.0051096830450460123 0 8.396988203407575e-05 -0.0050763602518850842 0 6.1141403593497628e-05 -0.0051319590650257298 0 0.00012077358266409478 -0.0051096830450460123 0 8.396988203407575e-05 -0.0050763602518850842 0 0.00012077358266409478 -0.0051096830450460123 0 0.000134939581904575 -0.0050722660446257803 0 0.00012077358266409478 -0.0051096830450460123 0 0.000134939581904575 -0.0050722660446257803 0 0.00016570221549571328 -0.005101391803672189 0 0.000134939581904575 -0.0050722660446257803 0 0.00016570221549571328 -0.005101391803672189 0 0.0001703808378698998 -0.0050700020258938926 0 0.000134939581904575 -0.0050722660446257803 0 0.00011596980068621983 -0.0050374287086514631 0 0.00015364489540351951 -0.0050406090522079521 0 0.000134939581904575 -0.0050722660446257803 0 0.0001703808378698998 -0.0050700020258938926 0 0.00015364489540351951 -0.0050406090522079521 0 6.7864585905945803e-05 -0.0050274045809158988 0 8.396988203407575e-05 -0.0050763602518850842 0 0.00011596980068621983 -0.0050374287086514631 0 8.396988203407575e-05 -0.0050763602518850842 0 0.000134939581904575 -0.0050722660446257803 0 0.00011596980068621983 -0.0050374287086514631 0 0.00025164360333016823 -0.0050958586624413197 0 0.00023642712302797127 -0.0051243946047550672 0 0.00020508418623671045 -0.0051089103248970497 0 0.00025164360333016823 -0.0050958586624413197 0 0.00020508418623671045 -0.0051089103248970497 0 0.00021031069485362273 -0.0050757946049634845 0 0.00020508418623671045 -0.0051089103248970497 0 0.00018914730082482826 -0.0050871891197576029 0 0.00021031069485362273 -0.0050757946049634845 0 0.00020508418623671045 -0.0051089103248970497 0 0.00016570221549571328 -0.005101391803672189 0 0.00018914730082482826 -0.0050871891197576029 0 0.00016570221549571328 -0.005101391803672189 0 0.00018914730082482826 -0.0050871891197576029 0 0.0001703808378698998 -0.0050700020258938926 0 0.00018914730082482826 -0.0050871891197576029 0 0.0001703808378698998 -0.0050700020258938926 0 0.00018776259849475433 -0.0050576559154515257 0 0.0001703808378698998 -0.0050700020258938926 0 0.00018776259849475433 -0.0050576559154515257 0 0.00015364489540351951 -0.0050406090522079521 0 0.00025164360333016823 -0.0050958586624413197 0 0.00021031069485362273 -0.0050757946049634845 0 0.00020845507354475814 -0.0050313719876782194 0 0.00018776259849475433 -0.0050576559154515257 0 0.00021031069485362273 -0.0050757946049634845 0 0.00020845507354475814 -0.0050313719876782194 0 0.00018914730082482826 -0.0050871891197576029 0 0.00018776259849475433 -0.0050576559154515257 0 0.00021031069485362273 -0.0050757946049634845 0 0.0009619635371391767 -0.0057668913788779339 0 0.00089994599141934449 -0.0057296563867040374 0 0.00090566673673214975 -0.0056241096931371488 0 0.00042317361653495075 -0.0052621806633541953 0 0.00045322685738990288 -0.0052931848811169713 0 0.00055747756498052744 -0.0053739616382347203 0 0.00042317361653495075 -0.0052621806633541953 0 0.00089994599141934449 -0.0057296563867040374 0 0.00090566673673214975 -0.0056241096931371488 0 0.00071910893595011319 -0.0056048258817027038 0 0.00018776259849475433 -0.0050576559154515257 0 0.00020845507354475814 -0.0050313719876782194 0 0.00015364489540351951 -0.0050406090522079521 0 0.00042317361653495075 -0.0052621806633541953 0 2.0558849890807777e-05 -0.0049108738567737774 0 0.00023845433803841793 -0.0050673575518569358 0 0.00013614591028446004 -0.0049845302463133205 0 0.00010632218461386249 -0.0049833954607991244 0 0.00020845507354475814 -0.0050313719876782194 0 0.00015364489540351951 -0.0050406090522079521 0 0.00010632218461386249 -0.0049833954607991244 0 6.7864585905945803e-05 -0.0050274045809158988 0 0.00011596980068621983 -0.0050374287086514631 0 0.00010632218461386249 -0.0049833954607991244 0 0.00011596980068621983 -0.0050374287086514631 0 0.00015364489540351951 -0.0050406090522079521 0 0.00010632218461386249 -0.0049833954607991244 0 0.00050714486951790533 -0.005450514966506388 0 0.00071910893595011319 -0.0056048258817027038 0 0.00070785758362525684 -0.0054959337752788391 0 0.00071910893595011319 -0.0056048258817027038 0 0.00070785758362525684 -0.0054959337752788391 0 0.00081900441602344011 -0.0055566987721408258 0 0.00090566673673214975 -0.0056241096931371488 0 0.00071910893595011319 -0.0056048258817027038 0 0.00081900441602344011 -0.0055566987721408258 0 0.00090566673673214975 -0.0056241096931371488 0 0.00081900441602344011 -0.0055566987721408258 0 0.00096436348277575653 -0.0055332599794070576 0 0.00070785758362525684 -0.0054959337752788391 0 0.00081900441602344011 -0.0055566987721408258 0 0.00085979390840086633 -0.0054673694042549816 0 0.00081900441602344011 -0.0055566987721408258 0 0.00085979390840086633 -0.0054673694042549816 0 0.00096436348277575653 -0.0055332599794070576 0 0.00090566673673214975 -0.0056241096931371488 0 0.00096436348277575653 -0.0055332599794070576 0 0.0010764797477391006 -0.005644044213813159 0 0.0011279023853350242 -0.0056847671199809161 0 0.001053524531903633 -0.0053711071148789293 0 0.00096436348277575653 -0.0055332599794070576 0 0.0010764797477391006 -0.005644044213813159 0 0.0010585658775540082 -0.0053931097276839488 0 0.00085979390840086633 -0.0054673694042549816 0 0.00096436348277575653 -0.0055332599794070576 0 0.0010585658775540082 -0.0053931097276839488 0 0.0009619635371391767 -0.0057668913788779339 0 0.00090566673673214975 -0.0056241096931371488 0 0.0010764797477391006 -0.005644044213813159 0 0.00117686492374718 -0.0058166852015899464 0 0.0011299437458076474 -0.0055785557380742361 0 0.0012921281518738178 -0.0056592658074608579 0 0.0011299437458076474 -0.0055785557380742361 0 0.0012921281518738178 -0.0056592658074608579 0 0.0013011617625924541 -0.0055384659256230021 0 0.0013011617625924541 -0.0055384659256230021 0 0.0012384603116519731 -0.0054467333191873472 0 0.001362749412996367 -0.0054560280388137854 0 0.0011299437458076474 -0.0055785557380742361 0 0.0013011617625924541 -0.0055384659256230021 0 0.0012384603116519731 -0.0054467333191873472 0 0.0011299437458076474 -0.0055785557380742361 0 0.0012384603116519731 -0.0054467333191873472 0 0.0010585658775540082 -0.0053931097276839488 0 0.0012384603116519731 -0.0054467333191873472 0 0.001232842680750355 -0.0053329215532938743 0 0.0013739610115797755 -0.0053770696230090627 0 0.001232842680750355 -0.0053329215532938743 0 0.0010585658775540082 -0.0053931097276839488 0 0.0011260353638368407 -0.0052427500021871003 0 0.0012384603116519731 -0.0054467333191873472 0 0.001232842680750355 -0.0053329215532938743 0 0.0010585658775540082 -0.0053931097276839488 0 0.0010585658775540082 -0.0053931097276839488 0 0.00097190290162630472 -0.0052994006477821674 0 0.0011260353638368407 -0.0052427500021871003 0 0.00085979390840086633 -0.0054673694042549816 0 0.0010585658775540082 -0.0053931097276839488 0 0.00097190290162630472 -0.0052994006477821674 0 0.00097190290162630472 -0.0052994006477821674 0 0.0011260353638368407 -0.0052427500021871003 0 0.00097736092413600755 -0.0051564634658040768 0 0.001232842680750355 -0.0053329215532938743 0 0.0011260353638368407 -0.0052427500021871003 0 0.0013522363375496273 -0.005248592340488736 0 0.0011260353638368407 -0.0052427500021871003 0 0.001195986217424813 -0.0051205555661236486 0 0.0013522363375496273 -0.005248592340488736 0 0.00070785758362525684 -0.0054959337752788391 0 0.00085979390840086633 -0.0054673694042549816 0 0.00066255490365120279 -0.005396462444119155 0 0.00085979390840086633 -0.0054673694042549816 0 0.00066255490365120279 -0.005396462444119155 0 0.00075136149142714581 -0.0053085843392021801 0 0.00085454333386471878 -0.0054595617605402063 0 0.00078961981485444106 -0.0053036594131787877 0 0.00085979390840086633 -0.0054673694042549816 0 0.00097190290162630472 -0.0052994006477821674 0 0.00082656042105174637 -0.0052854357745341736 0 0.00097190290162630472 -0.0052994006477821674 0 0.00082656042105174637 -0.0052854357745341736 0 0.00097736092413600755 -0.0051564634658040768 0 0.00078961981485444106 -0.0053036594131787877 0 0.00071076749634298067 -0.0051506841617194312 0 0.00066255490365120279 -0.005396462444119155 0 0.00063139298570528144 -0.0052619494476086144 0 0.00075136149142714581 -0.0053085843392021801 0 0.00063139298570528144 -0.0052619494476086144 0 0.00075136149142714581 -0.0053085843392021801 0 0.0006746670192284179 -0.0051612869228691207 0 0.00082656042105174637 -0.0052854357745341736 0 0.00074946376778791562 -0.0051493643068521722 0 0.00097736092413600755 -0.0051564634658040768 0 0.00074946376778791562 -0.0051493643068521722 0 0.00086146840951318877 -0.0049999767363879573 0 0.00097736092413600755 -0.0051564634658040768 0 0.00074946376778791562 -0.0051493643068521722 0 0.00086146840951318877 -0.0049999767363879573 0 0.00063198975698336695 -0.0049999761713961132 0 0.00071076749634298067 -0.0051506841617194312 0 0.00063193650422435133 -0.0050000205799577658 0 0.0011260353638368407 -0.0052427500021871003 0 0.001195986217424813 -0.0051205555661236486 0 0.00097736092413600755 -0.0051564634658040768 0 0.00086146840951318877 -0.0049999767363879573 0 0.00097736092413600755 -0.0051564634658040768 0 0.0010908430617240321 -0.0049999308085770123 0 0.001195986217424813 -0.0051205555661236486 0 0.00097736092413600755 -0.0051564634658040768 0 0.0010908430617240321 -0.0049999308085770123 0 0.0012681597898365668 -0.0051683710841371562 0 0.0010909633708908414 -0.0049999962469583405 0 0.0013261603662803566 -0.0049999659356172559 0 0.0012325596237446014 -0.0051410714377904043 0 0.0010909529518006596 -0.0050000183850520338 0 0.0012681597898365668 -0.0051683710841371562 0 0.0013261603662803566 -0.0049999659356172559 0 0.0014627419883225185 -0.0051514386819268808 0 0.0012681597898365668 -0.0051683710841371562 0 0.0014627419883225185 -0.0051514386819268808 0 0.001432409705574016 -0.0052916150224521603 0 0.0014627419883225185 -0.0051514386819268808 0 0.0015611932333334645 -0.0049999812317921598 0 0.0016352485534290328 -0.0051851082447826793 0 0.0014627419883225185 -0.0051514386819268808 0 0.0016352485534290328 -0.0051851082447826793 0 0.0015363595855672082 -0.0052165871548568521 0 0.0013261603662803566 -0.0049999659356172559 0 0.0014627419883225185 -0.0051514386819268808 0 0.0015611932333334645 -0.0049999812317921598 0 0.0015613033224188054 -0.0050000226871981992 0 0.0017390005033162783 -0.0051235157917439798 0 0.0016755958429336708 -0.0052107375889628637 0 0.0015612670593748836 -0.0050000264279923658 0 0.0016565957040119679 -0.0051967882626038865 0 0.0015613033224188054 -0.0050000226871981992 0 0.0017248300267691244 -0.0049999680608702217 0 0.0017390005033162783 -0.0051235157917439798 0 0.0018486003330315088 -0.005179752156280016 0 0.0018884039826104367 -0.0050000281156554532 0 0.0017248300267691244 -0.0049999680608702217 0 0.0017390005033162783 -0.0051235157917439798 0 0.0018883551328497388 -0.0050000197791648729 0 0.0017390005033162783 -0.0051235157917439798 0 0.0018167015945590604 -0.0051922671906729214 0 0.0018883551328497388 -0.0050000197791648729 0 0.0017390005033162783 -0.0051235157917439798 0 0.0018167015945590604 -0.0051922671906729214 0 0.0017485297865135515 -0.0052519089294894407 0 0.0017390005033162783 -0.0051235157917439798 0 0.0016755958429336708 -0.0052107375889628637 0 0.0017485297865135515 -0.0052519089294894407 0 0.0016755958429336708 -0.0052107375889628637 0 0.0017485297865135515 -0.0052519089294894407 0 0.0017355031116519368 -0.0053229023249748084 0 0.0016565957040119679 -0.0051967882626038865 0 0.0017279121709165355 -0.0053211113730892668 0 0.0016352485534290328 -0.0051851082447826793 0 0.0017355031116519368 -0.0053229023249748084 0 0.0016453290383202453 -0.0052957207967819133 0 0.0016352485534290328 -0.0051851082447826793 0 0.0016453290383202453 -0.0052957207967819133 0 0.0015745349565056128 -0.0052705402833814648 0 0.0018486003330315088 -0.005179752156280016 0 0.0018149888218358971 -0.0052931355847016595 0 0.0018167015945590604 -0.0051922671906729214 0 0.0017485297865135515 -0.0052519089294894407 0 0.0017740003523279478 -0.0053097057313929389 0 0.0017485297865135515 -0.0052519089294894407 0 0.0017740003523279478 -0.0053097057313929389 0 0.0017355031116519368 -0.0053229023249748084 0 0.0017740003523279478 -0.0053097057313929389 0 0.0017355031116519368 -0.0053229023249748084 0 0.0017499091630602493 -0.0053478778476560695 0 0.0017355031116519368 -0.0053229023249748084 0 0.0016453290383202453 -0.0052957207967819133 0 0.0016883825475427414 -0.0053513768853424926 0 0.0017355031116519368 -0.0053229023249748084 0 0.0016883825475427414 -0.0053513768853424926 0 0.0017499091630602493 -0.0053478778476560695 0 0.0016453290383202453 -0.0052957207967819133 0 0.0015956163340170762 -0.0053324234186613523 0 0.0016883825475427414 -0.0053513768853424926 0 0.0015956163340170762 -0.0053324234186613523 0 0.001432409705574016 -0.0052916150224521603 0 0.0015685550163334727 -0.0053890306900868951 0 0.0015956163340170762 -0.0053324234186613523 0 0.0016450905734168549 -0.0053762655643645975 0 0.0016883825475427414 -0.0053513768853424926 0 0.0015956163340170762 -0.0053324234186613523 0 0.001432409705574016 -0.0052916150224521603 0 0.0015745349565056128 -0.0052705402833814648 0 0.0016453290383202453 -0.0052957207967819133 0 0.0015956163340170762 -0.0053324234186613523 0 0.0015745349565056128 -0.0052705402833814648 0 0.0013972010979335851 -0.0052717639891899631 0 0.0015477159067437676 -0.0053907434553167955 0 0.0013739610115797755 -0.0053770696230090627 0 0.0013522363375496273 -0.005248592340488736 0 0.0015685550163334727 -0.0053890306900868951 0 0.001232842680750355 -0.0053329215532938743 0 0.0013739610115797755 -0.0053770696230090627 0 0.0013522363375496273 -0.005248592340488736 0 0.0012325596237446014 -0.0051410714377904043 0 0.0013972010979335851 -0.0052717639891899631 0 0.001432409705574016 -0.0052916150224521603 0 0.0015363595855672082 -0.0052165871548568521 0 0.0015745349565056128 -0.0052705402833814648 0 0.0014627419883225185 -0.0051514386819268808 0 0.001432409705574016 -0.0052916150224521603 0 0.0015363595855672082 -0.0052165871548568521 0 0.0016352485534290328 -0.0051851082447826793 0 0.0015363595855672082 -0.0052165871548568521 0 0.0015745349565056128 -0.0052705402833814648 0 0.0023681142326138077 -0.0051489643000475439 0 0.0022936505525989613 -0.005104383508205964 0 0.0024769873868876425 -0.0050843941616928292 0 0.0023681142326138077 -0.0051489643000475439 0 0.0022936505525989613 -0.005104383508205964 0 0.0022479655635755103 -0.0051933575371437514 0 0.0023922147975081339 -0.0049999611210986457 0 0.0022936505525989613 -0.005104383508205964 0 0.0024769873868876425 -0.0050843941616928292 0 0.0023922147975081339 -0.0049999611210986457 0 0.0021402800993626458 -0.0049999789840064444 0 0.0021751451079974611 -0.0050271771208826952 0 0.0023922147975081339 -0.0049999611210986457 0 0.0022936505525989613 -0.005104383508205964 0 0.0021751451079974611 -0.0050271771208826952 0 0.0022936505525989613 -0.005104383508205964 0 0.0021751451079974611 -0.0050271771208826952 0 0.0021865133150243614 -0.0051727460224912265 0 0.0022936505525989613 -0.005104383508205964 0 0.0021865133150243614 -0.0051727460224912265 0 0.0022479655635755103 -0.0051933575371437514 0 0.0021751451079974611 -0.0050271771208826952 0 0.0020661492707254132 -0.0050953022061624486 0 0.0020349493680771576 -0.00521399444446602 0 0.0020661492707254132 -0.0050953022061624486 0 0.0019816947430545645 -0.0051580810549192169 0 0.0020349493680771576 -0.00521399444446602 0 0.0021655312724678084 -0.0050279880075360713 0 0.0021104835082049246 -0.0051862319768181363 0 0.0021402800993626458 -0.0049999789840064444 0 0.0021751451079974611 -0.0050271771208826952 0 0.0020661492707254132 -0.0050953022061624486 0 0.0021402800993626458 -0.0049999789840064444 0 0.0020661492707254132 -0.0050953022061624486 0 0.0019819857469987831 -0.005080262048491057 0 0.0020661492707254132 -0.0050953022061624486 0 0.0019819857469987831 -0.005080262048491057 0 0.0019816947430545645 -0.0051580810549192169 0 0.0018807256641423745 -0.005177521921480229 0 0.0018884468851905914 -0.004999993125654795 0 0.0019819857469987831 -0.005080262048491057 0 0.0021402800993626458 -0.0049999789840064444 0 0.0018884468851905914 -0.004999993125654795 0 0.0019819857469987831 -0.005080262048491057 0 0.0018807256641423745 -0.005177521921480229 0 0.0019816947430545645 -0.0051580810549192169 0 0.0019370038008185739 -0.0052420214564780718 0 0.0018807256641423745 -0.005177521921480229 0 0.0019819857469987831 -0.005080262048491057 0 0.0019816947430545645 -0.0051580810549192169 0 0.0018807256641423745 -0.005177521921480229 0 0.0018519559314017586 -0.0052726189618654083 0 0.0019370038008185739 -0.0052420214564780718 0 0.0018519559314017586 -0.0052726189618654083 0 0.0019068264342589111 -0.0052831690592740708 0 0.0018796118621045401 -0.0053102494804360967 0 0.0018519559314017586 -0.0052726189618654083 0 0.0019370038008185739 -0.0052420214564780718 0 0.0019068264342589111 -0.0052831690592740708 0 0.0019370038008185739 -0.0052420214564780718 0 0.0019068264342589111 -0.0052831690592740708 0 0.0019473552017973269 -0.0053057989792029492 0 0.0019068264342589111 -0.0052831690592740708 0 0.0019473552017973269 -0.0053057989792029492 0 0.0018796118621045401 -0.0053102494804360967 0 0.0019370038008185739 -0.0052420214564780718 0 0.0019473552017973269 -0.0053057989792029492 0 0.0020349493680771576 -0.00521399444446602 0 0.0019816947430545645 -0.0051580810549192169 0 0.0019370038008185739 -0.0052420214564780718 0 0.0020349493680771576 -0.00521399444446602 0 0.0020117908352812355 -0.0052861647532713892 0 0.0021104835082049246 -0.0051862319768181363 0 0.0020860180264974499 -0.0052572031005943031 0 0.0021865133150243614 -0.0051727460224912265 0 0.0022479655635755103 -0.0051933575371437514 0 0.0020860180264974499 -0.0052572031005943031 0 0.0022479655635755103 -0.0051933575371437514 0 0.0023021403929810269 -0.0052316409122053088 0 0.0020860180264974499 -0.0052572031005943031 0 0.0023021403929810269 -0.0052316409122053088 0 0.00209452657536935 -0.0052936278655834057 0 0.0023681142326138077 -0.0051489643000475439 0 0.0022479655635755103 -0.0051933575371437514 0 0.0023021403929810269 -0.0052316409122053088 0 0.0021875501894199861 -0.0053452221322269214 0 0.0019942254920646036 -0.0053632294719501827 0 0.0021616058557447789 -0.0054204612035999708 0 0.0021875501894199861 -0.0053452221322269214 0 0.0019942254920646036 -0.0053632294719501827 0 0.00209452657536935 -0.0052936278655834057 0 0.0023021403929810269 -0.0052316409122053088 0 0.00209452657536935 -0.0052936278655834057 0 0.0022545377515184799 -0.0052882710102774887 0 0.0021875501894199861 -0.0053452221322269214 0 0.00209452657536935 -0.0052936278655834057 0 0.0022545377515184799 -0.0052882710102774887 0 0.0020860180264974499 -0.0052572031005943031 0 0.00209452657536935 -0.0052936278655834057 0 0.0018935071739263015 -0.0053380858185917632 0 0.0019942254920646036 -0.0053632294719501827 0 0.00209452657536935 -0.0052936278655834057 0 0.0018935071739263015 -0.0053380858185917632 0 0.0018935071739263015 -0.0053380858185917632 0 0.0018703540453741238 -0.0053373434464456413 0 0.0018390593326156805 -0.0053178996056081947 0 0.0019473552017973269 -0.0053057989792029492 0 0.0018935071739263015 -0.0053380858185917632 0 0.0018703540453741238 -0.0053373434464456413 0 0.0019473552017973269 -0.0053057989792029492 0 0.0018796118621045401 -0.0053102494804360967 0 0.0018703540453741238 -0.0053373434464456413 0 0.0020117908352812355 -0.0052861647532713892 0 0.0019134082338799284 -0.0053422240185138385 0 0.0018796118621045401 -0.0053102494804360967 0 0.0018703540453741238 -0.0053373434464456413 0 0.001804541338915167 -0.0053533703199726782 0 0.0018703540453741238 -0.0053373434464456413 0 0.0018422749798034509 -0.005335903421378351 0 0.001804541338915167 -0.0053533703199726782 0 0.0018703540453741238 -0.0053373434464456413 0 0.0018422749798034509 -0.005335903421378351 0 0.0018390593326156805 -0.0053178996056081947 0 0.0018422749798034509 -0.005335903421378351 0 0.0018389130361699821 -0.0052656089734319459 0 0.0018529874871816823 -0.0053066869877216533 0 0.0018422749798034509 -0.005335903421378351 0 0.0018389130361699821 -0.0052656089734319459 0 0.0018390593326156805 -0.0053178996056081947 0 0.0018389130361699821 -0.0052656089734319459 0 0.0019095541147233211 -0.0052205369956965352 0 0.0017968106138798222 -0.0050893852678823423 0 0.0018389130361699821 -0.0052656089734319459 0 0.00176786031522747 -0.0052038953308756195 0 0.0017968106138798222 -0.0050893852678823423 0 0.00176786031522747 -0.0052038953308756195 0 0.0016803674098984881 -0.0051516061029871366 0 0.0016511923150429348 -0.0049953781448831289 0 0.0018389130361699821 -0.0052656089734319459 0 0.00176786031522747 -0.0052038953308756195 0 0.0018390593326156805 -0.0053178996056081947 0 0.0018935071739263015 -0.0053380858185917632 0 0.0018390593326156805 -0.0053178996056081947 0 0.0017995978725446483 -0.0052923096269077447 0 0.00176786031522747 -0.0052038953308756195 0 0.0018390593326156805 -0.0053178996056081947 0 0.0017995978725446483 -0.0052923096269077447 0 0.0019942254920646036 -0.0053632294719501827 0 0.0018935071739263015 -0.0053380858185917632 0 0.0017995978725446483 -0.0052923096269077447 0 0.0019942254920646036 -0.0053632294719501827 0 0.0017995978725446483 -0.0052923096269077447 0 0.0015781693596978266 -0.0051926557734431342 0 0.00176786031522747 -0.0052038953308756195 0 0.0017995978725446483 -0.0052923096269077447 0 0.0016803674098984881 -0.0051516061029871366 0 0.0016803674098984881 -0.0051516061029871366 0 0.0015781693596978266 -0.0051926557734431342 0 0.0015665139296101439 -0.0050199630696556091 0 0.0017995978725446483 -0.0052923096269077447 0 0.0016803674098984881 -0.0051516061029871366 0 0.0015781693596978266 -0.0051926557734431342 0 0.002168027535198598 -0.0054472867370347969 0 0.0021697257085018205 -0.0053629347893863798 0 0.0021588342260398805 -0.0054354918738005404 0 0.002168027535198598 -0.0054472867370347969 0 0.0021616058557447789 -0.0054204612035999708 0 0.0021588342260398805 -0.0054354918738005404 0 0.0019672466456413687 -0.005346781692011496 0 0.0018816156856656064 -0.0052681068838431435 0 0.0019942254920646036 -0.0053632294719501827 0 0.002168027535198598 -0.0054472867370347969 0 0.0021616058557447789 -0.0054204612035999708 0 0.0015273890534574736 -0.0055589742111315154 0 0.0015544428791011377 -0.0054527634836902331 0 0.0015871857391795748 -0.0056420462604381818 0 0.0015544428791011377 -0.0054527634836902331 0 0.001653714179404795 -0.0054066401726731552 0 0.0017464764163785268 -0.0053885491888233331 0 0.0015665000531998557 -0.005423068483412786 0 0.0016732285497645159 -0.0055301460917441215 0 0.0015544428791011377 -0.0054527634836902331 0 0.0017464764163785268 -0.0053885491888233331 0 0.0017924221008777104 -0.0053633558093433079 0 0.0015273890534574736 -0.0055589742111315154 0 0.0014529290815861302 -0.0054955514334224754 0 0.0015048207105721858 -0.0056298287520832871 0 0.0013709962510678765 -0.0056136116247318488 0 0.0014529290815861302 -0.0054955514334224754 0 0.0014398354444981707 -0.005758492137468557 0 0.0014520064156491935 -0.0054809859375668608 0 0.0014842640595313346 -0.0057487707280955919 0 0.0012921281518738178 -0.0056592658074608579 0 0.0013709962510678765 -0.0056136116247318488 0 0.0014398354444981707 -0.005758492137468557 0 0.0013011617625924541 -0.0055384659256230021 0 0.0013709962510678765 -0.0056136116247318488 0 0.0014529290815861302 -0.0054955514334224754 0 0.0012921281518738178 -0.0056592658074608579 0 0.0013011617625924541 -0.0055384659256230021 0 0.0013709962510678765 -0.0056136116247318488 0 0.0015273890534574736 -0.0055589742111315154 0 0.0014529290815861302 -0.0054955514334224754 0 0.0015544428791011377 -0.0054527634836902331 0 0.0014529290815861302 -0.0054955514334224754 0 0.001362749412996367 -0.0054560280388137854 0 0.0014634850947229398 -0.0054317984688958612 0 0.0014529290815861302 -0.0054955514334224754 0 0.0014634850947229398 -0.0054317984688958612 0 0.0015544428791011377 -0.0054527634836902331 0 0.0013011617625924541 -0.0055384659256230021 0 0.0014529290815861302 -0.0054955514334224754 0 0.001362749412996367 -0.0054560280388137854 0 0.0012384603116519731 -0.0054467333191873472 0 0.0013739610115797755 -0.0053770696230090627 0 0.001362749412996367 -0.0054560280388137854 0 0.0013739610115797755 -0.0053770696230090627 0 0.001362749412996367 -0.0054560280388137854 0 0.0014634850947229398 -0.0054317984688958612 0 0.0013739610115797755 -0.0053770696230090627 0 0.0014634850947229398 -0.0054317984688958612 0 0.0015685550163334727 -0.0053890306900868951 0 0.0014634850947229398 -0.0054317984688958612 0 0.0015685550163334727 -0.0053890306900868951 0 0.0015544428791011377 -0.0054527634836902331 0 0.0015685550163334727 -0.0053890306900868951 0 0.0015544428791011377 -0.0054527634836902331 0 0.001653714179404795 -0.0054066401726731552 0 0.0015956163340170762 -0.0053324234186613523 0 0.0015685550163334727 -0.0053890306900868951 0 0.0016450905734168549 -0.0053762655643645975 0 0.0015685550163334727 -0.0053890306900868951 0 0.001653714179404795 -0.0054066401726731552 0 0.0016450905734168549 -0.0053762655643645975 0 0.0016450905734168549 -0.0053762655643645975 0 0.0016883825475427414 -0.0053513768853424926 0 0.0017277795774329658 -0.0053845468530932823 0 0.0016883825475427414 -0.0053513768853424926 0 0.0017277795774329658 -0.0053845468530932823 0 0.0017499091630602493 -0.0053478778476560695 0 0.001653714179404795 -0.0054066401726731552 0 0.0016450905734168549 -0.0053762655643645975 0 0.0017277795774329658 -0.0053845468530932823 0 0.0017740003523279478 -0.0053097057313929389 0 0.001804541338915167 -0.0053533703199726782 0 0.0017499091630602493 -0.0053478778476560695 0 0.0017277795774329658 -0.0053845468530932823 0 0.001804541338915167 -0.0053533703199726782 0 0.0017499091630602493 -0.0053478778476560695 0 0.0018149888218358971 -0.0052931355847016595 0 0.0018042936441287226 -0.0053543007969832287 0 0.0018519559314017586 -0.0052726189618654083 0 0.0018796118621045401 -0.0053102494804360967 0 0.001804541338915167 -0.0053533703199726782 0 0.0017277795774329658 -0.0053845468530932823 0 0.001804541338915167 -0.0053533703199726782 0 0.001807770945398194 -0.0053561239297425962 0 0.0018422749798034509 -0.005335903421378351 0 0.001804541338915167 -0.0053533703199726782 0 0.001807770945398194 -0.0053561239297425962 0 0.0017277795774329658 -0.0053845468530932823 0 0.001807770945398194 -0.0053561239297425962 0 0.0017464764163785268 -0.0053885491888233331 0 0.001653714179404795 -0.0054066401726731552 0 0.0017277795774329658 -0.0053845468530932823 0 0.0017464764163785268 -0.0053885491888233331 0 0.001807770945398194 -0.0053561239297425962 0 0.0017464764163785268 -0.0053885491888233331 0 0.0018367424668552384 -0.0053207141830871165 0 0.0017464764163785268 -0.0053885491888233331 0 0.0018367424668552384 -0.0053207141830871165 0 0.0017924221008777104 -0.0053633558093433079 0 0.0018422749798034509 -0.005335903421378351 0 0.001807770945398194 -0.0053561239297425962 0 0.0018529874871816823 -0.0053066869877216533 0 0.001807770945398194 -0.0053561239297425962 0 0.0018367424668552384 -0.0053207141830871165 0 0.0018529874871816823 -0.0053066869877216533 0 0.0018367424668552384 -0.0053207141830871165 0 0.0018529874871816823 -0.0053066869877216533 0 0.0019095541147233211 -0.0052205369956965352 0 0.0018367424668552384 -0.0053207141830871165 0 0.0019095541147233211 -0.0052205369956965352 0 0.0018663156482394167 -0.0052805198842616474 0 0.0020039992450683625 -0.0051985182985604724 0 0.0018210405633984571 -0.0053349454808507011 0 0.0018389130361699821 -0.0052656089734319459 0 0.0018529874871816823 -0.0053066869877216533 0 0.0019095541147233211 -0.0052205369956965352 0 0.0018367424668552384 -0.0053207141830871165 0 0.0017924221008777104 -0.0053633558093433079 0 0.0018663156482394167 -0.0052805198842616474 0 0.00156512039850088 -0.0056976221839610368 0 0.0015871857391795748 -0.0056420462604381818 0 0.0016235475154331297 -0.0057342931007244797 0 0.0016732285497645159 -0.0055301460917441215 0 0.0018210405633984571 -0.0053349454808507011 0 0.00156512039850088 -0.0056976221839610368 0 0.0015048207105721858 -0.0056298287520832871 0 0.0015198146860811276 -0.0057211840171332703 0 0.00156512039850088 -0.0056976221839610368 0 0.0015750552019928314 -0.0057488987043836006 0 0.0016235475154331297 -0.0057342931007244797 0 0.00156512039850088 -0.0056976221839610368 0 0.0015198146860811276 -0.0057211840171332703 0 0.0015750552019928314 -0.0057488987043836006 0 0.0015273890534574736 -0.0055589742111315154 0 0.0015871857391795748 -0.0056420462604381818 0 0.0015048207105721858 -0.0056298287520832871 0 0.00156512039850088 -0.0056976221839610368 0 0.0015871857391795748 -0.0056420462604381818 0 0.0015048207105721858 -0.0056298287520832871 0 0.0013066141393159923 -0.005783701360413394 0 0.0012921281518738178 -0.0056592658074608579 0 0.0014398354444981707 -0.005758492137468557 0 0.0013066141393159923 -0.005783701360413394 0 0.0013167538899983061 -0.005898288398824226 0 0.0014398354444981707 -0.005758492137468557 0 0.0013167538899983061 -0.005898288398824226 0 0.0014398354444981707 -0.005758492137468557 0 0.001446840447099178 -0.0059748694368933946 0 0.0014842640595313346 -0.0057487707280955919 0 0.001359339901228616 -0.0055702549342388262 0 0.0012402196217614655 -0.0056045670953836918 0 0.001359339901228616 -0.0055702549342388262 0 0.0011216760678527792 -0.0052870556881024263 0 0.0010542989341928918 -0.005243576351634238 0 0.0011115976280430069 -0.0052189187506180394 0 0.0011115976280430069 -0.0052189187506180394 0 0.0010499600520609367 -0.0051786511858593213 0 0.0011581360503654923 -0.0051463182331545239 0 0.0010326882934566608 -0.0043968980904349007 0 0.0010869276147749385 -0.0043252491742035342 0 0.0011695102472591998 -0.0043572630756762518 0 0.0012261194132255657 -0.0048376181982953325 0 0.00096818446296445234 -0.00483611164002165 0 0.0010542989341928918 -0.005243576351634238 0 0.0011115976280430069 -0.0052189187506180394 0 0.0010499600520609367 -0.0051786511858593213 0 0.001359339901228616 -0.0055702549342388262 0 0.0012261194132255657 -0.0048376181982953325 0 0.0010326882934566608 -0.0043968980904349007 0 0.0010271142095085591 -0.0042609834030462417 0 0.0010869276147749385 -0.0043252491742035342 0 0.0010271142095085591 -0.0042609834030462417 0 0.0010869276147749385 -0.0043252491742035342 0 0.0011514724260340398 -0.0042628611442355651 0 0.0012261194132255657 -0.0048376181982953325 0 0.0013802122053585587 -0.0044021613918090981 0 0.0014713081664526556 -0.0047314103139184261 0 0.0014771842125057403 -0.0048143779457182571 0 0.0015074795722825475 -0.0047664137551409582 0 0.0014771842125057403 -0.0048143779457182571 0 0.0015074795722825475 -0.0047664137551409582 0 0.0015498000203485647 -0.0048033137800415505 0 0.0013802122053585587 -0.0044021613918090981 0 0.0015537196547235925 -0.0046461478924640538 0 0.0015074795722825475 -0.0047664137551409582 0 0.0015263656767218752 -0.004716469380581706 0 0.0015498000203485647 -0.0048033137800415505 0 0.0012261194132255657 -0.0048376181982953325 0 0.0015298334999823715 -0.0051635834327419363 0 0.0014713081664526556 -0.0047314103139184261 0 0.0015074795722825475 -0.0047664137551409582 0 0.0015263656767218752 -0.004716469380581706 0 0.0013851843583422394 -0.0052302498857365355 0 0.0013817922409874788 -0.0051772060953766156 0 0.0013278461180584401 -0.0051929582870932104 0 0.001359339901228616 -0.0055702549342388262 0 0.0015298334999823715 -0.0051635834327419363 0 0.0017221729131960343 -0.0051072830936633234 0 0.0017093706079743434 -0.0051108987660572454 0 0.001702667599153305 -0.0050920869075235468 0 0.0018210405633984571 -0.0053349454808507011 0 0.0017917982589340524 -0.0048770046861126536 0 0.0015298334999823715 -0.0051635834327419363 0 0.0018210405633984571 -0.0053349454808507011 0 0.0015298334999823715 -0.0051635834327419363 0 0.0017917982589340524 -0.0048770046861126536 0 0.0022241706771478523 -0.0051302665898717422 0 0.0019890010982427054 -0.0050161489642918528 0 0.0021019486250993679 -0.0048688884163806461 0 0.0019095541147233211 -0.0052205369956965352 0 0.0022241706771478523 -0.0051302665898717422 0 0.0019890010982427054 -0.0050161489642918528 0 0.0019095541147233211 -0.0052205369956965352 0 0.0019890010982427054 -0.0050161489642918528 0 0.0017968106138798222 -0.0050893852678823423 0 0.0016169852417186458 -0.0045329804377307716 0 0.0016159143582642921 -0.0045311117646795393 0 0.0016902922282396025 -0.0048032681196695385 0 0.0019890010982427054 -0.0050161489642918528 0 0.0020656374337025643 -0.0048482710691549738 0 0.0016902922282396025 -0.0048032681196695385 0 0.0020656374337025643 -0.0048482710691549738 0 0.0020632332947731567 -0.0047935892253491465 0 0.0016902922282396025 -0.0048032681196695385 0 0.0019890010982427054 -0.0050161489642918528 0 0.0021019486250993679 -0.0048688884163806461 0 0.0020656374337025643 -0.0048482710691549738 0 0.0017917982589340524 -0.0048770046861126536 0 0.001844980419019868 -0.0048962896836312131 0 0.0017917982589340524 -0.0048770046861126536 0 0.0017345527155111207 -0.0047051740304540311 0 0.0020947313782993891 -0.0048665922965376984 0 0.0020656374337025643 -0.0048482710691549738 0 0.0020632332947731567 -0.0047935892253491465 0 0.0016027598457903766 -0.0045103661738209906 0 0.0016159143582642921 -0.0045311117646795393 0 0.0015703368107379829 -0.0044901615339577334 0 0.0017345527155111207 -0.0047051740304540311 0 0.0016774564832601627 -0.0045952600762038552 0 0.0016139444281119983 -0.0047677219102938498 0 0.0016244209199248309 -0.0047907544854578592 0 0.0015498000203485647 -0.0048033137800415505 0 0.0017345527155111207 -0.0047051740304540311 0 0.0015537196547235925 -0.0046461478924640538 0 0.0015263656767218752 -0.004716469380581706 0 0.0016139444281119983 -0.0047677219102938498 0 0.0015498000203485647 -0.0048033137800415505 0 0.0016027598457903766 -0.0045103661738209906 0 0.001559684228080778 -0.0044796029163506213 0 0.0015703368107379829 -0.0044901615339577334 0 0.001559684228080778 -0.0044796029163506213 0 0.0015703368107379829 -0.0044901615339577334 0 0.0015560816266994007 -0.0044616062643522804 0 0.0015703368107379829 -0.0044901615339577334 0 0.0015599069344420439 -0.0044625470649512474 0 0.0015887032543212838 -0.0045040336482394215 0 0.0015703368107379829 -0.0044901615339577334 0 0.0015424617330810845 -0.0044369092057427425 0 0.0015560816266994007 -0.0044616062643522804 0 0.0015703368107379829 -0.0044901615339577334 0 0.0015599069344420439 -0.0044625470649512474 0 0.0015424617330810845 -0.0044369092057427425 0 0.0016159143582642921 -0.0045311117646795393 0 0.0016055698965498201 -0.0045267627092981447 0 0.0016267374346036478 -0.0045750011710896567 0 0.0016055698965498201 -0.0045267627092981447 0 0.0016026056107287731 -0.0045218786589368383 0 0.0016267374346036478 -0.0045750011710896567 0 0.0016159143582642921 -0.0045311117646795393 0 0.0016055698965498201 -0.0045267627092981447 0 0.0015887032543212838 -0.0045040336482394215 0 0.0016159143582642921 -0.0045311117646795393 0 0.0015703368107379829 -0.0044901615339577334 0 0.0015887032543212838 -0.0045040336482394215 0 0.0016055698965498201 -0.0045267627092981447 0 0.0015887032543212838 -0.0045040336482394215 0 0.0015814295668794653 -0.0044855482873166182 0 0.0015599069344420439 -0.0044625470649512474 0 0.0015887032543212838 -0.0045040336482394215 0 0.0015814295668794653 -0.0044855482873166182 0 0.0015814295668794653 -0.0044855482873166182 0 0.0016026056107287731 -0.0045218786589368383 0 0.0015912769402959439 -0.0045014419378514286 0 0.0016055698965498201 -0.0045267627092981447 0 0.0015814295668794653 -0.0044855482873166182 0 0.0016026056107287731 -0.0045218786589368383 0 0.0015814295668794653 -0.0044855482873166182 0 0.0015357802431085863 -0.0044101151590630718 0 0.0015592067594869961 -0.0044340125149813208 0 0.0015357802431085863 -0.0044101151590630718 0 0.0015592067594869961 -0.0044340125149813208 0 0.0015277747907827207 -0.004380693445018226 0 0.0015814295668794653 -0.0044855482873166182 0 0.0015912769402959439 -0.0045014419378514286 0 0.0015592067594869961 -0.0044340125149813208 0 0.0015599069344420439 -0.0044625470649512474 0 0.0015814295668794653 -0.0044855482873166182 0 0.0015357802431085863 -0.0044101151590630718 0 0.0015357802431085863 -0.0044101151590630718 0 0.0015424617330810845 -0.0044369092057427425 0 0.0014883693580120397 -0.0043496216195450486 0 0.0015599069344420439 -0.0044625470649512474 0 0.0015357802431085863 -0.0044101151590630718 0 0.0015424617330810845 -0.0044369092057427425 0 0.0015424617330810845 -0.0044369092057427425 0 0.0015560416239176708 -0.0044137601412418221 0 0.0014883693580120397 -0.0043496216195450486 0 0.0015424617330810845 -0.0044369092057427425 0 0.0015560416239176708 -0.0044137601412418221 0 0.0015560816266994007 -0.0044616062643522804 0 0.0014083412528536133 -0.0042127443806195689 0 0.0013629239691673361 -0.0042147298431689335 0 0.0013598064485729885 -0.0042440228210670833 0 0.0013629239691673361 -0.0042147298431689335 0 0.0013598064485729885 -0.0042440228210670833 0 0.0013324106171839498 -0.0042270229366462592 0 0.0014083412528536133 -0.0042127443806195689 0 0.0013629239691673361 -0.0042147298431689335 0 0.0013670662290146431 -0.0041788262903547282 0 0.0010271142095085591 -0.0042609834030462417 0 0.0011514724260340398 -0.0042628611442355651 0 0.0011632783017201313 -0.0042326138074657823 0 0.0013802122053585587 -0.0044021613918090981 0 0.0012144482894037223 -0.0041885389780776999 0 0.0013976755783235322 -0.004153797728157058 0 0.0013670662290146431 -0.0041788262903547282 0 0.0013269759261077283 -0.0041680231255216641 0 0.0013976755783235322 -0.004153797728157058 0 0.0014083412528536133 -0.0042127443806195689 0 0.0013670662290146431 -0.0041788262903547282 0 0.0013629239691673361 -0.0042147298431689335 0 0.0013670662290146431 -0.0041788262903547282 0 0.0013397771718038646 -0.0042036739960406187 0 0.0015756282013609051 -0.0044751153736604541 0 0.0015560416239176708 -0.0044137601412418221 0 0.0015560816266994007 -0.0044616062643522804 0 0.0015756282013609051 -0.0044751153736604541 0 0.001559684228080778 -0.0044796029163506213 0 0.0015560816266994007 -0.0044616062643522804 0 0.0013802122053585587 -0.0044021613918090981 0 0.0014844317351208477 -0.0042996977429662813 0 0.0021782265024370539 -0.0052219755965170296 0 0.002231987944844287 -0.0052903482963890117 0 0.0022175551230829739 -0.0049876375998386298 0 0.0017896581184541087 -0.0051932458693102757 0 0.002170270746181379 -0.0041757924760705539 0 0.0014612189424251388 -0.0047611276148719324 0 0.0013978907087254955 -0.0048686583610666086 0 0.001417398407760731 -0.0046553794239595674 0 0.0021782265024370539 -0.0052219755965170296 0 0.002177462428905365 -0.0050904489713038247 0 0.002142579682158691 -0.0052569699155911257 0 0.0030542109742478472 -0.0039590398501428148 0 0.0038921987070858859 -0.0041748814689841988 0 0.0042469936404495659 -0.002876056012389553 0 0.0042638461690912427 -0.002851026767936974 0 0.0042349563934002514 -0.0029602292107492735 0 0.0014612189424251388 -0.0047611276148719324 0 0.0013978907087254955 -0.0048686583610666086 0 0.00150110883797827 -0.0048759617229372975 0 0.0021782265024370539 -0.0052219755965170296 0 0.002231987944844287 -0.0052903482963890117 0 0.0021789569566077879 -0.0053072226498940408 0 0.0021782265024370539 -0.0052219755965170296 0 0.0021789569566077879 -0.0053072226498940408 0 0.002142579682158691 -0.0052569699155911257 0 0.0021789569566077879 -0.0053072226498940408 0 0.0021697257085018205 -0.0053629347893863798 0 0.002142579682158691 -0.0052569699155911257 0 0.002231987944844287 -0.0052903482963890117 0 0.0021789569566077879 -0.0053072226498940408 0 0.0021697257085018205 -0.0053629347893863798 0 0.002168027535198598 -0.0054472867370347969 0 0.002231987944844287 -0.0052903482963890117 0 0.0021697257085018205 -0.0053629347893863798 0 0.0015781693596978266 -0.0051926557734431342 0 0.0013978907087254955 -0.0048686583610666086 0 0.0015665139296101439 -0.0050199630696556091 0 0.0018816156856656064 -0.0052681068838431435 0 0.0017896581184541087 -0.0051932458693102757 0 0.0013978907087254955 -0.0048686583610666086 0 0.0015665139296101439 -0.0050199630696556091 0 0.00150110883797827 -0.0048759617229372975 0 0.0016803674098984881 -0.0051516061029871366 0 0.0015665139296101439 -0.0050199630696556091 0 0.0016511923150429348 -0.0049953781448831289 0 0.0015665139296101439 -0.0050199630696556091 0 0.00150110883797827 -0.0048759617229372975 0 0.0016511923150429348 -0.0049953781448831289 0 0.0014827939691545702 -0.0049363539571228689 0 0.0015223826511456826 -0.0043846918407047233 0 0.0014612189424251388 -0.0047611276148719324 0 0.00150110883797827 -0.0048759617229372975 0 0.0015277993834041941 -0.0046431062493942302 0 0.00150110883797827 -0.0048759617229372975 0 0.0015080547214120746 -0.0047323828169723138 0 0.0014221964558728344 -0.00462543323295564 0 0.00150110883797827 -0.0048759617229372975 0 0.0015850767780918734 -0.0047953489171878722 0 0.0016511923150429348 -0.0049953781448831289 0 0.00150110883797827 -0.0048759617229372975 0 0.0015080547214120746 -0.0047323828169723138 0 0.0015850767780918734 -0.0047953489171878722 0 0.0015080547214120746 -0.0047323828169723138 0 0.001539287764798516 -0.0046899345753163776 0 0.0014773860995332445 -0.0046515552961140212 0 0.0015080547214120746 -0.0047323828169723138 0 0.001539287764798516 -0.0046899345753163776 0 0.0015850767780918734 -0.0047953489171878722 0 0.0016902922282396025 -0.0048032681196695385 0 0.0016276119485214675 -0.0046360279191806015 0 0.0015868541820513377 -0.004631353550554035 0 0.0016902922282396025 -0.0048032681196695385 0 0.0015850767780918734 -0.0047953489171878722 0 0.0015868541820513377 -0.004631353550554035 0 0.001539287764798516 -0.0046899345753163776 0 0.0015850767780918734 -0.0047953489171878722 0 0.0015868541820513377 -0.004631353550554035 0 0.0016902922282396025 -0.0048032681196695385 0 0.0015850767780918734 -0.0047953489171878722 0 0.0016511923150429348 -0.0049953781448831289 0 0.00176786031522747 -0.0052038953308756195 0 0.0016511923150429348 -0.0049953781448831289 0 0.0017968106138798222 -0.0050893852678823423 0 0.0016902922282396025 -0.0048032681196695385 0 0.0016511923150429348 -0.0049953781448831289 0 0.0017968106138798222 -0.0050893852678823423 0 0.0019890010982427054 -0.0050161489642918528 0 0.0016902922282396025 -0.0048032681196695385 0 0.0017968106138798222 -0.0050893852678823423 0 0.0016159143582642921 -0.0045311117646795393 0 0.0016902922282396025 -0.0048032681196695385 0 0.0016267374346036478 -0.0045750011710896567 0 0.0016902922282396025 -0.0048032681196695385 0 0.0016267374346036478 -0.0045750011710896567 0 0.0016276119485214675 -0.0046360279191806015 0 0.0017345527155111207 -0.0047051740304540311 0 0.0017203220210826227 -0.0047743968851832238 0 0.0016267374346036478 -0.0045750011710896567 0 0.0016276119485214675 -0.0046360279191806015 0 0.0015999893409753996 -0.0045510292635305375 0 0.0015999893409753996 -0.0045510292635305375 0 0.0015912769402959439 -0.0045014419378514286 0 0.0015703701944999751 -0.0044764279645552333 0 0.0015999893409753996 -0.0045510292635305375 0 0.0015703701944999751 -0.0044764279645552333 0 0.0015671680671429985 -0.0045281133150056208 0 0.0016026056107287731 -0.0045218786589368383 0 0.0016267374346036478 -0.0045750011710896567 0 0.0015912769402959439 -0.0045014419378514286 0 0.0016267374346036478 -0.0045750011710896567 0 0.0015999893409753996 -0.0045510292635305375 0 0.0015912769402959439 -0.0045014419378514286 0 0.0015912769402959439 -0.0045014419378514286 0 0.0015592067594869961 -0.0044340125149813208 0 0.0015703701944999751 -0.0044764279645552333 0 0.0015592067594869961 -0.0044340125149813208 0 0.0015450495909554763 -0.0044172733908967605 0 0.0015703701944999751 -0.0044764279645552333 0 0.0015369830557516557 -0.004462689612682565 0 0.0015320915379354841 -0.0045386415366278372 0 0.0015671680671429985 -0.0045281133150056208 0 0.0015703701944999751 -0.0044764279645552333 0 0.0015369830557516557 -0.004462689612682565 0 0.0015671680671429985 -0.0045281133150056208 0 0.0015450495909554763 -0.0044172733908967605 0 0.0015369830557516557 -0.004462689612682565 0 0.0015210482786400877 -0.0044014704376351688 0 0.0015450495909554763 -0.0044172733908967605 0 0.0015703701944999751 -0.0044764279645552333 0 0.0015369830557516557 -0.004462689612682565 0 0.0015369830557516557 -0.004462689612682565 0 0.0014991898209607479 -0.0044199339727053876 0 0.0014968128706038775 -0.0044847498205306795 0 0.0015369830557516557 -0.004462689612682565 0 0.0014991898209607479 -0.0044199339727053876 0 0.0015210482786400877 -0.0044014704376351688 0 0.0015369830557516557 -0.004462689612682565 0 0.0015320915379354841 -0.0045386415366278372 0 0.0014968128706038775 -0.0044847498205306795 0 0.0015320915379354841 -0.0045386415366278372 0 0.0015868541820513377 -0.004631353550554035 0 0.0015180034706677023 -0.0046122678573277415 0 0.0015999893409753996 -0.0045510292635305375 0 0.0015671680671429985 -0.0045281133150056208 0 0.0015868541820513377 -0.004631353550554035 0 0.0015320915379354841 -0.0045386415366278372 0 0.0015671680671429985 -0.0045281133150056208 0 0.0015868541820513377 -0.004631353550554035 0 0.0016276119485214675 -0.0046360279191806015 0 0.0015999893409753996 -0.0045510292635305375 0 0.0015868541820513377 -0.004631353550554035 0 0.001539287764798516 -0.0046899345753163776 0 0.0015868541820513377 -0.004631353550554035 0 0.0015180034706677023 -0.0046122678573277415 0 0.0014761162085040311 -0.0046083787329668953 0 0.0015180034706677023 -0.0046122678573277415 0 0.0014773860995332445 -0.0046515552961140212 0 0.001539287764798516 -0.0046899345753163776 0 0.0015180034706677023 -0.0046122678573277415 0 0.0014773860995332445 -0.0046515552961140212 0 0.0015080547214120746 -0.0047323828169723138 0 0.0014773860995332445 -0.0046515552961140212 0 0.0014221964558728344 -0.00462543323295564 0 0.0014761162085040311 -0.0046083787329668953 0 0.0014773860995332445 -0.0046515552961140212 0 0.0014278380237540804 -0.0046152995435353892 0 0.0015316433453319695 -0.0044501200051829679 0 0.0015223826511456826 -0.0043846918407047233 0 0.0014761162085040311 -0.0046083787329668953 0 0.0014278380237540804 -0.0046152995435353892 0 0.0014758732627479835 -0.0045571241395633419 0 0.0015320915379354841 -0.0045386415366278372 0 0.0015180034706677023 -0.0046122678573277415 0 0.0014758732627479835 -0.0045571241395633419 0 0.0014761162085040311 -0.0046083787329668953 0 0.0015180034706677023 -0.0046122678573277415 0 0.0014758732627479835 -0.0045571241395633419 0 0.0015223826511456826 -0.0043846918407047233 0 0.0014987164141549453 -0.0041460603045625479 0 0.0015320915379354841 -0.0045386415366278372 0 0.0014758732627479835 -0.0045571241395633419 0 0.0014968128706038775 -0.0044847498205306795 0 0.0014278380237540804 -0.0046152995435353892 0 0.0014758732627479835 -0.0045571241395633419 0 0.0014438604180834207 -0.0043905459237038478 0 0.001573730805039738 -0.0038044676623928552 0 0.0016280509912770704 -0.0039477523515954399 0 0.0015493167787104186 -0.0039746289119750701 0 0.0014758732627479835 -0.0045571241395633419 0 0.0014968128706038775 -0.0044847498205306795 0 0.0014438604180834207 -0.0043905459237038478 0 0.0014991898209607479 -0.0044199339727053876 0 0.0014968128706038775 -0.0044847498205306795 0 0.0014438604180834207 -0.0043905459237038478 0 0.001573730805039738 -0.0038044676623928552 0 0.0016280509912770704 -0.0039477523515954399 0 0.001656531444207352 -0.0038439488697039992 0 0.0016787187726114638 -0.0038532308274293824 0 0.0017709239681364167 -0.0038045444683274142 0 0.0017525602215452275 -0.0036311238545637808 0 0.0016487463988088228 -0.0038873369929105896 0 0.0020102331499417844 -0.0039182131639352701 0 0.0016787187726114638 -0.0038532308274293824 0 0.0017709239681364167 -0.0038045444683274142 0 0.0017735812156697509 -0.0039169547031391401 0 0.0017878262835862434 -0.0036959651158326645 0 0.0020102331499417844 -0.0039182131639352701 0 0.0021782265024370539 -0.0052219755965170296 0 0.0022175551230829739 -0.0049876375998386298 0 0.002177462428905365 -0.0050904489713038247 0 0.0042622370746538372 -0.0027822258707061874 0 0.0042780051597110609 -0.0027738761542660489 0 0.0042347547593618714 -0.0027660015462696833 0 0.0013978907087254955 -0.0048686583610666086 0 0.0013644341029274921 -0.0045785365257218743 0 0.001417398407760731 -0.0046553794239595674 0 0.0013644341029274921 -0.0045785365257218743 0 0.0013620365004578742 -0.0045575333051119079 0 0.001417398407760731 -0.0046553794239595674 0 0.0042622370746538372 -0.0027822258707061874 0 0.0042501032728270976 -0.0027910989641919595 0 0.0042347547593618714 -0.0027660015462696833 0 0.0042622370746538372 -0.0027822258707061874 0 0.0042637745444617731 -0.0027991656983122797 0 0.0042501032728270976 -0.0027910989641919595 0 0.0042622370746538372 -0.0027822258707061874 0 0.0042637745444617731 -0.0027991656983122797 0 0.0042798126707991472 -0.0027865576962648147 0 0.0042637745444617731 -0.0027991656983122797 0 0.0042798126707991472 -0.0027865576962648147 0 0.0042640021596241397 -0.0028150639980625246 0 0.0042637745444617731 -0.0027991656983122797 0 0.0042501032728270976 -0.0027910989641919595 0 0.0042521311441567509 -0.0028087452498564273 0 0.0042501032728270976 -0.0027910989641919595 0 0.0042521311441567509 -0.0028087452498564273 0 0.0042410731913577228 -0.0028035326759283433 0 0.0042622370746538372 -0.0027822258707061874 0 0.0042798126707991472 -0.0027865576962648147 0 0.0042780051597110609 -0.0027738761542660489 0 0.002170270746181379 -0.0041757924760705539 0 0.0020102331499417844 -0.0039182131639352701 0 0.0015223826511456826 -0.0043846918407047233 0 0.0020102331499417844 -0.0039182131639352701 0 0.0015277993834041941 -0.0046431062493942302 0 0.0013620365004578742 -0.0045575333051119079 0 0.001417398407760731 -0.0046553794239595674 0 0.0014612189424251388 -0.0047611276148719324 0 0.0015277993834041941 -0.0046431062493942302 0 0.001417398407760731 -0.0046553794239595674 0 0.002170270746181379 -0.0041757924760705539 0 0.0030542109742478472 -0.0039590398501428148 0 0.0042798126707991472 -0.0027865576962648147 0 0.0042638461690912427 -0.002851026767936974 0 0.0042640021596241397 -0.0028150639980625246 0 0.0042469936404495659 -0.002876056012389553 0 0.0042455773270113845 -0.0028602383600368421 0 0.0042638461690912427 -0.002851026767936974 0 0.0042455773270113845 -0.0028602383600368421 0 0.0042638461690912427 -0.002851026767936974 0 0.0042402036569197136 -0.0028370214515759827 0 0.0042638461690912427 -0.002851026767936974 0 0.0042556008253381182 -0.0028290118498003705 0 0.0042640021596241397 -0.0028150639980625246 0 0.0042556008253381182 -0.0028290118498003705 0 0.0042397795402854908 -0.0028203403809705235 0 0.0042402036569197136 -0.0028370214515759827 0 0.0042638461690912427 -0.002851026767936974 0 0.0042556008253381182 -0.0028290118498003705 0 0.0042402036569197136 -0.0028370214515759827 0 0.0042521311441567509 -0.0028087452498564273 0 0.0042397795402854908 -0.0028203403809705235 0 0.0042410731913577228 -0.0028035326759283433 0 0.0042556008253381182 -0.0028290118498003705 0 0.0042521311441567509 -0.0028087452498564273 0 0.0042397795402854908 -0.0028203403809705235 0 0.0042556008253381182 -0.0028290118498003705 0 0.0042521311441567509 -0.0028087452498564273 0 0.0042640021596241397 -0.0028150639980625246 0 0.0042637745444617731 -0.0027991656983122797 0 0.0042521311441567509 -0.0028087452498564273 0 0.0042640021596241397 -0.0028150639980625246 0 0.0017006282961683757 -0.0041663708767898846 0 0.0016315667958512704 -0.0042318152213822761 0 0.0016913508173834002 -0.0042639547336284188 0 0.0017006282961683757 -0.0041663708767898846 0 0.0016913508173834002 -0.0042639547336284188 0 0.0017986588478038903 -0.0042103198827693174 0 0.0017006282961683757 -0.0041663708767898846 0 0.0016315667958512704 -0.0042318152213822761 0 0.0016072877735921135 -0.0040991850666293435 0 0.0017006282961683757 -0.0041663708767898846 0 0.0016072877735921135 -0.0040991850666293435 0 0.0017562831602268999 -0.0040548066249682718 0 0.0017006282961683757 -0.0041663708767898846 0 0.0017562831602268999 -0.0040548066249682718 0 0.0017986588478038903 -0.0042103198827693174 0 0.0016072877735921135 -0.0040991850666293435 0 0.0017562831602268999 -0.0040548066249682718 0 0.0017735812156697509 -0.0039169547031391401 0 0.0016787187726114638 -0.0038532308274293824 0 0.0016072877735921135 -0.0040991850666293435 0 0.0017735812156697509 -0.0039169547031391401 0 0.0016487463988088228 -0.0038873369929105896 0 0.0016092695472312683 -0.0040857259104419563 0 0.0016280509912770704 -0.0039477523515954399 0 0.0016072877735921135 -0.0040991850666293435 0 0.0015493167787104186 -0.0039746289119750701 0 0.0014991898209607479 -0.0044199339727053876 0 0.0014438604180834207 -0.0043905459237038478 0 0.0015055317688448366 -0.0043549326245966588 0 0.0016315667958512704 -0.0042318152213822761 0 0.0016072877735921135 -0.0040991850666293435 0 0.0015325638611879491 -0.0042709148926363249 0 0.0014987164141549453 -0.0041460603045625479 0 0.0015253997347236601 -0.0042876988384118256 0 0.0016072877735921135 -0.0040991850666293435 0 0.0015493167787104186 -0.0039746289119750701 0 0.0015325638611879491 -0.0042709148926363249 0 0.0014438604180834207 -0.0043905459237038478 0 0.0015055317688448366 -0.0043549326245966588 0 0.0015325638611879491 -0.0042709148926363249 0 0.0015173106067906637 -0.0043219724263229755 0 0.0015055317688448366 -0.0043549326245966588 0 0.0015325638611879491 -0.0042709148926363249 0 0.0014991898209607479 -0.0044199339727053876 0 0.0015055317688448366 -0.0043549326245966588 0 0.0015210482786400877 -0.0044014704376351688 0 0.0015450495909554763 -0.0044172733908967605 0 0.0015210482786400877 -0.0044014704376351688 0 0.0015258445388002077 -0.0043648735483024668 0 0.0015173106067906637 -0.0043219724263229755 0 0.0015055317688448366 -0.0043549326245966588 0 0.0015258445388002077 -0.0043648735483024668 0 0.0015055317688448366 -0.0043549326245966588 0 0.0015210482786400877 -0.0044014704376351688 0 0.0015258445388002077 -0.0043648735483024668 0 0.0015258445388002077 -0.0043648735483024668 0 0.0015330155586893157 -0.0043795313428836363 0 0.0015130719920614154 -0.004339688628247935 0 0.0015450495909554763 -0.0044172733908967605 0 0.0015258445388002077 -0.0043648735483024668 0 0.0015330155586893157 -0.0043795313428836363 0 0.0015592067594869961 -0.0044340125149813208 0 0.0015330155586893157 -0.0043795313428836363 0 0.0015277747907827207 -0.004380693445018226 0 0.0015592067594869961 -0.0044340125149813208 0 0.0015450495909554763 -0.0044172733908967605 0 0.0015330155586893157 -0.0043795313428836363 0 0.0015330155586893157 -0.0043795313428836363 0 0.0015130719920614154 -0.004339688628247935 0 0.0015277747907827207 -0.004380693445018226 0 0.0015173106067906637 -0.0043219724263229755 0 0.0015258445388002077 -0.0043648735483024668 0 0.0015130719920614154 -0.004339688628247935 0 0.0015130719920614154 -0.004339688628247935 0 0.001501263186997119 -0.0043157437140842973 0 0.0014713657666447933 -0.0043108126671271224 0 0.0015173106067906637 -0.0043219724263229755 0 0.0015130719920614154 -0.004339688628247935 0 0.001501263186997119 -0.0043157437140842973 0 0.001501263186997119 -0.0043157437140842973 0 0.0014713657666447933 -0.0043108126671271224 0 0.0014692599769123853 -0.0043259948256579714 0 0.001501263186997119 -0.0043157437140842973 0 0.0015068189987399404 -0.0043298625404193866 0 0.0014692599769123853 -0.0043259948256579714 0 0.0014902607624901094 -0.0043481754544890004 0 0.0015068189987399404 -0.0043298625404193866 0 0.0014692599769123853 -0.0043259948256579714 0 0.0014902607624901094 -0.0043481754544890004 0 0.0014692599769123853 -0.0043259948256579714 0 0.0014801885580659931 -0.0043771531136714247 0 0.0014902607624901094 -0.0043481754544890004 0 0.0015068189987399404 -0.0043298625404193866 0 0.0015129905177989923 -0.0043640935677893055 0 0.0014902607624901094 -0.0043481754544890004 0 0.0015129905177989923 -0.0043640935677893055 0 0.0014801885580659931 -0.0043771531136714247 0 0.0015068189987399404 -0.0043298625404193866 0 0.0015129905177989923 -0.0043640935677893055 0 0.0015514553684601502 -0.004344034596253799 0 0.0015129905177989923 -0.0043640935677893055 0 0.0015514553684601502 -0.004344034596253799 0 0.0015391636642217664 -0.0044117375154966026 0 0.0015068189987399404 -0.0043298625404193866 0 0.0015187007172364738 -0.0043048974647212105 0 0.0015514553684601502 -0.004344034596253799 0 0.0015173106067906637 -0.0043219724263229755 0 0.0015187007172364738 -0.0043048974647212105 0 0.0015325638611879491 -0.0042709148926363249 0 0.001501263186997119 -0.0043157437140842973 0 0.0015068189987399404 -0.0043298625404193866 0 0.0015187007172364738 -0.0043048974647212105 0 0.0015173106067906637 -0.0043219724263229755 0 0.001501263186997119 -0.0043157437140842973 0 0.0015187007172364738 -0.0043048974647212105 0 0.0015187007172364738 -0.0043048974647212105 0 0.0015325638611879491 -0.0042709148926363249 0 0.0015514553684601502 -0.004344034596253799 0 0.0015325638611879491 -0.0042709148926363249 0 0.0015514553684601502 -0.004344034596253799 0 0.0016216866307361265 -0.004312615143866441 0 0.0016315667958512704 -0.0042318152213822761 0 0.0015325638611879491 -0.0042709148926363249 0 0.0016216866307361265 -0.004312615143866441 0 0.0015514553684601502 -0.004344034596253799 0 0.0016197880514168149 -0.0043728639658152197 0 0.0016216866307361265 -0.004312615143866441 0 0.0015514553684601502 -0.004344034596253799 0 0.0016197880514168149 -0.0043728639658152197 0 0.0015888156507193867 -0.0044018746025223897 0 0.0016197880514168149 -0.0043728639658152197 0 0.0016216866307361265 -0.004312615143866441 0 0.0016948512007231833 -0.0043584982459928204 0 0.0016216866307361265 -0.004312615143866441 0 0.0016913508173834002 -0.0042639547336284188 0 0.0016948512007231833 -0.0043584982459928204 0 0.0016913508173834002 -0.0042639547336284188 0 0.0017986588478038903 -0.0042103198827693174 0 0.0016948512007231833 -0.0043584982459928204 0 0.0016315667958512704 -0.0042318152213822761 0 0.0016216866307361265 -0.004312615143866441 0 0.0016913508173834002 -0.0042639547336284188 0 0.0013623104830515695 -0.0042806730435220016 0 0.0014399540908504563 -0.0043021520877971542 0 0.0014275180599636497 -0.004297298396702157 0 0.0013623104830515695 -0.0042806730435220016 0 0.0013044186485221664 -0.0042548136334735016 0 0.0013376236891101036 -0.0042774267968545112 0 0.0013623104830515695 -0.0042806730435220016 0 0.0014399540908504563 -0.0043021520877971542 0 0.0013376236891101036 -0.0042774267968545112 0 0.0014399540908504563 -0.0043021520877971542 0 0.0013376236891101036 -0.0042774267968545112 0 0.0013448101350954388 -0.0042662615651544739 0 0.0014083412528536133 -0.0042127443806195689 0 0.0013598064485729885 -0.0042440228210670833 0 0.0014399540908504563 -0.0043021520877971542 0 0.0013598064485729885 -0.0042440228210670833 0 0.0014399540908504563 -0.0043021520877971542 0 0.0013448101350954388 -0.0042662615651544739 0 0.0015560416239176708 -0.0044137601412418221 0 0.0014399540908504563 -0.0043021520877971542 0 0.0014883693580120397 -0.0043496216195450486 0 0.0014399540908504563 -0.0043021520877971542 0 0.0014883693580120397 -0.0043496216195450486 0 0.0014275180599636497 -0.004297298396702157 0 0.0014844317351208477 -0.0042996977429662813 0 0.0014503471202323205 -0.0043183783899967999 0 0.0015357802431085863 -0.0044101151590630718 0 0.0014883693580120397 -0.0043496216195450486 0 0.0014937262810292156 -0.0043399741836947668 0 0.0015130719920614154 -0.004339688628247935 0 0.0014937262810292156 -0.0043399741836947668 0 0.0015277747907827207 -0.004380693445018226 0 0.0015357802431085863 -0.0044101151590630718 0 0.0014937262810292156 -0.0043399741836947668 0 0.0015277747907827207 -0.004380693445018226 0 0.0015130719920614154 -0.004339688628247935 0 0.0014937262810292156 -0.0043399741836947668 0 0.0014713657666447933 -0.0043108126671271224 0 0.0014883693580120397 -0.0043496216195450486 0 0.0014937262810292156 -0.0043399741836947668 0 0.0014275180599636497 -0.004297298396702157 0 0.0014937262810292156 -0.0043399741836947668 0 0.0014275180599636497 -0.004297298396702157 0 0.0014713657666447933 -0.0043108126671271224 0 0.0014275180599636497 -0.004297298396702157 0 0.0014046972110170163 -0.0042879758677951746 0 0.0013514904094001016 -0.0042689298724411821 0 0.0014275180599636497 -0.004297298396702157 0 0.0014046972110170163 -0.0042879758677951746 0 0.0014713657666447933 -0.0043108126671271224 0 0.0014046972110170163 -0.0042879758677951746 0 0.0014713657666447933 -0.0043108126671271224 0 0.0014692599769123853 -0.0043259948256579714 0 0.0014046972110170163 -0.0042879758677951746 0 0.0014692599769123853 -0.0043259948256579714 0 0.0014190191206837417 -0.0043470331455010541 0 0.0014692599769123853 -0.0043259948256579714 0 0.0014190191206837417 -0.0043470331455010541 0 0.0014801885580659931 -0.0043771531136714247 0 0.0012924638488205956 -0.0042261917161694161 0 0.0013033304549888902 -0.0042225144998504667 0 0.0014046972110170163 -0.0042879758677951746 0 0.001281752410082675 -0.0042232630499287544 0 0.0014190191206837417 -0.0043470331455010541 0 0.0014046972110170163 -0.0042879758677951746 0 0.001281752410082675 -0.0042232630499287544 0 0.0013514904094001016 -0.0042689298724411821 0 0.001281752410082675 -0.0042232630499287544 0 0.0013514904094001016 -0.0042689298724411821 0 0.0013047443752519006 -0.0042397903729335662 0 0.0013623104830515695 -0.0042806730435220016 0 0.0014275180599636497 -0.004297298396702157 0 0.0013514904094001016 -0.0042689298724411821 0 0.0013623104830515695 -0.0042806730435220016 0 0.0013514904094001016 -0.0042689298724411821 0 0.0013047443752519006 -0.0042397903729335662 0 0.0013623104830515695 -0.0042806730435220016 0 0.0013047443752519006 -0.0042397903729335662 0 0.0013044186485221664 -0.0042548136334735016 0 0.001281752410082675 -0.0042232630499287544 0 0.0013047443752519006 -0.0042397903729335662 0 0.0012716223615505851 -0.0041808134357223638 0 0.0012729092413795524 -0.0041719996632732436 0 0.0013003668008133202 -0.0042059214231354169 0 0.0013044186485221664 -0.0042548136334735016 0 0.0013047443752519006 -0.0042397903729335662 0 0.0012729092413795524 -0.0041719996632732436 0 0.0013044186485221664 -0.0042548136334735016 0 0.0013047443752519006 -0.0042397903729335662 0 0.0012716223615505851 -0.0041808134357223638 0 0.0012729092413795524 -0.0041719996632732436 0 0.0012729092413795524 -0.0041719996632732436 0 0.0013003668008133202 -0.0042059214231354169 0 0.0012953814707395775 -0.0041079119319741763 0 0.001556001888531141 -0.0041978675191790193 0 0.00044903587190942918 -0.0041608031738195207 0 0.0013003668008133202 -0.0042059214231354169 0 0.0013053143125785177 -0.0042654908647203676 0 0.0013044186485221664 -0.0042548136334735016 0 0.0013003668008133202 -0.0042059214231354169 0 0.0013053143125785177 -0.0042654908647203676 0 0.0013354033828334997 -0.0042193462935883235 0 0.0013053143125785177 -0.0042654908647203676 0 0.0012671826863219207 -0.0042845298734062558 0 0.0012132094987462863 -0.0043224916496926872 0 0.0013053143125785177 -0.0042654908647203676 0 0.0012671826863219207 -0.0042845298734062558 0 0.0012884742203486455 -0.0042651204726349857 0 0.0013053143125785177 -0.0042654908647203676 0 0.0013044186485221664 -0.0042548136334735016 0 0.0013121997229978224 -0.0042694148783780431 0 0.0013044186485221664 -0.0042548136334735016 0 0.0013376236891101036 -0.0042774267968545112 0 0.0013121997229978224 -0.0042694148783780431 0 0.0013376236891101036 -0.0042774267968545112 0 0.0013448101350954388 -0.0042662615651544739 0 0.0013128803762828261 -0.004264394854279931 0 0.0013376236891101036 -0.0042774267968545112 0 0.0013121997229978224 -0.0042694148783780431 0 0.0013128803762828261 -0.004264394854279931 0 0.0013121997229978224 -0.0042694148783780431 0 0.0012997319843288664 -0.0042651753498739288 0 0.0013128803762828261 -0.004264394854279931 0 0.0013053143125785177 -0.0042654908647203676 0 0.0013121997229978224 -0.0042694148783780431 0 0.0012997319843288664 -0.0042651753498739288 0 0.0013053143125785177 -0.0042654908647203676 0 0.0012884742203486455 -0.0042651204726349857 0 0.0012997319843288664 -0.0042651753498739288 0 0.0012646876537453482 -0.0042805739750194638 0 0.0012324534111249653 -0.0042554159405617633 0 0.0012671826863219207 -0.0042845298734062558 0 0.0012884742203486455 -0.0042651204726349857 0 0.0012796517500334075 -0.0042620649382573358 0 0.0012865195017190132 -0.0042609018439202515 0 0.001278048253122396 -0.0042558896370344622 0 0.0012796517500334075 -0.0042620649382573358 0 0.0012884742203486455 -0.0042651204726349857 0 0.0012865195017190132 -0.0042609018439202515 0 0.0012796517500334075 -0.0042620649382573358 0 0.0012884742203486455 -0.0042651204726349857 0 0.0012865195017190132 -0.0042609018439202515 0 0.0012997319843288664 -0.0042651753498739288 0 0.0012865195017190132 -0.0042609018439202515 0 0.0012997319843288664 -0.0042651753498739288 0 0.0012934165201516103 -0.0042557184758505572 0 0.0012997319843288664 -0.0042651753498739288 0 0.0012934165201516103 -0.0042557184758505572 0 0.0013128803762828261 -0.004264394854279931 0 0.0012865195017190132 -0.0042609018439202515 0 0.0012934165201516103 -0.0042557184758505572 0 0.001278048253122396 -0.0042558896370344622 0 0.0012934165201516103 -0.0042557184758505572 0 0.001278048253122396 -0.0042558896370344622 0 0.0012792976128636541 -0.0042478428848772348 0 0.001278048253122396 -0.0042558896370344622 0 0.0012792976128636541 -0.0042478428848772348 0 0.0012736884630616455 -0.0042502507160049122 0 0.0012934165201516103 -0.0042557184758505572 0 0.0012792976128636541 -0.0042478428848772348 0 0.0012890658490204241 -0.0042383590377596874 0 0.0012792976128636541 -0.0042478428848772348 0 0.0012890658490204241 -0.0042383590377596874 0 0.0012715334094538519 -0.0042361581985803651 0 0.0012792976128636541 -0.0042478428848772348 0 0.0012710905629193337 -0.0042463021166358021 0 0.0012715334094538519 -0.0042361581985803651 0 0.0012934165201516103 -0.0042557184758505572 0 0.001315802873977485 -0.0042483424654068741 0 0.0012890658490204241 -0.0042383590377596874 0 0.0013598064485729885 -0.0042440228210670833 0 0.001315802873977485 -0.0042483424654068741 0 0.0013448101350954388 -0.0042662615651544739 0 0.0012934165201516103 -0.0042557184758505572 0 0.001315802873977485 -0.0042483424654068741 0 0.0013128803762828261 -0.004264394854279931 0 0.001315802873977485 -0.0042483424654068741 0 0.0013448101350954388 -0.0042662615651544739 0 0.0013128803762828261 -0.004264394854279931 0 -0.00057613000683292333 -0.0046823784440522542 0 -0.00064196649537323115 -0.004735801433454691 0 -0.00063943373112533217 -0.0046304313107395105 0 -0.00057613000683292333 -0.0046823784440522542 0 -0.00049686131171400479 -0.0047207569453451923 0 -0.00050667468070436173 -0.0046272609113388891 0 -0.00049686131171400479 -0.0047207569453451923 0 -0.00048054813721702699 -0.0048044097807643411 0 -0.00056916067683477061 -0.0047948624474736688 0 -0.00057613000683292333 -0.0046823784440522542 0 -0.00049686131171400479 -0.0047207569453451923 0 -0.00056916067683477061 -0.0047948624474736688 0 -0.00057613000683292333 -0.0046823784440522542 0 -0.00064196649537323115 -0.004735801433454691 0 -0.00056916067683477061 -0.0047948624474736688 0 -0.00064196649537323115 -0.004735801433454691 0 -0.00072801778077684679 -0.0047114491330019354 0 -0.00068066180052535905 -0.0046701627971540427 0 0.0012633499390988436 -0.0042425288483277932 0 0.0012710905629193337 -0.0042463021166358021 0 0.0012715334094538519 -0.0042361581985803651 0 0.0012633499390988436 -0.0042425288483277932 0 0.0012664953355648288 -0.0042504605327052213 0 0.0012710905629193337 -0.0042463021166358021 0 0.00082872442687599232 -0.0042844642783420421 0 0.00071169737518106586 -0.0043597844392746403 0 0.0012792976128636541 -0.0042478428848772348 0 0.0012710905629193337 -0.0042463021166358021 0 0.0012736884630616455 -0.0042502507160049122 0 0.0012664953355648288 -0.0042504605327052213 0 0.0012710905629193337 -0.0042463021166358021 0 0.0012736884630616455 -0.0042502507160049122 0 0.00071169737518106586 -0.0043597844392746403 0 0.0012324534111249653 -0.0042554159405617633 0 0.001278048253122396 -0.0042558896370344622 0 0.0012664953355648288 -0.0042504605327052213 0 0.0012796517500334075 -0.0042620649382573358 0 0.001278048253122396 -0.0042558896370344622 0 0.0012664953355648288 -0.0042504605327052213 0 0.0012736884630616455 -0.0042502507160049122 0 -0.00064196649537323115 -0.004735801433454691 0 -0.00068066180052535905 -0.0046701627971540427 0 -0.00063943373112533217 -0.0046304313107395105 0 -0.00072801778077684679 -0.0047114491330019354 0 -0.00068066180052535905 -0.0046701627971540427 0 -0.00068532722984309628 -0.0046170109201286733 0 -0.00068066180052535905 -0.0046701627971540427 0 -0.00068532722984309628 -0.0046170109201286733 0 -0.00063943373112533217 -0.0046304313107395105 0 0.00071169737518106586 -0.0043597844392746403 0 0.00022626729869688715 -0.0044335773207586976 0 -0.00072801778077684679 -0.0047114491330019354 0 -0.00068532722984309628 -0.0046170109201286733 0 -0.00073074013741667517 -0.0045345825850832975 0 0.0012055525754515579 -0.0041643994566684913 0 0.0012333368153752647 -0.0042208590658815706 0 0.0012106570655460863 -0.0042371242547615054 0 -0.00068532722984309628 -0.0046170109201286733 0 -0.00073074013741667517 -0.0045345825850832975 0 -0.00064772447634343065 -0.004538206630850832 0 -0.00068532722984309628 -0.0046170109201286733 0 -0.00064772447634343065 -0.004538206630850832 0 -0.00063943373112533217 -0.0046304313107395105 0 0.0012671826863219207 -0.0042845298734062558 0 0.0012333368153752647 -0.0042208590658815706 0 0.0012106570655460863 -0.0042371242547615054 0 -0.00073074013741667517 -0.0045345825850832975 0 -0.00064772447634343065 -0.004538206630850832 0 -0.00064585790751168766 -0.0044209797839702024 0 -0.00064772447634343065 -0.004538206630850832 0 -0.00056412574887546398 -0.0045746761408063993 0 -0.00055574157875445734 -0.0044416074745336235 0 -0.00064772447634343065 -0.004538206630850832 0 -0.00063943373112533217 -0.0046304313107395105 0 -0.00056412574887546398 -0.0045746761408063993 0 -0.00057613000683292333 -0.0046823784440522542 0 -0.00063943373112533217 -0.0046304313107395105 0 -0.00056412574887546398 -0.0045746761408063993 0 -0.00057613000683292333 -0.0046823784440522542 0 -0.00050667468070436173 -0.0046272609113388891 0 -0.00056412574887546398 -0.0045746761408063993 0 -0.00050667468070436173 -0.0046272609113388891 0 -0.00056412574887546398 -0.0045746761408063993 0 -0.00045872928824362494 -0.0045254245134483126 0 -0.00056412574887546398 -0.0045746761408063993 0 -0.00055574157875445734 -0.0044416074745336235 0 -0.00045872928824362494 -0.0045254245134483126 0 -0.00064585790751168766 -0.0044209797839702024 0 -0.00072783533590559113 -0.0043582929710909973 0 -0.00052312275024954142 -0.004197841597735846 0 -0.00055574157875445734 -0.0044416074745336235 0 -0.00064585790751168766 -0.0044209797839702024 0 -0.00052312275024954142 -0.004197841597735846 0 -0.00055574157875445734 -0.0044416074745336235 0 -0.00052312275024954142 -0.004197841597735846 0 -0.00047201889041258534 -0.0043907056551740599 0 -0.00064772447634343065 -0.004538206630850832 0 -0.00055574157875445734 -0.0044416074745336235 0 -0.00064585790751168766 -0.0044209797839702024 0 0.0012671826863219207 -0.0042845298734062558 0 0.0012106570655460863 -0.0042371242547615054 0 0.0012132094987462863 -0.0043224916496926872 0 -0.00073074013741667517 -0.0045345825850832975 0 -0.00064585790751168766 -0.0044209797839702024 0 -0.00072783533590559113 -0.0043582929710909973 0 0.00022626729869688715 -0.0044335773207586976 0 0.00044903587190942918 -0.0041608031738195207 0 0.00044903587190942918 -0.0041608031738195207 0 0.00076782094634864756 -0.003816963929323465 0 0.0013003668008133202 -0.0042059214231354169 0 0.0013354033828334997 -0.0042193462935883235 0 0.0012953814707395775 -0.0041079119319741763 0 0.00015756871661371232 -0.0036518186349699419 0 0.00016881349690819707 -0.0036337884017854987 0 0.0001597441010744916 -0.003624861423267896 0 0.00044903587190942918 -0.0041608031738195207 0 -0.00031983222604511837 -0.0039193240579535535 0 -0.00052312275024954142 -0.004197841597735846 0 -0.00021138716736940821 -0.0042330327001980422 0 -0.00029358854490515285 -0.0039946181070846251 0 -0.00052312275024954142 -0.004197841597735846 0 -0.00035072271027314735 -0.0043961006112894444 0 -0.00021138716736940821 -0.0042330327001980422 0 -0.00035072271027314735 -0.0043961006112894444 0 -0.00021138716736940821 -0.0042330327001980422 0 -0.00015986117047915889 -0.004478449597781718 0 -0.00035072271027314735 -0.0043961006112894444 0 -0.00047201889041258534 -0.0043907056551740599 0 -0.00045872928824362494 -0.0045254245134483126 0 -0.00052312275024954142 -0.004197841597735846 0 -0.00035072271027314735 -0.0043961006112894444 0 -0.00047201889041258534 -0.0043907056551740599 0 -0.00055574157875445734 -0.0044416074745336235 0 -0.00047201889041258534 -0.0043907056551740599 0 -0.00045872928824362494 -0.0045254245134483126 0 0.00017918401356784681 -0.004311441959693363 0 -1.3327394825222014e-05 -0.0042954968344556229 0 0.00013706188549579679 -0.0040373859143807336 0 -1.3327394825222014e-05 -0.0042954968344556229 0 -5.4304368205567802e-05 -0.0040693725203242341 0 0.00013706188549579679 -0.0040373859143807336 0 -1.3327394825222014e-05 -0.0042954968344556229 0 -0.00021138716736940821 -0.0042330327001980422 0 -5.4304368205567802e-05 -0.0040693725203242341 0 -1.3327394825222014e-05 -0.0042954968344556229 0 -0.00021138716736940821 -0.0042330327001980422 0 -0.00015986117047915889 -0.004478449597781718 0 0.00017918401356784681 -0.004311441959693363 0 -1.3327394825222014e-05 -0.0042954968344556229 0 3.2969002569198579e-05 -0.0045222556872081187 0 -1.3327394825222014e-05 -0.0042954968344556229 0 -0.00015986117047915889 -0.004478449597781718 0 3.2969002569198579e-05 -0.0045222556872081187 0 7.2270540465953781e-05 -0.0047502950518559959 0 3.2969002569198579e-05 -0.0045222556872081187 0 -9.3266466514095716e-05 -0.0047048759441009275 0 -0.00015986117047915889 -0.004478449597781718 0 3.2969002569198579e-05 -0.0045222556872081187 0 -9.3266466514095716e-05 -0.0047048759441009275 0 -0.00015986117047915889 -0.004478449597781718 0 -9.3266466514095716e-05 -0.0047048759441009275 0 -0.00030803662535089116 -0.0046165661944981146 0 7.2270540465953781e-05 -0.0047502950518559959 0 -9.3266466514095716e-05 -0.0047048759441009275 0 4.8058588937911574e-06 -0.0048816844526089285 0 -0.00042813518785575456 -0.0046369203554279389 0 -0.00045872928824362494 -0.0045254245134483126 0 -0.00030803662535089116 -0.0046165661944981146 0 -0.00035072271027314735 -0.0043961006112894444 0 -0.00045872928824362494 -0.0045254245134483126 0 -0.00030803662535089116 -0.0046165661944981146 0 -0.00050667468070436173 -0.0046272609113388891 0 -0.00042813518785575456 -0.0046369203554279389 0 -0.00045872928824362494 -0.0045254245134483126 0 -0.00035072271027314735 -0.0043961006112894444 0 -0.00015986117047915889 -0.004478449597781718 0 -0.00030803662535089116 -0.0046165661944981146 0 -9.3266466514095716e-05 -0.0047048759441009275 0 -0.00030803662535089116 -0.0046165661944981146 0 -0.00026312051234983486 -0.0048137932629530511 0 -0.00030803662535089116 -0.0046165661944981146 0 -0.00040001625175218881 -0.0047478934317418137 0 -0.00026312051234983486 -0.0048137932629530511 0 -0.00042813518785575456 -0.0046369203554279389 0 -0.00030803662535089116 -0.0046165661944981146 0 -0.00040001625175218881 -0.0047478934317418137 0 -0.00049686131171400479 -0.0047207569453451923 0 -0.00042813518785575456 -0.0046369203554279389 0 -0.00040001625175218881 -0.0047478934317418137 0 -0.00049686131171400479 -0.0047207569453451923 0 -0.00050667468070436173 -0.0046272609113388891 0 -0.00042813518785575456 -0.0046369203554279389 0 -0.00049686131171400479 -0.0047207569453451923 0 -0.00040001625175218881 -0.0047478934317418137 0 -0.00048054813721702699 -0.0048044097807643411 0 -0.00040001625175218881 -0.0047478934317418137 0 -0.00048054813721702699 -0.0048044097807643411 0 -0.00040511831154911175 -0.0048730258823429613 0 -0.00048054813721702699 -0.0048044097807643411 0 -0.00040511831154911175 -0.0048730258823429613 0 -0.00053275921511668851 -0.0048861007769484084 0 -0.00040001625175218881 -0.0047478934317418137 0 -0.00040511831154911175 -0.0048730258823429613 0 -0.00026312051234983486 -0.0048137932629530511 0 -0.00040511831154911175 -0.0048730258823429613 0 -0.00053275921511668851 -0.0048861007769484084 0 -0.00048648093219175208 -0.0049762966975224372 0 -0.00040511831154911175 -0.0048730258823429613 0 -0.00026312051234983486 -0.0048137932629530511 0 -0.00024992264936829999 -0.0050009908327403397 0 -0.00026312051234983486 -0.0048137932629530511 0 -0.00024992264936829999 -0.0050009908327403397 0 -0.00011215828977346119 -0.0049123840894845184 0 -0.00024992264936829999 -0.0050009908327403397 0 -0.00037642537013252153 -0.0049919168819425267 0 -0.0003429298405586979 -0.0051714868630095921 0 -0.00040511831154911175 -0.0048730258823429613 0 -0.00024992264936829999 -0.0050009908327403397 0 -0.00037642537013252153 -0.0049919168819425267 0 -0.00037642537013252153 -0.0049919168819425267 0 -0.00042886976055049294 -0.005091717703291563 0 -0.00048648093219175208 -0.0049762966975224372 0 -0.00040511831154911175 -0.0048730258823429613 0 -0.00037642537013252153 -0.0049919168819425267 0 -0.00048648093219175208 -0.0049762966975224372 0 -9.3266466514095716e-05 -0.0047048759441009275 0 4.8058588937911574e-06 -0.0048816844526089285 0 -0.00011215828977346119 -0.0049123840894845184 0 -9.3266466514095716e-05 -0.0047048759441009275 0 -0.00026312051234983486 -0.0048137932629530511 0 -0.00011215828977346119 -0.0049123840894845184 0 -0.00011215828977346119 -0.0049123840894845184 0 -0.00010435949017559556 -0.0050428436441009574 0 3.0449493401036075e-07 -0.0050703148555365472 0 -0.00024992264936829999 -0.0050009908327403397 0 -0.00011215828977346119 -0.0049123840894845184 0 -0.00010435949017559556 -0.0050428436441009574 0 4.8058588937911574e-06 -0.0048816844526089285 0 -0.00011215828977346119 -0.0049123840894845184 0 3.0449493401036075e-07 -0.0050703148555365472 0 3.0449493401036075e-07 -0.0050703148555365472 0 -7.5815090027677579e-05 -0.0051818870290510181 0 1.8643246477630733e-05 -0.0052160409437856268 0 -0.00010435949017559556 -0.0050428436441009574 0 3.0449493401036075e-07 -0.0050703148555365472 0 -7.5815090027677579e-05 -0.0051818870290510181 0 -0.00024992264936829999 -0.0050009908327403397 0 -0.00010435949017559556 -0.0050428436441009574 0 -7.5815090027677579e-05 -0.0051818870290510181 0 -1.9284707504059679e-05 -0.0051914480006133561 0 -1.4572689869817929e-05 -0.0052192636593685719 0 -7.5815090027677579e-05 -0.0051818870290510181 0 -1.4572689869817929e-05 -0.0052192636593685719 0 -7.5815090027677579e-05 -0.0051818870290510181 0 1.8643246477630733e-05 -0.0052160409437856268 0 -0.00026025275518736613 -0.0052478840918282772 0 0.00022655941462680894 -0.004776998042535844 0 1.4599096223208514e-06 -0.005251708963522163 0 7.7098837623535148e-05 -0.005238824899688797 0 0.00012484037498541534 -0.0052904479854767933 0 -0.0003429298405586979 -0.0051714868630095921 0 -0.00042886976055049294 -0.005091717703291563 0 -0.00057184834742939083 -0.0051412249099262123 0 -0.00037642537013252153 -0.0049919168819425267 0 -0.0003429298405586979 -0.0051714868630095921 0 -0.00042886976055049294 -0.005091717703291563 0 -4.3621805296869276e-05 -0.00518444105337255 0 -0.00026025275518736613 -0.0052478840918282772 0 -0.00024992264936829999 -0.0050009908327403397 0 -7.5815090027677579e-05 -0.0051818870290510181 0 -0.0003429298405586979 -0.0051714868630095921 0 -1.9284707504059679e-05 -0.0051914480006133561 0 -7.5815090027677579e-05 -0.0051818870290510181 0 1.4599096223208514e-06 -0.005251708963522163 0 -1.9284707504059679e-05 -0.0051914480006133561 0 7.8041548660437253e-05 -0.0051885201364695417 0 7.7098837623535148e-05 -0.005238824899688797 0 -1.9284707504059679e-05 -0.0051914480006133561 0 1.4599096223208514e-06 -0.005251708963522163 0 7.7098837623535148e-05 -0.005238824899688797 0 7.8041548660437253e-05 -0.0051885201364695417 0 0.00013029428991069247 -0.0051921034337354477 0 0.00011167659182300637 -0.0052209265337494065 0 0.00013029428991069247 -0.0051921034337354477 0 0.00014773183378980715 -0.0052224232454659274 0 0.00018048596562179908 -0.0052061001187105492 0 0.00013029428991069247 -0.0051921034337354477 0 0.00014773183378980715 -0.0052224232454659274 0 0.00011167659182300637 -0.0052209265337494065 0 0.00014773183378980715 -0.0052224232454659274 0 0.0001343470390042961 -0.0052418441713439415 0 0.00011167659182300637 -0.0052209265337494065 0 0.00011532794608900509 -0.0052477824439627627 0 0.0001343470390042961 -0.0052418441713439415 0 0.00011167659182300637 -0.0052209265337494065 0 0.00014773183378980715 -0.0052224232454659274 0 0.0001343470390042961 -0.0052418441713439415 0 0.00015535835136933619 -0.0052403427629247297 0 0.0001343470390042961 -0.0052418441713439415 0 0.00015343996430248368 -0.0052578781495999762 0 0.00015535835136933619 -0.0052403427629247297 0 7.8041548660437253e-05 -0.0051885201364695417 0 0.00011167659182300637 -0.0052209265337494065 0 7.7098837623535148e-05 -0.005238824899688797 0 0.00011532794608900509 -0.0052477824439627627 0 0.00011167659182300637 -0.0052209265337494065 0 7.7098837623535148e-05 -0.005238824899688797 0 0.00011532794608900509 -0.0052477824439627627 0 7.7098837623535148e-05 -0.005238824899688797 0 0.00012104093492571734 -0.0052773468109681516 0 7.7098837623535148e-05 -0.005238824899688797 0 0.00012104093492571734 -0.0052773468109681516 0 0.00012484037498541534 -0.0052904479854767933 0 0.00015107931976125074 -0.0052789918251714626 0 0.00012670126220161841 -0.0052917017325395067 0 0.00018943313434975089 -0.005298863499576284 0 0.00011532794608900509 -0.0052477824439627627 0 0.0001343470390042961 -0.0052418441713439415 0 0.0001326909636044898 -0.0052621251164027306 0 0.00011532794608900509 -0.0052477824439627627 0 0.0001326909636044898 -0.0052621251164027306 0 0.00012104093492571734 -0.0052773468109681516 0 0.0001343470390042961 -0.0052418441713439415 0 0.0001326909636044898 -0.0052621251164027306 0 0.00015343996430248368 -0.0052578781495999762 0 0.0001326909636044898 -0.0052621251164027306 0 0.00014909726875922364 -0.0052675838088710146 0 0.00015107931976125074 -0.0052789918251714626 0 0.00015343996430248368 -0.0052578781495999762 0 0.00014909726875922364 -0.0052675838088710146 0 0.00015906759132453853 -0.0052714102768175886 0 0.0001326909636044898 -0.0052621251164027306 0 0.00015343996430248368 -0.0052578781495999762 0 0.00014909726875922364 -0.0052675838088710146 0 0.0001326909636044898 -0.0052621251164027306 0 0.00015107931976125074 -0.0052789918251714626 0 0.00012104093492571734 -0.0052773468109681516 0 0.00014909726875922364 -0.0052675838088710146 0 0.00015107931976125074 -0.0052789918251714626 0 0.00015906759132453853 -0.0052714102768175886 0 0.00015107931976125074 -0.0052789918251714626 0 0.00012104093492571734 -0.0052773468109681516 0 0.00012670126220161841 -0.0052917017325395067 0 0.0002437700134918908 -0.0048853607532623067 0 0.00022655941462680894 -0.004776998042535844 0 -0.00042886976055049294 -0.005091717703291563 0 -0.00057184834742939083 -0.0051412249099262123 0 -0.00053411569162746238 -0.0050341760529726449 0 0.00094250805519366192 -0.0045475243262014346 0 0.00067528728820070018 -0.004803261370764496 0 0.00094250805519366192 -0.0045475243262014346 0 0.0013254701634279136 -0.0042578988612312022 0 0.0012526172455629566 -0.0042368088906083994 0 0.0012603827349010781 -0.0042393896129306061 0 0.0012242635717855399 -0.0042608839777737448 0 0.00018943313434975089 -0.005298863499576284 0 0.00021652048472414081 -0.0052694066678441107 0 0.00027297210263038267 -0.0052758072587880218 0 0.001259081626888867 -0.0042406479862906821 0 0.0012573660942381036 -0.0042347274919815187 0 0.0012572284521147742 -0.0042382242049747816 0 0.0012526172455629566 -0.0042368088906083994 0 0.0012573660942381036 -0.0042347274919815187 0 0.0012603827349010781 -0.0042393896129306061 0 0.001259081626888867 -0.0042406479862906821 0 0.0012572284521147742 -0.0042382242049747816 0 0.0012560653631725112 -0.0042385676233366726 0 0.00022655941462680894 -0.004776998042535844 0 0.00094250805519366192 -0.0045475243262014346 0 0.001259081626888867 -0.0042406479862906821 0 0.0012573660942381036 -0.0042347274919815187 0 0.0012568935594605593 -0.0042276650655670182 0 0.0012573660942381036 -0.0042347274919815187 0 0.0012572284521147742 -0.0042382242049747816 0 0.0012603827349010781 -0.0042393896129306061 0 0.0010360172829405919 -0.0045045394393999792 0 0.00094250805519366192 -0.0045475243262014346 0 0.00018943313434975089 -0.005298863499576284 0 0.00019190784008290702 -0.0052801005454416834 0 0.00017685324308936191 -0.0052786998859624375 0 0.00019190784008290702 -0.0052801005454416834 0 0.00017685324308936191 -0.0052786998859624375 0 0.00019001472856991559 -0.0052688124726430778 0 0.00017685324308936191 -0.0052786998859624375 0 0.00017158193084828628 -0.0052670514651579781 0 0.00019001472856991559 -0.0052688124726430778 0 0.00015107931976125074 -0.0052789918251714626 0 0.00017685324308936191 -0.0052786998859624375 0 0.00015906759132453853 -0.0052714102768175886 0 0.00015107931976125074 -0.0052789918251714626 0 0.00018943313434975089 -0.005298863499576284 0 0.00017685324308936191 -0.0052786998859624375 0 0.00017685324308936191 -0.0052786998859624375 0 0.00015906759132453853 -0.0052714102768175886 0 0.00017158193084828628 -0.0052670514651579781 0 0.00015343996430248368 -0.0052578781495999762 0 0.00015906759132453853 -0.0052714102768175886 0 0.00017158193084828628 -0.0052670514651579781 0 0.00015343996430248368 -0.0052578781495999762 0 0.00017158193084828628 -0.0052670514651579781 0 0.00017380361334038059 -0.0052536695654325262 0 0.00017380361334038059 -0.0052536695654325262 0 0.00019001472856991559 -0.0052688124726430778 0 0.00019911096029012754 -0.0052470405356966291 0 0.00017158193084828628 -0.0052670514651579781 0 0.00017380361334038059 -0.0052536695654325262 0 0.00019001472856991559 -0.0052688124726430778 0 0.00019001472856991559 -0.0052688124726430778 0 0.00021652048472414081 -0.0052694066678441107 0 0.00019911096029012754 -0.0052470405356966291 0 0.00021652048472414081 -0.0052694066678441107 0 0.00022089229270458828 -0.0052545233490371912 0 0.00019911096029012754 -0.0052470405356966291 0 0.00019190784008290702 -0.0052801005454416834 0 0.00019001472856991559 -0.0052688124726430778 0 0.00021652048472414081 -0.0052694066678441107 0 0.00018943313434975089 -0.005298863499576284 0 0.00019190784008290702 -0.0052801005454416834 0 0.00021652048472414081 -0.0052694066678441107 0 0.00021652048472414081 -0.0052694066678441107 0 0.00022089229270458828 -0.0052545233490371912 0 0.00024588233337588777 -0.0052583592549217779 0 0.00022089229270458828 -0.0052545233490371912 0 0.00022414423189003342 -0.0052390754513157393 0 0.00024588233337588777 -0.0052583592549217779 0 0.00022089229270458828 -0.0052545233490371912 0 0.00022414423189003342 -0.0052390754513157393 0 0.00019911096029012754 -0.0052470405356966291 0 0.00022414423189003342 -0.0052390754513157393 0 0.00019911096029012754 -0.0052470405356966291 0 0.00019740936841809213 -0.0052267429946653053 0 0.00022414423189003342 -0.0052390754513157393 0 0.00019740936841809213 -0.0052267429946653053 0 0.00021877847620273511 -0.0052101522964095349 0 0.00022414423189003342 -0.0052390754513157393 0 0.00021877847620273511 -0.0052101522964095349 0 0.0002579126700075443 -0.0052358682648500944 0 0.00017380361334038059 -0.0052536695654325262 0 0.00017426791020548618 -0.0052347143898008449 0 0.00015535835136933619 -0.0052403427629247297 0 0.00015343996430248368 -0.0052578781495999762 0 0.00017380361334038059 -0.0052536695654325262 0 0.00015535835136933619 -0.0052403427629247297 0 0.00019911096029012754 -0.0052470405356966291 0 0.00019740936841809213 -0.0052267429946653053 0 0.00017426791020548618 -0.0052347143898008449 0 0.00017380361334038059 -0.0052536695654325262 0 0.00019911096029012754 -0.0052470405356966291 0 0.00017426791020548618 -0.0052347143898008449 0 0.00019740936841809213 -0.0052267429946653053 0 0.00017426791020548618 -0.0052347143898008449 0 0.00018048596562179908 -0.0052061001187105492 0 0.00014773183378980715 -0.0052224232454659274 0 0.00017426791020548618 -0.0052347143898008449 0 0.00015535835136933619 -0.0052403427629247297 0 0.00014773183378980715 -0.0052224232454659274 0 0.00017426791020548618 -0.0052347143898008449 0 0.00018048596562179908 -0.0052061001187105492 0 0.0001946447619501467 -0.0051790408619262884 0 0.00016176860912971587 -0.0051692741653864326 0 0.00018048596562179908 -0.0052061001187105492 0 0.00016176860912971587 -0.0051692741653864326 0 0.00013029428991069247 -0.0051921034337354477 0 0.00018048596562179908 -0.0052061001187105492 0 0.00022967491604296842 -0.0051746972401492675 0 0.0001946447619501467 -0.0051790408619262884 0 0.00021877847620273511 -0.0052101522964095349 0 0.00019740936841809213 -0.0052267429946653053 0 0.00018048596562179908 -0.0052061001187105492 0 0.00021877847620273511 -0.0052101522964095349 0 0.0001946447619501467 -0.0051790408619262884 0 0.00018048596562179908 -0.0052061001187105492 0 0.00021877847620273511 -0.0052101522964095349 0 0.00022967491604296842 -0.0051746972401492675 0 0.00021877847620273511 -0.0052101522964095349 0 0.00025860774928412682 -0.0051929980060876502 0 0.00021877847620273511 -0.0052101522964095349 0 0.00025860774928412682 -0.0051929980060876502 0 0.0002579126700075443 -0.0052358682648500944 0 0.00025860774928412682 -0.0051929980060876502 0 0.00029010911261441327 -0.0052047224994839119 0 0.0002579126700075443 -0.0052358682648500944 0 0.00033533928282835675 -0.0051741114237502991 0 0.00029010911261441327 -0.0052047224994839119 0 0.00030646766766968239 -0.0052430865987024644 0 0.00033533928282835675 -0.0051741114237502991 0 0.00029058655612875482 -0.0051783546227492702 0 0.00029010911261441327 -0.0052047224994839119 0 0.00029058655612875482 -0.0051783546227492702 0 0.00025860774928412682 -0.0051929980060876502 0 0.00029010911261441327 -0.0052047224994839119 0 0.00030646766766968239 -0.0052430865987024644 0 0.0002579126700075443 -0.0052358682648500944 0 0.00027297210263038267 -0.0052758072587880218 0 0.00029010911261441327 -0.0052047224994839119 0 0.00030646766766968239 -0.0052430865987024644 0 0.0002579126700075443 -0.0052358682648500944 0 0.00022414423189003342 -0.0052390754513157393 0 0.0002579126700075443 -0.0052358682648500944 0 0.00024588233337588777 -0.0052583592549217779 0 0.0007513437004536698 -0.0052077101616934754 0 0.00096818446296445234 -0.00483611164002165 0 0.0011742222717823956 -0.0052387185823805794 0 0.0011115976280430069 -0.0052189187506180394 0 0.0011581360503654923 -0.0051463182331545239 0 0.00033533928282835675 -0.0051741114237502991 0 0.00030646766766968239 -0.0052430865987024644 0 0.00035385516005341457 -0.0052523983693310529 0 0.001161930280291947 -0.0043149848135087656 0 0.0011926133844729985 -0.004262861475430953 0 0.0012271933941853711 -0.004287165695275692 0 0.0010869276147749385 -0.0043252491742035342 0 0.0011695102472591998 -0.0043572630756762518 0 0.0011514724260340398 -0.0042628611442355651 0 0.00096818446296445234 -0.00483611164002165 0 0.00109078622377992 -0.0041661815637946999 0 0.0011926133844729985 -0.004262861475430953 0 0.0011514724260340398 -0.0042628611442355651 0 0.0011632783017201313 -0.0042326138074657823 0 0.001161930280291947 -0.0043149848135087656 0 0.0011926133844729985 -0.004262861475430953 0 0.0011514724260340398 -0.0042628611442355651 0 0.00030646766766968239 -0.0052430865987024644 0 0.00035385516005341457 -0.0052523983693310529 0 0.00027297210263038267 -0.0052758072587880218 0 0.00096818446296445234 -0.00483611164002165 0 0.00067528728820070018 -0.004803261370764496 0 0.0012679520516948981 -0.004276106164643554 0 0.0012271933941853711 -0.004287165695275692 0 0.0012242635717855399 -0.0042608839777737448 0 0.0002579126700075443 -0.0052358682648500944 0 0.00027297210263038267 -0.0052758072587880218 0 0.00024588233337588777 -0.0052583592549217779 0 0.00021652048472414081 -0.0052694066678441107 0 0.00027297210263038267 -0.0052758072587880218 0 0.00024588233337588777 -0.0052583592549217779 0 0.0011926133844729985 -0.004262861475430953 0 0.0012271933941853711 -0.004287165695275692 0 0.0012242635717855399 -0.0042608839777737448 0 0.0011926133844729985 -0.004262861475430953 0 0.0012242635717855399 -0.0042608839777737448 0 0.0012192305752629219 -0.0042414034751069073 0 0.0012526172455629566 -0.0042368088906083994 0 0.0012242635717855399 -0.0042608839777737448 0 0.0012489625523049357 -0.004233967538966165 0 0.0012242635717855399 -0.0042608839777737448 0 0.0012489625523049357 -0.004233967538966165 0 0.0012192305752629219 -0.0042414034751069073 0 0.0012489625523049357 -0.004233967538966165 0 0.0012192305752629219 -0.0042414034751069073 0 0.0012556328972672466 -0.0042127212225696277 0 0.0012686180974116911 -0.0042101115611424987 0 0.0012144482894037223 -0.0041885389780776999 0 0.0012951066580214091 -0.0042056308002556874 0 0.0012556328972672466 -0.0042127212225696277 0 0.0013269759261077283 -0.0041680231255216641 0 0.0012192305752629219 -0.0042414034751069073 0 0.0012556328972672466 -0.0042127212225696277 0 0.0011632783017201313 -0.0042326138074657823 0 0.0012951066580214091 -0.0042056308002556874 0 0.0012556328972672466 -0.0042127212225696277 0 0.0012881089493952651 -0.0042211918393969504 0 0.0013670662290146431 -0.0041788262903547282 0 0.0013269759261077283 -0.0041680231255216641 0 0.0013393917055762503 -0.0041869167629557556 0 0.0011926133844729985 -0.004262861475430953 0 0.0012192305752629219 -0.0042414034751069073 0 0.0011632783017201313 -0.0042326138074657823 0 0.0012951066580214091 -0.0042056308002556874 0 0.0013269759261077283 -0.0041680231255216641 0 0.0013230048907044362 -0.004196069220486748 0 0.0012951066580214091 -0.0042056308002556874 0 0.0013230048907044362 -0.004196069220486748 0 0.0013132937304646257 -0.0042144148205388952 0 0.0013230048907044362 -0.004196069220486748 0 0.0013397771718038646 -0.0042036739960406187 0 0.0013132937304646257 -0.0042144148205388952 0 0.0013269759261077283 -0.0041680231255216641 0 0.0013230048907044362 -0.004196069220486748 0 0.0013393917055762503 -0.0041869167629557556 0 0.0013670662290146431 -0.0041788262903547282 0 0.0013393917055762503 -0.0041869167629557556 0 0.0013397771718038646 -0.0042036739960406187 0 0.0013230048907044362 -0.004196069220486748 0 0.0013393917055762503 -0.0041869167629557556 0 0.0013397771718038646 -0.0042036739960406187 0 0.0013397771718038646 -0.0042036739960406187 0 0.0013132937304646257 -0.0042144148205388952 0 0.0013324106171839498 -0.0042270229366462592 0 0.0013629239691673361 -0.0042147298431689335 0 0.0013397771718038646 -0.0042036739960406187 0 0.0013324106171839498 -0.0042270229366462592 0 0.0013132937304646257 -0.0042144148205388952 0 0.0013067276417711858 -0.0042309126303128088 0 0.0012881089493952651 -0.0042211918393969504 0 0.0013132937304646257 -0.0042144148205388952 0 0.0013067276417711858 -0.0042309126303128088 0 0.0013324106171839498 -0.0042270229366462592 0 0.001315802873977485 -0.0042483424654068741 0 0.0013067276417711858 -0.0042309126303128088 0 0.0013324106171839498 -0.0042270229366462592 0 0.0013598064485729885 -0.0042440228210670833 0 0.001315802873977485 -0.0042483424654068741 0 0.0013324106171839498 -0.0042270229366462592 0 0.0012556328972672466 -0.0042127212225696277 0 0.001269053465310394 -0.0042247817389288308 0 0.0012881089493952651 -0.0042211918393969504 0 0.0012951066580214091 -0.0042056308002556874 0 0.0013132937304646257 -0.0042144148205388952 0 0.0012881089493952651 -0.0042211918393969504 0 0.001315802873977485 -0.0042483424654068741 0 0.0013067276417711858 -0.0042309126303128088 0 0.0012890658490204241 -0.0042383590377596874 0 0.0013067276417711858 -0.0042309126303128088 0 0.0012881089493952651 -0.0042211918393969504 0 0.0012890658490204241 -0.0042383590377596874 0 0.001269053465310394 -0.0042247817389288308 0 0.0012881089493952651 -0.0042211918393969504 0 0.0012890658490204241 -0.0042383590377596874 0 0.001269053465310394 -0.0042247817389288308 0 0.0012890658490204241 -0.0042383590377596874 0 0.0012715334094538519 -0.0042361581985803651 0 0.0012633499390988436 -0.0042425288483277932 0 0.0012623831946036541 -0.004248564490596793 0 0.0012539128384026256 -0.0042214937214559911 0 0.0012633499390988436 -0.0042425288483277932 0 0.0012715334094538519 -0.0042361581985803651 0 0.0012539128384026256 -0.0042214937214559911 0 0.00071169737518106586 -0.0043597844392746403 0 0.00026844049740426046 -0.0045708873718509754 0 -0.00064196649537323115 -0.004735801433454691 0 -0.00072801778077684679 -0.0047114491330019354 0 -0.00064874862126478364 -0.004927745640154 0 0.001269053465310394 -0.0042247817389288308 0 0.0012715334094538519 -0.0042361581985803651 0 0.0012539128384026256 -0.0042214937214559911 0 -0.00064196649537323115 -0.004735801433454691 0 -0.00056916067683477061 -0.0047948624474736688 0 -0.00064874862126478364 -0.004927745640154 0 -0.00048054813721702699 -0.0048044097807643411 0 -0.00056916067683477061 -0.0047948624474736688 0 -0.00053275921511668851 -0.0048861007769484084 0 -0.00056916067683477061 -0.0047948624474736688 0 -0.00053275921511668851 -0.0048861007769484084 0 -0.00064874862126478364 -0.004927745640154 0 0.00022655941462680894 -0.004776998042535844 0 0.00026844049740426046 -0.0045708873718509754 0 -0.00053275921511668851 -0.0048861007769484084 0 -0.00048648093219175208 -0.0049762966975224372 0 -0.00064874862126478364 -0.004927745640154 0 -0.00057184834742939083 -0.0051412249099262123 0 -0.00053411569162746238 -0.0050341760529726449 0 -0.00064874862126478364 -0.004927745640154 0 -0.00048648093219175208 -0.0049762966975224372 0 -0.00053411569162746238 -0.0050341760529726449 0 -0.00064874862126478364 -0.004927745640154 0 -0.00042886976055049294 -0.005091717703291563 0 -0.00048648093219175208 -0.0049762966975224372 0 -0.00053411569162746238 -0.0050341760529726449 0 0.001259081626888867 -0.0042406479862906821 0 0.0012568935594605593 -0.0042276650655670182 0 0.0012539128384026256 -0.0042214937214559911 0 0.0012526172455629566 -0.0042368088906083994 0 0.0012573660942381036 -0.0042347274919815187 0 0.0012568935594605593 -0.0042276650655670182 0 0.0012489625523049357 -0.004233967538966165 0 0.0012556328972672466 -0.0042127212225696277 0 0.0012568935594605593 -0.0042276650655670182 0 0.0012526172455629566 -0.0042368088906083994 0 0.0012489625523049357 -0.004233967538966165 0 0.0012568935594605593 -0.0042276650655670182 0 0.0012556328972672466 -0.0042127212225696277 0 0.0012568935594605593 -0.0042276650655670182 0 0.0012539128384026256 -0.0042214937214559911 0 0.0012556328972672466 -0.0042127212225696277 0 0.001269053465310394 -0.0042247817389288308 0 0.0012539128384026256 -0.0042214937214559911 0 0.0050031778349482322 -0.0040995087661357989 0 0.0050398754844442738 -0.0039163271676714755 0 0.0049998095556386376 -0.0036570812487356726 0 0.0050031778349482322 -0.0040995087661357989 0 0.0049995470332733771 -0.004227411172310248 0 0.0049998095556386376 -0.0036570812487356726 0 0.0050031778349482322 -0.0040995087661357989 0 0.0050398754844442738 -0.0039163271676714755 0 0.0049738460103209495 -0.004048281540226276 0 0.0050398754844442738 -0.0039163271676714755 0 0.0049738460103209495 -0.004048281540226276 0 0.0050041610258121857 -0.0039996433718994103 0 0.0049738460103209495 -0.004048281540226276 0 0.0047298956285287894 -0.0041242637446744718 0 0.0050041610258121857 -0.0039996433718994103 0 0.0050031778349482322 -0.0040995087661357989 0 0.0049738460103209495 -0.004048281540226276 0 0.0048694016533686654 -0.0041337099544011408 0 0.0049738460103209495 -0.004048281540226276 0 0.0048694016533686654 -0.0041337099544011408 0 0.0047298956285287894 -0.0041242637446744718 0 0.0050031778349482322 -0.0040995087661357989 0 0.0049172223055893105 -0.0042038199709394054 0 0.0049069348721415109 -0.0044615611468504937 0 0.0048694016533686654 -0.0041337099544011408 0 0.0049172223055893105 -0.0042038199709394054 0 0.0047309227378970597 -0.0041946443865285808 0 0.0050031778349482322 -0.0040995087661357989 0 0.0048694016533686654 -0.0041337099544011408 0 0.0049172223055893105 -0.0042038199709394054 0 0.0049172223055893105 -0.0042038199709394054 0 0.004912652616848639 -0.0043057440778856851 0 0.0047856390066869318 -0.0042243129624081801 0 0.0049172223055893105 -0.0042038199709394054 0 0.0047856390066869318 -0.0042243129624081801 0 0.0047309227378970597 -0.0041946443865285808 0 0.0049172223055893105 -0.0042038199709394054 0 0.0049069348721415109 -0.0044615611468504937 0 0.004912652616848639 -0.0043057440778856851 0 0.0050031778349482322 -0.0040995087661357989 0 0.0049995470332733771 -0.004227411172310248 0 0.0049069348721415109 -0.0044615611468504937 0 0.0049995470332733771 -0.004227411172310248 0 0.0049069348721415109 -0.0044615611468504937 0 0.0049995736471375625 -0.0049998693453512464 0 0.0049069348721415109 -0.0044615611468504937 0 0.0049995736471375625 -0.0049998693453512464 0 0.0047857703808205998 -0.0048393757962654424 0 0.0049995736471375625 -0.0049998693453512464 0 0.0045243718332652104 -0.0049996124781406751 0 0.0047857703808205998 -0.0048393757962654424 0 0.0045243718332652104 -0.0049996124781406751 0 0.0046642830925587818 -0.0048824234554144781 0 0.0044608943153211641 -0.0049675072985652926 0 0.0047857703808205998 -0.0048393757962654424 0 0.0046642830925587818 -0.0048824234554144781 0 0.0048296233079409209 -0.0046838426291973805 0 0.0045243718332652104 -0.0049996124781406751 0 0.0047857703808205998 -0.0048393757962654424 0 0.0046642830925587818 -0.0048824234554144781 0 0.0046642830925587818 -0.0048824234554144781 0 0.0048296233079409209 -0.0046838426291973805 0 0.0046719021658810506 -0.0048594297442588492 0 0.0049069348721415109 -0.0044615611468504937 0 0.0047857703808205998 -0.0048393757962654424 0 0.0048296233079409209 -0.0046838426291973805 0 0.0049709269662507527 -0.0042136956526733216 0 0.0046593418038033078 -0.004700163152386699 0 0.0048979712020173777 -0.0047507839740633046 0 0.0046593418038033078 -0.004700163152386699 0 0.0048296233079409209 -0.0046838426291973805 0 0.004912652616848639 -0.0043057440778856851 0 0.0051727767221060334 -0.0048141546229633391 0 0.0049069348721415109 -0.0044615611468504937 0 0.0048296233079409209 -0.0046838426291973805 0 0.004912652616848639 -0.0043057440778856851 0 0.004912652616848639 -0.0043057440778856851 0 0.0046649681692821059 -0.0041493856750614358 0 0.0047869159387765601 -0.0039468561650056891 0 0.004912652616848639 -0.0043057440778856851 0 0.0046649681692821059 -0.0041493856750614358 0 0.0047856390066869318 -0.0042243129624081801 0 0.0046649681692821059 -0.0041493856750614358 0 0.0046405576465938254 -0.0040023302082484438 0 0.0044095270875817265 -0.0040190417080485027 0 0.0046649681692821059 -0.0041493856750614358 0 0.0044095270875817265 -0.0040190417080485027 0 0.0043590879382291231 -0.0042372433528135144 0 0.0046405576465938254 -0.0040023302082484438 0 0.0046101599750666871 -0.0038665137714271702 0 0.0044095270875817265 -0.0040190417080485027 0 0.0046101599750666871 -0.0038665137714271702 0 0.0044315103949314587 -0.0038036477056613092 0 0.0044095270875817265 -0.0040190417080485027 0 0.0046649681692821059 -0.0041493856750614358 0 0.0046405576465938254 -0.0040023302082484438 0 0.0047869159387765601 -0.0039468561650056891 0 0.0046405576465938254 -0.0040023302082484438 0 0.0047869159387765601 -0.0039468561650056891 0 0.0046101599750666871 -0.0038665137714271702 0 0.0046593418038033078 -0.004700163152386699 0 0.0043745622590825109 -0.0045281359285745748 0 0.0045243718332652104 -0.0049996124781406751 0 0.0044608943153211641 -0.0049675072985652926 0 0.0041816534493240957 -0.0049999717758131201 0 0.0046642830925587818 -0.0048824234554144781 0 0.0046719021658810506 -0.0048594297442588492 0 0.0044608943153211641 -0.0049675072985652926 0 0.0042855498281208467 -0.0052204266822439655 0 0.0042291519063206578 -0.0051205535059096067 0 0.0041926845674783199 -0.0051914521660112525 0 0.0046593418038033078 -0.004700163152386699 0 0.0043389403512869833 -0.0050660387341793858 0 0.0042291519063206578 -0.0051205535059096067 0 0.0041926845674783199 -0.0051914521660112525 0 0.0041681309256158365 -0.0051399791555643039 0 0.0041926845674783199 -0.0051914521660112525 0 0.0041681309256158365 -0.0051399791555643039 0 0.0040937523644027744 -0.0051625027971984837 0 0.0043745622590825109 -0.0045281359285745748 0 0.0041685440064195504 -0.0047271041652134395 0 0.0041681309256158365 -0.0051399791555643039 0 0.0041522217720180166 -0.0050874217767128138 0 0.0040937523644027744 -0.0051625027971984837 0 0.0042291519063206578 -0.0051205535059096067 0 0.0041681309256158365 -0.0051399791555643039 0 0.0041522217720180166 -0.0050874217767128138 0 0.0042291519063206578 -0.0051205535059096067 0 0.0041522217720180166 -0.0050874217767128138 0 0.0041812534230770138 -0.0049999858299553026 0 0.0041522217720180166 -0.0050874217767128138 0 0.0040771556170987313 -0.0049999979733653796 0 0.0040937523644027744 -0.0051625027971984837 0 0.004076966803323724 -0.0050005761488625079 0 0.0041685440064195504 -0.0047271041652134395 0 0.0041522217720180166 -0.0050874217767128138 0 0.0040771556170987313 -0.0049999979733653796 0 0.0041812534230770138 -0.0049999858299553026 0 0.0043389403512869833 -0.0050660387341793858 0 0.0041813810230416906 -0.0049999179448038744 0 0.0039071736338836937 -0.0049337125936178708 0 0.0037823427435130239 -0.0049999056551343771 0 0.0039478512279465632 -0.00502705752664462 0 0.0040766453719280086 -0.0049998926110685835 0 0.0037823427435130239 -0.0049999056551343771 0 0.0039478512279465632 -0.00502705752664462 0 0.0040766453719280086 -0.0049998926110685835 0 0.0039478512279465632 -0.00502705752664462 0 0.003992389984908036 -0.0051005425685391632 0 0.0038624400868182045 -0.0049726098655383079 0 0.0041685440064195504 -0.0047271041652134395 0 0.0039071736338836937 -0.0049337125936178708 0 0.0039478512279465632 -0.00502705752664462 0 0.003992389984908036 -0.0051005425685391632 0 0.0039071736338836937 -0.0049337125936178708 0 0.0039657570568274528 -0.004670341205370427 0 0.0040533457560420188 -0.0046398067990152244 0 0.0039071736338836937 -0.0049337125936178708 0 0.0040533457560420188 -0.0046398067990152244 0 0.0040585103587343786 -0.0047320361866356559 0 0.0040533457560420188 -0.0046398067990152244 0 0.004163436031416435 -0.0045656042113295017 0 0.0040585103587343786 -0.0047320361866356559 0 0.0040533457560420188 -0.0046398067990152244 0 0.0042281676791545795 -0.0043909714832256631 0 0.004163436031416435 -0.0045656042113295017 0 0.0041685440064195504 -0.0047271041652134395 0 0.0042533459225571092 -0.0041709971538509468 0 0.0039657570568274528 -0.004670341205370427 0 0.0040533457560420188 -0.0046398067990152244 0 0.0040595981451523487 -0.0044956309433383662 0 0.0040533457560420188 -0.0046398067990152244 0 0.0040595981451523487 -0.0044956309433383662 0 0.0042281676791545795 -0.0043909714832256631 0 0.0040595981451523487 -0.0044956309433383662 0 0.0042281676791545795 -0.0043909714832256631 0 0.0043590879382291231 -0.0042372433528135144 0 0.0042533459225571092 -0.0041709971538509468 0 0.0043205275376438411 -0.0042970297024545424 0 0.0042281676791545795 -0.0043909714832256631 0 0.0042969111962234486 -0.0044463366265645558 0 0.004163436031416435 -0.0045656042113295017 0 0.0042281676791545795 -0.0043909714832256631 0 0.0043332872177411393 -0.0043158865971603833 0 0.0042969111962234486 -0.0044463366265645558 0 0.0042281676791545795 -0.0043909714832256631 0 0.0043332872177411393 -0.0043158865971603833 0 0.0043776899759581716 -0.0042272184123325384 0 0.0043332872177411393 -0.0043158865971603833 0 0.0043776899759581716 -0.0042272184123325384 0 0.004396911473774778 -0.0042293436468660017 0 0.0043776899759581716 -0.0042272184123325384 0 0.004396911473774778 -0.0042293436468660017 0 0.0044536124330595639 -0.004160944006451458 0 0.004396911473774778 -0.0042293436468660017 0 0.0044536124330595639 -0.004160944006451458 0 0.0044692737667488816 -0.0041697477614783514 0 0.0043776899759581716 -0.0042272184123325384 0 0.0044536124330595639 -0.004160944006451458 0 0.0045217591515388606 -0.0041932343795517604 0 0.0042281676791545795 -0.0043909714832256631 0 0.0043776899759581716 -0.0042272184123325384 0 0.0043590879382291231 -0.0042372433528135144 0 0.0043776899759581716 -0.0042272184123325384 0 0.0043590879382291231 -0.0042372433528135144 0 0.0045217591515388606 -0.0041932343795517604 0 0.0043590879382291231 -0.0042372433528135144 0 0.0045928983787861966 -0.0042177790407802495 0 0.0045217591515388606 -0.0041932343795517604 0 0.0046649681692821059 -0.0041493856750614358 0 0.0043590879382291231 -0.0042372433528135144 0 0.0045928983787861966 -0.0042177790407802495 0 0.0045928983787861966 -0.0042177790407802495 0 0.0047856390066869318 -0.0042243129624081801 0 0.0047309227378970597 -0.0041946443865285808 0 0.0046649681692821059 -0.0041493856750614358 0 0.0045928983787861966 -0.0042177790407802495 0 0.0047856390066869318 -0.0042243129624081801 0 0.0048694016533686654 -0.0041337099544011408 0 0.0047309227378970597 -0.0041946443865285808 0 0.0046896230003574775 -0.0041569713418593704 0 0.0047309227378970597 -0.0041946443865285808 0 0.0045217591515388606 -0.0041932343795517604 0 0.0046896230003574775 -0.0041569713418593704 0 0.0045928983787861966 -0.0042177790407802495 0 0.0047309227378970597 -0.0041946443865285808 0 0.0045217591515388606 -0.0041932343795517604 0 0.0045217591515388606 -0.0041932343795517604 0 0.0046067296842829397 -0.0041346962532594058 0 0.0046896230003574775 -0.0041569713418593704 0 0.0046067296842829397 -0.0041346962532594058 0 0.0046896230003574775 -0.0041569713418593704 0 0.0047298956285287894 -0.0041242637446744718 0 0.0048694016533686654 -0.0041337099544011408 0 0.0046896230003574775 -0.0041569713418593704 0 0.0047298956285287894 -0.0041242637446744718 0 0.0047392677063339784 -0.0040878361415756142 0 0.0047992113486867143 -0.0040273545608451398 0 0.0047298956285287894 -0.0041242637446744718 0 0.0046424307066817811 -0.0040988285687153618 0 0.0046209696908273068 -0.0040837859384258018 0 0.0046067296842829397 -0.0041346962532594058 0 0.0047298956285287894 -0.0041242637446744718 0 0.0046424307066817811 -0.0040988285687153618 0 0.0046067296842829397 -0.0041346962532594058 0 0.0046424307066817811 -0.0040988285687153618 0 0.0045778308314817261 -0.0040972376377177329 0 0.0046424307066817811 -0.0040988285687153618 0 0.0045778308314817261 -0.0040972376377177329 0 0.0045851923285881594 -0.0040546750005941209 0 0.0045778308314817261 -0.0040972376377177329 0 0.0045372352665501723 -0.0040651754494909322 0 0.0045266930052340624 -0.0041284096489574602 0 0.0045372352665501723 -0.0040651754494909322 0 0.0044978678443431275 -0.0041043467757328408 0 0.0045266930052340624 -0.0041284096489574602 0 0.0045778308314817261 -0.0040972376377177329 0 0.0045372352665501723 -0.0040651754494909322 0 0.0045851923285881594 -0.0040546750005941209 0 0.0045372352665501723 -0.0040651754494909322 0 0.0045188200436600701 -0.0040544105561716396 0 0.004530400616084531 -0.0040007703298623933 0 0.0045188200436600701 -0.0040544105561716396 0 0.0045374700136318622 -0.0040303574771133228 0 0.004530400616084531 -0.0040007703298623933 0 0.0045372352665501723 -0.0040651754494909322 0 0.0045188200436600701 -0.0040544105561716396 0 0.0044978678443431275 -0.0041043467757328408 0 0.0045188200436600701 -0.0040544105561716396 0 0.0044978678443431275 -0.0041043467757328408 0 0.0045045279568278578 -0.0040974041965135301 0 0.0044536124330595639 -0.004160944006451458 0 0.0044978678443431275 -0.0041043467757328408 0 0.0045045279568278578 -0.0040974041965135301 0 0.0044536124330595639 -0.004160944006451458 0 0.0044978678443431275 -0.0041043467757328408 0 0.0045266930052340624 -0.0041284096489574602 0 0.0044536124330595639 -0.004160944006451458 0 0.0045217591515388606 -0.0041932343795517604 0 0.0045266930052340624 -0.0041284096489574602 0 0.0045217591515388606 -0.0041932343795517604 0 0.0046067296842829397 -0.0041346962532594058 0 0.0045266930052340624 -0.0041284096489574602 0 0.0046067296842829397 -0.0041346962532594058 0 0.0045778308314817261 -0.0040972376377177329 0 0.0045266930052340624 -0.0041284096489574602 0 0.0045698689178018696 -0.0040854522808871745 0 0.0046655305296486455 -0.0040981140468349751 0 0.0045303315026863694 -0.0041848459126095257 0 0.0045698689178018696 -0.0040854522808871745 0 0.0045045279568278578 -0.0040974041965135301 0 0.0044692737667488816 -0.0041697477614783514 0 0.0045698689178018696 -0.0040854522808871745 0 0.0045045279568278578 -0.0040974041965135301 0 0.0045696708504239436 -0.0040293162343510974 0 0.0044536124330595639 -0.004160944006451458 0 0.0045045279568278578 -0.0040974041965135301 0 0.0044692737667488816 -0.0041697477614783514 0 0.0045045279568278578 -0.0040974041965135301 0 0.0045374700136318622 -0.0040303574771133228 0 0.0045696708504239436 -0.0040293162343510974 0 0.0045374700136318622 -0.0040303574771133228 0 0.0045883362255397632 -0.0039442509266158473 0 0.004530400616084531 -0.0040007703298623933 0 0.0045188200436600701 -0.0040544105561716396 0 0.0045045279568278578 -0.0040974041965135301 0 0.0045374700136318622 -0.0040303574771133228 0 0.0045374700136318622 -0.0040303574771133228 0 0.0045696708504239436 -0.0040293162343510974 0 0.0045883362255397632 -0.0039442509266158473 0 0.0045696708504239436 -0.0040293162343510974 0 0.0046632021519902441 -0.0039892135352417989 0 0.0045883362255397632 -0.0039442509266158473 0 0.0046632021519902441 -0.0039892135352417989 0 0.0046981649304865519 -0.0038907463076155104 0 0.0045883362255397632 -0.0039442509266158473 0 0.0045698689178018696 -0.0040854522808871745 0 0.0045696708504239436 -0.0040293162343510974 0 0.0046632021519902441 -0.0039892135352417989 0 0.0046632021519902441 -0.0039892135352417989 0 0.0048123023487495978 -0.0039934173323704913 0 0.0047755290779459732 -0.0038839119978953374 0 0.0046632021519902441 -0.0039892135352417989 0 0.0048123023487495978 -0.0039934173323704913 0 0.0046655305296486455 -0.0040981140468349751 0 0.0046632021519902441 -0.0039892135352417989 0 0.0047755290779459732 -0.0038839119978953374 0 0.0046981649304865519 -0.0038907463076155104 0 0.0048123023487495978 -0.0039934173323704913 0 0.0047750145988410151 -0.0041221285507639866 0 0.0049039559909581209 -0.0040991610999013533 0 0.0048123023487495978 -0.0039934173323704913 0 0.0047750145988410151 -0.0041221285507639866 0 0.0046655305296486455 -0.0040981140468349751 0 0.0045698689178018696 -0.0040854522808871745 0 0.0046632021519902441 -0.0039892135352417989 0 0.0046655305296486455 -0.0040981140468349751 0 0.0046655305296486455 -0.0040981140468349751 0 0.0046582121450402204 -0.0042114344770395251 0 0.0045303315026863694 -0.0041848459126095257 0 0.0047750145988410151 -0.0041221285507639866 0 0.0046655305296486455 -0.0040981140468349751 0 0.0046582121450402204 -0.0042114344770395251 0 0.0046582121450402204 -0.0042114344770395251 0 0.0045620234073302469 -0.0042678758297827876 0 0.0045303315026863694 -0.0041848459126095257 0 0.0047750145988410151 -0.0041221285507639866 0 0.0047789909375560921 -0.0042342260839697545 0 0.004883133004083785 -0.0042227561898406643 0 0.0047750145988410151 -0.0041221285507639866 0 0.0046582121450402204 -0.0042114344770395251 0 0.0047789909375560921 -0.0042342260839697545 0 0.0046582121450402204 -0.0042114344770395251 0 0.0047789909375560921 -0.0042342260839697545 0 0.004758946231836301 -0.0043422143695994722 0 0.004653919890243244 -0.0042133867919993901 0 0.0047860459596755865 -0.004339216721431189 0 0.0047789909375560921 -0.0042342260839697545 0 0.004758946231836301 -0.0043422143695994722 0 0.0048518552846613799 -0.0043302950205175248 0 0.0047271391239756249 -0.004320348134298004 0 0.0045620234073302469 -0.0042678758297827876 0 0.0045118220355414773 -0.0043807027548482692 0 0.0046582121450402204 -0.0042114344770395251 0 0.0047271391239756249 -0.004320348134298004 0 0.0045620234073302469 -0.0042678758297827876 0 0.0045620234073302469 -0.0042678758297827876 0 0.0044301495456567598 -0.0042734822211861678 0 0.0045118220355414773 -0.0043807027548482692 0 0.0045620234073302469 -0.0042678758297827876 0 0.0045303315026863694 -0.0041848459126095257 0 0.0044301495456567598 -0.0042734822211861678 0 0.0045698689178018696 -0.0040854522808871745 0 0.0045303315026863694 -0.0041848459126095257 0 0.0044692737667488816 -0.0041697477614783514 0 0.004396911473774778 -0.0042293436468660017 0 0.0044692737667488816 -0.0041697477614783514 0 0.0044301495456567598 -0.0042734822211861678 0 0.0045303315026863694 -0.0041848459126095257 0 0.0044692737667488816 -0.0041697477614783514 0 0.0044301495456567598 -0.0042734822211861678 0 0.0043332872177411393 -0.0043158865971603833 0 0.004396911473774778 -0.0042293436468660017 0 0.0044301495456567598 -0.0042734822211861678 0 0.0043332872177411393 -0.0043158865971603833 0 0.0044301495456567598 -0.0042734822211861678 0 0.0042969111962234486 -0.0044463366265645558 0 0.0044301495456567598 -0.0042734822211861678 0 0.0042969111962234486 -0.0044463366265645558 0 0.0045118220355414773 -0.0043807027548482692 0 0.0042969111962234486 -0.0044463366265645558 0 0.0045118220355414773 -0.0043807027548482692 0 0.0044347829036081145 -0.0045633201150493581 0 0.0042969111962234486 -0.0044463366265645558 0 0.0044347829036081145 -0.0045633201150493581 0 0.0041859585353200193 -0.0046562397686353701 0 0.0042969111962234486 -0.0044463366265645558 0 0.004163436031416435 -0.0045656042113295017 0 0.0041859585353200193 -0.0046562397686353701 0 0.004163436031416435 -0.0045656042113295017 0 0.0041859585353200193 -0.0046562397686353701 0 0.0040585103587343786 -0.0047320361866356559 0 0.0039071736338836937 -0.0049337125936178708 0 0.0040585103587343786 -0.0047320361866356559 0 0.0039961737265898816 -0.0048508992366308274 0 0.0041859585353200193 -0.0046562397686353701 0 0.0040585103587343786 -0.0047320361866356559 0 0.0039961737265898816 -0.0048508992366308274 0 0.0041859585353200193 -0.0046562397686353701 0 0.0039961737265898816 -0.0048508992366308274 0 0.0043942512053129993 -0.0048399787454740488 0 0.0044347829036081145 -0.0045633201150493581 0 0.0041859585353200193 -0.0046562397686353701 0 0.0043942512053129993 -0.0048399787454740488 0 0.0039961737265898816 -0.0048508992366308274 0 0.0043942512053129993 -0.0048399787454740488 0 0.0037266340611070759 -0.0050322390919533798 0 0.0034499228554635566 -0.0052081649588732173 0 0.0034867771372634063 -0.0049999699221278575 0 0.0037266340611070759 -0.0050322390919533798 0 0.0039316793017313461 -0.0049958278476875733 0 0.0037617391512619483 -0.0050389074721543994 0 0.0037823427435130239 -0.0049999056551343771 0 0.0034867771372634063 -0.0049999699221278575 0 0.0037266340611070759 -0.0050322390919533798 0 0.0039071736338836937 -0.0049337125936178708 0 0.0037823427435130239 -0.0049999056551343771 0 0.0037266340611070759 -0.0050322390919533798 0 0.0039071736338836937 -0.0049337125936178708 0 0.0039961737265898816 -0.0048508992366308274 0 0.0037266340611070759 -0.0050322390919533798 0 0.0031912865752232963 -0.0050000131348523023 0 0.0032709197136020622 -0.0051678192713573729 0 0.0030637249310400626 -0.0051302424775399912 0 0.0034499228554635566 -0.0052081649588732173 0 0.0034867771372634063 -0.0049999699221278575 0 0.0032709197136020622 -0.0051678192713573729 0 0.0034867771372634063 -0.0049999699221278575 0 0.0031912865752232963 -0.0050000131348523023 0 0.0032709197136020622 -0.0051678192713573729 0 0.0034499228554635566 -0.0052081649588732173 0 0.0032709197136020622 -0.0051678192713573729 0 0.00326995564121744 -0.0053344491349145394 0 0.0044347829036081145 -0.0045633201150493581 0 0.0043942512053129993 -0.0048399787454740488 0 0.0046668170479953258 -0.0046287461894135122 0 0.0039316793017313461 -0.0049958278476875733 0 0.0038952123977574341 -0.0050474167824102346 0 0.0032709197136020622 -0.0051678192713573729 0 0.00326995564121744 -0.0053344491349145394 0 0.0031148805121190377 -0.0052763469951413134 0 0.0032709197136020622 -0.0051678192713573729 0 0.0031148805121190377 -0.0052763469951413134 0 0.0030637249310400626 -0.0051302424775399912 0 0.0046668170479953258 -0.0046287461894135122 0 0.0046388816308244978 -0.0044533516260811768 0 0.0048427753836828621 -0.0044678101517291579 0 0.00326995564121744 -0.0053344491349145394 0 0.0031041218672216773 -0.0054693197202717687 0 0.0031148805121190377 -0.0052763469951413134 0 0.0038952123977574341 -0.0050474167824102346 0 0.0043030161955056861 -0.004656452775939097 0 0.0044347829036081145 -0.0045633201150493581 0 0.0046668170479953258 -0.0046287461894135122 0 0.0046388816308244978 -0.0044533516260811768 0 0.0045118220355414773 -0.0043807027548482692 0 0.0044347829036081145 -0.0045633201150493581 0 0.0046388816308244978 -0.0044533516260811768 0 0.0047271391239756249 -0.004320348134298004 0 0.0045118220355414773 -0.0043807027548482692 0 0.0046388816308244978 -0.0044533516260811768 0 0.0047860459596755865 -0.004339216721431189 0 0.0043030161955056861 -0.004656452775939097 0 0.0047271391239756249 -0.004320348134298004 0 0.0046388816308244978 -0.0044533516260811768 0 0.0048427753836828621 -0.0044678101517291579 0 0.0043030161955056861 -0.004656452775939097 0 0.0051429250223171069 -0.0042567129804550819 0 0.004758946231836301 -0.0043422143695994722 0 0.0048418039214711377 -0.0044468233163840829 0 0.0048518552846613799 -0.0043302950205175248 0 0.0048418039214711377 -0.0044468233163840829 0 0.0049746087494101617 -0.004343074735172218 0 0.0048518552846613799 -0.0043302950205175248 0 0.0048913543514184643 -0.0045530129317652348 0 0.0050516605304835203 -0.0046017546005765299 0 0.0049746087494101617 -0.004343074735172218 0 0.0046980880277676905 -0.0045435360114263251 0 0.0048913543514184643 -0.0045530129317652348 0 0.0049746087494101617 -0.004343074735172218 0 0.0048913543514184643 -0.0045530129317652348 0 0.0048352067620444561 -0.0047223784905860355 0 0.0050516605304835203 -0.0046017546005765299 0 0.0048352067620444561 -0.0047223784905860355 0 0.0049589649873772092 -0.0049008012997468894 0 0.0050516605304835203 -0.0046017546005765299 0 0.0046980880277676905 -0.0045435360114263251 0 0.0048913543514184643 -0.0045530129317652348 0 0.0048352067620444561 -0.0047223784905860355 0 0.0031041218672216773 -0.0054693197202717687 0 0.002985230669150686 -0.0053330843320857912 0 0.0031148805121190377 -0.0052763469951413134 0 0.0043030161955056861 -0.004656452775939097 0 0.0039294441051051041 -0.0050680244506540054 0 0.0031148805121190377 -0.0052763469951413134 0 0.0029939629765608137 -0.0052127400647642222 0 0.0030637249310400626 -0.0051302424775399912 0 0.0029939629765608137 -0.0052127400647642222 0 0.0029489759193530251 -0.0051356330897987723 0 0.0030637249310400626 -0.0051302424775399912 0 0.002985230669150686 -0.0053330843320857912 0 0.0031148805121190377 -0.0052763469951413134 0 0.0029939629765608137 -0.0052127400647642222 0 0.0039294441051051041 -0.0050680244506540054 0 0.0035614547930453472 -0.0050452866640779657 0 0.002985230669150686 -0.0053330843320857912 0 0.0029939629765608137 -0.0052127400647642222 0 0.0028629136087407851 -0.0051890023853587682 0 0.0035614547930453472 -0.0050452866640779657 0 0.0033749180782589681 -0.0049526083407094561 0 0.0029939629765608137 -0.0052127400647642222 0 0.0028629136087407851 -0.0051890023853587682 0 0.0029489759193530251 -0.0051356330897987723 0 0.0028629136087407851 -0.0051890023853587682 0 0.0029489759193530251 -0.0051356330897987723 0 0.0028961691129421384 -0.0049999943239153726 0 0.0027421494062768292 -0.0051335548857092917 0 0.0027289101284699523 -0.0051097590457634418 0 0.0028959489370209228 -0.0049999629298542068 0 0.0029489759193530251 -0.0051356330897987723 0 0.0028961691129421384 -0.0049999943239153726 0 0.0030637249310400626 -0.0051302424775399912 0 0.0035614547930453472 -0.0050452866640779657 0 0.0028958796070850763 -0.0050002954727828225 0 0.0031912865752232963 -0.0050000131348523023 0 0.0028961691129421384 -0.0049999943239153726 0 0.0030637249310400626 -0.0051302424775399912 0 0.0023922147975081339 -0.0049999611210986457 0 0.0024769873868876425 -0.0050843941616928292 0 0.0026440598005273322 -0.004999959594006044 0 0.0024769873868876425 -0.0050843941616928292 0 0.0026440598005273322 -0.004999959594006044 0 0.0026027821174971454 -0.0050876071461509248 0 0.0027289101284699523 -0.0051097590457634418 0 0.0028959489370209228 -0.0049999629298542068 0 0.0026440598005273322 -0.004999959594006044 0 0.0027289101284699523 -0.0051097590457634418 0 0.0026440598005273322 -0.004999959594006044 0 0.0026027821174971454 -0.0050876071461509248 0 0.0027289101284699523 -0.0051097590457634418 0 0.0026027821174971454 -0.0050876071461509248 0 0.0025513356307536603 -0.0051603147126345608 0 0.0027245187344144732 -0.0051219545339328968 0 0.0025513356307536603 -0.0051603147126345608 0 0.0025368867772913159 -0.0052216096945727338 0 0.0027245187344144732 -0.0051219545339328968 0 0.0027289101284699523 -0.0051097590457634418 0 0.0025513356307536603 -0.0051603147126345608 0 0.0023681142326138077 -0.0051489643000475439 0 0.0024769873868876425 -0.0050843941616928292 0 0.0025513356307536603 -0.0051603147126345608 0 0.0024769873868876425 -0.0050843941616928292 0 0.0026027821174971454 -0.0050876071461509248 0 0.0025513356307536603 -0.0051603147126345608 0 0.0023681142326138077 -0.0051489643000475439 0 0.0023021403929810269 -0.0052316409122053088 0 0.0025513356307536603 -0.0051603147126345608 0 0.0023021403929810269 -0.0052316409122053088 0 0.0025513356307536603 -0.0051603147126345608 0 0.0024026115992364823 -0.0052497829661356226 0 0.0025513356307536603 -0.0051603147126345608 0 0.0025368867772913159 -0.0052216096945727338 0 0.0024026115992364823 -0.0052497829661356226 0 0.0035614547930453472 -0.0050452866640779657 0 0.0038326403257954683 -0.0048874256535226986 0 0.0050516605304835203 -0.0046017546005765299 0 0.0051188482471754473 -0.0043245557261432721 0 0.0049746087494101617 -0.004343074735172218 0 0.0038326403257954683 -0.0048874256535226986 0 0.0037475246101748233 -0.0048159590006297357 0 0.0025368867772913159 -0.0052216096945727338 0 0.0024026115992364823 -0.0052497829661356226 0 0.0023832396726312472 -0.0052971563325701519 0 0.0023021403929810269 -0.0052316409122053088 0 0.0024026115992364823 -0.0052497829661356226 0 0.0022545377515184799 -0.0052882710102774887 0 0.0021875501894199861 -0.0053452221322269214 0 0.0022545377515184799 -0.0052882710102774887 0 0.0023832396726312472 -0.0052971563325701519 0 0.0024026115992364823 -0.0052497829661356226 0 0.0022545377515184799 -0.0052882710102774887 0 0.0023832396726312472 -0.0052971563325701519 0 0.0021875501894199861 -0.0053452221322269214 0 0.0023832396726312472 -0.0052971563325701519 0 0.0022586627949416353 -0.0053919891179636274 0 0.0037475246101748233 -0.0048159590006297357 0 0.0037224966885543234 -0.0047375245103496201 0 0.0051188482471754473 -0.0043245557261432721 0 0.0050095074435772572 -0.0041924987898434418 0 0.0051700897350307612 -0.0041278770722113309 0 0.0051188482471754473 -0.0043245557261432721 0 0.0049746087494101617 -0.004343074735172218 0 0.0050095074435772572 -0.0041924987898434418 0 0.0049746087494101617 -0.004343074735172218 0 0.0048518552846613799 -0.0043302950205175248 0 0.004883133004083785 -0.0042227561898406643 0 0.0047789909375560921 -0.0042342260839697545 0 0.0048518552846613799 -0.0043302950205175248 0 0.004883133004083785 -0.0042227561898406643 0 0.004883133004083785 -0.0042227561898406643 0 0.0050095074435772572 -0.0041924987898434418 0 0.0049039559909581209 -0.0040991610999013533 0 0.0047750145988410151 -0.0041221285507639866 0 0.004883133004083785 -0.0042227561898406643 0 0.0049039559909581209 -0.0040991610999013533 0 0.0049746087494101617 -0.004343074735172218 0 0.004883133004083785 -0.0042227561898406643 0 0.0050095074435772572 -0.0041924987898434418 0 0.0050222826929891594 -0.0040541742112693985 0 0.0049039559909581209 -0.0040991610999013533 0 0.0049398129211921374 -0.0040030697899725879 0 0.0050095074435772572 -0.0041924987898434418 0 0.0050222826929891594 -0.0040541742112693985 0 0.0049039559909581209 -0.0040991610999013533 0 0.0048123023487495978 -0.0039934173323704913 0 0.0049039559909581209 -0.0040991610999013533 0 0.0049398129211921374 -0.0040030697899725879 0 0.0048123023487495978 -0.0039934173323704913 0 0.004916856731921557 -0.0039192656774263849 0 0.0048778885313569683 -0.0038309503787506707 0 0.0048123023487495978 -0.0039934173323704913 0 0.0049398129211921374 -0.0040030697899725879 0 0.004916856731921557 -0.0039192656774263849 0 0.0049398129211921374 -0.0040030697899725879 0 0.004916856731921557 -0.0039192656774263849 0 0.0050017830140360276 -0.0039293295473570326 0 0.0050222826929891594 -0.0040541742112693985 0 0.0050017830140360276 -0.0039293295473570326 0 0.0051042055858370383 -0.0039599506882855113 0 0.0050222826929891594 -0.0040541742112693985 0 0.0049398129211921374 -0.0040030697899725879 0 0.0050017830140360276 -0.0039293295473570326 0 0.0050017830140360276 -0.0039293295473570326 0 0.0051042055858370383 -0.0039599506882855113 0 0.0050674440610241128 -0.0038462899470017085 0 0.0051042055858370383 -0.0039599506882855113 0 0.0052237356891048047 -0.0039371645663104273 0 0.0051420551430152971 -0.0038655400074737974 0 0.0051042055858370383 -0.0039599506882855113 0 0.0052237356891048047 -0.0039371645663104273 0 0.0051700897350307612 -0.0041278770722113309 0 0.0021616058557447789 -0.0054204612035999708 0 0.0021588342260398805 -0.0054354918738005404 0 0.0022586627949416353 -0.0053919891179636274 0 0.0021875501894199861 -0.0053452221322269214 0 0.0021616058557447789 -0.0054204612035999708 0 0.0022586627949416353 -0.0053919891179636274 0 0.0036621918053482811 -0.0047551475687305335 0 0.0037224966885543234 -0.0047375245103496201 0 0.0050095074435772572 -0.0041924987898434418 0 0.0050222826929891594 -0.0040541742112693985 0 0.0051700897350307612 -0.0041278770722113309 0 0.0050222826929891594 -0.0040541742112693985 0 0.0051042055858370383 -0.0039599506882855113 0 0.0051700897350307612 -0.0041278770722113309 0 0.005152458195442639 -0.0037308274880549748 0 0.0051860751221766664 -0.0038029126288892804 0 0.0051303163911885592 -0.0037829781501999941 0 0.005152458195442639 -0.0037308274880549748 0 0.0051303163911885592 -0.0037829781501999941 0 0.0050718339808362338 -0.0037230257730230054 0 0.005152458195442639 -0.0037308274880549748 0 0.0050718339808362338 -0.0037230257730230054 0 0.0051456901213399152 -0.003620523461471683 0 0.005152458195442639 -0.0037308274880549748 0 0.0051981073214087776 -0.003734938339221807 0 0.0051456901213399152 -0.003620523461471683 0 0.0038921987070858859 -0.0041748814689841988 0 0.004718170111400832 -0.0031213901691096121 0 0.0052703448411679414 -0.0037483071916757987 0 0.0051981073214087776 -0.003734938339221807 0 0.0051456901213399152 -0.003620523461471683 0 0.0042060296333197023 -0.0029015301417187455 0 0.0042349563934002514 -0.0029602292107492735 0 0.0040944111328279336 -0.0028126355661884325 0 0.0042469936404495659 -0.002876056012389553 0 0.004238925888276626 -0.0029082154086800785 0 0.0042349563934002514 -0.0029602292107492735 0 0.004245929492405944 -0.0028959728094075134 0 0.0042469936404495659 -0.002876056012389553 0 0.004238925888276626 -0.0029082154086800785 0 0.004245929492405944 -0.0028959728094075134 0 0.0042241194630436183 -0.0029028154731134685 0 0.004238925888276626 -0.0029082154086800785 0 0.004245929492405944 -0.0028959728094075134 0 0.0042264260995321101 -0.002876601849899939 0 0.0042241194630436183 -0.0029028154731134685 0 0.004245929492405944 -0.0028959728094075134 0 0.0042469936404495659 -0.002876056012389553 0 0.0042264260995321101 -0.002876601849899939 0 0.0042264260995321101 -0.002876601849899939 0 0.0042241194630436183 -0.0029028154731134685 0 0.00419993472811584 -0.0028696113264402999 0 0.0042241194630436183 -0.0029028154731134685 0 0.0042060296333197023 -0.0029015301417187455 0 0.00419993472811584 -0.0028696113264402999 0 0.0042060296333197023 -0.0029015301417187455 0 0.0042337425346662058 -0.0029335609628181204 0 0.0042349563934002514 -0.0029602292107492735 0 0.0042337425346662058 -0.0029335609628181204 0 0.004238925888276626 -0.0029082154086800785 0 0.0042349563934002514 -0.0029602292107492735 0 0.0042241194630436183 -0.0029028154731134685 0 0.0042060296333197023 -0.0029015301417187455 0 0.0042337425346662058 -0.0029335609628181204 0 0.0042241194630436183 -0.0029028154731134685 0 0.0042337425346662058 -0.0029335609628181204 0 0.004238925888276626 -0.0029082154086800785 0 0.0052703448411679414 -0.0037483071916757987 0 0.0051981073214087776 -0.003734938339221807 0 0.0052194334891495575 -0.0038057188502063307 0 0.005152458195442639 -0.0037308274880549748 0 0.0051981073214087776 -0.003734938339221807 0 0.0051860751221766664 -0.0038029126288892804 0 0.0051981073214087776 -0.003734938339221807 0 0.0052194334891495575 -0.0038057188502063307 0 0.0051860751221766664 -0.0038029126288892804 0 0.0021697257085018205 -0.0053629347893863798 0 0.0021588342260398805 -0.0054354918738005404 0 0.002142579682158691 -0.0052569699155911257 0 0.0052237356891048047 -0.0039371645663104273 0 0.0052703448411679414 -0.0037483071916757987 0 0.0052194334891495575 -0.0038057188502063307 0 0.0052237356891048047 -0.0039371645663104273 0 0.0051860751221766664 -0.0038029126288892804 0 0.0051420551430152971 -0.0038655400074737974 0 0.0052237356891048047 -0.0039371645663104273 0 0.0052194334891495575 -0.0038057188502063307 0 0.0051860751221766664 -0.0038029126288892804 0 0.0036621918053482811 -0.0047551475687305335 0 0.0038921987070858859 -0.0041748814689841988 0 0.0051303163911885592 -0.0037829781501999941 0 0.0050674440610241128 -0.0038462899470017085 0 0.0050718339808362338 -0.0037230257730230054 0 0.0051860751221766664 -0.0038029126288892804 0 0.0051420551430152971 -0.0038655400074737974 0 0.0051303163911885592 -0.0037829781501999941 0 0.0051420551430152971 -0.0038655400074737974 0 0.0051303163911885592 -0.0037829781501999941 0 0.0050674440610241128 -0.0038462899470017085 0 0.0051042055858370383 -0.0039599506882855113 0 0.0051420551430152971 -0.0038655400074737974 0 0.0050674440610241128 -0.0038462899470017085 0 0.004916856731921557 -0.0039192656774263849 0 0.0050017830140360276 -0.0039293295473570326 0 0.0049782060155825073 -0.0038077054825827947 0 0.0050017830140360276 -0.0039293295473570326 0 0.0050674440610241128 -0.0038462899470017085 0 0.0049782060155825073 -0.0038077054825827947 0 0.0050674440610241128 -0.0038462899470017085 0 0.0049782060155825073 -0.0038077054825827947 0 0.0050718339808362338 -0.0037230257730230054 0 0.004916856731921557 -0.0039192656774263849 0 0.0049782060155825073 -0.0038077054825827947 0 0.0048778885313569683 -0.0038309503787506707 0 0.0049782060155825073 -0.0038077054825827947 0 0.0048778885313569683 -0.0038309503787506707 0 0.0049392415791563952 -0.0037373608994508835 0 0.0048778885313569683 -0.0038309503787506707 0 0.0049392415791563952 -0.0037373608994508835 0 0.0048809520664910315 -0.0036916033100501677 0 0.0049782060155825073 -0.0038077054825827947 0 0.0049392415791563952 -0.0037373608994508835 0 0.0049915271732679199 -0.0036781144631292239 0 0.0049392415791563952 -0.0037373608994508835 0 0.0049915271732679199 -0.0036781144631292239 0 0.0049431199820716689 -0.003635923859843362 0 0.0049392415791563952 -0.0037373608994508835 0 0.0049431199820716689 -0.003635923859843362 0 0.0048809520664910315 -0.0036916033100501677 0 0.0049782060155825073 -0.0038077054825827947 0 0.0050718339808362338 -0.0037230257730230054 0 0.0049915271732679199 -0.0036781144631292239 0 0.0050718339808362338 -0.0037230257730230054 0 0.0049915271732679199 -0.0036781144631292239 0 0.0050429341917384522 -0.0036102314014677204 0 0.0050429341917384522 -0.0036102314014677204 0 0.0050250744975098953 -0.0034887469833141272 0 0.0051456901213399152 -0.003620523461471683 0 0.0050429341917384522 -0.0036102314014677204 0 0.0049724815420139961 -0.0035725719921028617 0 0.0050250744975098953 -0.0034887469833141272 0 0.0049915271732679199 -0.0036781144631292239 0 0.0050429341917384522 -0.0036102314014677204 0 0.0049724815420139961 -0.0035725719921028617 0 0.0049431199820716689 -0.003635923859843362 0 0.0048989930771689387 -0.0035816029503212268 0 0.0048809520664910315 -0.0036916033100501677 0 0.0049915271732679199 -0.0036781144631292239 0 0.0049431199820716689 -0.003635923859843362 0 0.0049724815420139961 -0.0035725719921028617 0 0.0049431199820716689 -0.003635923859843362 0 0.0049724815420139961 -0.0035725719921028617 0 0.0048989930771689387 -0.0035816029503212268 0 0.0049724815420139961 -0.0035725719921028617 0 0.0048989930771689387 -0.0035816029503212268 0 0.0049097397518089725 -0.0034893310345506319 0 0.0049097397518089725 -0.0034893310345506319 0 0.0049520892151337682 -0.0034771719957661907 0 0.0049006364704756141 -0.0033609634532244261 0 0.0045118469500475969 -0.0031147560301916072 0 0.00416642372086633 -0.0025556197442177936 0 0.0049097397518089725 -0.0034893310345506319 0 0.0049006364704756141 -0.0033609634532244261 0 0.0048598709013087209 -0.0034280927065383133 0 0.0049520892151337682 -0.0034771719957661907 0 0.0050250744975098953 -0.0034887469833141272 0 0.0049006364704756141 -0.0033609634532244261 0 0.0049724815420139961 -0.0035725719921028617 0 0.0049097397518089725 -0.0034893310345506319 0 0.0049520892151337682 -0.0034771719957661907 0 0.0039368901393561891 -0.002599022515287736 0 0.0040404808745124633 -0.0024961343931342254 0 0.0040239094918714099 -0.0026880615118035378 0 0.0049724815420139961 -0.0035725719921028617 0 0.0049520892151337682 -0.0034771719957661907 0 0.0050250744975098953 -0.0034887469833141272 0 0.0039368901393561891 -0.002599022515287736 0 0.0040404808745124633 -0.0024961343931342254 0 0.0038890837723111311 -0.0024737539596084903 0 0.0041122708885436357 -0.0025426929836434684 0 0.0040404808745124633 -0.0024961343931342254 0 0.0040239094918714099 -0.0026880615118035378 0 0.0035642167825417391 -0.0027910052334057891 0 0.0030757591404134634 -0.0032532586626968577 0 0.0040575196984668285 -0.0026242133470672051 0 0.0040993620467644097 -0.002713523141891824 0 0.0041679115125473681 -0.0026923269958321686 0 0.0035642167825417391 -0.0027910052334057891 0 0.0039946965285628678 -0.0025537513440019683 0 0.0040575196984668285 -0.0026242133470672051 0 0.0040993620467644097 -0.002713523141891824 0 0.0040239094918714099 -0.0026880615118035378 0 0.0039368901393561891 -0.002599022515287736 0 0.0040239094918714099 -0.0026880615118035378 0 0.0040944111328279336 -0.0028126355661884325 0 0.0045118469500475969 -0.0031147560301916072 0 0.004718170111400832 -0.0031213901691096121 0 0.0050718339808362338 -0.0037230257730230054 0 0.0050429341917384522 -0.0036102314014677204 0 0.0051456901213399152 -0.003620523461471683 0 0.0040993620467644097 -0.002713523141891824 0 0.0040944111328279336 -0.0028126355661884325 0 0.0041560187241368269 -0.0027754073628782523 0 0.0040993620467644097 -0.002713523141891824 0 0.0040239094918714099 -0.0026880615118035378 0 0.0040944111328279336 -0.0028126355661884325 0 0.0042017164322004771 -0.0028050486598765433 0 0.0042209494047948095 -0.0028305627837749395 0 0.004184777114520602 -0.0028277794180430606 0 0.0042017164322004771 -0.0028050486598765433 0 0.0042209494047948095 -0.0028305627837749395 0 0.0042251634373002825 -0.002802964119052705 0 0.0042397795402854908 -0.0028203403809705235 0 0.0042209494047948095 -0.0028305627837749395 0 0.0042251634373002825 -0.002802964119052705 0 0.0042397795402854908 -0.0028203403809705235 0 0.0042410731913577228 -0.0028035326759283433 0 0.0042251634373002825 -0.002802964119052705 0 0.0042397795402854908 -0.0028203403809705235 0 0.0042402036569197136 -0.0028370214515759827 0 0.0042209494047948095 -0.0028305627837749395 0 0.0042209494047948095 -0.0028305627837749395 0 0.0042335884993472961 -0.0028511892531972696 0 0.0042174316903701853 -0.0028543686407903361 0 0.0042402036569197136 -0.0028370214515759827 0 0.0042209494047948095 -0.0028305627837749395 0 0.0042335884993472961 -0.0028511892531972696 0 0.0042455773270113845 -0.0028602383600368421 0 0.0042402036569197136 -0.0028370214515759827 0 0.0042335884993472961 -0.0028511892531972696 0 0.0042469936404495659 -0.002876056012389553 0 0.0042455773270113845 -0.0028602383600368421 0 0.0042264260995321101 -0.002876601849899939 0 0.0042455773270113845 -0.0028602383600368421 0 0.0042264260995321101 -0.002876601849899939 0 0.0042174316903701853 -0.0028543686407903361 0 0.0042455773270113845 -0.0028602383600368421 0 0.0042335884993472961 -0.0028511892531972696 0 0.0042174316903701853 -0.0028543686407903361 0 0.0042174316903701853 -0.0028543686407903361 0 0.00419993472811584 -0.0028696113264402999 0 0.004184777114520602 -0.0028277794180430606 0 0.0042264260995321101 -0.002876601849899939 0 0.0042174316903701853 -0.0028543686407903361 0 0.00419993472811584 -0.0028696113264402999 0 0.0042209494047948095 -0.0028305627837749395 0 0.0042174316903701853 -0.0028543686407903361 0 0.004184777114520602 -0.0028277794180430606 0 0.0040944111328279336 -0.0028126355661884325 0 0.004184777114520602 -0.0028277794180430606 0 0.0041560187241368269 -0.0027754073628782523 0 0.0040944111328279336 -0.0028126355661884325 0 0.00419993472811584 -0.0028696113264402999 0 0.004184777114520602 -0.0028277794180430606 0 0.0042060296333197023 -0.0029015301417187455 0 0.0040944111328279336 -0.0028126355661884325 0 0.00419993472811584 -0.0028696113264402999 0 0.0042017164322004771 -0.0028050486598765433 0 0.004184777114520602 -0.0028277794180430606 0 0.0041560187241368269 -0.0027754073628782523 0 0.0041560187241368269 -0.0027754073628782523 0 0.0042109694721221219 -0.0027745781283957105 0 0.0041679115125473681 -0.0026923269958321686 0 0.0042109694721221219 -0.0027745781283957105 0 0.0042347547593618714 -0.0027660015462696833 0 0.0041679115125473681 -0.0026923269958321686 0 0.0042780051597110609 -0.0027738761542660489 0 0.0042347547593618714 -0.0027660015462696833 0 0.0041679115125473681 -0.0026923269958321686 0 0.0042017164322004771 -0.0028050486598765433 0 0.0041560187241368269 -0.0027754073628782523 0 0.0042109694721221219 -0.0027745781283957105 0 0.0042017164322004771 -0.0028050486598765433 0 0.0042109694721221219 -0.0027745781283957105 0 0.0042251634373002825 -0.002802964119052705 0 0.0042410731913577228 -0.0028035326759283433 0 0.0042251634373002825 -0.002802964119052705 0 0.0042335384035931027 -0.0027865560052855376 0 0.0042501032728270976 -0.0027910989641919595 0 0.0042410731913577228 -0.0028035326759283433 0 0.0042335384035931027 -0.0027865560052855376 0 0.0042109694721221219 -0.0027745781283957105 0 0.0042251634373002825 -0.002802964119052705 0 0.0042335384035931027 -0.0027865560052855376 0 0.0042109694721221219 -0.0027745781283957105 0 0.0042335384035931027 -0.0027865560052855376 0 0.0042347547593618714 -0.0027660015462696833 0 0.0042501032728270976 -0.0027910989641919595 0 0.0042335384035931027 -0.0027865560052855376 0 0.0042347547593618714 -0.0027660015462696833 0 0.0020102331499417844 -0.0039182131639352701 0 0.0030757591404134634 -0.0032532586626968577 0 0.0017709239681364167 -0.0038045444683274142 0 0.0017571785675521809 -0.0036646590576435646 0 0.0019152891671869717 -0.0037545807746433226 0 0.0019960551686224563 -0.0038281742962332425 0 0.0019152891671869717 -0.0037545807746433226 0 0.0019154713791796833 -0.0038752816954966689 0 0.0040993620467644097 -0.002713523141891824 0 0.0041560187241368269 -0.0027754073628782523 0 0.0041679115125473681 -0.0026923269958321686 0 0.0017709239681364167 -0.0038045444683274142 0 0.0019152891671869717 -0.0037545807746433226 0 0.0019154713791796833 -0.0038752816954966689 0 0.0019154713791796833 -0.0038752816954966689 0 0.0019306660884777331 -0.0038559198739688376 0 0.0019883730622450337 -0.0037996986916603594 0 0.0019372918581703257 -0.0038176406539518026 0 0.0018163654646242285 -0.0041358521943162521 0 0.0017709239681364167 -0.0038045444683274142 0 0.0017735812156697509 -0.0039169547031391401 0 0.0019154713791796833 -0.0038752816954966689 0 0.0017562831602268999 -0.0040548066249682718 0 0.0019154713791796833 -0.0038752816954966689 0 0.0017986588478038903 -0.0042103198827693174 0 0.0017562831602268999 -0.0040548066249682718 0 0.0017735812156697509 -0.0039169547031391401 0 0.0019154713791796833 -0.0038752816954966689 0 0.0036783613712612958 -0.0020597402192372789 0 0.0036494880149136439 -0.0021180815615163238 0 0.0036942234639028367 -0.0021033189895203644 0 0.0019960551686224563 -0.0038281742962332425 0 0.0019154713791796833 -0.0038752816954966689 0 0.0019306660884777331 -0.0038559198739688376 0 0.0035642167825417391 -0.0027910052334057891 0 0.0027216595129390814 -0.0030668164929329948 0 0.0036783613712612958 -0.0020597402192372789 0 0.0036942234639028367 -0.0021033189895203644 0 0.0037167670293943196 -0.0020915269404303259 0 0.0036494880149136439 -0.0021180815615163238 0 0.0036942234639028367 -0.0021033189895203644 0 0.003697786202684118 -0.0021366292713285704 0 0.0036494880149136439 -0.0021180815615163238 0 0.003697786202684118 -0.0021366292713285704 0 0.0036634896705464641 -0.002155535957316484 0 0.003697786202684118 -0.0021366292713285704 0 0.0036634896705464641 -0.002155535957316484 0 0.003689998711316392 -0.0021705297676911 0 0.0036494880149136439 -0.0021180815615163238 0 0.0036634896705464641 -0.002155535957316484 0 0.0036181827135470831 -0.0021752685449406596 0 0.0027216595129390814 -0.0030668164929329948 0 0.0028539397222900349 -0.0028492369421265025 0 0.0019306660884777331 -0.0038559198739688376 0 0.0019883730622450337 -0.0037996986916603594 0 0.001964604734039609 -0.0037520522528142379 0 0.0018163654646242285 -0.0041358521943162521 0 0.0024354473362872592 -0.0033890498565911824 0 0.0019883730622450337 -0.0037996986916603594 0 0.001964604734039609 -0.0037520522528142379 0 0.0020464031454725425 -0.0035959334086366848 0 0.0036181827135470831 -0.0021752685449406596 0 0.0035832836695448666 -0.0022393618389431264 0 0.0036364329979103145 -0.0022142430865174623 0 0.0028539397222900349 -0.0028492369421265025 0 0.0024354473362872592 -0.0033890498565911824 0 0.0036181827135470831 -0.0021752685449406596 0 0.0036537686411515116 -0.0021817140664910895 0 0.0036364329979103145 -0.0022142430865174623 0 0.0036634896705464641 -0.002155535957316484 0 0.0036537686411515116 -0.0021817140664910895 0 0.003689998711316392 -0.0021705297676911 0 0.0036634896705464641 -0.002155535957316484 0 0.0036181827135470831 -0.0021752685449406596 0 0.0036537686411515116 -0.0021817140664910895 0 0.0036537686411515116 -0.0021817140664910895 0 0.003689998711316392 -0.0021705297676911 0 0.0036744965807802561 -0.0021973872614717521 0 0.0036744965807802561 -0.0021973872614717521 0 0.0036818417840441538 -0.0022312415831769201 0 0.0037189881230536618 -0.0021916126002971669 0 0.003689998711316392 -0.0021705297676911 0 0.0036744965807802561 -0.0021973872614717521 0 0.0037189881230536618 -0.0021916126002971669 0 0.0036537686411515116 -0.0021817140664910895 0 0.0036744965807802561 -0.0021973872614717521 0 0.0036364329979103145 -0.0022142430865174623 0 0.0036818417840441538 -0.0022312415831769201 0 0.0036482323791179327 -0.0022595177341658431 0 0.0036364329979103145 -0.0022142430865174623 0 0.0036744965807802561 -0.0021973872614717521 0 0.0036818417840441538 -0.0022312415831769201 0 0.0036364329979103145 -0.0022142430865174623 0 0.0036818417840441538 -0.0022312415831769201 0 0.0036482323791179327 -0.0022595177341658431 0 0.0036988838228196375 -0.0022632237856542248 0 0.0036818417840441538 -0.0022312415831769201 0 0.0037194280104508445 -0.0022306353238663772 0 0.0036988838228196375 -0.0022632237856542248 0 0.0036482323791179327 -0.0022595177341658431 0 0.0035832836695448666 -0.0022393618389431264 0 0.0036178303431789846 -0.0022997582695738795 0 0.0036482323791179327 -0.0022595177341658431 0 0.0035832836695448666 -0.0022393618389431264 0 0.0036364329979103145 -0.0022142430865174623 0 0.0037518035396552074 -0.0022159157397021643 0 0.0037551372948005858 -0.0021848195527478039 0 0.0037868385231482646 -0.0021813323785167937 0 0.0037518035396552074 -0.0022159157397021643 0 0.0037806440812050749 -0.0022178571943930604 0 0.0037868385231482646 -0.0021813323785167937 0 0.0037806440812050749 -0.0022178571943930604 0 0.0037868385231482646 -0.0021813323785167937 0 0.0038189033397424349 -0.0021875607916586664 0 0.0037518035396552074 -0.0022159157397021643 0 0.0037806440812050749 -0.0022178571943930604 0 0.0037465845922199205 -0.002254539947061796 0 0.0037518035396552074 -0.0022159157397021643 0 0.0037194280104508445 -0.0022306353238663772 0 0.0037465845922199205 -0.002254539947061796 0 0.0037194280104508445 -0.0022306353238663772 0 0.0037465845922199205 -0.002254539947061796 0 0.0036988838228196375 -0.0022632237856542248 0 0.0036818417840441538 -0.0022312415831769201 0 0.0037194280104508445 -0.0022306353238663772 0 0.0037189881230536618 -0.0021916126002971669 0 0.0037518035396552074 -0.0022159157397021643 0 0.0037194280104508445 -0.0022306353238663772 0 0.0037189881230536618 -0.0021916126002971669 0 0.0037518035396552074 -0.0022159157397021643 0 0.0037189881230536618 -0.0021916126002971669 0 0.0037551372948005858 -0.0021848195527478039 0 0.0037189881230536618 -0.0021916126002971669 0 0.003760935304895653 -0.0021573273914410611 0 0.0037551372948005858 -0.0021848195527478039 0 0.003689998711316392 -0.0021705297676911 0 0.0037189881230536618 -0.0021916126002971669 0 0.0037201374778897322 -0.0021566953130359601 0 0.0037189881230536618 -0.0021916126002971669 0 0.003760935304895653 -0.0021573273914410611 0 0.0037201374778897322 -0.0021566953130359601 0 0.003760935304895653 -0.0021573273914410611 0 0.0037937458180906779 -0.0021357509737511926 0 0.0038074985059716043 -0.0021519563997907843 0 0.003760935304895653 -0.0021573273914410611 0 0.0037868385231482646 -0.0021813323785167937 0 0.0038074985059716043 -0.0021519563997907843 0 0.003760935304895653 -0.0021573273914410611 0 0.0037551372948005858 -0.0021848195527478039 0 0.0037868385231482646 -0.0021813323785167937 0 0.003760935304895653 -0.0021573273914410611 0 0.0037937458180906779 -0.0021357509737511926 0 0.0037634914336935814 -0.0021298837685735472 0 0.0037937458180906779 -0.0021357509737511926 0 0.0037634914336935814 -0.0021298837685735472 0 0.003788350373524034 -0.0021275526814334457 0 0.0037634914336935814 -0.0021298837685735472 0 0.003788350373524034 -0.0021275526814334457 0 0.0037639485407170723 -0.0021134256225162464 0 0.0037937458180906779 -0.0021357509737511926 0 0.003788350373524034 -0.0021275526814334457 0 0.0038171863790918306 -0.0021279309961479516 0 0.003788350373524034 -0.0021275526814334457 0 0.0037639485407170723 -0.0021134256225162464 0 0.0038171863790918306 -0.0021279309961479516 0 0.003697786202684118 -0.0021366292713285704 0 0.003689998711316392 -0.0021705297676911 0 0.0037201374778897322 -0.0021566953130359601 0 0.003697786202684118 -0.0021366292713285704 0 0.0037201374778897322 -0.0021566953130359601 0 0.0037363221245227214 -0.0021377987007423355 0 0.003760935304895653 -0.0021573273914410611 0 0.0037201374778897322 -0.0021566953130359601 0 0.0037363221245227214 -0.0021377987007423355 0 0.003760935304895653 -0.0021573273914410611 0 0.0037634914336935814 -0.0021298837685735472 0 0.0037363221245227214 -0.0021377987007423355 0 0.0037634914336935814 -0.0021298837685735472 0 0.0037363221245227214 -0.0021377987007423355 0 0.0037288230766747855 -0.0021146816702999924 0 0.0037634914336935814 -0.0021298837685735472 0 0.0037288230766747855 -0.0021146816702999924 0 0.0037639485407170723 -0.0021134256225162464 0 0.0036942234639028367 -0.0021033189895203644 0 0.003697786202684118 -0.0021366292713285704 0 0.0037288230766747855 -0.0021146816702999924 0 0.003697786202684118 -0.0021366292713285704 0 0.0037363221245227214 -0.0021377987007423355 0 0.0037288230766747855 -0.0021146816702999924 0 0.0036783613712612958 -0.0020597402192372789 0 0.0037167670293943196 -0.0020915269404303259 0 0.0037454875252936367 -0.0020824667945450541 0 0.0035642167825417391 -0.0027910052334057891 0 0.0038473116346725116 -0.0021568388800304547 0 0.0041122708885436357 -0.0025426929836434684 0 0.0040404808745124633 -0.0024961343931342254 0 0.0038969523904332196 -0.0022896435534949387 0 0.0036942234639028367 -0.0021033189895203644 0 0.0037288230766747855 -0.0021146816702999924 0 0.0037167670293943196 -0.0020915269404303259 0 0.0037288230766747855 -0.0021146816702999924 0 0.0037167670293943196 -0.0020915269404303259 0 0.0037383889920706136 -0.0021003744618336047 0 0.0037383889920706136 -0.0021003744618336047 0 0.0037454875252936367 -0.0020824667945450541 0 0.0037639485407170723 -0.0021134256225162464 0 0.0037288230766747855 -0.0021146816702999924 0 0.0037383889920706136 -0.0021003744618336047 0 0.0037639485407170723 -0.0021134256225162464 0 0.0037167670293943196 -0.0020915269404303259 0 0.0037383889920706136 -0.0021003744618336047 0 0.0037454875252936367 -0.0020824667945450541 0 0.0040404808745124633 -0.0024961343931342254 0 0.0038969523904332196 -0.0022896435534949387 0 0.0038854050002837476 -0.002324620261118516 0 0.0040503700896497054 -0.0024811686458477726 0 0.0038396206121718377 -0.0023874090973566662 0 0.0037454875252936367 -0.0020824667945450541 0 0.0037639485407170723 -0.0021134256225162464 0 0.0038171863790918306 -0.0021279309961479516 0 0.0038473116346725116 -0.0021568388800304547 0 0.003799639998348561 -0.0021383212629323832 0 0.0038969523904332196 -0.0022896435534949387 0 0.0038854050002837476 -0.002324620261118516 0 0.0038180564003325629 -0.0022079418186000494 0 0.0038969523904332196 -0.0022896435534949387 0 0.0038180564003325629 -0.0022079418186000494 0 0.0038171863790918306 -0.0021279309961479516 0 0.0039368901393561891 -0.002599022515287736 0 0.0038890837723111311 -0.0024737539596084903 0 0.0037513245209419041 -0.0024230228152708339 0 0.0038396206121718377 -0.0023874090973566662 0 0.00416642372086633 -0.0025556197442177936 0 0.0049006364704756141 -0.0033609634532244261 0 0.0048209167837891314 -0.0033789307335956465 0 0.0047677917038596203 -0.0033086287232093037 0 0.00416642372086633 -0.0025556197442177936 0 0.0044000086368136213 -0.0026977644386140223 0 0.0049006364704756141 -0.0033609634532244261 0 0.0048209167837891314 -0.0033789307335956465 0 0.0048598709013087209 -0.0034280927065383133 0 0.003856920554980985 -0.0020398881839934825 0 0.0039310968749790244 -0.0020403426187361401 0 0.003893971093301567 -0.0020582240883588966 0 0.0048209167837891314 -0.0033789307335956465 0 0.0047681739405016077 -0.0033723051701096277 0 0.0048130269534431254 -0.0034273570065491655 0 0.0038180564003325629 -0.0022079418186000494 0 0.0038171863790918306 -0.0021279309961479516 0 0.0038253391113234735 -0.0020976790109788878 0 0.00416642372086633 -0.0025556197442177936 0 0.0037980593540835614 -0.002036440172569117 0 0.0047311209990478368 -0.0033788672392962918 0 0.0047681739405016077 -0.0033723051701096277 0 0.0047610320708456602 -0.0034280057856237757 0 0.0047311209990478368 -0.0033788672392962918 0 0.0047681739405016077 -0.0033723051701096277 0 0.0047152342303294209 -0.0033340306297584021 0 0.0048209167837891314 -0.0033789307335956465 0 0.0047681739405016077 -0.0033723051701096277 0 0.0047677917038596203 -0.0033086287232093037 0 0.0047681739405016077 -0.0033723051701096277 0 0.0047677917038596203 -0.0033086287232093037 0 0.0047152342303294209 -0.0033340306297584021 0 0.0039310968749790244 -0.0020403426187361401 0 0.0039388684850669665 -0.0021219588846766112 0 0.003893971093301567 -0.0020582240883588966 0 0.0039503387995000003 -0.002139792263928071 0 0.0037980593540835614 -0.002036440172569117 0 0.0039310968749790244 -0.0020403426187361401 0 0.0039388684850669665 -0.0021219588846766112 0 0.004025625666488359 -0.0021205254025959412 0 0.0039388684850669665 -0.0021219588846766112 0 0.0038253391113234735 -0.0020976790109788878 0 0.0038220895016353126 -0.0021188595160425562 0 0.0039388684850669665 -0.0021219588846766112 0 0.0038220895016353126 -0.0021188595160425562 0 0.0038074985059716043 -0.0021519563997907843 0 0.0037937458180906779 -0.0021357509737511926 0 0.0038171863790918306 -0.0021279309961479516 0 0.0038220895016353126 -0.0021188595160425562 0 0.0038171863790918306 -0.0021279309961479516 0 0.0038253391113234735 -0.0020976790109788878 0 0.0038220895016353126 -0.0021188595160425562 0 0.0037937458180906779 -0.0021357509737511926 0 0.0038220895016353126 -0.0021188595160425562 0 0.0038074985059716043 -0.0021519563997907843 0 0.0038074985059716043 -0.0021519563997907843 0 0.0038665635890757543 -0.0021414193761167917 0 0.0038189033397424349 -0.0021875607916586664 0 0.0037868385231482646 -0.0021813323785167937 0 0.0038074985059716043 -0.0021519563997907843 0 0.0038189033397424349 -0.0021875607916586664 0 0.0038074985059716043 -0.0021519563997907843 0 0.0038665635890757543 -0.0021414193761167917 0 0.0039352074773089558 -0.002070717140306687 0 0.0038202338708439041 -0.002148970220480904 0 0.0039776055489622528 -0.0021362436111759591 0 0.0039388684850669665 -0.0021219588846766112 0 0.0038074985059716043 -0.0021519563997907843 0 0.0040114547433928822 -0.0022067235932939446 0 0.0039388684850669665 -0.0021219588846766112 0 0.0040114547433928822 -0.0022067235932939446 0 0.004025625666488359 -0.0021205254025959412 0 0.0038665635890757543 -0.0021414193761167917 0 0.0039121219754521021 -0.0021268883860780076 0 0.0039352074773089558 -0.002070717140306687 0 0.0038665635890757543 -0.0021414193761167917 0 0.0039121219754521021 -0.0021268883860780076 0 0.003870588885126613 -0.0021758091628229733 0 0.0039121219754521021 -0.0021268883860780076 0 0.0039150898700677245 -0.0021642479606288974 0 0.003870588885126613 -0.0021758091628229733 0 0.0039121219754521021 -0.0021268883860780076 0 0.0039150898700677245 -0.0021642479606288974 0 0.0039676706391886182 -0.0021165800039344754 0 0.0039150898700677245 -0.0021642479606288974 0 0.0038871524975695208 -0.0022099281429593999 0 0.0039300202545532155 -0.0021972605434335459 0 0.0039150898700677245 -0.0021642479606288974 0 0.003870588885126613 -0.0021758091628229733 0 0.0038871524975695208 -0.0022099281429593999 0 0.003870588885126613 -0.0021758091628229733 0 0.003839965611679221 -0.0022254691372798232 0 0.0038871524975695208 -0.0022099281429593999 0 0.0037806440812050749 -0.0022178571943930604 0 0.0038189033397424349 -0.0021875607916586664 0 0.0037954063379704714 -0.002257036825892718 0 0.0038189033397424349 -0.0021875607916586664 0 0.0037954063379704714 -0.002257036825892718 0 0.003839965611679221 -0.0022254691372798232 0 0.003870588885126613 -0.0021758091628229733 0 0.0038189033397424349 -0.0021875607916586664 0 0.003839965611679221 -0.0022254691372798232 0 0.0038665635890757543 -0.0021414193761167917 0 0.003870588885126613 -0.0021758091628229733 0 0.0038189033397424349 -0.0021875607916586664 0 0.0041150772328931249 -0.0020952938047467153 0 0.0040418712567082786 -0.0020841618591236418 0 0.004172797760784816 -0.0020002864481760466 0 0.0041150772328931249 -0.0020952938047467153 0 0.0040284253250643829 -0.0021399470501197227 0 0.0040418712567082786 -0.0020841618591236418 0 0.0041150772328931249 -0.0020952938047467153 0 0.004172797760784816 -0.0020002864481760466 0 0.0042120716573067719 -0.0020959042538441484 0 0.0041150772328931249 -0.0020952938047467153 0 0.0042120716573067719 -0.0020959042538441484 0 0.0041705375820857106 -0.0021507066587203335 0 0.0041150772328931249 -0.0020952938047467153 0 0.0040909127579428634 -0.0021566406561150096 0 0.0041705375820857106 -0.0021507066587203335 0 0.0041150772328931249 -0.0020952938047467153 0 0.0040909127579428634 -0.0021566406561150096 0 0.0040284253250643829 -0.0021399470501197227 0 0.0040284253250643829 -0.0021399470501197227 0 0.0039692408656012172 -0.0021580079938019769 0 0.0039676706391886182 -0.0021165800039344754 0 0.0040284253250643829 -0.0021399470501197227 0 0.0039692408656012172 -0.0021580079938019769 0 0.0039744360580113349 -0.0021997292731371896 0 0.0039150898700677245 -0.0021642479606288974 0 0.0039692408656012172 -0.0021580079938019769 0 0.0039676706391886182 -0.0021165800039344754 0 0.0039150898700677245 -0.0021642479606288974 0 0.0039692408656012172 -0.0021580079938019769 0 0.0039300202545532155 -0.0021972605434335459 0 0.0039121219754521021 -0.0021268883860780076 0 0.0039676706391886182 -0.0021165800039344754 0 0.0039352074773089558 -0.002070717140306687 0 0.0039676706391886182 -0.0021165800039344754 0 0.0040418712567082786 -0.0020841618591236418 0 0.0039352074773089558 -0.002070717140306687 0 0.0040284253250643829 -0.0021399470501197227 0 0.0039676706391886182 -0.0021165800039344754 0 0.0040418712567082786 -0.0020841618591236418 0 0.0040114547433928822 -0.0022067235932939446 0 0.0040857508088393132 -0.0021677066894694509 0 0.0043448562475965086 -0.0021866255613560864 0 0.0040418712567082786 -0.0020841618591236418 0 0.0039352074773089558 -0.002070717140306687 0 0.004172797760784816 -0.0020002864481760466 0 0.0040114547433928822 -0.0022067235932939446 0 0.0040857508088393132 -0.0021677066894694509 0 0.004025625666488359 -0.0021205254025959412 0 0.0040857508088393132 -0.0021677066894694509 0 0.004025625666488359 -0.0021205254025959412 0 0.0041094718157363369 -0.0021237236923214689 0 0.0040857508088393132 -0.0021677066894694509 0 0.0041797670016603238 -0.0021398820641438145 0 0.0041094718157363369 -0.0021237236923214689 0 0.0041194960295812665 -0.0021728272637289792 0 0.0043127744497972638 -0.0020940236450853254 0 0.0040857508088393132 -0.0021677066894694509 0 0.0041797670016603238 -0.0021398820641438145 0 0.0043043750587186333 -0.0022015666493924325 0 0.0039776055489622528 -0.0021362436111759591 0 0.0042604786597718143 -0.0020948697549586842 0 0.0040857508088393132 -0.0021677066894694509 0 0.0043448562475965086 -0.0021866255613560864 0 0.0043736503637586488 -0.0020833353438655645 0 0.0041797670016603238 -0.0021398820641438145 0 0.0042295702265303216 -0.0021277903972126882 0 0.0043043750587186333 -0.0022015666493924325 0 0.0042295702265303216 -0.0021277903972126882 0 0.0043258163423512998 -0.0021198356952141233 0 0.0043043750587186333 -0.0022015666493924325 0 0.0046501764488894697 -0.0032835607906888391 0 0.0046690936350875815 -0.0032696354491529339 0 0.0046334886298348065 -0.0032506996404376982 0 0.0042295702265303216 -0.0021277903972126882 0 0.0041089416069338795 -0.0020609366110382215 0 0.0043258163423512998 -0.0021198356952141233 0 0.0043842446399305719 -0.0026626586940782185 0 0.0044603672958953827 -0.0026966192707535207 0 0.0041797670016603238 -0.0021398820641438145 0 0.0042295702265303216 -0.0021277903972126882 0 0.0041089416069338795 -0.0020609366110382215 0 0.0046501764488894697 -0.0032835607906888391 0 0.0046389670508341927 -0.0032789118487841296 0 0.0046334886298348065 -0.0032506996404376982 0 0.0039310968749790244 -0.0020403426187361401 0 0.004025625666488359 -0.0021205254025959412 0 0.0041089416069338795 -0.0020609366110382215 0 0.0047677917038596203 -0.0033086287232093037 0 0.0046690936350875815 -0.0032696354491529339 0 0.0047152342303294209 -0.0033340306297584021 0 0.0044000086368136213 -0.0026977644386140223 0 0.0043842446399305719 -0.0026626586940782185 0 0.004025625666488359 -0.0021205254025959412 0 0.0041094718157363369 -0.0021237236923214689 0 0.0041089416069338795 -0.0020609366110382215 0 0.0041797670016603238 -0.0021398820641438145 0 0.0041094718157363369 -0.0021237236923214689 0 0.0041089416069338795 -0.0020609366110382215 0 0.0046501764488894697 -0.0032835607906888391 0 0.0046690936350875815 -0.0032696354491529339 0 0.0046715337446599234 -0.0033220294359305848 0 0.0046690936350875815 -0.0032696354491529339 0 0.0047152342303294209 -0.0033340306297584021 0 0.0046715337446599234 -0.0033220294359305848 0 0.0046715337446599234 -0.0033220294359305848 0 0.0046936902984423441 -0.0033739406651231152 0 0.0046609845695585886 -0.0033687387110131624 0 0.0047152342303294209 -0.0033340306297584021 0 0.0046715337446599234 -0.0033220294359305848 0 0.0046936902984423441 -0.0033739406651231152 0 0.0047311209990478368 -0.0033788672392962918 0 0.0047152342303294209 -0.0033340306297584021 0 0.0046936902984423441 -0.0033739406651231152 0 0.0046501764488894697 -0.0032835607906888391 0 0.0046389670508341927 -0.0032789118487841296 0 0.0046464961762327263 -0.0033173444908649375 0 0.0046389670508341927 -0.0032789118487841296 0 0.0046464961762327263 -0.0033173444908649375 0 0.0046323674789300936 -0.0033060464951112385 0 0.0046501764488894697 -0.0032835607906888391 0 0.0046715337446599234 -0.0033220294359305848 0 0.0046464961762327263 -0.0033173444908649375 0 0.0046715337446599234 -0.0033220294359305848 0 0.0046464961762327263 -0.0033173444908649375 0 0.0046609845695585886 -0.0033687387110131624 0 0.0046464961762327263 -0.0033173444908649375 0 0.0046371617674379117 -0.0033503088843645943 0 0.0046609845695585886 -0.0033687387110131624 0 0.0046464961762327263 -0.0033173444908649375 0 0.0046323674789300936 -0.0033060464951112385 0 0.0046371617674379117 -0.0033503088843645943 0 0.0046323674789300936 -0.0033060464951112385 0 0.0046251965409980665 -0.0033381375146827146 0 0.0046371617674379117 -0.0033503088843645943 0 0.0046371617674379117 -0.0033503088843645943 0 0.0046346773921738483 -0.0034162163171669205 0 0.0046225026477012387 -0.0033763227622598301 0 0.0046251965409980665 -0.0033381375146827146 0 0.0046371617674379117 -0.0033503088843645943 0 0.0046225026477012387 -0.0033763227622598301 0 0.0046251965409980665 -0.0033381375146827146 0 0.0046225026477012387 -0.0033763227622598301 0 0.0046127026765516201 -0.0033658008642793807 0 0.0046371617674379117 -0.0033503088843645943 0 0.0046346773921738483 -0.0034162163171669205 0 0.0046609845695585886 -0.0033687387110131624 0 0.0046346773921738483 -0.0034162163171669205 0 0.0046225026477012387 -0.0033763227622598301 0 0.004606770525857725 -0.0034167759551546398 0 0.0046225026477012387 -0.0033763227622598301 0 0.004606770525857725 -0.0034167759551546398 0 0.0046127026765516201 -0.0033658008642793807 0 0.0046346773921738483 -0.0034162163171669205 0 0.004606770525857725 -0.0034167759551546398 0 0.0046157029214575328 -0.0034582748626074177 0 0.004606770525857725 -0.0034167759551546398 0 0.0046157029214575328 -0.0034582748626074177 0 0.0045928536257283529 -0.0034939796018596142 0 0.004606770525857725 -0.0034167759551546398 0 0.0045928536257283529 -0.0034939796018596142 0 0.004592109099027358 -0.0034429922852149083 0 0.0046346773921738483 -0.0034162163171669205 0 0.0046157029214575328 -0.0034582748626074177 0 0.0046299832206452484 -0.0035099244294671183 0 0.0046157029214575328 -0.0034582748626074177 0 0.0046299832206452484 -0.0035099244294671183 0 0.0045928536257283529 -0.0034939796018596142 0 0.0046299832206452484 -0.0035099244294671183 0 0.0045928536257283529 -0.0034939796018596142 0 0.0045998132898890575 -0.0035894825379055744 0 0.0045928536257283529 -0.0034939796018596142 0 0.0045611426672627778 -0.0035602358253963139 0 0.0045998132898890575 -0.0035894825379055744 0 0.0045928536257283529 -0.0034939796018596142 0 0.0045611426672627778 -0.0035602358253963139 0 0.0045779623644279736 -0.0034691817646774763 0 0.0046599355215126747 -0.0036018170688567252 0 0.0046827742166072788 -0.0035089929853934481 0 0.004725547861967252 -0.0035846412786900944 0 0.0046299832206452484 -0.0035099244294671183 0 0.0046599355215126747 -0.0036018170688567252 0 0.0046827742166072788 -0.0035089929853934481 0 0.0046299832206452484 -0.0035099244294671183 0 0.0046599355215126747 -0.0036018170688567252 0 0.0045998132898890575 -0.0035894825379055744 0 0.0046346773921738483 -0.0034162163171669205 0 0.0046299832206452484 -0.0035099244294671183 0 0.0046827742166072788 -0.0035089929853934481 0 0.0046827742166072788 -0.0035089929853934481 0 0.0047144391423673037 -0.0034324072996033206 0 0.004742348580716484 -0.0034966642662369808 0 0.0046827742166072788 -0.0035089929853934481 0 0.0046774490589565699 -0.0034340655341841705 0 0.0047144391423673037 -0.0034324072996033206 0 0.0046346773921738483 -0.0034162163171669205 0 0.0046774490589565699 -0.0034340655341841705 0 0.0046609845695585886 -0.0033687387110131624 0 0.0046346773921738483 -0.0034162163171669205 0 0.0046827742166072788 -0.0035089929853934481 0 0.0046774490589565699 -0.0034340655341841705 0 0.0046936902984423441 -0.0033739406651231152 0 0.0046774490589565699 -0.0034340655341841705 0 0.0046609845695585886 -0.0033687387110131624 0 0.0046936902984423441 -0.0033739406651231152 0 0.0046774490589565699 -0.0034340655341841705 0 0.0047144391423673037 -0.0034324072996033206 0 0.0047311209990478368 -0.0033788672392962918 0 0.0046936902984423441 -0.0033739406651231152 0 0.0047144391423673037 -0.0034324072996033206 0 0.0047311209990478368 -0.0033788672392962918 0 0.0047144391423673037 -0.0034324072996033206 0 0.0047610320708456602 -0.0034280057856237757 0 0.0047610320708456602 -0.0034280057856237757 0 0.0047965492150726348 -0.0034993005811617974 0 0.0048130269534431254 -0.0034273570065491655 0 0.0047681739405016077 -0.0033723051701096277 0 0.0047610320708456602 -0.0034280057856237757 0 0.0048130269534431254 -0.0034273570065491655 0 0.0047610320708456602 -0.0034280057856237757 0 0.0047965492150726348 -0.0034993005811617974 0 0.004742348580716484 -0.0034966642662369808 0 0.0047144391423673037 -0.0034324072996033206 0 0.0047610320708456602 -0.0034280057856237757 0 0.004742348580716484 -0.0034966642662369808 0 0.0048598709013087209 -0.0034280927065383133 0 0.0048130269534431254 -0.0034273570065491655 0 0.004850444362213358 -0.0034975640237141768 0 0.0048209167837891314 -0.0033789307335956465 0 0.0048598709013087209 -0.0034280927065383133 0 0.0048130269534431254 -0.0034273570065491655 0 0.0047965492150726348 -0.0034993005811617974 0 0.0048130269534431254 -0.0034273570065491655 0 0.004850444362213358 -0.0034975640237141768 0 0.0048989930771689387 -0.0035816029503212268 0 0.0049097397518089725 -0.0034893310345506319 0 0.004850444362213358 -0.0034975640237141768 0 0.0049097397518089725 -0.0034893310345506319 0 0.0048598709013087209 -0.0034280927065383133 0 0.004850444362213358 -0.0034975640237141768 0 0.0048989930771689387 -0.0035816029503212268 0 0.004850444362213358 -0.0034975640237141768 0 0.0048343591823225961 -0.0035803197904351316 0 0.0047965492150726348 -0.0034993005811617974 0 0.004850444362213358 -0.0034975640237141768 0 0.0048343591823225961 -0.0035803197904351316 0 0.0047965492150726348 -0.0034993005811617974 0 0.0048343591823225961 -0.0035803197904351316 0 0.004778418508490364 -0.0035816073870636317 0 0.0048343591823225961 -0.0035803197904351316 0 0.004778418508490364 -0.0035816073870636317 0 0.0048115252141465361 -0.003682343518205343 0 0.0048989930771689387 -0.0035816029503212268 0 0.0048343591823225961 -0.0035803197904351316 0 0.0048809520664910315 -0.0036916033100501677 0 0.004742348580716484 -0.0034966642662369808 0 0.004778418508490364 -0.0035816073870636317 0 0.004725547861967252 -0.0035846412786900944 0 0.0046827742166072788 -0.0035089929853934481 0 0.004742348580716484 -0.0034966642662369808 0 0.004725547861967252 -0.0035846412786900944 0 0.0047965492150726348 -0.0034993005811617974 0 0.004742348580716484 -0.0034966642662369808 0 0.004778418508490364 -0.0035816073870636317 0 0.004778418508490364 -0.0035816073870636317 0 0.004725547861967252 -0.0035846412786900944 0 0.0047553718089564144 -0.0036680154821869212 0 0.004725547861967252 -0.0035846412786900944 0 0.0047553718089564144 -0.0036680154821869212 0 0.0046933779088194957 -0.0037130976376327971 0 0.0047553718089564144 -0.0036680154821869212 0 0.0047487702429316742 -0.0037742447669082643 0 0.0048115252141465361 -0.003682343518205343 0 0.004778418508490364 -0.0035816073870636317 0 0.0047553718089564144 -0.0036680154821869212 0 0.0048115252141465361 -0.003682343518205343 0 0.0047487702429316742 -0.0037742447669082643 0 0.0046684287299932192 -0.0038236251616515465 0 0.0046933779088194957 -0.0037130976376327971 0 0.0047553718089564144 -0.0036680154821869212 0 0.0047487702429316742 -0.0037742447669082643 0 0.0046933779088194957 -0.0037130976376327971 0 0.0048778885313569683 -0.0038309503787506707 0 0.0048809520664910315 -0.0036916033100501677 0 0.0048191587789954441 -0.0037722851297903861 0 0.0048343591823225961 -0.0035803197904351316 0 0.0048809520664910315 -0.0036916033100501677 0 0.0048115252141465361 -0.003682343518205343 0 0.0047487702429316742 -0.0037742447669082643 0 0.0048115252141465361 -0.003682343518205343 0 0.0048191587789954441 -0.0037722851297903861 0 0.0048809520664910315 -0.0036916033100501677 0 0.0048115252141465361 -0.003682343518205343 0 0.0048191587789954441 -0.0037722851297903861 0 0.0048123023487495978 -0.0039934173323704913 0 0.0048778885313569683 -0.0038309503787506707 0 0.0047755290779459732 -0.0038839119978953374 0 0.0048778885313569683 -0.0038309503787506707 0 0.0048191587789954441 -0.0037722851297903861 0 0.0047755290779459732 -0.0038839119978953374 0 0.0047487702429316742 -0.0037742447669082643 0 0.0048191587789954441 -0.0037722851297903861 0 0.0047755290779459732 -0.0038839119978953374 0 0.0047487702429316742 -0.0037742447669082643 0 0.0046981649304865519 -0.0038907463076155104 0 0.0046684287299932192 -0.0038236251616515465 0 0.0047487702429316742 -0.0037742447669082643 0 0.0047755290779459732 -0.0038839119978953374 0 0.0046981649304865519 -0.0038907463076155104 0 0.0046981649304865519 -0.0038907463076155104 0 0.0046684287299932192 -0.0038236251616515465 0 0.0045883362255397632 -0.0039442509266158473 0 0.0046684287299932192 -0.0038236251616515465 0 0.0045883362255397632 -0.0039442509266158473 0 0.0046006508412994107 -0.0037834383882480271 0 0.0045883362255397632 -0.0039442509266158473 0 0.0045486933304673292 -0.0039129942813093035 0 0.0046006508412994107 -0.0037834383882480271 0 0.0045883362255397632 -0.0039442509266158473 0 0.0045486933304673292 -0.0039129942813093035 0 0.004530400616084531 -0.0040007703298623933 0 0.0045710456065580982 -0.0037388128785405123 0 0.0046251587423294278 -0.003785790944890574 0 0.0045486933304673292 -0.0039129942813093035 0 0.0045449527981663096 -0.0039275719633924729 0 0.0045478277470363572 -0.0039651498273145652 0 0.0045486933304673292 -0.0039129942813093035 0 0.0045449527981663096 -0.0039275719633924729 0 0.0046006508412994107 -0.0037834383882480271 0 0.0045611426672627778 -0.0035602358253963139 0 0.0045998132898890575 -0.0035894825379055744 0 0.0046006508412994107 -0.0037834383882480271 0 0.0046599355215126747 -0.0036018170688567252 0 0.0045998132898890575 -0.0035894825379055744 0 0.0046006508412994107 -0.0037834383882480271 0 0.0046599355215126747 -0.0036018170688567252 0 0.0046933779088194957 -0.0037130976376327971 0 0.0046006508412994107 -0.0037834383882480271 0 0.0046599355215126747 -0.0036018170688567252 0 0.004725547861967252 -0.0035846412786900944 0 0.0046933779088194957 -0.0037130976376327971 0 0.0046684287299932192 -0.0038236251616515465 0 0.0046933779088194957 -0.0037130976376327971 0 0.0046006508412994107 -0.0037834383882480271 0 0.0045771480328834022 -0.0040101909833859311 0 0.0045877238543758966 -0.0040276175233691777 0 0.0045729239412340894 -0.0040235930262931732 0 0.0045771480328834022 -0.0040101909833859311 0 0.0045630269668599328 -0.0039905430761043564 0 0.0045729239412340894 -0.0040235930262931732 0 0.0045771480328834022 -0.0040101909833859311 0 0.0045722979184205101 -0.0040032897139243486 0 0.0045630269668599328 -0.0039905430761043564 0 0.0045771480328834022 -0.0040101909833859311 0 0.0045877238543758966 -0.0040276175233691777 0 0.0045878328765676414 -0.0040199907502774654 0 0.0045878328765676414 -0.0040199907502774654 0 0.004597355609687534 -0.0040293830379412882 0 0.0045965551235231123 -0.0040259448107525788 0 0.0045877238543758966 -0.0040276175233691777 0 0.0045878328765676414 -0.0040199907502774654 0 0.004597355609687534 -0.0040293830379412882 0 0.0045878328765676414 -0.0040199907502774654 0 0.0045965551235231123 -0.0040259448107525788 0 0.004587293973671424 -0.004019769837831446 0 0.004587293973671424 -0.004019769837831446 0 0.0045800080057997582 -0.0040123408023126847 0 0.0045785725337498719 -0.0040161590273546837 0 0.0045878328765676414 -0.0040199907502774654 0 0.004587293973671424 -0.004019769837831446 0 0.0045800080057997582 -0.0040123408023126847 0 0.0045771480328834022 -0.0040101909833859311 0 0.0045878328765676414 -0.0040199907502774654 0 0.0045800080057997582 -0.0040123408023126847 0 0.0045771480328834022 -0.0040101909833859311 0 0.0045800080057997582 -0.0040123408023126847 0 0.0045722979184205101 -0.0040032897139243486 0 0.0045800080057997582 -0.0040123408023126847 0 0.0045722979184205101 -0.0040032897139243486 0 0.0045785725337498719 -0.0040161590273546837 0 0.0045722979184205101 -0.0040032897139243486 0 0.0045722481076944429 -0.0040088038145873568 0 0.0045785725337498719 -0.0040161590273546837 0 0.0045722481076944429 -0.0040088038145873568 0 0.0045677963592312271 -0.0040027418543880358 0 0.0045685485594734229 -0.0040162654061847124 0 0.0045722979184205101 -0.0040032897139243486 0 0.0045677963592312271 -0.0040027418543880358 0 0.0045631193609909472 -0.0039903098159407577 0 0.0045677963592312271 -0.0040027418543880358 0 0.0045586710567977855 -0.004001605121310977 0 0.0045631193609909472 -0.0039903098159407577 0 0.0045722979184205101 -0.0040032897139243486 0 0.0045722481076944429 -0.0040088038145873568 0 0.0045677963592312271 -0.0040027418543880358 0 0.0045677963592312271 -0.0040027418543880358 0 0.0045586710567977855 -0.004001605121310977 0 0.0045685485594734229 -0.0040162654061847124 0 0.0045586710567977855 -0.004001605121310977 0 0.0045537896437947162 -0.0039719610931937648 0 0.0045631193609909472 -0.0039903098159407577 0 0.0045537896437947162 -0.0039719610931937648 0 0.0045631193609909472 -0.0039903098159407577 0 0.0045630269668599328 -0.0039905430761043564 0 0.0045722979184205101 -0.0040032897139243486 0 0.0045631193609909472 -0.0039903098159407577 0 0.0045630269668599328 -0.0039905430761043564 0 0.0045611426672627778 -0.0035602358253963139 0 0.0045779623644279736 -0.0034691817646774763 0 0.004577281969284335 -0.0034257084681729205 0 0.0045710456065580982 -0.0037388128785405123 0 0.0047718909703428 -0.0034961802786494783 0 0.0045449527981663096 -0.0039275719633924729 0 0.0045586710567977855 -0.004001605121310977 0 0.0045537896437947162 -0.0039719610931937648 0 0.0045449527981663096 -0.0039275719633924729 0 0.0045586710567977855 -0.004001605121310977 0 0.0045606699136443614 -0.0040173554826535701 0 0.0045449527981663096 -0.0039275719633924729 0 0.0045537896437947162 -0.0039719610931937648 0 0.0045478277470363572 -0.0039651498273145652 0 0.0045537896437947162 -0.0039719610931937648 0 0.0045478277470363572 -0.0039651498273145652 0 0.0045630269668599328 -0.0039905430761043564 0 0.0045478277470363572 -0.0039651498273145652 0 0.0045630269668599328 -0.0039905430761043564 0 0.0045548575955950297 -0.0040194137569790865 0 0.0045478277470363572 -0.0039651498273145652 0 0.004530400616084531 -0.0040007703298623933 0 0.0045548575955950297 -0.0040194137569790865 0 0.0045486933304673292 -0.0039129942813093035 0 0.0045478277470363572 -0.0039651498273145652 0 0.004530400616084531 -0.0040007703298623933 0 0.0045372352665501723 -0.0040651754494909322 0 0.004530400616084531 -0.0040007703298623933 0 0.0045548575955950297 -0.0040194137569790865 0 0.0045372352665501723 -0.0040651754494909322 0 0.0045548575955950297 -0.0040194137569790865 0 0.0045851923285881594 -0.0040546750005941209 0 0.0045630269668599328 -0.0039905430761043564 0 0.0045729239412340894 -0.0040235930262931732 0 0.0045548575955950297 -0.0040194137569790865 0 0.0045729239412340894 -0.0040235930262931732 0 0.0045548575955950297 -0.0040194137569790865 0 0.0045851923285881594 -0.0040546750005941209 0 0.0045877238543758966 -0.0040276175233691777 0 0.0045729239412340894 -0.0040235930262931732 0 0.0045851923285881594 -0.0040546750005941209 0 0.0045877238543758966 -0.0040276175233691777 0 0.0045851923285881594 -0.0040546750005941209 0 0.0046038080223106499 -0.0040418452859314336 0 0.0046424307066817811 -0.0040988285687153618 0 0.0045851923285881594 -0.0040546750005941209 0 0.0046187519890497171 -0.0040593404278248344 0 0.0045851923285881594 -0.0040546750005941209 0 0.0046187519890497171 -0.0040593404278248344 0 0.0046038080223106499 -0.0040418452859314336 0 0.0046424307066817811 -0.0040988285687153618 0 0.0046196868201660735 -0.0040597382353224016 0 0.0046209696908273068 -0.0040837859384258018 0 0.0046196868201660735 -0.0040597382353224016 0 0.0046109145810124038 -0.0040473589119271623 0 0.0046209696908273068 -0.0040837859384258018 0 0.0046424307066817811 -0.0040988285687153618 0 0.0046187519890497171 -0.0040593404278248344 0 0.0046196868201660735 -0.0040597382353224016 0 0.0046196868201660735 -0.0040597382353224016 0 0.0046157352286905337 -0.0040412275167464257 0 0.0046109145810124038 -0.0040473589119271623 0 0.0046187519890497171 -0.0040593404278248344 0 0.0046196868201660735 -0.0040597382353224016 0 0.004614990214154532 -0.0040430207568154936 0 0.0046196868201660735 -0.0040597382353224016 0 0.0046157352286905337 -0.0040412275167464257 0 0.004614990214154532 -0.0040430207568154936 0 0.0046157352286905337 -0.0040412275167464257 0 0.004614990214154532 -0.0040430207568154936 0 0.0046148397363703318 -0.004034215463518941 0 0.0046157352286905337 -0.0040412275167464257 0 0.0046121927634520023 -0.0040316376330951347 0 0.0046109145810124038 -0.0040473589119271623 0 0.0045877238543758966 -0.0040276175233691777 0 0.004597355609687534 -0.0040293830379412882 0 0.0046038080223106499 -0.0040418452859314336 0 0.0046187519890497171 -0.0040593404278248344 0 0.0046038080223106499 -0.0040418452859314336 0 0.004614990214154532 -0.0040430207568154936 0 0.0046038080223106499 -0.0040418452859314336 0 0.004614990214154532 -0.0040430207568154936 0 0.0046082401000608038 -0.0040327536577478449 0 0.004614990214154532 -0.0040430207568154936 0 0.0046082401000608038 -0.0040327536577478449 0 0.0046148397363703318 -0.004034215463518941 0 0.004597355609687534 -0.0040293830379412882 0 0.0046038080223106499 -0.0040418452859314336 0 0.0046082401000608038 -0.0040327536577478449 0 0.004597355609687534 -0.0040293830379412882 0 0.0045965551235231123 -0.0040259448107525788 0 0.0046082401000608038 -0.0040327536577478449 0 0.0045965551235231123 -0.0040259448107525788 0 0.0046082401000608038 -0.0040327536577478449 0 0.0046057133772029728 -0.004030006406026132 0 0.0046057133772029728 -0.004030006406026132 0 0.0046168300925646319 -0.0040370684437229017 0 0.004591741615210118 -0.0040240344747282612 0 0.0046082401000608038 -0.0040327536577478449 0 0.0046057133772029728 -0.004030006406026132 0 0.004613692852961696 -0.004033032679229066 0 0.0046148397363703318 -0.004034215463518941 0 0.004613692852961696 -0.004033032679229066 0 0.0046163854036511045 -0.0040299867072650453 0 0.0046082401000608038 -0.0040327536577478449 0 0.0046148397363703318 -0.004034215463518941 0 0.004613692852961696 -0.004033032679229066 0 0.004613692852961696 -0.004033032679229066 0 0.0046168300925646319 -0.0040370684437229017 0 0.0046163854036511045 -0.0040299867072650453 0 0.0046057133772029728 -0.004030006406026132 0 0.004613692852961696 -0.004033032679229066 0 0.0046168300925646319 -0.0040370684437229017 0 0.0046163854036511045 -0.0040299867072650453 0 0.0046142762748192581 -0.0040239762842049411 0 0.0046147078519679042 -0.0040032965106762183 0 0.0046157352286905337 -0.0040412275167464257 0 0.0046158069340535282 -0.0040328414223835358 0 0.0046121927634520023 -0.0040316376330951347 0 0.0046158069340535282 -0.0040328414223835358 0 0.0046142762748192581 -0.0040239762842049411 0 0.0046121927634520023 -0.0040316376330951347 0 0.0046148397363703318 -0.004034215463518941 0 0.0046158069340535282 -0.0040328414223835358 0 0.0046163854036511045 -0.0040299867072650453 0 0.0046157352286905337 -0.0040412275167464257 0 0.0046148397363703318 -0.004034215463518941 0 0.0046158069340535282 -0.0040328414223835358 0 0.0046158069340535282 -0.0040328414223835358 0 0.0046163854036511045 -0.0040299867072650453 0 0.0046142762748192581 -0.0040239762842049411 0 0.0052080629898079156 -0.003009630443463284 0 0.0052377295774044749 -0.003006502889273593 0 0.0052386871397382111 -0.0030080353032388919 0 0.0046168300925646319 -0.0040370684437229017 0 0.0046163854036511045 -0.0040299867072650453 0 0.0046147078519679042 -0.0040032965106762183 0 0.0049300849673278536 -0.0035277797865549574 0 0.0049230598493519226 -0.0035025932446866156 0 0.0046556803009456683 -0.0032363316408750586 0 0.0047337483675278123 -0.0031696327481232937 0 0.0048178383731944715 -0.0031020017312159377 0 0.0049398621878077578 -0.0030918869227653059 0 0.0050334670800817483 -0.0030652805124448189 0 0.0052080629898079156 -0.003009630443463284 0 0.0051988446432283493 -0.0030172499385694575 0 0.0052377295774044749 -0.003006502889273593 0 0.0046556803009456683 -0.0032363316408750586 0 0.0046799994124115552 -0.0032162649113491822 0 0.0046493315569025888 -0.0032548687069726238 0 0.0046799994124115552 -0.0032162649113491822 0 0.0047337483675278123 -0.0031696327481232937 0 0.0047089911971382598 -0.0031899496551937943 0 0.0046556803009456683 -0.0032363316408750586 0 0.0046799994124115552 -0.0032162649113491822 0 0.0047337483675278123 -0.0031696327481232937 0 0.0046799994124115552 -0.0032162649113491822 0 0.0047089911971382598 -0.0031899496551937943 0 0.0046769326936692869 -0.0032195687702691869 0 0.0046799994124115552 -0.0032162649113491822 0 0.0046632700350070586 -0.0032363848056443378 0 0.0046769326936692869 -0.0032195687702691869 0 0.004651047587295158 -0.0032514368921231179 0 0.0046632700350070586 -0.0032363848056443378 0 0.0046769326936692869 -0.0032195687702691869 0 0.004651047587295158 -0.0032514368921231179 0 0.0046356662754902288 -0.0032789419421269906 0 0.0046493315569025888 -0.0032548687069726238 0 0.004651047587295158 -0.0032514368921231179 0 0.0046632700350070586 -0.0032363848056443378 0 0.0046493315569025888 -0.0032548687069726238 0 0.0046799994124115552 -0.0032162649113491822 0 0.0046632700350070586 -0.0032363848056443378 0 0.0046493315569025888 -0.0032548687069726238 0 0.0046356662754902288 -0.0032789419421269906 0 0.0046284245866488995 -0.0032932255531470593 0 0.0046439380145156138 -0.0032604439681692726 0 0.0046284245866488995 -0.0032932255531470593 0 0.0046335811167385081 -0.0032798888425821216 0 0.0046439380145156138 -0.0032604439681692726 0 0.004651047587295158 -0.0032514368921231179 0 0.0046356662754902288 -0.0032789419421269906 0 0.0046439380145156138 -0.0032604439681692726 0 0.0046356662754902288 -0.0032789419421269906 0 0.0046284245866488995 -0.0032932255531470593 0 0.0046212471987397228 -0.0033123800902936516 0 0.0046356662754902288 -0.0032789419421269906 0 0.0046212471987397228 -0.0033123800902936516 0 0.0046259887347511941 -0.0033016172283481223 0 0.0046356662754902288 -0.0032789419421269906 0 0.0046259887347511941 -0.0033016172283481223 0 0.0046321537461700068 -0.0032887375559702663 0 0.0046218274554381189 -0.003313122982243343 0 0.0046321537461700068 -0.0032887375559702663 0 0.00462017361102282 -0.0033192291246726892 0 0.0046259887347511941 -0.0033016172283481223 0 0.0046218274554381189 -0.003313122982243343 0 0.0046321537461700068 -0.0032887375559702663 0 0.0046212471987397228 -0.0033123800902936516 0 0.0046174876266023308 -0.0033230992091793509 0 0.0046107939655175316 -0.0033420923204479222 0 0.0046212471987397228 -0.0033123800902936516 0 0.0046259887347511941 -0.0033016172283481223 0 0.0046174876266023308 -0.0033230992091793509 0 0.0046259887347511941 -0.0033016172283481223 0 0.0046218274554381189 -0.003313122982243343 0 0.0046174876266023308 -0.0033230992091793509 0 0.0046218274554381189 -0.003313122982243343 0 0.0046174876266023308 -0.0033230992091793509 0 0.0046139168540451298 -0.0033333406102896419 0 0.0046356662754902288 -0.0032789419421269906 0 0.0046493315569025888 -0.0032548687069726238 0 0.0046321537461700068 -0.0032887375559702663 0 0.0046321537461700068 -0.0032887375559702663 0 0.0046362098643983329 -0.0032813960266940829 0 0.00462017361102282 -0.0033192291246726892 0 0.0046493315569025888 -0.0032548687069726238 0 0.0046321537461700068 -0.0032887375559702663 0 0.0046362098643983329 -0.0032813960266940829 0 0.0046556803009456683 -0.0032363316408750586 0 0.0046493315569025888 -0.0032548687069726238 0 0.0046362098643983329 -0.0032813960266940829 0 0.0046556803009456683 -0.0032363316408750586 0 0.0045956799789334361 -0.0033804526993470954 0 0.004577281969284335 -0.0034257084681729205 0 0.0046168300925646319 -0.0040370684437229017 0 0.004591741615210118 -0.0040240344747282612 0 0.0045685485594734229 -0.0040162654061847124 0 0.0049398621878077578 -0.0030918869227653059 0 0.0047718909703428 -0.0034961802786494783 0 0.0052080629898079156 -0.003009630443463284 0 0.0051988446432283493 -0.0030172499385694575 0 0.0051374378220552328 -0.0030080878087417945 0 0.0049300849673278536 -0.0035277797865549574 0 0.0047718909703428 -0.0034961802786494783 0 0.0046556803009456683 -0.0032363316408750586 0 0.0046362098643983329 -0.0032813960266940829 0 0.0045956799789334361 -0.0033804526993470954 0 0.0046362098643983329 -0.0032813960266940829 0 0.00462017361102282 -0.0033192291246726892 0 0.0045956799789334361 -0.0033804526993470954 0 0.0046218274554381189 -0.003313122982243343 0 0.00462017361102282 -0.0033192291246726892 0 0.0046139168540451298 -0.0033333406102896419 0 0.00462017361102282 -0.0033192291246726892 0 0.0046139168540451298 -0.0033333406102896419 0 0.0046061052435759633 -0.0033538650838421669 0 0.0046174876266023308 -0.0033230992091793509 0 0.0046139168540451298 -0.0033333406102896419 0 0.0046050538238512958 -0.0033571044268765745 0 0.0046139168540451298 -0.0033333406102896419 0 0.0046061052435759633 -0.0033538650838421669 0 0.0046050538238512958 -0.0033571044268765745 0 0.0046061052435759633 -0.0033538650838421669 0 0.0045956799789334361 -0.0033804526993470954 0 0.004596883064121233 -0.0033794215779304245 0 0.00462017361102282 -0.0033192291246726892 0 0.0046061052435759633 -0.0033538650838421669 0 0.0045956799789334361 -0.0033804526993470954 0 0.0046061052435759633 -0.0033538650838421669 0 0.004596883064121233 -0.0033794215779304245 0 0.0046050538238512958 -0.0033571044268765745 0 0.0045785725337498719 -0.0040161590273546837 0 0.004591741615210118 -0.0040240344747282612 0 0.0045685485594734229 -0.0040162654061847124 0 0.004587293973671424 -0.004019769837831446 0 0.0045785725337498719 -0.0040161590273546837 0 0.004591741615210118 -0.0040240344747282612 0 0.0045965551235231123 -0.0040259448107525788 0 0.004587293973671424 -0.004019769837831446 0 0.004591741615210118 -0.0040240344747282612 0 0.0045965551235231123 -0.0040259448107525788 0 0.0046057133772029728 -0.004030006406026132 0 0.004591741615210118 -0.0040240344747282612 0 0.0045928536257283529 -0.0034939796018596142 0 0.0045779623644279736 -0.0034691817646774763 0 0.004592109099027358 -0.0034429922852149083 0 0.0045779623644279736 -0.0034691817646774763 0 0.0045860683764017314 -0.0034122177461520698 0 0.004591436877428438 -0.0034115902511163759 0 0.0045779623644279736 -0.0034691817646774763 0 0.004591436877428438 -0.0034115902511163759 0 0.004592109099027358 -0.0034429922852149083 0 0.0045779623644279736 -0.0034691817646774763 0 0.004577281969284335 -0.0034257084681729205 0 0.0045860683764017314 -0.0034122177461520698 0 0.0047739832253697167 -0.0035400691974287898 0 0.0047718909703428 -0.0034961802786494783 0 0.0045722481076944429 -0.0040088038145873568 0 0.0045785725337498719 -0.0040161590273546837 0 0.0045685485594734229 -0.0040162654061847124 0 0.0045956799789334361 -0.0033804526993470954 0 0.0045860683764017314 -0.0034122177461520698 0 0.004596883064121233 -0.0033794215779304245 0 0.0045956799789334361 -0.0033804526993470954 0 0.004577281969284335 -0.0034257084681729205 0 0.0045860683764017314 -0.0034122177461520698 0 0.0045860683764017314 -0.0034122177461520698 0 0.0045948314630904754 -0.0033879960907161602 0 0.004591436877428438 -0.0034115902511163759 0 0.0045948314630904754 -0.0033879960907161602 0 0.004600981840685487 -0.0033728008281257832 0 0.004591436877428438 -0.0034115902511163759 0 0.0045860683764017314 -0.0034122177461520698 0 0.004596883064121233 -0.0033794215779304245 0 0.0045948314630904754 -0.0033879960907161602 0 0.004596883064121233 -0.0033794215779304245 0 0.0045948314630904754 -0.0033879960907161602 0 0.0046050538238512958 -0.0033571044268765745 0 0.0046050538238512958 -0.0033571044268765745 0 0.004600981840685487 -0.0033728008281257832 0 0.0046107939655175316 -0.0033420923204479222 0 0.0045948314630904754 -0.0033879960907161602 0 0.0046050538238512958 -0.0033571044268765745 0 0.004600981840685487 -0.0033728008281257832 0 0.004600981840685487 -0.0033728008281257832 0 0.004591436877428438 -0.0034115902511163759 0 0.0046043679250319172 -0.0033726753460293917 0 0.004591436877428438 -0.0034115902511163759 0 0.0046008828631861273 -0.00340133195508852 0 0.0046043679250319172 -0.0033726753460293917 0 0.004591436877428438 -0.0034115902511163759 0 0.004592109099027358 -0.0034429922852149083 0 0.0046008828631861273 -0.00340133195508852 0 0.004606770525857725 -0.0034167759551546398 0 0.004592109099027358 -0.0034429922852149083 0 0.0046008828631861273 -0.00340133195508852 0 0.004606770525857725 -0.0034167759551546398 0 0.0046008828631861273 -0.00340133195508852 0 0.0046127026765516201 -0.0033658008642793807 0 0.0046008828631861273 -0.00340133195508852 0 0.0046043679250319172 -0.0033726753460293917 0 0.0046127026765516201 -0.0033658008642793807 0 0.0046043679250319172 -0.0033726753460293917 0 0.0046127026765516201 -0.0033658008642793807 0 0.0046141949278228536 -0.0033410834885959878 0 0.0046127026765516201 -0.0033658008642793807 0 0.0046141949278228536 -0.0033410834885959878 0 0.0046209258280999746 -0.0033252423069276061 0 0.0046107939655175316 -0.0033420923204479222 0 0.0046101656041874668 -0.0033483109121264553 0 0.0046175236972307628 -0.0033240359455088868 0 0.0046174876266023308 -0.0033230992091793509 0 0.0046050538238512958 -0.0033571044268765745 0 0.0046107939655175316 -0.0033420923204479222 0 0.004600981840685487 -0.0033728008281257832 0 0.0046107939655175316 -0.0033420923204479222 0 0.0046101656041874668 -0.0033483109121264553 0 0.004600981840685487 -0.0033728008281257832 0 0.0046043679250319172 -0.0033726753460293917 0 0.0046101656041874668 -0.0033483109121264553 0 0.0046043679250319172 -0.0033726753460293917 0 0.0046101656041874668 -0.0033483109121264553 0 0.0046141949278228536 -0.0033410834885959878 0 0.0046101656041874668 -0.0033483109121264553 0 0.0046141949278228536 -0.0033410834885959878 0 0.0046175236972307628 -0.0033240359455088868 0 0.0046284245866488995 -0.0032932255531470593 0 0.0046212471987397228 -0.0033123800902936516 0 0.0046175236972307628 -0.0033240359455088868 0 0.0046212471987397228 -0.0033123800902936516 0 0.0046107939655175316 -0.0033420923204479222 0 0.0046175236972307628 -0.0033240359455088868 0 0.0046284245866488995 -0.0032932255531470593 0 0.0046175236972307628 -0.0033240359455088868 0 0.0046227918322557108 -0.0033105539540323032 0 0.0046141949278228536 -0.0033410834885959878 0 0.0046227918322557108 -0.0033105539540323032 0 0.0046209258280999746 -0.0033252423069276061 0 0.0046141949278228536 -0.0033410834885959878 0 0.0046175236972307628 -0.0033240359455088868 0 0.0046227918322557108 -0.0033105539540323032 0 0.0046227918322557108 -0.0033105539540323032 0 0.0046272676891279084 -0.003299533402544639 0 0.0046335811167385081 -0.0032798888425821216 0 0.0046227918322557108 -0.0033105539540323032 0 0.0046209258280999746 -0.0033252423069276061 0 0.0046272676891279084 -0.003299533402544639 0 0.0046284245866488995 -0.0032932255531470593 0 0.0046227918322557108 -0.0033105539540323032 0 0.0046335811167385081 -0.0032798888425821216 0 0.0046251965409980665 -0.0033381375146827146 0 0.0046127026765516201 -0.0033658008642793807 0 0.0046209258280999746 -0.0033252423069276061 0 0.0046209258280999746 -0.0033252423069276061 0 0.0046267547406643548 -0.0033120516329732709 0 0.0046272676891279084 -0.003299533402544639 0 0.0046251965409980665 -0.0033381375146827146 0 0.0046209258280999746 -0.0033252423069276061 0 0.0046267547406643548 -0.0033120516329732709 0 0.0046323674789300936 -0.0033060464951112385 0 0.0046307228911421213 -0.0032924296894968645 0 0.0046267547406643548 -0.0033120516329732709 0 0.0046323674789300936 -0.0033060464951112385 0 0.0046307228911421213 -0.0032924296894968645 0 0.004635791898590892 -0.003272096993906157 0 0.0046323674789300936 -0.0033060464951112385 0 0.0046251965409980665 -0.0033381375146827146 0 0.0046267547406643548 -0.0033120516329732709 0 0.0046307228911421213 -0.0032924296894968645 0 0.0046267547406643548 -0.0033120516329732709 0 0.0046272676891279084 -0.003299533402544639 0 0.0046272676891279084 -0.003299533402544639 0 0.0046335811167385081 -0.0032798888425821216 0 0.0046350715292242236 -0.0032749436348035021 0 0.0046307228911421213 -0.0032924296894968645 0 0.0046272676891279084 -0.003299533402544639 0 0.0046350715292242236 -0.0032749436348035021 0 0.0046350715292242236 -0.0032749436348035021 0 0.0046436007295778828 -0.003255725312578576 0 0.0046455231494782331 -0.0032545924367437568 0 0.0046335811167385081 -0.0032798888425821216 0 0.0046350715292242236 -0.0032749436348035021 0 0.0046455231494782331 -0.0032545924367437568 0 0.0046307228911421213 -0.0032924296894968645 0 0.0046350715292242236 -0.0032749436348035021 0 0.0046362479768049794 -0.0032712561488852576 0 0.0046362479768049794 -0.0032712561488852576 0 0.004635791898590892 -0.003272096993906157 0 0.0046464864628495885 -0.0032473778028161045 0 0.0046350715292242236 -0.0032749436348035021 0 0.0046362479768049794 -0.0032712561488852576 0 0.0046436007295778828 -0.003255725312578576 0 0.0046362479768049794 -0.0032712561488852576 0 0.0046436007295778828 -0.003255725312578576 0 0.0046464864628495885 -0.0032473778028161045 0 0.0046389670508341927 -0.0032789118487841296 0 0.0046323674789300936 -0.0033060464951112385 0 0.004635791898590892 -0.003272096993906157 0 0.0046307228911421213 -0.0032924296894968645 0 0.0046362479768049794 -0.0032712561488852576 0 0.004635791898590892 -0.003272096993906157 0 0.00466436233396371 -0.0032311881890486967 0 0.0046769326936692869 -0.0032195687702691869 0 0.0046984803459602167 -0.0031985513585110537 0 0.004651047587295158 -0.0032514368921231179 0 0.00466436233396371 -0.0032311881890486967 0 0.0046769326936692869 -0.0032195687702691869 0 0.00466436233396371 -0.0032311881890486967 0 0.0046439380145156138 -0.0032604439681692726 0 0.0046455231494782331 -0.0032545924367437568 0 0.004651047587295158 -0.0032514368921231179 0 0.00466436233396371 -0.0032311881890486967 0 0.0046439380145156138 -0.0032604439681692726 0 0.0046335811167385081 -0.0032798888425821216 0 0.0046439380145156138 -0.0032604439681692726 0 0.0046455231494782331 -0.0032545924367437568 0 0.00466436233396371 -0.0032311881890486967 0 0.0046455231494782331 -0.0032545924367437568 0 0.0046595865586451348 -0.0032332332860374505 0 0.0046436007295778828 -0.003255725312578576 0 0.0046455231494782331 -0.0032545924367437568 0 0.0046595865586451348 -0.0032332332860374505 0 0.0046436007295778828 -0.003255725312578576 0 0.0046595865586451348 -0.0032332332860374505 0 0.0046464864628495885 -0.0032473778028161045 0 0.00466436233396371 -0.0032311881890486967 0 0.0046963564792835318 -0.0032005612050468538 0 0.0046984803459602167 -0.0031985513585110537 0 0.00466436233396371 -0.0032311881890486967 0 0.0046595865586451348 -0.0032332332860374505 0 0.0046963564792835318 -0.0032005612050468538 0 0.0046787586316576783 -0.0032176875941218228 0 0.0046573755430682736 -0.0032430897624908753 0 0.0046829927292747695 -0.0032484574649681943 0 0.0046787586316576783 -0.0032176875941218228 0 0.0046829927292747695 -0.0032484574649681943 0 0.0047365189825332886 -0.0031942507434725106 0 0.0046595865586451348 -0.0032332332860374505 0 0.0046787586316576783 -0.0032176875941218228 0 0.0046963564792835318 -0.0032005612050468538 0 0.0046595865586451348 -0.0032332332860374505 0 0.0046787586316576783 -0.0032176875941218228 0 0.004656988150723569 -0.0032362467596245528 0 0.0046595865586451348 -0.0032332332860374505 0 0.004656988150723569 -0.0032362467596245528 0 0.0046464864628495885 -0.0032473778028161045 0 0.0046787586316576783 -0.0032176875941218228 0 0.004656988150723569 -0.0032362467596245528 0 0.0046573755430682736 -0.0032430897624908753 0 0.0046389670508341927 -0.0032789118487841296 0 0.0046381913715396296 -0.0032588400951425803 0 0.0046334886298348065 -0.0032506996404376982 0 0.0046389670508341927 -0.0032789118487841296 0 0.004635791898590892 -0.003272096993906157 0 0.0046381913715396296 -0.0032588400951425803 0 0.0046381913715396296 -0.0032588400951425803 0 0.0046464864628495885 -0.0032473778028161045 0 0.0046456837107708383 -0.0032469759672707358 0 0.004635791898590892 -0.003272096993906157 0 0.0046381913715396296 -0.0032588400951425803 0 0.0046464864628495885 -0.0032473778028161045 0 0.004656988150723569 -0.0032362467596245528 0 0.0046464864628495885 -0.0032473778028161045 0 0.0046456837107708383 -0.0032469759672707358 0 0.0046573755430682736 -0.0032430897624908753 0 0.0046456837107708383 -0.0032469759672707358 0 0.0046334886298348065 -0.0032506996404376982 0 0.004656988150723569 -0.0032362467596245528 0 0.0046573755430682736 -0.0032430897624908753 0 0.0046456837107708383 -0.0032469759672707358 0 0.0046381913715396296 -0.0032588400951425803 0 0.0046456837107708383 -0.0032469759672707358 0 0.0046334886298348065 -0.0032506996404376982 0 0.0043127744497972638 -0.0020940236450853254 0 0.0047734601427559002 -0.0025974827083701736 0 0.0043258163423512998 -0.0021198356952141233 0 0.0043043750587186333 -0.0022015666493924325 0 0.0045974770920716697 -0.0022146520970196984 0 0.0044603672958953827 -0.0026966192707535207 0 0.0047734601427559002 -0.0025974827083701736 0 0.0043448562475965086 -0.0021866255613560864 0 0.0043736503637586488 -0.0020833353438655645 0 0.004686578013258386 -0.002035781798240449 0 0.0043448562475965086 -0.0021866255613560864 0 0.004686578013258386 -0.002035781798240449 0 0.0047155016147402149 -0.0021830347701731955 0 0.0046573755430682736 -0.0032430897624908753 0 0.0046334886298348065 -0.0032506996404376982 0 0.0046829927292747695 -0.0032484574649681943 0 0.0045415794965192394 -0.0019842387289051269 0 0.0044475501205192558 -0.0021042647894705009 0 0.0046797760620515064 -0.002191014067622643 0 0.0045415794965192394 -0.0019842387289051269 0 0.0044475501205192558 -0.0021042647894705009 0 0.0043367293350868464 -0.0020674527709303417 0 0.0042604786597718143 -0.0020948697549586842 0 0.0046293630568187078 -0.0020892571181750077 0 0.0043367293350868464 -0.0020674527709303417 0 0.0042120716573067719 -0.0020959042538441484 0 0.0042847845490823818 -0.0021615932291644867 0 0.0044475501205192558 -0.0021042647894705009 0 0.0043367293350868464 -0.0020674527709303417 0 0.0042847845490823818 -0.0021615932291644867 0 0.004172797760784816 -0.0020002864481760466 0 0.0045415794965192394 -0.0019842387289051269 0 0.0043367293350868464 -0.0020674527709303417 0 0.0042120716573067719 -0.0020959042538441484 0 0.0042847845490823818 -0.0021615932291644867 0 0.0041705375820857106 -0.0021507066587203335 0 0.004172797760784816 -0.0020002864481760466 0 0.0043367293350868464 -0.0020674527709303417 0 0.0042120716573067719 -0.0020959042538441484 0 0.0047155016147402149 -0.0021830347701731955 0 0.00502822170146655 -0.0021554662143959988 0 0.0049892890596880323 -0.0020783671918803421 0 0.00502822170146655 -0.0021554662143959988 0 0.0049892890596880323 -0.0020783671918803421 0 0.0051156959787022381 -0.0022213800124622133 0 0.0045415794965192394 -0.0019842387289051269 0 0.0048196297017614083 -0.0021547859933666808 0 0.0046797760620515064 -0.002191014067622643 0 0.0045415794965192394 -0.0019842387289051269 0 0.00502822170146655 -0.0021554662143959988 0 0.0048196297017614083 -0.0021547859933666808 0 0.0046293630568187078 -0.0020892571181750077 0 0.0050019891458313167 -0.0021493376672976653 0 0.0051473406186427267 -0.0029390157569935149 0 0.005106242595675897 -0.002941944736922089 0 0.0050960658624747083 -0.0029162840611390217 0 0.004686578013258386 -0.002035781798240449 0 0.0047155016147402149 -0.0021830347701731955 0 0.0049892890596880323 -0.0020783671918803421 0 0.0047734601427559002 -0.0025974827083701736 0 0.0050698096651311851 -0.0024877799895256479 0 0.0047734601427559002 -0.0025974827083701736 0 0.0049830689649049166 -0.0031001573636124835 0 0.0046829927292747695 -0.0032484574649681943 0 0.0048137541970715838 -0.0031957044141060304 0 0.0047365189825332886 -0.0031942507434725106 0 0.0049830689649049166 -0.0031001573636124835 0 0.0049813027794942521 -0.0029841747081575986 0 0.0048137541970715838 -0.0031957044141060304 0 0.0048819519635391866 -0.0030881816148072803 0 0.0050133083792867038 -0.0029666564990651462 0 0.005106242595675897 -0.002941944736922089 0 0.0050960658624747083 -0.0029162840611390217 0 0.0050133083792867038 -0.0029666564990651462 0 0.0048819519635391866 -0.0030881816148072803 0 0.0048019198357193175 -0.0031315228169825422 0 0.0047901360790825846 -0.0031540952821126696 0 0.0048137541970715838 -0.0031957044141060304 0 0.0048819519635391866 -0.0030881816148072803 0 0.0047901360790825846 -0.0031540952821126696 0 0.0048819519635391866 -0.0030881816148072803 0 0.0048019198357193175 -0.0031315228169825422 0 0.0048903967582247581 -0.0030717969209856848 0 0.0047365189825332886 -0.0031942507434725106 0 0.0047901360790825846 -0.0031540952821126696 0 0.0047363166314765923 -0.0031753476658043928 0 0.0048137541970715838 -0.0031957044141060304 0 0.0047365189825332886 -0.0031942507434725106 0 0.0047901360790825846 -0.0031540952821126696 0 0.0048019198357193175 -0.0031315228169825422 0 0.0047901360790825846 -0.0031540952821126696 0 0.0047363166314765923 -0.0031753476658043928 0 0.0046787586316576783 -0.0032176875941218228 0 0.0047365189825332886 -0.0031942507434725106 0 0.0047363166314765923 -0.0031753476658043928 0 0.0046787586316576783 -0.0032176875941218228 0 0.0047363166314765923 -0.0031753476658043928 0 0.0046963564792835318 -0.0032005612050468538 0 0.0046963564792835318 -0.0032005612050468538 0 0.0047420642664769124 -0.0031644164688185527 0 0.0046984803459602167 -0.0031985513585110537 0 0.0047363166314765923 -0.0031753476658043928 0 0.0046963564792835318 -0.0032005612050468538 0 0.0047420642664769124 -0.0031644164688185527 0 0.0048019198357193175 -0.0031315228169825422 0 0.0047363166314765923 -0.0031753476658043928 0 0.0047420642664769124 -0.0031644164688185527 0 0.0047420642664769124 -0.0031644164688185527 0 0.0047337483675278123 -0.0031696327481232937 0 0.0047089911971382598 -0.0031899496551937943 0 0.0047420642664769124 -0.0031644164688185527 0 0.0047337483675278123 -0.0031696327481232937 0 0.0047953095348991634 -0.0031261571874126723 0 0.0047420642664769124 -0.0031644164688185527 0 0.0047089911971382598 -0.0031899496551937943 0 0.0046984803459602167 -0.0031985513585110537 0 0.0047089911971382598 -0.0031899496551937943 0 0.0046769326936692869 -0.0032195687702691869 0 0.0046984803459602167 -0.0031985513585110537 0 0.0047953095348991634 -0.0031261571874126723 0 0.0048178383731944715 -0.0031020017312159377 0 0.0048903967582247581 -0.0030717969209856848 0 0.0048019198357193175 -0.0031315228169825422 0 0.0047953095348991634 -0.0031261571874126723 0 0.0048903967582247581 -0.0030717969209856848 0 0.0048019198357193175 -0.0031315228169825422 0 0.0047420642664769124 -0.0031644164688185527 0 0.0047953095348991634 -0.0031261571874126723 0 0.0047337483675278123 -0.0031696327481232937 0 0.0047953095348991634 -0.0031261571874126723 0 0.0048178383731944715 -0.0031020017312159377 0 0.0050334670800817483 -0.0030652805124448189 0 0.0051056543308360611 -0.0029790968643479162 0 0.0048178383731944715 -0.0031020017312159377 0 0.0049731026871603374 -0.0030074848223705483 0 0.0048903967582247581 -0.0030717969209856848 0 0.0052377295774044749 -0.003006502889273593 0 0.005234388237041112 -0.0029522539838254089 0 0.0052386871397382111 -0.0030080353032388919 0 0.005234388237041112 -0.0029522539838254089 0 0.0051648281687237821 -0.0029241374912952591 0 0.0051913552013405405 -0.0029887176928357611 0 0.005234388237041112 -0.0029522539838254089 0 0.0051913552013405405 -0.0029887176928357611 0 0.0052386871397382111 -0.0030080353032388919 0 0.0051056543308360611 -0.0029790968643479162 0 0.0050914008233000256 -0.0028312875811564767 0 0.0049731026871603374 -0.0030074848223705483 0 0.0050133083792867038 -0.0029666564990651462 0 0.0050127772332450062 -0.002835486002191957 0 0.0048819519635391866 -0.0030881816148072803 0 0.0048903967582247581 -0.0030717969209856848 0 0.0050133083792867038 -0.0029666564990651462 0 0.0049731026871603374 -0.0030074848223705483 0 0.0048903967582247581 -0.0030717969209856848 0 0.0050133083792867038 -0.0029666564990651462 0 0.0050960658624747083 -0.0029162840611390217 0 0.0050133083792867038 -0.0029666564990651462 0 0.0050402906421105455 -0.0028082062559022201 0 0.0050133083792867038 -0.0029666564990651462 0 0.0050501800367222073 -0.0027245716491994189 0 0.0050127772332450062 -0.002835486002191957 0 0.0050133083792867038 -0.0029666564990651462 0 0.0050402906421105455 -0.0028082062559022201 0 0.0050501800367222073 -0.0027245716491994189 0 0.0049892890596880323 -0.0020783671918803421 0 0.0051899596895587114 -0.0022474961237927225 0 0.0051156959787022381 -0.0022213800124622133 0 0.0050698096651311851 -0.0024877799895256479 0 0.0050900084733992252 -0.002519559338200323 0 0.0049998238733632095 -0.002634531415297034 0 0.0050501800367222073 -0.0027245716491994189 0 0.0050786934193840557 -0.0024944597419065445 0 0.0050402906421105455 -0.0028082062559022201 0 0.0050501800367222073 -0.0027245716491994189 0 0.0050786934193840557 -0.0024944597419065445 0 0.0050900084733992252 -0.002519559338200323 0 0.0050562699815260379 -0.0024905023495795995 0 0.0049998238733632095 -0.002634531415297034 0 0.0050501800367222073 -0.0027245716491994189 0 0.0050127772332450062 -0.002835486002191957 0 0.0049999772415643719 -0.0026345857671413548 0 0.0051643266032423644 -0.0028209202988524586 0 0.0049999916724694183 -0.0029242304601696371 0 0.0050000195469968442 -0.0026345302175229072 0 0.0050914008233000256 -0.0028312875811564767 0 0.0051643266032423644 -0.0028209202988524586 0 0.0050165701365814854 -0.0029491569297999732 0 0.0049999916724694183 -0.0029242304601696371 0 0.0048473780085709879 -0.0033172135008691763 0 0.004999499444545235 -0.0029248872458852147 0 0.0051643266032423644 -0.0028209202988524586 0 0.0050165701365814854 -0.0029491569297999732 0 0.0051648281687237821 -0.0029241374912952591 0 0.005234388237041112 -0.0029522539838254089 0 0.0051643266032423644 -0.0028209202988524586 0 0.0051648281687237821 -0.0029241374912952591 0 0.0050165701365814854 -0.0029491569297999732 0 0.0051648281687237821 -0.0029241374912952591 0 0.0051913552013405405 -0.0029887176928357611 0 0.0048473780085709879 -0.0033172135008691763 0 0.0048723761024270541 -0.0034915218147089436 0 0.0045308067696845263 -0.0039279812004659014 0 0.0045821108344492262 -0.0039659509014694939 0 0.004556661615867136 -0.003981685877276697 0 0.0050159247319781402 -0.002966920431793136 0 0.0050726291688654992 -0.0031354696175499644 0 0.0051268680078108706 -0.0032084131880921185 0 0.0048473780085709879 -0.0033172135008691763 0 0.0048550899651358288 -0.0036050589370009152 0 0.0050159247319781402 -0.002966920431793136 0 0.0050726291688654992 -0.0031354696175499644 0 0.0049998095556386376 -0.0036570812487356726 0 0.0051311208814075349 -0.0033271913841090885 0 0.0051549415713902057 -0.0035302403623508698 0 0.0050783113953678351 -0.0036870635079554455 0 0.0050726291688654992 -0.0031354696175499644 0 0.0051311208814075349 -0.0033271913841090885 0 0.0049998095556386376 -0.0036570812487356726 0 0.0050159247319781402 -0.002966920431793136 0 0.0049999632069810795 -0.002924406592142422 0 0.0049998095556386376 -0.0036570812487356726 0 0.004579798376401675 -0.0039967597560770845 0 0.0045669857937326334 -0.0039998597723150354 0 0.0045831258209911097 -0.0040277321907913688 0 0.0049535934761068346 -0.0035297454799028548 0 0.0048653143916847297 -0.0037813237857406154 0 0.004579798376401675 -0.0039967597560770845 0 0.0045669857937326334 -0.0039998597723150354 0 0.004556661615867136 -0.003981685877276697 0 0.0049535934761068346 -0.0035297454799028548 0 0.0048550899651358288 -0.0036050589370009152 0 0.0050765718966049355 -0.003135398629746503 0 0.0049535934761068346 -0.0035297454799028548 0 0.0050726291688654992 -0.0031354696175499644 0 0.0051726489100710838 -0.003308037146737856 0 0.0051268680078108706 -0.0032084131880921185 0 0.0045821108344492262 -0.0039659509014694939 0 0.004579798376401675 -0.0039967597560770845 0 0.004556661615867136 -0.003981685877276697 0 0.0045821108344492262 -0.0039659509014694939 0 0.0045952529188044268 -0.0040047489638839941 0 0.0046147078519679042 -0.0040032965106762183 0 0.0045821108344492262 -0.0039659509014694939 0 0.004579798376401675 -0.0039967597560770845 0 0.0045952529188044268 -0.0040047489638839941 0 0.0048723761024270541 -0.0034915218147089436 0 0.0049230598493519226 -0.0035025932446866156 0 0.0045952529188044268 -0.0040047489638839941 0 0.0046147078519679042 -0.0040032965106762183 0 0.0046084000077692578 -0.0040190438849270101 0 0.0046142762748192581 -0.0040239762842049411 0 0.0046147078519679042 -0.0040032965106762183 0 0.0046084000077692578 -0.0040190438849270101 0 0.0045952529188044268 -0.0040047489638839941 0 0.0046084000077692578 -0.0040190438849270101 0 0.004601383835031149 -0.0040293204199739986 0 0.0046142762748192581 -0.0040239762842049411 0 0.0046084000077692578 -0.0040190438849270101 0 0.0046121927634520023 -0.0040316376330951347 0 0.0046084000077692578 -0.0040190438849270101 0 0.004601383835031149 -0.0040293204199739986 0 0.0046121927634520023 -0.0040316376330951347 0 0.004579798376401675 -0.0039967597560770845 0 0.0045952529188044268 -0.0040047489638839941 0 0.0045831258209911097 -0.0040277321907913688 0 0.0045952529188044268 -0.0040047489638839941 0 0.004601383835031149 -0.0040293204199739986 0 0.0045831258209911097 -0.0040277321907913688 0 0.0051549415713902057 -0.0035302403623508698 0 0.0051198455381842598 -0.0037728552567382846 0 0.0050783113953678351 -0.0036870635079554455 0 0.004601383835031149 -0.0040293204199739986 0 0.0045831258209911097 -0.0040277321907913688 0 0.0045957082974625767 -0.0040517380559123737 0 0.0048653143916847297 -0.0037813237857406154 0 0.0048469271924999145 -0.0039032390826287725 0 0.004601383835031149 -0.0040293204199739986 0 0.0045957082974625767 -0.0040517380559123737 0 0.0046109145810124038 -0.0040473589119271623 0 0.004601383835031149 -0.0040293204199739986 0 0.0046121927634520023 -0.0040316376330951347 0 0.0046109145810124038 -0.0040473589119271623 0 0.0048469271924999145 -0.0039032390826287725 0 0.0047992113486867143 -0.0040273545608451398 0 0.0045957082974625767 -0.0040517380559123737 0 0.0046109145810124038 -0.0040473589119271623 0 0.0046209696908273068 -0.0040837859384258018 0 0.0050398754844442738 -0.0039163271676714755 0 0.0051198455381842598 -0.0037728552567382846 0 0.0050041610258121857 -0.0039996433718994103 0 0.0050398754844442738 -0.0039163271676714755 0 0.0051198455381842598 -0.0037728552567382846 0 0.0050783113953678351 -0.0036870635079554455 0 0.0050398754844442738 -0.0039163271676714755 0 0.0049998095556386376 -0.0036570812487356726 0 0.0050783113953678351 -0.0036870635079554455 0 0.0051311208814075349 -0.0033271913841090885 0 0.0049998095556386376 -0.0036570812487356726 0 0.0050783113953678351 -0.0036870635079554455 0 0.0051501016066549986 -0.0014185924836326532 0 0.0051803523482203259 -0.0014953183266584792 0 0.0050895811019367578 -0.0014874579288255137 0 0.0051501016066549986 -0.0014185924836326532 0 0.0052312413480481955 -0.0014349531228875965 0 0.0051803523482203259 -0.0014953183266584792 0 0.0052312413480481955 -0.0014349531228875965 0 0.0052557694257842772 -0.0014909614671538534 0 0.0053155861434607933 -0.0014523685038390789 0 0.0052312413480481955 -0.0014349531228875965 0 0.0052557694257842772 -0.0014909614671538534 0 0.0051803523482203259 -0.0014953183266584792 0 0.0052557694257842772 -0.0014909614671538534 0 0.0052144109382572029 -0.0015470068109958808 0 0.0051803523482203259 -0.0014953183266584792 0 0.0052557694257842772 -0.0014909614671538534 0 0.0052144109382572029 -0.0015470068109958808 0 0.0052720161334887123 -0.0015268101199298696 0 0.0052144109382572029 -0.0015470068109958808 0 0.0051803523482203259 -0.0014953183266584792 0 0.0051366087640327476 -0.0015938585720679428 0 0.0049999782676847593 -0.0015193224941270362 0 0.0050895811019367578 -0.0014874579288255137 0 0.0051366087640327476 -0.0015938585720679428 0 0.0051803523482203259 -0.0014953183266584792 0 0.0050895811019367578 -0.0014874579288255137 0 0.0051366087640327476 -0.0015938585720679428 0 0.0049999782676847593 -0.0015193224941270362 0 0.0050895811019367578 -0.0014874579288255137 0 0.004999995828917898 -0.001240562253687036 0 0.0052440124478875146 -0.0013150860201086212 0 0.0050000125743992867 -0.0012405375001216458 0 0.0051501016066549986 -0.0014185924836326532 0 0.0050895811019367578 -0.0014874579288255137 0 0.004999995828917898 -0.001240562253687036 0 0.0051501016066549986 -0.0014185924836326532 0 0.0052230021303222912 -0.0013441306218414471 0 0.004999995828917898 -0.001240562253687036 0 0.0051501016066549986 -0.0014185924836326532 0 0.0052312413480481955 -0.0014349531228875965 0 0.0052230021303222912 -0.0013441306218414471 0 0.0052312413480481955 -0.0014349531228875965 0 0.0052230021303222912 -0.0013441306218414471 0 0.0053155861434607933 -0.0014523685038390789 0 0.0052360745476628667 -0.0013002527267287399 0 0.0053005231576498573 -0.0012254649607725753 0 0.0052284703793382594 -0.0011967711142303588 0 0.0052230021303222912 -0.0013441306218414471 0 0.0054474711826873398 -0.001425294342528677 0 0.0053155861434607933 -0.0014523685038390789 0 0.0052440124478875146 -0.0013150860201086212 0 0.0053359399345683364 -0.0014514218688904069 0 0.0052360745476628667 -0.0013002527267287399 0 0.0053794659883266453 -0.0012715280983282222 0 0.0054095248688982925 -0.0013491768788479741 0 0.0052360745476628667 -0.0013002527267287399 0 0.0053794659883266453 -0.0012715280983282222 0 0.0053005231576498573 -0.0012254649607725753 0 0.0053359399345683364 -0.0014514218688904069 0 0.0052611305778155733 -0.0012690259404790215 0 0.0053794659883266453 -0.0012715280983282222 0 0.0054095248688982925 -0.0013491768788479741 0 0.0054721005471397742 -0.001223179904217928 0 0.0052338180558578022 -0.0013967371362494285 0 0.0051609408826729358 -0.0014729540739246184 0 0.0052216403230443565 -0.0013543392345830968 0 0.005054181251094734 -0.0013944901593935515 0 0.0052611305778155733 -0.0012690259404790215 0 0.0052338180558578022 -0.0013967371362494285 0 0.005232350166207835 -0.0014650586612424998 0 0.0051609408826729358 -0.0014729540739246184 0 0.005054181251094734 -0.0013944901593935515 0 0.0050697517831394517 -0.0015588879324245138 0 0.005232350166207835 -0.0014650586612424998 0 0.0051994701913485215 -0.0014859799103566086 0 0.0051609408826729358 -0.0014729540739246184 0 0.0050991087491230507 -0.0016968718215977752 0 0.0051776492119646068 -0.0015713526349195872 0 0.0050697517831394517 -0.0015588879324245138 0 0.0051776492119646068 -0.0015713526349195872 0 0.0050800534969349621 -0.0016124465989729641 0 0.0050806601598758173 -0.0015873999461513664 0 0.0051066551255980041 -0.0015958730362498714 0 0.0050697517831394517 -0.0015588879324245138 0 0.0050991087491230507 -0.0016968718215977752 0 0.0051776438935438223 -0.0016699862162297167 0 0.005178052704869587 -0.0016709441032715651 0 0.0051787785663123167 -0.0016697083975583742 0 0.0051776492119646068 -0.0015713526349195872 0 0.0052694447015717225 -0.0015745712314993929 0 0.0053359399345683364 -0.0014514218688904069 0 0.0052694447015717225 -0.0015745712314993929 0 0.0052700891230007601 -0.0015431487688859803 0 0.0052727109088933346 -0.0015439212520827323 0 0.0052745978340443984 -0.0015408260037593669 0 0.005178052704869587 -0.0016709441032715651 0 0.0051787785663123167 -0.0016697083975583742 0 0.0051837059751097267 -0.0016705187704665347 0 0.0051776492119646068 -0.0015713526349195872 0 0.0053359399345683364 -0.0014514218688904069 0 0.0051804009193957981 -0.0016679220816915542 0 0.0051787785663123167 -0.0016697083975583742 0 0.0051837059751097267 -0.0016705187704665347 0 0.0051804009193957981 -0.0016679220816915542 0 0.0051837059751097267 -0.0016705187704665347 0 0.0051859941676055711 -0.0016686370119097021 0 0.0051804009193957981 -0.0016679220816915542 0 0.0051859941676055711 -0.0016686370119097021 0 0.0051824564987499686 -0.0016658909485131395 0 0.0051804009193957981 -0.0016679220816915542 0 0.0051787785663123167 -0.0016697083975583742 0 0.0051772807942399215 -0.0016690893006251271 0 0.0051776438935438223 -0.0016699862162297167 0 0.0051787785663123167 -0.0016697083975583742 0 0.0051772807942399215 -0.0016690893006251271 0 0.0054084954668886633 -0.0015060600860925498 0 0.0052720161334887123 -0.0015268101199298696 0 0.0051658254462405703 -0.001632157030845259 0 0.0052557694257842772 -0.0014909614671538534 0 0.0053155861434607933 -0.0014523685038390789 0 0.0052720161334887123 -0.0015268101199298696 0 0.0054474711826873398 -0.001425294342528677 0 0.0053155861434607933 -0.0014523685038390789 0 0.0054084954668886633 -0.0015060600860925498 0 0.0051881435339062231 -0.0016716865385540019 0 0.0051859941676055711 -0.0016686370119097021 0 0.0051806721180640506 -0.001656517156536968 0 0.0052694447015717225 -0.0015745712314993929 0 0.0052551674653337054 -0.0015978275882331703 0 0.0051859941676055711 -0.0016686370119097021 0 0.0051824564987499686 -0.0016658909485131395 0 0.005183299856954122 -0.0016637327894320052 0 0.0053155861434607933 -0.0014523685038390789 0 0.0054084954668886633 -0.0015060600860925498 0 0.0052720161334887123 -0.0015268101199298696 0 0.0051881435339062231 -0.0016716865385540019 0 0.0051806721180640506 -0.001656517156536968 0 0.0051658254462405703 -0.001632157030845259 0 0.0052694447015717225 -0.0015745712314993929 0 0.0051825226057502557 -0.0016365607560459218 0 0.0051859941676055711 -0.0016686370119097021 0 0.0051806721180640506 -0.001656517156536968 0 0.005183299856954122 -0.0016637327894320052 0 0.0051806721180640506 -0.001656517156536968 0 0.005183299856954122 -0.0016637327894320052 0 0.0051827315670419033 -0.001663663253099548 0 0.0051824564987499686 -0.0016658909485131395 0 0.0051827315670419033 -0.001663663253099548 0 0.0051803820093852572 -0.0016661911790030663 0 0.0051824564987499686 -0.0016658909485131395 0 0.005183299856954122 -0.0016637327894320052 0 0.0051827315670419033 -0.001663663253099548 0 0.0051827315670419033 -0.001663663253099548 0 0.0051824285394025463 -0.001663977306006588 0 0.0051803820093852572 -0.0016661911790030663 0 0.0051806721180640506 -0.001656517156536968 0 0.0051827315670419033 -0.001663663253099548 0 0.0051824285394025463 -0.001663977306006588 0 0.0051803232253817407 -0.0016679339514126389 0 0.0051841866768059268 -0.0016641990267090435 0 0.0051832808219119267 -0.0016698362765124786 0 0.0051824285394025463 -0.001663977306006588 0 0.0051803232253817407 -0.0016679339514126389 0 0.0051803820093852572 -0.0016661911790030663 0 0.0051824285394025463 -0.001663977306006588 0 0.0051803232253817407 -0.0016679339514126389 0 0.0051841866768059268 -0.0016641990267090435 0 0.0051806721180640506 -0.001656517156536968 0 0.0051824285394025463 -0.001663977306006588 0 0.0051841866768059268 -0.0016641990267090435 0 0.0051806721180640506 -0.001656517156536968 0 0.0051841866768059268 -0.0016641990267090435 0 0.0051810862772227089 -0.0016561728594051261 0 0.0051841866768059268 -0.0016641990267090435 0 0.0051874067014185104 -0.0016768960467604982 0 0.0051810862772227089 -0.0016561728594051261 0 0.0050991087491230507 -0.0016968718215977752 0 0.0051598495271455653 -0.0017459240099698267 0 0.0051776438935438223 -0.0016699862162297167 0 0.0051772807942399215 -0.0016690893006251271 0 0.0051745465080292813 -0.0016700180295846235 0 0.0051772807942399215 -0.0016690893006251271 0 0.0051768251506092077 -0.0016683774035804071 0 0.0051745465080292813 -0.0016700180295846235 0 0.0051804009193957981 -0.0016679220816915542 0 0.0051772807942399215 -0.0016690893006251271 0 0.0051803820093852572 -0.0016661911790030663 0 0.0051772807942399215 -0.0016690893006251271 0 0.0051803820093852572 -0.0016661911790030663 0 0.0051768251506092077 -0.0016683774035804071 0 0.0051804009193957981 -0.0016679220816915542 0 0.0051824564987499686 -0.0016658909485131395 0 0.0051803820093852572 -0.0016661911790030663 0 0.0051803232253817407 -0.0016679339514126389 0 0.0051768251506092077 -0.0016683774035804071 0 0.0051708462919477054 -0.0016700210430201994 0 0.0051803232253817407 -0.0016679339514126389 0 0.0051803820093852572 -0.0016661911790030663 0 0.0051768251506092077 -0.0016683774035804071 0 0.0051768251506092077 -0.0016683774035804071 0 0.0051745465080292813 -0.0016700180295846235 0 0.0051708462919477054 -0.0016700210430201994 0 0.0051708462919477054 -0.0016700210430201994 0 0.0051870495975911432 -0.001661243226473556 0 0.0051458198417057054 -0.0016656196923651116 0 0.0051598495271455653 -0.0017459240099698267 0 0.0051478158139866472 -0.0016608072876956527 0 0.0051745465080292813 -0.0016700180295846235 0 0.0051708462919477054 -0.0016700210430201994 0 0.0051458198417057054 -0.0016656196923651116 0 0.0051991896255528108 -0.0017308497523516456 0 0.0052124392179674914 -0.0017896251939678713 0 0.0051832808219119267 -0.0016698362765124786 0 0.0051874067014185104 -0.0016768960467604982 0 0.0051870495975911432 -0.001661243226473556 0 0.0051841866768059268 -0.0016641990267090435 0 0.0051832808219119267 -0.0016698362765124786 0 0.0051874067014185104 -0.0016768960467604982 0 0.0051803232253817407 -0.0016679339514126389 0 0.0051708462919477054 -0.0016700210430201994 0 0.0051832808219119267 -0.0016698362765124786 0 0.0051708462919477054 -0.0016700210430201994 0 0.0051832808219119267 -0.0016698362765124786 0 0.0051870495975911432 -0.001661243226473556 0 0.0052170036965036018 -0.0017904201146210759 0 0.0051004517560953623 -0.0017328513000805623 0 0.0051396343918046978 -0.0019633000123569521 0 0.0052170036965036018 -0.0017904201146210759 0 0.0051396343918046978 -0.0019633000123569521 0 0.0052623625190333428 -0.0019886202507784956 0 0.0052170036965036018 -0.0017904201146210759 0 0.0051004517560953623 -0.0017328513000805623 0 0.0051366087640327476 -0.0015938585720679428 0 0.0051991896255528108 -0.0017308497523516456 0 0.0051354209787890298 -0.0016075610989663978 0 0.0051874067014185104 -0.0016768960467604982 0 0.0051658254462405703 -0.001632157030845259 0 0.0051366087640327476 -0.0015938585720679428 0 0.0051874067014185104 -0.0016768960467604982 0 0.0051810862772227089 -0.0016561728594051261 0 0.0051658254462405703 -0.001632157030845259 0 0.0052144109382572029 -0.0015470068109958808 0 0.0051658254462405703 -0.001632157030845259 0 0.0051366087640327476 -0.0015938585720679428 0 0.0051806721180640506 -0.001656517156536968 0 0.0051810862772227089 -0.0016561728594051261 0 0.0051658254462405703 -0.001632157030845259 0 0.0052144109382572029 -0.0015470068109958808 0 0.0052720161334887123 -0.0015268101199298696 0 0.0051658254462405703 -0.001632157030845259 0 0.0049999782676847593 -0.0015193224941270362 0 0.0051004517560953623 -0.0017328513000805623 0 0.0051366087640327476 -0.0015938585720679428 0 0.0049999782676847593 -0.0015193224941270362 0 0.0051004517560953623 -0.0017328513000805623 0 0.00499996046446664 -0.0017981768331505391 0 0.0051004517560953623 -0.0017328513000805623 0 0.00499996046446664 -0.0017981768331505391 0 0.0051396343918046978 -0.0019633000123569521 0 0.0051396343918046978 -0.0019633000123569521 0 0.0051432975177459614 -0.0021395785514435545 0 0.0049999610911677563 -0.0020769461749972199 0 0.00499996046446664 -0.0017981768331505391 0 0.0051396343918046978 -0.0019633000123569521 0 0.0049999610911677563 -0.0020769461749972199 0 0.0051396343918046978 -0.0019633000123569521 0 0.0051432975177459614 -0.0021395785514435545 0 0.0052147559814290454 -0.0021509671460016601 0 0.0051432975177459614 -0.0021395785514435545 0 0.0049999610911677563 -0.0020769461749972199 0 0.0051186570617815126 -0.0022756809350475684 0 0.0049999610911677563 -0.0020769461749972199 0 0.0051186570617815126 -0.0022756809350475684 0 0.0049999562148790207 -0.0023556746202045425 0 0.0051432975177459614 -0.0021395785514435545 0 0.0051186570617815126 -0.0022756809350475684 0 0.0051741925288926408 -0.0022248767907473194 0 0.0051186570617815126 -0.0022756809350475684 0 0.0051682130011722685 -0.0023418041745966313 0 0.0051838318313657053 -0.0022865940944992147 0 0.0051186570617815126 -0.0022756809350475684 0 0.0051838318313657053 -0.0022865940944992147 0 0.0051741925288926408 -0.0022248767907473194 0 0.0051899596895587114 -0.0022474961237927225 0 0.0050786934193840557 -0.0024944597419065445 0 0.0051682130011722685 -0.0023418041745966313 0 0.0051186570617815126 -0.0022756809350475684 0 0.0050786934193840557 -0.0024944597419065445 0 0.0051682130011722685 -0.0023418041745966313 0 0.0049998238733632095 -0.002634531415297034 0 0.0050786934193840557 -0.0024944597419065445 0 0.0049999562148790207 -0.0023556746202045425 0 0.0051186570617815126 -0.0022756809350475684 0 0.0050786934193840557 -0.0024944597419065445 0 0.0049999562148790207 -0.0023556746202045425 0 0.0051899596895587114 -0.0022474961237927225 0 0.0051156959787022381 -0.0022213800124622133 0 0.0051768522861400188 -0.0022971697552402171 0 0.005140874668113876 -0.0022864069028490771 0 0.0051768522861400188 -0.0022971697552402171 0 0.0051858247530521236 -0.0022795382185082529 0 0.0051156959787022381 -0.0022213800124622133 0 0.005140874668113876 -0.0022864069028490771 0 0.0050284242180839876 -0.00225611179997422 0 0.0051156959787022381 -0.0022213800124622133 0 0.005140874668113876 -0.0022864069028490771 0 0.0051768522861400188 -0.0022971697552402171 0 0.0051899596895587114 -0.0022474961237927225 0 0.0051682130011722685 -0.0023418041745966313 0 0.0051768522861400188 -0.0022971697552402171 0 0.0051682130011722685 -0.0023418041745966313 0 0.0051768522861400188 -0.0022971697552402171 0 0.0051838318313657053 -0.0022865940944992147 0 0.0051768522861400188 -0.0022971697552402171 0 0.0051838318313657053 -0.0022865940944992147 0 0.0051858247530521236 -0.0022795382185082529 0 0.0051838318313657053 -0.0022865940944992147 0 0.0051741925288926408 -0.0022248767907473194 0 0.0052038866943583291 -0.0022344029829175433 0 0.0051838318313657053 -0.0022865940944992147 0 0.0051858247530521236 -0.0022795382185082529 0 0.0052038866943583291 -0.0022344029829175433 0 0.0051858247530521236 -0.0022795382185082529 0 0.0051724489333693788 -0.0022817270102502749 0 0.005210540040166343 -0.0022415728729494513 0 0.0051858247530521236 -0.0022795382185082529 0 0.005210540040166343 -0.0022415728729494513 0 0.0052038866943583291 -0.0022344029829175433 0 0.005140874668113876 -0.0022864069028490771 0 0.0051724489333693788 -0.0022817270102502749 0 0.0050732021677312679 -0.0023498523384096848 0 0.005140874668113876 -0.0022864069028490771 0 0.0051858247530521236 -0.0022795382185082529 0 0.0051724489333693788 -0.0022817270102502749 0 0.0051724489333693788 -0.0022817270102502749 0 0.0052457019825592581 -0.0022061911265825137 0 0.0050732021677312679 -0.0023498523384096848 0 0.0050826385728495382 -0.0021831465201546736 0 0.0049052529215740616 -0.0023629920609337112 0 0.0051724489333693788 -0.0022817270102502749 0 0.005210540040166343 -0.0022415728729494513 0 0.0052457019825592581 -0.0022061911265825137 0 0.005210540040166343 -0.0022415728729494513 0 0.0052495765382547738 -0.0021908113231101497 0 0.0052457019825592581 -0.0022061911265825137 0 0.005210540040166343 -0.0022415728729494513 0 0.0052495765382547738 -0.0021908113231101497 0 0.005220797829028026 -0.0022003999792708038 0 0.0051224730551441416 -0.0021770812346090834 0 0.0050826385728495382 -0.0021831465201546736 0 0.0051432975177459614 -0.0021395785514435545 0 0.0051741925288926408 -0.0022248767907473194 0 0.0052147559814290454 -0.0021509671460016601 0 0.0051741925288926408 -0.0022248767907473194 0 0.0052038866943583291 -0.0022344029829175433 0 0.0052147559814290454 -0.0021509671460016601 0 0.005210540040166343 -0.0022415728729494513 0 0.0052038866943583291 -0.0022344029829175433 0 0.005220797829028026 -0.0022003999792708038 0 0.0052038866943583291 -0.0022344029829175433 0 0.005220797829028026 -0.0022003999792708038 0 0.0052147559814290454 -0.0021509671460016601 0 0.0052495765382547738 -0.0021908113231101497 0 0.005220797829028026 -0.0022003999792708038 0 0.0052147559814290454 -0.0021509671460016601 0 0.0051396343918046978 -0.0019633000123569521 0 0.0052147559814290454 -0.0021509671460016601 0 0.0052623625190333428 -0.0019886202507784956 0 0.0052495765382547738 -0.0021908113231101497 0 0.0052147559814290454 -0.0021509671460016601 0 0.0052623625190333428 -0.0019886202507784956 0 0.0051695369041074796 -0.001618638521339493 0 0.0051870495975911432 -0.001661243226473556 0 0.0051458198417057054 -0.0016656196923651116 0 0.0052495765382547738 -0.0021908113231101497 0 0.0052683501601537112 -0.0021875647050495707 0 0.0052623625190333428 -0.0019886202507784956 0 0.0050826385728495382 -0.0021831465201546736 0 0.0052124392179674914 -0.0017896251939678713 0 0.0051695369041074796 -0.001618638521339493 0 0.0051458198417057054 -0.0016656196923651116 0 0.0050445533649716261 -0.0016300822623332805 0 0.0050826385728495382 -0.0021831465201546736 0 0.0048590057692581819 -0.0020918835003974979 0 0.0051458198417057054 -0.0016656196923651116 0 0.0050445533649716261 -0.0016300822623332805 0 0.0050550397837902583 -0.0017189152063582928 0 0.0050445533649716261 -0.0016300822623332805 0 0.0048783372815504721 -0.0016686266019776427 0 0.0049798031410415869 -0.0017174523679113671 0 0.0050445533649716261 -0.0016300822623332805 0 0.0049798031410415869 -0.0017174523679113671 0 0.0050550397837902583 -0.0017189152063582928 0 0.0048590057692581819 -0.0020918835003974979 0 0.0045492627739913459 -0.0021610744877498798 0 0.0046598085176915785 -0.0025836242457861311 0 0.0046512481273039939 -0.0024658271080732178 0 0.0045084686694587825 -0.0024976806529361574 0 0.0046512481273039939 -0.0024658271080732178 0 0.0045662867405827472 -0.0023814693484981034 0 0.0045084686694587825 -0.0024976806529361574 0 0.0048963809268772517 -0.0025177903611984962 0 0.0047595645942570377 -0.0024778182606270296 0 0.004745583660027042 -0.0023416660820253497 0 0.0046512481273039939 -0.0024658271080732178 0 0.0047595645942570377 -0.0024778182606270296 0 0.004745583660027042 -0.0023416660820253497 0 0.0048963809268772517 -0.0025177903611984962 0 0.0046598085176915785 -0.0025836242457861311 0 0.0047595645942570377 -0.0024778182606270296 0 0.0046598085176915785 -0.0025836242457861311 0 0.0046512481273039939 -0.0024658271080732178 0 0.0047595645942570377 -0.0024778182606270296 0 0.0046512481273039939 -0.0024658271080732178 0 0.004745583660027042 -0.0023416660820253497 0 0.0045662867405827472 -0.0023814693484981034 0 0.004745583660027042 -0.0023416660820253497 0 0.0045662867405827472 -0.0023814693484981034 0 0.0045891665857600997 -0.0022953972879843098 0 0.004745583660027042 -0.0023416660820253497 0 0.0045891665857600997 -0.0022953972879843098 0 0.0046797760620515064 -0.002191014067622643 0 0.0049052529215740616 -0.0023629920609337112 0 0.0046883763610125213 -0.0021735526518625028 0 0.0048196297017614083 -0.0021547859933666808 0 0.0046797760620515064 -0.002191014067622643 0 0.0050284242180839876 -0.00225611179997422 0 0.0050732021677312679 -0.0023498523384096848 0 0.0046797760620515064 -0.002191014067622643 0 0.0050284242180839876 -0.00225611179997422 0 0.00502822170146655 -0.0021554662143959988 0 0.0048196297017614083 -0.0021547859933666808 0 0.0050284242180839876 -0.00225611179997422 0 0.00502822170146655 -0.0021554662143959988 0 0.0051156959787022381 -0.0022213800124622133 0 0.0050284242180839876 -0.00225611179997422 0 0.005140874668113876 -0.0022864069028490771 0 0.0050732021677312679 -0.0023498523384096848 0 0.0050284242180839876 -0.00225611179997422 0 0.0042964241192183896 -0.0022592298269306552 0 0.0042847845490823818 -0.0021615932291644867 0 0.0044394025707869501 -0.0022153832493213075 0 0.0042964241192183896 -0.0022592298269306552 0 0.0042026217676319104 -0.0022201266258267843 0 0.0042847845490823818 -0.0021615932291644867 0 0.0042964241192183896 -0.0022592298269306552 0 0.0042026217676319104 -0.0022201266258267843 0 0.0041926879443469761 -0.0023190897878367978 0 0.0042026217676319104 -0.0022201266258267843 0 0.0042847845490823818 -0.0021615932291644867 0 0.0041705375820857106 -0.0021507066587203335 0 0.0044475501205192558 -0.0021042647894705009 0 0.0046797760620515064 -0.002191014067622643 0 0.0044394025707869501 -0.0022153832493213075 0 0.0044475501205192558 -0.0021042647894705009 0 0.0042847845490823818 -0.0021615932291644867 0 0.0044394025707869501 -0.0022153832493213075 0 0.0045891665857600997 -0.0022953972879843098 0 0.0046797760620515064 -0.002191014067622643 0 0.0044394025707869501 -0.0022153832493213075 0 0.0045891665857600997 -0.0022953972879843098 0 0.0044394025707869501 -0.0022153832493213075 0 0.0044346522572777641 -0.0023204950726094086 0 0.0042964241192183896 -0.0022592298269306552 0 0.0044394025707869501 -0.0022153832493213075 0 0.0044346522572777641 -0.0023204950726094086 0 0.0045662867405827472 -0.0023814693484981034 0 0.0045891665857600997 -0.0022953972879843098 0 0.0044346522572777641 -0.0023204950726094086 0 0.0045662867405827472 -0.0023814693484981034 0 0.0044346522572777641 -0.0023204950726094086 0 0.0044336510243376892 -0.0024128571809293891 0 0.0044346522572777641 -0.0023204950726094086 0 0.0043116434025069735 -0.0023719615707167544 0 0.0044336510243376892 -0.0024128571809293891 0 0.0042964241192183896 -0.0022592298269306552 0 0.0044346522572777641 -0.0023204950726094086 0 0.0043116434025069735 -0.0023719615707167544 0 0.0042964241192183896 -0.0022592298269306552 0 0.0043116434025069735 -0.0023719615707167544 0 0.0041926879443469761 -0.0023190897878367978 0 0.0043116434025069735 -0.0023719615707167544 0 0.0041926879443469761 -0.0023190897878367978 0 0.0042353810751691416 -0.0024317311133753819 0 0.0041926879443469761 -0.0023190897878367978 0 0.0042353810751691416 -0.0024317311133753819 0 0.004135513433377527 -0.0023806026405396165 0 0.0043116434025069735 -0.0023719615707167544 0 0.0042353810751691416 -0.0024317311133753819 0 0.0043495142556118855 -0.0024976664266625958 0 0.0042353810751691416 -0.0024317311133753819 0 0.0043495142556118855 -0.0024976664266625958 0 0.0042481674748844856 -0.0025309653026679268 0 0.0042353810751691416 -0.0024317311133753819 0 0.0042481674748844856 -0.0025309653026679268 0 0.0041506175764216592 -0.0024830376174708171 0 0.0045662867405827472 -0.0023814693484981034 0 0.0044336510243376892 -0.0024128571809293891 0 0.0045084686694587825 -0.0024976806529361574 0 0.0043116434025069735 -0.0023719615707167544 0 0.0044336510243376892 -0.0024128571809293891 0 0.0043495142556118855 -0.0024976664266625958 0 0.0044336510243376892 -0.0024128571809293891 0 0.0043495142556118855 -0.0024976664266625958 0 0.0045084686694587825 -0.0024976806529361574 0 0.0046598085176915785 -0.0025836242457861311 0 0.0045084686694587825 -0.0024976806529361574 0 0.004379366171897158 -0.0026527446967278072 0 0.0043495142556118855 -0.0024976664266625958 0 0.0045084686694587825 -0.0024976806529361574 0 0.004379366171897158 -0.0026527446967278072 0 0.0044024077226616221 -0.0026226109805278929 0 0.0045492627739913459 -0.0021610744877498798 0 0.0045492627739913459 -0.0021610744877498798 0 0.0042290513733284031 -0.0022759477094911463 0 0.004351371439456366 -0.0025955421948209889 0 0.0042481674748844856 -0.0025309653026679268 0 0.0041770716129166515 -0.0026245152588149526 0 0.0043495142556118855 -0.0024976664266625958 0 0.004351371439456366 -0.0025955421948209889 0 0.0042481674748844856 -0.0025309653026679268 0 0.0042070833528237298 -0.0021256465724679516 0 0.0042181783539229009 -0.0021353851854746847 0 0.004201891027737447 -0.0021436771323600961 0 0.0044120090960916517 -0.0021321204550730785 0 0.0044465014479806537 -0.0021236153380411646 0 0.004426026483849526 -0.0020970087845109662 0 0.0042290513733284031 -0.0022759477094911463 0 0.0043192412336226253 -0.0021050538938793676 0 0.0042305944876788347 -0.0021495117486848253 0 0.0042296833649246319 -0.0021446879182360451 0 0.004201891027737447 -0.0021436771323600961 0 0.0044280642180300192 -0.0019068433369184342 0 0.0039667003069416007 -0.0021661802472016825 0 0.0041610179330901437 -0.0019482072891027654 0 0.0042052549663481103 -0.001925652212194385 0 0.0042144491421135409 -0.0019688594077022061 0 0.0042181783539229009 -0.0021353851854746847 0 0.0042296833649246319 -0.0021446879182360451 0 0.004201891027737447 -0.0021436771323600961 0 0.004939866865547587 -0.00187815967181109 0 0.0049007377845643367 -0.0018355487764590865 0 0.0049895599342636146 -0.0017986660436086709 0 0.0047386327846931876 -0.0018653160716341096 0 0.0045410075533998855 -0.0019283241441849378 0 0.0047386327846931876 -0.0018653160716341096 0 0.0044280642180300192 -0.0019068433369184342 0 0.004611647982426352 -0.0018892003658489357 0 0.0045848309911322794 -0.0018807089510323026 0 0.0045815647406082759 -0.0018568309266145974 0 0.0044280642180300192 -0.0019068433369184342 0 0.0045410075533998855 -0.0019283241441849378 0 0.0043192412336226253 -0.0021050538938793676 0 0.0045410075533998855 -0.0019283241441849378 0 0.0049007377845643367 -0.0018355487764590865 0 0.0049372058786598056 -0.0017552519057147645 0 0.0049895599342636146 -0.0017986660436086709 0 0.0045492627739913459 -0.0021610744877498798 0 0.0045410075533998855 -0.0019283241441849378 0 0.0048783372815504721 -0.0016686266019776427 0 0.0049372058786598056 -0.0017552519057147645 0 0.0049798031410415869 -0.0017174523679113671 0 0.0044120090960916517 -0.0021321204550730785 0 0.004426026483849526 -0.0020970087845109662 0 0.0044052934989568726 -0.0020715903327429806 0 0.0048783372815504721 -0.0016686266019776427 0 0.0049007377845643367 -0.0018355487764590865 0 0.0049372058786598056 -0.0017552519057147645 0 0.0050550397837902583 -0.0017189152063582928 0 0.0050829328879976581 -0.0018290618973299533 0 0.0049895599342636146 -0.0017986660436086709 0 0.0049798031410415869 -0.0017174523679113671 0 0.0050550397837902583 -0.0017189152063582928 0 0.0049895599342636146 -0.0017986660436086709 0 0.0049372058786598056 -0.0017552519057147645 0 0.0049798031410415869 -0.0017174523679113671 0 0.0049895599342636146 -0.0017986660436086709 0 0.005138340568530235 -0.0017899349646958622 0 0.0051458198417057054 -0.0016656196923651116 0 0.0050550397837902583 -0.0017189152063582928 0 0.0050552731385337529 -0.0017194651556671607 0 0.0050917107602133985 -0.0018394071501015839 0 0.005138340568530235 -0.0017899349646958622 0 0.0050853591233319768 -0.0018056834880979446 0 0.0051095254846676786 -0.0018848054331085384 0 0.005138340568530235 -0.0017899349646958622 0 0.0050550397837902583 -0.0017189152063582928 0 0.0050853591233319768 -0.0018056834880979446 0 0.0050829328879976581 -0.0018290618973299533 0 0.0049895599342636146 -0.0017986660436086709 0 0.0050059164211232309 -0.00185378975306701 0 0.0050829328879976581 -0.0018290618973299533 0 0.0050059164211232309 -0.00185378975306701 0 0.0050269884273396997 -0.0019052219949972163 0 0.004939866865547587 -0.00187815967181109 0 0.0049895599342636146 -0.0017986660436086709 0 0.0050059164211232309 -0.00185378975306701 0 0.0047386327846931876 -0.0018653160716341096 0 0.0049528110848094846 -0.0018316224770716992 0 0.0048500299286932443 -0.0017471556784926009 0 0.0048516205753987946 -0.0017458474578494782 0 0.0048513910963369489 -0.0017456830105682794 0 0.0047386327846931876 -0.0018653160716341096 0 0.0047319745330522403 -0.0017631830774317923 0 0.004939866865547587 -0.00187815967181109 0 0.0050059164211232309 -0.00185378975306701 0 0.0050269884273396997 -0.0019052219949972163 0 0.0046355471376181194 -0.0018102686299221477 0 0.0046073560923570751 -0.0017759854313688067 0 0.0046334661556586745 -0.0017869453289785901 0 0.0048516205753987946 -0.0017458474578494782 0 0.0048513910963369489 -0.0017456830105682794 0 0.0048516897284193138 -0.0017451955745244544 0 0.0050917107602133985 -0.0018394071501015839 0 0.00503178124687055 -0.0017900448556062334 0 0.0051329920375054383 -0.0018922400844759582 0 0.005138340568530235 -0.0017899349646958622 0 0.0051095254846676786 -0.0018848054331085384 0 0.0050829328879976581 -0.0018290618973299533 0 0.0050269884273396997 -0.0019052219949972163 0 0.0051111371234823649 -0.0019320359722960223 0 0.0049528110848094846 -0.0018316224770716992 0 0.00503178124687055 -0.0017900448556062334 0 0.0048516897284193138 -0.0017451955745244544 0 0.0048522091245313658 -0.0017449593847985282 0 0.0048517901755951677 -0.0017446932471293737 0 0.0048516205753987946 -0.0017458474578494782 0 0.0048516897284193138 -0.0017451955745244544 0 0.0048522091245313658 -0.0017449593847985282 0 0.0048522091245313658 -0.0017449593847985282 0 0.0048518374606332446 -0.0017442862771651657 0 0.0048517901755951677 -0.0017446932471293737 0 0.00503178124687055 -0.0017900448556062334 0 0.0049190341629050784 -0.0015857273232945408 0 0.0049739380016526101 -0.0016945633866404391 0 0.0050449743802256303 -0.0017184870832619614 0 0.0050120606933688142 -0.0016053535436674868 0 0.0049752111845074486 -0.001628681746269865 0 0.0049739380016526101 -0.0016945633866404391 0 0.0050120606933688142 -0.0016053535436674868 0 0.0050991087491230507 -0.0016968718215977752 0 0.00503178124687055 -0.0017900448556062334 0 0.005054181251094734 -0.0013944901593935515 0 0.0049190341629050784 -0.0015857273232945408 0 0.0049190341629050784 -0.0015857273232945408 0 0.004728431592847652 -0.0016191263136723689 0 0.0050263971863913895 -0.0014140752466115379 0 0.0050225212158888678 -0.0016007525712421809 0 0.0050715823819222506 -0.0015697725310944569 0 0.0046756448854189557 -0.0014293805337786756 0 0.0046915870269696441 -0.0014181843034151125 0 0.0046810207782988647 -0.0014166686606691917 0 0.0048518374606332446 -0.0017442862771651657 0 0.0048517901755951677 -0.0017446932471293737 0 0.0048513967479260926 -0.001744060440786331 0 0.0050697517831394517 -0.0015588879324245138 0 0.0049190341629050784 -0.0015857273232945408 0 0.0048516897284193138 -0.0017451955745244544 0 0.0048517901755951677 -0.0017446932471293737 0 0.0048513967479260926 -0.001744060440786331 0 0.0046912125564100415 -0.0014183341432087576 0 0.0046883334791429166 -0.0014145302346346914 0 0.0046858772823590309 -0.0014011317843367357 0 0.0046883334791429166 -0.0014145302346346914 0 0.0046789290737709686 -0.0014077585972060379 0 0.0046858772823590309 -0.0014011317843367357 0 0.0046915870269696441 -0.0014181843034151125 0 0.0046883334791429166 -0.0014145302346346914 0 0.0046810207782988647 -0.0014166686606691917 0 0.004728431592847652 -0.0016191263136723689 0 0.0047049149445004415 -0.0015815285206530472 0 0.0046705738987483664 -0.0014134663983718808 0 0.0046756448854189557 -0.0014293805337786756 0 0.0046810207782988647 -0.0014166686606691917 0 0.0046883334791429166 -0.0014145302346346914 0 0.0046810207782988647 -0.0014166686606691917 0 0.0046789290737709686 -0.0014077585972060379 0 0.0046705738987483664 -0.0014134663983718808 0 0.0046810207782988647 -0.0014166686606691917 0 0.0046789290737709686 -0.0014077585972060379 0 0.0046073560923570751 -0.0017759854313688067 0 0.0045790879691149713 -0.001742381554273757 0 0.0046447953147361956 -0.0017596966604566881 0 0.0045790879691149713 -0.001742381554273757 0 0.0046447953147361956 -0.0017596966604566881 0 0.0046382802300338997 -0.001704271932363886 0 0.0047319745330522403 -0.0017631830774317923 0 0.004728431592847652 -0.0016191263136723689 0 0.0048513910963369489 -0.0017456830105682794 0 0.0048516897284193138 -0.0017451955745244544 0 0.0048513967479260926 -0.001744060440786331 0 0.0043892228339225976 -0.0018558594336255138 0 0.0046088527567522035 -0.0016066204996247459 0 0.0041556877571112616 -0.0019038213922527602 0 0.0041958901998085741 -0.0018804772343783166 0 0.0041510721941184596 -0.0018574351769680558 0 0.0041556877571112616 -0.0019038213922527602 0 0.0041958901998085741 -0.0018804772343783166 0 0.0042052549663481103 -0.001925652212194385 0 0.0038214413594439812 -0.0020619347587646736 0 0.0038357194262031275 -0.0020762513088978295 0 0.0046510448447639966 -0.0018159268006571918 0 0.0046447953147361956 -0.0017596966604566881 0 0.0046334661556586745 -0.0017869453289785901 0 0.0044280642180300192 -0.0019068433369184342 0 0.0043892228339225976 -0.0018558594336255138 0 0.0041610179330901437 -0.0019482072891027654 0 0.0041556877571112616 -0.0019038213922527602 0 0.0042052549663481103 -0.001925652212194385 0 0.0046355471376181194 -0.0018102686299221477 0 0.0046510448447639966 -0.0018159268006571918 0 0.0046334661556586745 -0.0017869453289785901 0 0.0046073560923570751 -0.0017759854313688067 0 0.0046447953147361956 -0.0017596966604566881 0 0.0046334661556586745 -0.0017869453289785901 0 0.0035557551615141665 -0.0022770178076333709 0 0.0035561998452173986 -0.002190421452728456 0 0.0036152783005943571 -0.0022428224621295193 0 0.0035557551615141665 -0.0022770178076333709 0 0.0036152783005943571 -0.0022428224621295193 0 0.0036357673077087433 -0.0023041628941124705 0 0.0034827439392689594 -0.0022503740538031129 0 0.0035557551615141665 -0.0022770178076333709 0 0.0035561998452173986 -0.002190421452728456 0 0.0034827439392689594 -0.0022503740538031129 0 0.0035557551615141665 -0.0022770178076333709 0 0.0034995540119298583 -0.0023427584953489783 0 0.0034652127075025453 -0.0021658490493371581 0 0.0034827439392689594 -0.0022503740538031129 0 0.0035561998452173986 -0.002190421452728456 0 0.0035561998452173986 -0.002190421452728456 0 0.0036416746511387867 -0.0021877001883281498 0 0.0036152783005943571 -0.0022428224621295193 0 0.003564763389287161 -0.0021258579139011927 0 0.0036363959285911785 -0.0022435105036149468 0 0.0034849466914402849 -0.0020781288635979755 0 0.0036469821092712847 -0.0022533987135411509 0 0.0036672610848768003 -0.0021429693773417739 0 0.0034849466914402849 -0.0020781288635979755 0 0.0036672610848768003 -0.0021429693773417739 0 0.0036111296564506081 -0.0019658096921169777 0 0.0036469821092712847 -0.0022533987135411509 0 0.0037268967183377902 -0.0023057208593281822 0 0.0036672610848768003 -0.0021429693773417739 0 0.0036469821092712847 -0.0022533987135411509 0 0.0036152783005943571 -0.0022428224621295193 0 0.0036357673077087433 -0.0023041628941124705 0 0.0036416746511387867 -0.0021877001883281498 0 0.0036469821092712847 -0.0022533987135411509 0 0.0036152783005943571 -0.0022428224621295193 0 0.0036357673077087433 -0.0023041628941124705 0 0.0036935559635294692 -0.0024332187217394126 0 0.0035709293948584407 -0.0023767692457355091 0 0.0036357673077087433 -0.0023041628941124705 0 0.0037006128522319381 -0.0023617974874293947 0 0.0036935559635294692 -0.0024332187217394126 0 0.0036469821092712847 -0.0022533987135411509 0 0.0036357673077087433 -0.0023041628941124705 0 0.0037006128522319381 -0.0023617974874293947 0 0.0036469821092712847 -0.0022533987135411509 0 0.0037006128522319381 -0.0023617974874293947 0 0.0037256580359161335 -0.0023604736031488461 0 0.0036469821092712847 -0.0022533987135411509 0 0.0037256580359161335 -0.0023604736031488461 0 0.0037268967183377902 -0.0023057208593281822 0 0.0037256580359161335 -0.0023604736031488461 0 0.0037351444352401405 -0.0024071448257938647 0 0.0037453016147942415 -0.0024024264832546174 0 0.0037256580359161335 -0.0023604736031488461 0 0.0037453016147942415 -0.0024024264832546174 0 0.0037426980841007676 -0.0023698304492410388 0 0.0037006128522319381 -0.0023617974874293947 0 0.0037256580359161335 -0.0023604736031488461 0 0.0037351444352401405 -0.0024071448257938647 0 0.0037351444352401405 -0.0024071448257938647 0 0.0037483587536015417 -0.002415301056036732 0 0.0037485626628748778 -0.0024296829426028138 0 0.0037483587536015417 -0.002415301056036732 0 0.0037647307972147486 -0.0024283318310955502 0 0.0037583895701338976 -0.0024167840539480309 0 0.0037483587536015417 -0.002415301056036732 0 0.0037485626628748778 -0.0024296829426028138 0 0.0037647307972147486 -0.0024283318310955502 0 0.0037483587536015417 -0.002415301056036732 0 0.0037453016147942415 -0.0024024264832546174 0 0.0037583895701338976 -0.0024167840539480309 0 0.0037453016147942415 -0.0024024264832546174 0 0.0037583895701338976 -0.0024167840539480309 0 0.0037591425634521608 -0.0024096481649388706 0 0.0037351444352401405 -0.0024071448257938647 0 0.0037483587536015417 -0.002415301056036732 0 0.0037453016147942415 -0.0024024264832546174 0 0.0037006128522319381 -0.0023617974874293947 0 0.0037351444352401405 -0.0024071448257938647 0 0.0037232551814591155 -0.0024392144834707477 0 0.0037006128522319381 -0.0023617974874293947 0 0.0036935559635294692 -0.0024332187217394126 0 0.0037232551814591155 -0.0024392144834707477 0 0.0037351444352401405 -0.0024071448257938647 0 0.0037232551814591155 -0.0024392144834707477 0 0.0037485626628748778 -0.0024296829426028138 0 0.0037477954860365295 -0.0023879814850580969 0 0.0037468889315563029 -0.0023911441059579538 0 0.0037731826186947273 -0.0024666871844912382 0 0.0037232551814591155 -0.0024392144834707477 0 0.0037740663389451198 -0.0024418691785797505 0 0.0037232551814591155 -0.0024392144834707477 0 0.0037485626628748778 -0.0024296829426028138 0 0.0037740663389451198 -0.0024418691785797505 0 0.0037485626628748778 -0.0024296829426028138 0 0.0037647307972147486 -0.0024283318310955502 0 0.0037740663389451198 -0.0024418691785797505 0 0.0037731826186947273 -0.0024666871844912382 0 0.0037740663389451198 -0.0024418691785797505 0 0.0038473588991583744 -0.0024477219493679835 0 0.0037714577009783012 -0.0023028758332063822 0 0.0038495420133151117 -0.002327754074896543 0 0.0039062323233698699 -0.0022687749454299456 0 0.0037477954860365295 -0.0023879814850580969 0 0.0040399132592512047 -0.0023592866231889943 0 0.0037731826186947273 -0.0024666871844912382 0 0.0040341928875509466 -0.0025598246512290078 0 0.0039253624931166655 -0.0024794642088179588 0 0.0037477954860365295 -0.0023879814850580969 0 0.0036790990729515163 -0.0023441467870975222 0 0.0035557551615141665 -0.0022770178076333709 0 0.0036357673077087433 -0.0023041628941124705 0 0.0035709293948584407 -0.0023767692457355091 0 0.0036790990729515163 -0.0023441467870975222 0 0.0039667003069416007 -0.0021661802472016825 0 0.0038357194262031275 -0.0020762513088978295 0 0.0039667003069416007 -0.0021661802472016825 0 0.0035557551615141665 -0.0022770178076333709 0 0.0035709293948584407 -0.0023767692457355091 0 0.0034995540119298583 -0.0023427584953489783 0 0.0042070833528237298 -0.0021256465724679516 0 0.004201891027737447 -0.0021436771323600961 0 0.0041974199944182248 -0.0021284296238476955 0 0.0039667003069416007 -0.0021661802472016825 0 0.0040399132592512047 -0.0023592866231889943 0 0.0038495420133151117 -0.002327754074896543 0 0.0039274255433163381 -0.0023521534021478576 0 0.0039062323233698699 -0.0022687749454299456 0 0.0042290513733284031 -0.0022759477094911463 0 0.0040399132592512047 -0.0023592866231889943 0 0.0042481674748844856 -0.0025309653026679268 0 0.0040678181576051867 -0.00263079999351344 0 0.0041506175764216592 -0.0024830376174708171 0 0.0040678181576051867 -0.00263079999351344 0 0.0040295160399457589 -0.0025150789071004005 0 0.0041506175764216592 -0.0024830376174708171 0 0.0042481674748844856 -0.0025309653026679268 0 0.0041770716129166515 -0.0026245152588149526 0 0.0040678181576051867 -0.00263079999351344 0 0.0040341928875509466 -0.0025598246512290078 0 0.0040295160399457589 -0.0025150789071004005 0 0.0039253624931166655 -0.0024794642088179588 0 0.0040399132592512047 -0.0023592866231889943 0 0.0040587535633492614 -0.0025525779393268501 0 0.0040295160399457589 -0.0025150789071004005 0 0.0039853818649283673 -0.0024416643911929306 0 0.0040713123295617309 -0.0024414942537019438 0 0.0040295160399457589 -0.0025150789071004005 0 0.0041506175764216592 -0.0024830376174708171 0 0.0040713123295617309 -0.0024414942537019438 0 0.0040295160399457589 -0.0025150789071004005 0 0.0039253624931166655 -0.0024794642088179588 0 0.0039853818649283673 -0.0024416643911929306 0 0.0039253624931166655 -0.0024794642088179588 0 0.0038945953278931335 -0.0024271114001023523 0 0.0039853818649283673 -0.0024416643911929306 0 0.0039253624931166655 -0.0024794642088179588 0 0.0038945953278931335 -0.0024271114001023523 0 0.0038473588991583744 -0.0024477219493679835 0 0.0038945953278931335 -0.0024271114001023523 0 0.0039505581798017081 -0.0023953993738474598 0 0.0038811830496517379 -0.002387231799870685 0 0.0038945953278931335 -0.0024271114001023523 0 0.0039853818649283673 -0.0024416643911929306 0 0.0039505581798017081 -0.0023953993738474598 0 0.0039853818649283673 -0.0024416643911929306 0 0.0039505581798017081 -0.0023953993738474598 0 0.0040501717604538344 -0.0023913124342298544 0 0.0039505581798017081 -0.0023953993738474598 0 0.0040501717604538344 -0.0023913124342298544 0 0.0039936824149188407 -0.0023590759570444406 0 0.0039505581798017081 -0.0023953993738474598 0 0.0039219886477145447 -0.0023575655719176416 0 0.0039936824149188407 -0.0023590759570444406 0 0.0039505581798017081 -0.0023953993738474598 0 0.0039219886477145447 -0.0023575655719176416 0 0.0038811830496517379 -0.002387231799870685 0 0.0041506175764216592 -0.0024830376174708171 0 0.0040713123295617309 -0.0024414942537019438 0 0.004135513433377527 -0.0023806026405396165 0 0.0039853818649283673 -0.0024416643911929306 0 0.0040713123295617309 -0.0024414942537019438 0 0.0040501717604538344 -0.0023913124342298544 0 0.0040713123295617309 -0.0024414942537019438 0 0.0040501717604538344 -0.0023913124342298544 0 0.004135513433377527 -0.0023806026405396165 0 0.0042353810751691416 -0.0024317311133753819 0 0.0041506175764216592 -0.0024830376174708171 0 0.004135513433377527 -0.0023806026405396165 0 0.0041926879443469761 -0.0023190897878367978 0 0.004135513433377527 -0.0023806026405396165 0 0.0040592485485492005 -0.002316650026544517 0 0.0041926879443469761 -0.0023190897878367978 0 0.0040592485485492005 -0.002316650026544517 0 0.0041276523404187599 -0.0022636197304378731 0 0.0040592485485492005 -0.002316650026544517 0 0.0041276523404187599 -0.0022636197304378731 0 0.0040593790432221109 -0.0022593029978241223 0 0.0040501717604538344 -0.0023913124342298544 0 0.0040592485485492005 -0.002316650026544517 0 0.0039936824149188407 -0.0023590759570444406 0 0.0040501717604538344 -0.0023913124342298544 0 0.004135513433377527 -0.0023806026405396165 0 0.0040592485485492005 -0.002316650026544517 0 0.0040592485485492005 -0.002316650026544517 0 0.0039936824149188407 -0.0023590759570444406 0 0.0039677691891147398 -0.002319113258723584 0 0.0039219886477145447 -0.0023575655719176416 0 0.0039677691891147398 -0.002319113258723584 0 0.0039134093698813639 -0.0023217133353547487 0 0.0039219886477145447 -0.0023575655719176416 0 0.0039936824149188407 -0.0023590759570444406 0 0.0039677691891147398 -0.002319113258723584 0 0.0039677691891147398 -0.002319113258723584 0 0.0039387563848328876 -0.0022826565126235088 0 0.0039134093698813639 -0.0023217133353547487 0 0.0039677691891147398 -0.002319113258723584 0 0.0039387563848328876 -0.0022826565126235088 0 0.0039992133799107554 -0.0022725053962420376 0 0.0040592485485492005 -0.002316650026544517 0 0.0039992133799107554 -0.0022725053962420376 0 0.0040593790432221109 -0.0022593029978241223 0 0.0040592485485492005 -0.002316650026544517 0 0.0039677691891147398 -0.002319113258723584 0 0.0039992133799107554 -0.0022725053962420376 0 0.0039992133799107554 -0.0022725053962420376 0 0.0039640507077738684 -0.0022427397746132517 0 0.0040316358461809382 -0.0022118996620462709 0 0.0039992133799107554 -0.0022725053962420376 0 0.0040316358461809382 -0.0022118996620462709 0 0.0040593790432221109 -0.0022593029978241223 0 0.0039387563848328876 -0.0022826565126235088 0 0.0039992133799107554 -0.0022725053962420376 0 0.0039640507077738684 -0.0022427397746132517 0 0.0039387563848328876 -0.0022826565126235088 0 0.0039640507077738684 -0.0022427397746132517 0 0.0039156289602284957 -0.0022388159477539061 0 0.0039744360580113349 -0.0021997292731371896 0 0.0039300202545532155 -0.0021972605434335459 0 0.0039156289602284957 -0.0022388159477539061 0 0.0039640507077738684 -0.0022427397746132517 0 0.0039744360580113349 -0.0021997292731371896 0 0.0039156289602284957 -0.0022388159477539061 0 0.0039692408656012172 -0.0021580079938019769 0 0.0039744360580113349 -0.0021997292731371896 0 0.0039300202545532155 -0.0021972605434335459 0 0.0040284253250643829 -0.0021399470501197227 0 0.0039744360580113349 -0.0021997292731371896 0 0.0040316358461809382 -0.0022118996620462709 0 0.0039640507077738684 -0.0022427397746132517 0 0.0039744360580113349 -0.0021997292731371896 0 0.0040316358461809382 -0.0022118996620462709 0 0.0040909127579428634 -0.0021566406561150096 0 0.0040284253250643829 -0.0021399470501197227 0 0.0040316358461809382 -0.0022118996620462709 0 0.0040909127579428634 -0.0021566406561150096 0 0.0040316358461809382 -0.0022118996620462709 0 0.0041177014122329445 -0.0022076133264872801 0 0.0040909127579428634 -0.0021566406561150096 0 0.0041705375820857106 -0.0021507066587203335 0 0.0041177014122329445 -0.0022076133264872801 0 0.0042026217676319104 -0.0022201266258267843 0 0.0041705375820857106 -0.0021507066587203335 0 0.0041177014122329445 -0.0022076133264872801 0 0.0042026217676319104 -0.0022201266258267843 0 0.0041926879443469761 -0.0023190897878367978 0 0.0041276523404187599 -0.0022636197304378731 0 0.0042026217676319104 -0.0022201266258267843 0 0.0041177014122329445 -0.0022076133264872801 0 0.0041276523404187599 -0.0022636197304378731 0 0.0041177014122329445 -0.0022076133264872801 0 0.0041276523404187599 -0.0022636197304378731 0 0.0040593790432221109 -0.0022593029978241223 0 0.0040316358461809382 -0.0022118996620462709 0 0.0041177014122329445 -0.0022076133264872801 0 0.0040593790432221109 -0.0022593029978241223 0 0.0038232168456008176 -0.0022702636375812745 0 0.003839965611679221 -0.0022254691372798232 0 0.0038619435705782223 -0.0022588904959490617 0 0.0038232168456008176 -0.0022702636375812745 0 0.0038619435705782223 -0.0022588904959490617 0 0.0038287269079115452 -0.0023032398954202244 0 0.0038232168456008176 -0.0022702636375812745 0 0.0037954063379704714 -0.002257036825892718 0 0.0037948508211588425 -0.0023002115392143389 0 0.0038232168456008176 -0.0022702636375812745 0 0.0037954063379704714 -0.002257036825892718 0 0.003839965611679221 -0.0022254691372798232 0 0.003839965611679221 -0.0022254691372798232 0 0.0038871524975695208 -0.0022099281429593999 0 0.0038619435705782223 -0.0022588904959490617 0 0.0038871524975695208 -0.0022099281429593999 0 0.0039156289602284957 -0.0022388159477539061 0 0.0038619435705782223 -0.0022588904959490617 0 0.0038871524975695208 -0.0022099281429593999 0 0.0039300202545532155 -0.0021972605434335459 0 0.0039156289602284957 -0.0022388159477539061 0 0.0039156289602284957 -0.0022388159477539061 0 0.0038619435705782223 -0.0022588904959490617 0 0.0038743506881282835 -0.0023022162981583727 0 0.0038619435705782223 -0.0022588904959490617 0 0.0038743506881282835 -0.0023022162981583727 0 0.0038287269079115452 -0.0023032398954202244 0 0.0038743506881282835 -0.0023022162981583727 0 0.0038283578578701756 -0.0023407502209959264 0 0.0038287269079115452 -0.0023032398954202244 0 0.0039387563848328876 -0.0022826565126235088 0 0.0038743506881282835 -0.0023022162981583727 0 0.0039134093698813639 -0.0023217133353547487 0 0.0039387563848328876 -0.0022826565126235088 0 0.0039156289602284957 -0.0022388159477539061 0 0.0038743506881282835 -0.0023022162981583727 0 0.0038743506881282835 -0.0023022162981583727 0 0.0038703166124108039 -0.0023490159878605402 0 0.0039134093698813639 -0.0023217133353547487 0 0.0039219886477145447 -0.0023575655719176416 0 0.0038703166124108039 -0.0023490159878605402 0 0.0039134093698813639 -0.0023217133353547487 0 0.0038743506881282835 -0.0023022162981583727 0 0.0038703166124108039 -0.0023490159878605402 0 0.0038283578578701756 -0.0023407502209959264 0 0.0038283578578701756 -0.0023407502209959264 0 0.0038287269079115452 -0.0023032398954202244 0 0.0038000299112440259 -0.0023302423101264438 0 0.0038283578578701756 -0.0023407502209959264 0 0.0038000299112440259 -0.0023302423101264438 0 0.0037884833511404041 -0.0023608125592687761 0 0.0038287269079115452 -0.0023032398954202244 0 0.0037948508211588425 -0.0023002115392143389 0 0.0038000299112440259 -0.0023302423101264438 0 0.0038232168456008176 -0.0022702636375812745 0 0.0038287269079115452 -0.0023032398954202244 0 0.0037948508211588425 -0.0023002115392143389 0 0.0037948508211588425 -0.0023002115392143389 0 0.0038000299112440259 -0.0023302423101264438 0 0.0037680993095436672 -0.0023386721500911708 0 0.0038000299112440259 -0.0023302423101264438 0 0.0037884833511404041 -0.0023608125592687761 0 0.0037680993095436672 -0.0023386721500911708 0 0.0038283578578701756 -0.0023407502209959264 0 0.0037884833511404041 -0.0023608125592687761 0 0.0038213058760162145 -0.0023803926926651382 0 0.0037884833511404041 -0.0023608125592687761 0 0.0037837413764052071 -0.0023895018643628504 0 0.0038213058760162145 -0.0023803926926651382 0 0.0038001521129894101 -0.0023983630497254145 0 0.0037837413764052071 -0.0023895018643628504 0 0.0038213058760162145 -0.0023803926926651382 0 0.0037884833511404041 -0.0023608125592687761 0 0.0037837413764052071 -0.0023895018643628504 0 0.0037629323524568685 -0.0023725459830816731 0 0.0039219886477145447 -0.0023575655719176416 0 0.0038703166124108039 -0.0023490159878605402 0 0.0038811830496517379 -0.002387231799870685 0 0.0038703166124108039 -0.0023490159878605402 0 0.0038213058760162145 -0.0023803926926651382 0 0.0038811830496517379 -0.002387231799870685 0 0.0038703166124108039 -0.0023490159878605402 0 0.0038283578578701756 -0.0023407502209959264 0 0.0038213058760162145 -0.0023803926926651382 0 0.0038213058760162145 -0.0023803926926651382 0 0.0038811830496517379 -0.002387231799870685 0 0.0038315299651610528 -0.0024130364651682454 0 0.0038001521129894101 -0.0023983630497254145 0 0.0038213058760162145 -0.0023803926926651382 0 0.0038315299651610528 -0.0024130364651682454 0 0.0038945953278931335 -0.0024271114001023523 0 0.0038811830496517379 -0.002387231799870685 0 0.0038315299651610528 -0.0024130364651682454 0 0.0038945953278931335 -0.0024271114001023523 0 0.0038315299651610528 -0.0024130364651682454 0 0.0038473588991583744 -0.0024477219493679835 0 0.0038315299651610528 -0.0024130364651682454 0 0.0037975885842435773 -0.0024303538875262791 0 0.0038473588991583744 -0.0024477219493679835 0 0.0038315299651610528 -0.0024130364651682454 0 0.0037949388112898269 -0.0024137080563300826 0 0.0037975885842435773 -0.0024303538875262791 0 0.0038001521129894101 -0.0023983630497254145 0 0.0038315299651610528 -0.0024130364651682454 0 0.0037949388112898269 -0.0024137080563300826 0 0.0037740663389451198 -0.0024418691785797505 0 0.0037975885842435773 -0.0024303538875262791 0 0.0038473588991583744 -0.0024477219493679835 0 0.0037949388112898269 -0.0024137080563300826 0 0.0037975885842435773 -0.0024303538875262791 0 0.0037727452697297777 -0.0024185737868965798 0 0.0037647307972147486 -0.0024283318310955502 0 0.0037975885842435773 -0.0024303538875262791 0 0.0037727452697297777 -0.0024185737868965798 0 0.0037647307972147486 -0.0024283318310955502 0 0.0037740663389451198 -0.0024418691785797505 0 0.0037975885842435773 -0.0024303538875262791 0 0.0037731826186947273 -0.0024666871844912382 0 0.0039253624931166655 -0.0024794642088179588 0 0.0038473588991583744 -0.0024477219493679835 0 0.0037837413764052071 -0.0023895018643628504 0 0.0037724370728182584 -0.0024038408091230533 0 0.0037615228422066948 -0.0023916404317740471 0 0.0037724370728182584 -0.0024038408091230533 0 0.0037525208812103916 -0.0023983784600017273 0 0.0037615228422066948 -0.0023916404317740471 0 0.0037949388112898269 -0.0024137080563300826 0 0.0037724370728182584 -0.0024038408091230533 0 0.0037727452697297777 -0.0024185737868965798 0 0.0038001521129894101 -0.0023983630497254145 0 0.0037837413764052071 -0.0023895018643628504 0 0.0037724370728182584 -0.0024038408091230533 0 0.0038001521129894101 -0.0023983630497254145 0 0.0037949388112898269 -0.0024137080563300826 0 0.0037724370728182584 -0.0024038408091230533 0 0.0037724370728182584 -0.0024038408091230533 0 0.0037727452697297777 -0.0024185737868965798 0 0.0037591425634521608 -0.0024096481649388706 0 0.0037647307972147486 -0.0024283318310955502 0 0.0037727452697297777 -0.0024185737868965798 0 0.0037583895701338976 -0.0024167840539480309 0 0.0037727452697297777 -0.0024185737868965798 0 0.0037583895701338976 -0.0024167840539480309 0 0.0037591425634521608 -0.0024096481649388706 0 0.0037724370728182584 -0.0024038408091230533 0 0.0037591425634521608 -0.0024096481649388706 0 0.0037525208812103916 -0.0023983784600017273 0 0.0037453016147942415 -0.0024024264832546174 0 0.0037591425634521608 -0.0024096481649388706 0 0.0037525208812103916 -0.0023983784600017273 0 0.0037525208812103916 -0.0023983784600017273 0 0.0037537915535616416 -0.0023896689967514962 0 0.0037615228422066948 -0.0023916404317740471 0 0.0037537915535616416 -0.0023896689967514962 0 0.0037507482903000487 -0.0023843338197429469 0 0.0037533889259625457 -0.002381660928821438 0 0.0037525208812103916 -0.0023983784600017273 0 0.0037537915535616416 -0.0023896689967514962 0 0.0037533889259625457 -0.002381660928821438 0 0.0037537915535616416 -0.0023896689967514962 0 0.0037507482903000487 -0.0023843338197429469 0 0.0037615228422066948 -0.0023916404317740471 0 0.0037507482903000487 -0.0023843338197429469 0 0.0037612793906222821 -0.0023794106712735552 0 0.003735076640264544 -0.0023724609763148361 0 0.0037507482903000487 -0.0023843338197429469 0 0.0037612793906222821 -0.0023794106712735552 0 0.0037533889259625457 -0.002381660928821438 0 0.0037507482903000487 -0.0023843338197429469 0 0.003735076640264544 -0.0023724609763148361 0 0.0037452826732664994 -0.0023634374882947735 0 0.003735076640264544 -0.0023724609763148361 0 0.0037452826732664994 -0.0023634374882947735 0 0.0037304505748179564 -0.0023590026154277793 0 0.003735076640264544 -0.0023724609763148361 0 0.0037304505748179564 -0.0023590026154277793 0 0.0037081786845222621 -0.0023604281085379975 0 0.0037507482903000487 -0.0023843338197429469 0 0.0037615228422066948 -0.0023916404317740471 0 0.0037629323524568685 -0.0023725459830816731 0 0.0037837413764052071 -0.0023895018643628504 0 0.0037615228422066948 -0.0023916404317740471 0 0.0037629323524568685 -0.0023725459830816731 0 0.0037507482903000487 -0.0023843338197429469 0 0.0037452826732664994 -0.0023634374882947735 0 0.0037629323524568685 -0.0023725459830816731 0 0.0037452826732664994 -0.0023634374882947735 0 0.0037629323524568685 -0.0023725459830816731 0 0.0037680993095436672 -0.0023386721500911708 0 0.0037884833511404041 -0.0023608125592687761 0 0.0037629323524568685 -0.0023725459830816731 0 0.0037680993095436672 -0.0023386721500911708 0 0.0037948508211588425 -0.0023002115392143389 0 0.0037680993095436672 -0.0023386721500911708 0 0.00376122524421969 -0.0022960684782769056 0 0.0037680993095436672 -0.0023386721500911708 0 0.0037362694832186556 -0.0023318244337572646 0 0.00376122524421969 -0.0022960684782769056 0 0.0037452826732664994 -0.0023634374882947735 0 0.0037680993095436672 -0.0023386721500911708 0 0.0037362694832186556 -0.0023318244337572646 0 0.0037362694832186556 -0.0023318244337572646 0 0.0037177791057148848 -0.0022977213556755536 0 0.00376122524421969 -0.0022960684782769056 0 0.0037452826732664994 -0.0023634374882947735 0 0.0037304505748179564 -0.0023590026154277793 0 0.0037362694832186556 -0.0023318244337572646 0 0.0037304505748179564 -0.0023590026154277793 0 0.0037362694832186556 -0.0023318244337572646 0 0.0037081786845222621 -0.0023604281085379975 0 0.0037362694832186556 -0.0023318244337572646 0 0.0037177791057148848 -0.0022977213556755536 0 0.0037081786845222621 -0.0023604281085379975 0 0.0037177791057148848 -0.0022977213556755536 0 0.0037465845922199205 -0.002254539947061796 0 0.00376122524421969 -0.0022960684782769056 0 0.0037177791057148848 -0.0022977213556755536 0 0.0037465845922199205 -0.002254539947061796 0 0.0036988838228196375 -0.0022632237856542248 0 0.0037806440812050749 -0.0022178571943930604 0 0.0037954063379704714 -0.002257036825892718 0 0.0037465845922199205 -0.002254539947061796 0 0.0037954063379704714 -0.002257036825892718 0 0.0037465845922199205 -0.002254539947061796 0 0.00376122524421969 -0.0022960684782769056 0 0.0037954063379704714 -0.002257036825892718 0 0.0037948508211588425 -0.0023002115392143389 0 0.00376122524421969 -0.0022960684782769056 0 0.0035832836695448666 -0.0022393618389431264 0 0.0036178303431789846 -0.0022997582695738795 0 0.0035609135014780906 -0.0023426907381506549 0 0.0036178303431789846 -0.0022997582695738795 0 0.0036708000207157894 -0.0023049682598806375 0 0.0036290646717153738 -0.0023536628133360451 0 0.0036482323791179327 -0.0022595177341658431 0 0.0036178303431789846 -0.0022997582695738795 0 0.0036708000207157894 -0.0023049682598806375 0 0.0036482323791179327 -0.0022595177341658431 0 0.0036988838228196375 -0.0022632237856542248 0 0.0036708000207157894 -0.0023049682598806375 0 0.0037177791057148848 -0.0022977213556755536 0 0.0036988838228196375 -0.0022632237856542248 0 0.0036708000207157894 -0.0023049682598806375 0 0.003670515903345121 -0.0023572062045717906 0 0.0037765161490201401 -0.0024068499543999419 0 0.0036708000207157894 -0.0023049682598806375 0 0.0037081786845222621 -0.0023604281085379975 0 0.0036290646717153738 -0.0023536628133360451 0 0.0037177791057148848 -0.0022977213556755536 0 0.0036708000207157894 -0.0023049682598806375 0 0.0037081786845222621 -0.0023604281085379975 0 0.0037765161490201401 -0.0024068499543999419 0 0.0028404993796087466 -0.0029131469553666765 0 0.0037205619764395176 -0.0023815423127597664 0 0.0037242377347975488 -0.0023760301469816568 0 0.0037257119538415887 -0.0023924956019513773 0 0.0036178303431789846 -0.0022997582695738795 0 0.0036290646717153738 -0.0023536628133360451 0 0.0035609135014780906 -0.0023426907381506549 0 0.0037081786845222621 -0.0023604281085379975 0 0.0037205619764395176 -0.0023815423127597664 0 0.0037242377347975488 -0.0023760301469816568 0 0.003735076640264544 -0.0023724609763148361 0 0.0037081786845222621 -0.0023604281085379975 0 0.0037265048012044516 -0.0023749494007471107 0 0.0037081786845222621 -0.0023604281085379975 0 0.0037242377347975488 -0.0023760301469816568 0 0.0037265048012044516 -0.0023749494007471107 0 0.0037612793906222821 -0.0023794106712735552 0 0.0037265048012044516 -0.0023749494007471107 0 0.0038322686162975475 -0.0023520343764731784 0 0.0037319363396694613 -0.002364843926885267 0 0.0037523916819342164 -0.0023173549611097992 0 0.0037612793906222821 -0.0023794106712735552 0 0.003735076640264544 -0.0023724609763148361 0 0.0037265048012044516 -0.0023749494007471107 0 0.0037242377347975488 -0.0023760301469816568 0 0.0037296710088546301 -0.0023443366285989531 0 0.0037443304861908087 -0.0023769452149848607 0 0.0037265048012044516 -0.0023749494007471107 0 0.0037296710088546301 -0.0023443366285989531 0 0.0036734195630809736 -0.0022990199519531342 0 0.0037242377347975488 -0.0023760301469816568 0 0.0037265048012044516 -0.0023749494007471107 0 0.0037296710088546301 -0.0023443366285989531 0 0.0037296710088546301 -0.0023443366285989531 0 0.0036734195630809736 -0.0022990199519531342 0 0.0037452873630255379 -0.0022273013022862304 0 0.0036734195630809736 -0.0022990199519531342 0 0.0036547956572662754 -0.0021515515903080544 0 0.0037452873630255379 -0.0022273013022862304 0 0.0037523916819342164 -0.0023173549611097992 0 0.0037796913365935035 -0.0021841525780683228 0 0.0038322686162975475 -0.0023520343764731784 0 0.0037724811677827211 -0.0023334545612322287 0 0.0039028468110218783 -0.0022249932835269586 0 0.0037612793906222821 -0.0023794106712735552 0 0.0038322686162975475 -0.0023520343764731784 0 0.0037724811677827211 -0.0023334545612322287 0 0.0037612793906222821 -0.0023794106712735552 0 0.0037533889259625457 -0.002381660928821438 0 0.0037724811677827211 -0.0023334545612322287 0 0.0037533889259625457 -0.002381660928821438 0 0.0037426980841007676 -0.0023698304492410388 0 0.0037724811677827211 -0.0023334545612322287 0 0.0037525208812103916 -0.0023983784600017273 0 0.0037533889259625457 -0.002381660928821438 0 0.0037426980841007676 -0.0023698304492410388 0 0.0037453016147942415 -0.0024024264832546174 0 0.0037525208812103916 -0.0023983784600017273 0 0.0037426980841007676 -0.0023698304492410388 0 0.0037426980841007676 -0.0023698304492410388 0 0.0037268967183377902 -0.0023057208593281822 0 0.0037724811677827211 -0.0023334545612322287 0 0.0037256580359161335 -0.0023604736031488461 0 0.0037426980841007676 -0.0023698304492410388 0 0.0037268967183377902 -0.0023057208593281822 0 0.0037724811677827211 -0.0023334545612322287 0 0.003772434522398573 -0.0022064838654923527 0 0.0039028468110218783 -0.0022249932835269586 0 0.0037268967183377902 -0.0023057208593281822 0 0.0037724811677827211 -0.0023334545612322287 0 0.003772434522398573 -0.0022064838654923527 0 0.0037268967183377902 -0.0023057208593281822 0 0.003772434522398573 -0.0022064838654923527 0 0.0036672610848768003 -0.0021429693773417739 0 0.003772434522398573 -0.0022064838654923527 0 0.0036672610848768003 -0.0021429693773417739 0 0.0037419587368345743 -0.0020854759868477396 0 0.0036672610848768003 -0.0021429693773417739 0 0.0037419587368345743 -0.0020854759868477396 0 0.0036111296564506081 -0.0019658096921169777 0 0.003772434522398573 -0.0022064838654923527 0 0.0037419587368345743 -0.0020854759868477396 0 0.0038381108653120486 -0.0020949492946743613 0 0.0038381108653120486 -0.0020949492946743613 0 0.0039510133137057347 -0.0020338005497747467 0 0.0039028468110218783 -0.0022249932835269586 0 0.0036748632115663803 -0.0019546885720424494 0 0.0037348115208670463 -0.0021020344868914664 0 0.0037821314533399925 -0.0020139359333423779 0 0.0038118696227408635 -0.0019951428072448531 0 0.0037796913365935035 -0.0021841525780683228 0 0.0037348115208670463 -0.0021020344868914664 0 0.0036547956572662754 -0.0021515515903080544 0 0.0037452873630255379 -0.0022273013022862304 0 0.0036748632115663803 -0.0019546885720424494 0 0.0037348115208670463 -0.0021020344868914664 0 0.0036547956572662754 -0.0021515515903080544 0 0.003772434522398573 -0.0022064838654923527 0 0.0038381108653120486 -0.0020949492946743613 0 0.0039028468110218783 -0.0022249932835269586 0 0.0039346159532334416 -0.0018180893864780327 0 0.0038697436955013671 -0.0019287569421553592 0 0.0038526017184888767 -0.0017715131672137203 0 0.0038697436955013671 -0.0019287569421553592 0 0.0037622897794310746 -0.0019165204443014467 0 0.0038526017184888767 -0.0017715131672137203 0 0.0036748632115663803 -0.0019546885720424494 0 0.0037351102920136227 -0.0017800732258765341 0 0.0037985450408735567 -0.0018829101590074381 0 0.0038118696227408635 -0.0019951428072448531 0 0.0038314037205248322 -0.001806679234943224 0 0.0039510133137057347 -0.0020338005497747467 0 0.0039346159532334416 -0.0018180893864780327 0 0.0038697436955013671 -0.0019287569421553592 0 0.0038381108653120486 -0.0020949492946743613 0 0.0039510133137057347 -0.0020338005497747467 0 0.0038697436955013671 -0.0019287569421553592 0 0.0038381108653120486 -0.0020949492946743613 0 0.0038697436955013671 -0.0019287569421553592 0 0.0037622897794310746 -0.0019165204443014467 0 0.0037419587368345743 -0.0020854759868477396 0 0.0038381108653120486 -0.0020949492946743613 0 0.0037622897794310746 -0.0019165204443014467 0 0.0037419587368345743 -0.0020854759868477396 0 0.0037622897794310746 -0.0019165204443014467 0 0.0036111296564506081 -0.0019658096921169777 0 0.0037622897794310746 -0.0019165204443014467 0 0.0036423096365300208 -0.0018083022764939277 0 0.0036111296564506081 -0.0019658096921169777 0 0.0037622897794310746 -0.0019165204443014467 0 0.0036423096365300208 -0.0018083022764939277 0 0.0037624545743552202 -0.0017554000016766754 0 0.0037622897794310746 -0.0019165204443014467 0 0.0037624545743552202 -0.0017554000016766754 0 0.0038526017184888767 -0.0017715131672137203 0 0.0037624545743552202 -0.0017554000016766754 0 0.0036962443602951102 -0.0016125915022034902 0 0.0038538251715234074 -0.0016197394982813535 0 0.0036423096365300208 -0.0018083022764939277 0 0.0037624545743552202 -0.0017554000016766754 0 0.0036962443602951102 -0.0016125915022034902 0 0.0036423096365300208 -0.0018083022764939277 0 0.0036962443602951102 -0.0016125915022034902 0 0.0034220873283973934 -0.0015621770691135427 0 0.0036301628423411583 -0.0017923387239711403 0 0.0035107673315040938 -0.0016054689422951266 0 0.0036147123052515003 -0.0014274006977666059 0 0.003486786521563747 -0.0012714958232253857 0 0.0034220873283973934 -0.0015621770691135427 0 0.0036147123052515003 -0.0014274006977666059 0 0.0036962443602951102 -0.0016125915022034902 0 0.0034220873283973934 -0.0015621770691135427 0 0.0036147123052515003 -0.0014274006977666059 0 0.0036962443602951102 -0.0016125915022034902 0 0.0037974792531576505 -0.0014518655942606089 0 0.0036962443602951102 -0.0016125915022034902 0 0.0037974792531576505 -0.0014518655942606089 0 0.0038538251715234074 -0.0016197394982813535 0 0.0037974792531576505 -0.0014518655942606089 0 0.0038890941316858298 -0.0014849673230041347 0 0.0038538251715234074 -0.0016197394982813535 0 0.0037974792531576505 -0.0014518655942606089 0 0.0038890941316858298 -0.0014849673230041347 0 0.0039212754161066397 -0.0013769938901263495 0 0.0038890941316858298 -0.0014849673230041347 0 0.0039881751237485618 -0.0014890677211669226 0 0.0039212754161066397 -0.0013769938901263495 0 0.0038890941316858298 -0.0014849673230041347 0 0.0039881751237485618 -0.0014890677211669226 0 0.0038538251715234074 -0.0016197394982813535 0 0.0038580762758500141 -0.0015185746368566384 0 0.0038507938268219338 -0.0017457569334664361 0 0.0039881751237485618 -0.0014890677211669226 0 0.0038538251715234074 -0.0016197394982813535 0 0.0038526017184888767 -0.0017715131672137203 0 0.0037277353882457244 -0.0015731263961337831 0 0.0038526017184888767 -0.0017715131672137203 0 0.0038277204189069692 -0.0016949041763598277 0 0.0037624545743552202 -0.0017554000016766754 0 0.0038538251715234074 -0.0016197394982813535 0 0.0038526017184888767 -0.0017715131672137203 0 0.0039346159532334416 -0.0018180893864780327 0 0.0038526017184888767 -0.0017715131672137203 0 0.0038277204189069692 -0.0016949041763598277 0 0.0039346159532334416 -0.0018180893864780327 0 0.0038277204189069692 -0.0016949041763598277 0 0.0038268875573347523 -0.0016761938101249509 0 0.0038314037205248322 -0.001806679234943224 0 0.0038296767134687664 -0.0016938910576874851 0 0.0038268875573347523 -0.0016761938101249509 0 0.0037597445052706081 -0.0015900060059846632 0 0.0038485701294475594 -0.001693649553690535 0 0.0037597445052706081 -0.0015900060059846632 0 0.0039260591398295229 -0.0014905223409403384 0 0.0040554186540744394 -0.0015048167013590877 0 0.0037538841966360038 -0.0015886003241528301 0 0.0039610513122567406 -0.0016170787902108636 0 0.0038277204189069692 -0.0016949041763598277 0 0.0038268875573347523 -0.0016761938101249509 0 0.0037597445052706081 -0.0015900060059846632 0 0.0037277353882457244 -0.0015731263961337831 0 0.0038277204189069692 -0.0016949041763598277 0 0.0037597445052706081 -0.0015900060059846632 0 0.0037277353882457244 -0.0015731263961337831 0 0.0037597445052706081 -0.0015900060059846632 0 0.0037959811367297247 -0.001413858800986291 0 0.0037597445052706081 -0.0015900060059846632 0 0.0039260591398295229 -0.0014905223409403384 0 0.0037959811367297247 -0.001413858800986291 0 0.0039260591398295229 -0.0014905223409403384 0 0.0039357172614567079 -0.0013423388446724505 0 0.0038436174026203408 -0.0013300095011581712 0 0.0038436174026203408 -0.0013300095011581712 0 0.0037959811367297247 -0.001413858800986291 0 0.0036929566808325247 -0.0010492079430224699 0 0.0039260591398295229 -0.0014905223409403384 0 0.0038436174026203408 -0.0013300095011581712 0 0.0037959811367297247 -0.001413858800986291 0 0.0038580762758500141 -0.0015185746368566384 0 0.0038737560169852894 -0.0011023679829056351 0 0.0037277353882457244 -0.0015731263961337831 0 0.0037959811367297247 -0.001413858800986291 0 0.0036929566808325247 -0.0010492079430224699 0 0.0038436174026203408 -0.0013300095011581712 0 0.0039108454838197911 -0.0012073217578677689 0 0.0036929566808325247 -0.0010492079430224699 0 0.0039357172614567079 -0.0013423388446724505 0 0.0038436174026203408 -0.0013300095011581712 0 0.0039108454838197911 -0.0012073217578677689 0 0.0039212754161066397 -0.0013769938901263495 0 0.0038842760829970804 -0.0012834245983994314 0 0.0040477441203397345 -0.0011584725388806821 0 0.0039881751237485618 -0.0014890677211669226 0 0.0039212754161066397 -0.0013769938901263495 0 0.0040477441203397345 -0.0011584725388806821 0 0.0037974792531576505 -0.0014518655942606089 0 0.0039212754161066397 -0.0013769938901263495 0 0.0038842760829970804 -0.0012834245983994314 0 0.0038842760829970804 -0.0012834245983994314 0 0.0039270845052213977 -0.0011416949124056172 0 0.0038283889011785713 -0.0011196909201866931 0 0.0038842760829970804 -0.0012834245983994314 0 0.0039270845052213977 -0.0011416949124056172 0 0.0040477441203397345 -0.0011584725388806821 0 0.0039270845052213977 -0.0011416949124056172 0 0.0039542935978357282 -0.0010048461640675493 0 0.0040477441203397345 -0.0011584725388806821 0 0.0039542935978357282 -0.0010048461640675493 0 0.003837602655984756 -0.00093055769411752001 0 0.0038283889011785713 -0.0011196909201866931 0 0.0039270845052213977 -0.0011416949124056172 0 0.0039542935978357282 -0.0010048461640675493 0 0.0038283889011785713 -0.0011196909201866931 0 0.0036929566808325247 -0.0010492079430224699 0 0.0039212611580901544 -0.00087169199335005105 0 0.0037714317005613815 -0.00055501472129877033 0 0.0038867001682557022 -0.0010510648776390298 0 0.0036929566808325247 -0.0010492079430224699 0 0.0039212611580901544 -0.00087169199335005105 0 0.0039108454838197911 -0.0012073217578677689 0 0.0038867001682557022 -0.0010510648776390298 0 0.0036929566808325247 -0.0010492079430224699 0 0.0039542935978357282 -0.0010048461640675493 0 0.0040477441203397345 -0.0011584725388806821 0 0.0040650696552558931 -0.0007581668677821814 0 0.0038737560169852894 -0.0011023679829056351 0 0.0039183695105052584 -0.00066203328858743793 0 0.0039422764590829667 -0.00097689681163700597 0 0.0038483986504584838 -0.00069197239356297356 0 0.0039542935978357282 -0.0010048461640675493 0 0.003837602655984756 -0.00093055769411752001 0 0.0039161900946948465 -0.00075167575316446302 0 0.0039542935978357282 -0.0010048461640675493 0 0.0040650696552558931 -0.0007581668677821814 0 0.0037755031925666479 -0.0006339241227657958 0 0.0040650696552558931 -0.0007581668677821814 0 0.0037755031925666479 -0.0006339241227657958 0 0.0038275629678726285 -0.00041235643704507592 0 0.0037714317005613815 -0.00055501472129877033 0 0.0040869556570048557 -0.00030656916829180814 0 0.0038887232293716885 -0.00015361860425251476 0 0.0039183695105052584 -0.00066203328858743793 0 0.0039752663067150924 -0.00025041062677394612 0 0.0040650696552558931 -0.0007581668677821814 0 0.004062996095539559 -0.00033009631474336521 0 0.0038275629678726285 -0.00041235643704507592 0 0.0035125410129078728 -0.00072069959770608796 0 0.003735858056110325 -0.00066793950258946884 0 0.0037109329645841752 -0.00050498094909227432 0 0.0035125410129078728 -0.00072069959770608796 0 0.003735858056110325 -0.00066793950258946884 0 0.0037138569861466294 -0.00082478700352592402 0 0.0039161900946948465 -0.00075167575316446302 0 0.003735858056110325 -0.00066793950258946884 0 0.0037138569861466294 -0.00082478700352592402 0 0.0039161900946948465 -0.00075167575316446302 0 0.003735858056110325 -0.00066793950258946884 0 0.0038052243222443747 -0.00059741739206229522 0 0.0037138569861466294 -0.00082478700352592402 0 0.0037198019773745611 -0.0009704945206888909 0 0.0035879971213133828 -0.00092607731018867182 0 0.003837602655984756 -0.00093055769411752001 0 0.0039161900946948465 -0.00075167575316446302 0 0.0037138569861466294 -0.00082478700352592402 0 0.003837602655984756 -0.00093055769411752001 0 0.0037138569861466294 -0.00082478700352592402 0 0.0037198019773745611 -0.0009704945206888909 0 0.003837602655984756 -0.00093055769411752001 0 0.0037198019773745611 -0.0009704945206888909 0 0.0038283889011785713 -0.0011196909201866931 0 0.0035125410129078728 -0.00072069959770608796 0 0.0037138569861466294 -0.00082478700352592402 0 0.0035879971213133828 -0.00092607731018867182 0 0.0035125410129078728 -0.00072069959770608796 0 0.0035879971213133828 -0.00092607731018867182 0 0.0033861886840534298 -0.0010073181005133109 0 0.0037198019773745611 -0.0009704945206888909 0 0.0035879971213133828 -0.00092607731018867182 0 0.0036044083629793978 -0.0011065909729493085 0 0.0035879971213133828 -0.00092607731018867182 0 0.0036044083629793978 -0.0011065909729493085 0 0.0033861886840534298 -0.0010073181005133109 0 0.0036044083629793978 -0.0011065909729493085 0 0.003486786521563747 -0.0012714958232253857 0 0.0033861886840534298 -0.0010073181005133109 0 0.0037198019773745611 -0.0009704945206888909 0 0.0036044083629793978 -0.0011065909729493085 0 0.0038283889011785713 -0.0011196909201866931 0 0.0036044083629793978 -0.0011065909729493085 0 0.0038283889011785713 -0.0011196909201866931 0 0.0037122317837790129 -0.0012716790557096812 0 0.0036147123052515003 -0.0014274006977666059 0 0.0037974792531576505 -0.0014518655942606089 0 0.0037122317837790129 -0.0012716790557096812 0 0.0038842760829970804 -0.0012834245983994314 0 0.0038283889011785713 -0.0011196909201866931 0 0.0037122317837790129 -0.0012716790557096812 0 0.0037974792531576505 -0.0014518655942606089 0 0.0038842760829970804 -0.0012834245983994314 0 0.0037122317837790129 -0.0012716790557096812 0 0.0036044083629793978 -0.0011065909729493085 0 0.0037122317837790129 -0.0012716790557096812 0 0.003486786521563747 -0.0012714958232253857 0 0.0036147123052515003 -0.0014274006977666059 0 0.0037122317837790129 -0.0012716790557096812 0 0.003486786521563747 -0.0012714958232253857 0 0.003486786521563747 -0.0012714958232253857 0 0.003242134869067795 -0.0012877709233255397 0 0.0034220873283973934 -0.0015621770691135427 0 0.0035218819207934234 -0.0014604481512537613 0 0.0033604401868361951 -0.0014279330565840514 0 0.0033879140958274598 -0.0015550347787920175 0 0.003379898477477797 -0.0013735318230812983 0 0.0032609652528912412 -0.0011204902958706785 0 0.0035218819207934234 -0.0014604481512537613 0 0.0034261356412938078 -0.0012510437642981333 0 0.0033604401868361951 -0.0014279330565840514 0 0.003242134869067795 -0.0012877709233255397 0 0.0030769859855775631 -0.0010110800404805147 0 0.0033861886840534298 -0.0010073181005133109 0 0.003486786521563747 -0.0012714958232253857 0 0.003242134869067795 -0.0012877709233255397 0 0.0033861886840534298 -0.0010073181005133109 0 0.0035125410129078728 -0.00072069959770608796 0 0.0033861886840534298 -0.0010073181005133109 0 0.0032302396844555146 -0.00074435042805331996 0 0.0030769859855775631 -0.0010110800404805147 0 0.0032302396844555146 -0.00074435042805331996 0 0.0030699110876085088 -0.00078397541329847434 0 0.0030769859855775631 -0.0010110800404805147 0 0.0033861886840534298 -0.0010073181005133109 0 0.0032302396844555146 -0.00074435042805331996 0 0.0032302396844555146 -0.00074435042805331996 0 0.0030590921391508174 -0.00064672710014465921 0 0.003190053275983781 -0.00044604160657188484 0 0.0032302396844555146 -0.00074435042805331996 0 0.0030590921391508174 -0.00064672710014465921 0 0.0030699110876085088 -0.00078397541329847434 0 0.0035125410129078728 -0.00072069959770608796 0 0.0032302396844555146 -0.00074435042805331996 0 0.0033726253109102457 -0.00052659582421412461 0 0.0033655675275859036 -0.0010657639552695479 0 0.0033080145497420455 -0.0010343198562077223 0 0.003373032015469418 -0.0011152623855981321 0 0.0033135008881345867 -0.0010356563317620549 0 0.0033080145497420455 -0.0010343198562077223 0 0.0032741941965433964 -0.0011362680166421509 0 0.0033296684892773162 -0.0010108833189425171 0 0.0032007123667231172 -0.0011087439434303138 0 0.0033135008881345867 -0.0010356563317620549 0 0.0033746999588752306 -0.0010229719811178379 0 0.0033891301029730114 -0.00094196573823217083 0 0.0033746999588752306 -0.0010229719811178379 0 0.0033891301029730114 -0.00094196573823217083 0 0.0034347356364917989 -0.001038986959160462 0 0.0033746999588752306 -0.0010229719811178379 0 0.0033655675275859036 -0.0010657639552695479 0 0.0034347356364917989 -0.001038986959160462 0 0.0033135008881345867 -0.0010356563317620549 0 0.0033655675275859036 -0.0010657639552695479 0 0.0033080145497420455 -0.0010343198562077223 0 0.0033135008881345867 -0.0010356563317620549 0 0.0033746999588752306 -0.0010229719811178379 0 0.0033655675275859036 -0.0010657639552695479 0 0.0030590921391508174 -0.00064672710014465921 0 0.0029125690210469505 -0.00073280855823561317 0 0.0029266179847104827 -0.0005801682107329807 0 0.0030590921391508174 -0.00064672710014465921 0 0.0030699110876085088 -0.00078397541329847434 0 0.0029125690210469505 -0.00073280855823561317 0 0.0034261356412938078 -0.0012510437642981333 0 0.0033080145497420455 -0.0010343198562077223 0 0.0032741941965433964 -0.0011362680166421509 0 0.0030769859855775631 -0.0010110800404805147 0 0.0030699110876085088 -0.00078397541329847434 0 0.0029125690210469505 -0.00073280855823561317 0 0.0032609652528912412 -0.0011204902958706785 0 0.0030048898503412277 -0.00096624315254342037 0 0.0034261356412938078 -0.0012510437642981333 0 0.0032741941965433964 -0.0011362680166421509 0 0.0032728370966215092 -0.0013267873310662496 0 0.0032741941965433964 -0.0011362680166421509 0 0.0031571609683563556 -0.0012646478953591096 0 0.0032728370966215092 -0.0013267873310662496 0 0.0033135008881345867 -0.0010356563317620549 0 0.0032741941965433964 -0.0011362680166421509 0 0.0031656214650744186 -0.0011441094433260249 0 0.0032741941965433964 -0.0011362680166421509 0 0.0031656214650744186 -0.0011441094433260249 0 0.0031571609683563556 -0.0012646478953591096 0 0.0031571609683563556 -0.0012646478953591096 0 0.0032728370966215092 -0.0013267873310662496 0 0.003178186962973882 -0.0013580932739975472 0 0.0031571609683563556 -0.0012646478953591096 0 0.003178186962973882 -0.0013580932739975472 0 0.0030914976002979462 -0.0013197995453736993 0 0.0034261356412938078 -0.0012510437642981333 0 0.0032728370966215092 -0.0013267873310662496 0 0.0033604401868361951 -0.0014279330565840514 0 0.0033604401868361951 -0.0014279330565840514 0 0.0031919884284201186 -0.0015391361775442998 0 0.0033879140958274598 -0.0015550347787920175 0 0.0032728370966215092 -0.0013267873310662496 0 0.003178186962973882 -0.0013580932739975472 0 0.0031919884284201186 -0.0015391361775442998 0 0.0032728370966215092 -0.0013267873310662496 0 0.0033604401868361951 -0.0014279330565840514 0 0.0031919884284201186 -0.0015391361775442998 0 0.003178186962973882 -0.0013580932739975472 0 0.0031919884284201186 -0.0015391361775442998 0 0.0030914976002979462 -0.0013197995453736993 0 0.0040387958924411813 -0.0013286033805040072 0 0.0040834600006452613 -0.0014286342179118945 0 0.0040119594125918954 -0.0013978093829300532 0 0.003620213181907059 -0.0014361460469260448 0 0.003589361148714762 -0.0016780679442184208 0 0.0040834600006452613 -0.0014286342179118945 0 0.0040313109619359308 -0.0014626781681318195 0 0.0040119594125918954 -0.0013978093829300532 0 0.003589361148714762 -0.0016780679442184208 0 0.0037427584926590595 -0.0017692539364851936 0 0.0031919884284201186 -0.0015391361775442998 0 0.0033038502014975349 -0.0017569948013043391 0 0.0033599576468418637 -0.0017213937942953056 0 0.0033090401890402518 -0.0017542072217079183 0 0.0033599576468418637 -0.0017213937942953056 0 0.0034083271313955512 -0.0017909994882729055 0 0.003589361148714762 -0.0016780679442184208 0 0.0033784767550191618 -0.0017656728641140926 0 0.0031919884284201186 -0.0015391361775442998 0 0.0033599576468418637 -0.0017213937942953056 0 0.0033879140958274598 -0.0015550347787920175 0 0.0033599576468418637 -0.0017213937942953056 0 0.0033879140958274598 -0.0015550347787920175 0 0.0034740420952085196 -0.0016443076526281536 0 0.0035218819207934234 -0.0014604481512537613 0 0.0033879140958274598 -0.0015550347787920175 0 0.0034740420952085196 -0.0016443076526281536 0 0.0035218819207934234 -0.0014604481512537613 0 0.0034740420952085196 -0.0016443076526281536 0 0.0035966413895317248 -0.0016537808701457958 0 0.003379898477477797 -0.0013735318230812983 0 0.0035107673315040938 -0.0016054689422951266 0 0.0034740420952085196 -0.0016443076526281536 0 0.0035966413895317248 -0.0016537808701457958 0 0.0035168196132042994 -0.0017909476484777274 0 0.0036423096365300208 -0.0018083022764939277 0 0.0035966413895317248 -0.0016537808701457958 0 0.0035168196132042994 -0.0017909476484777274 0 0.0034740420952085196 -0.0016443076526281536 0 0.0035168196132042994 -0.0017909476484777274 0 0.0034432497375383904 -0.0017338576621931728 0 0.0033599576468418637 -0.0017213937942953056 0 0.0034740420952085196 -0.0016443076526281536 0 0.0034432497375383904 -0.0017338576621931728 0 0.0035168196132042994 -0.0017909476484777274 0 0.0034432497375383904 -0.0017338576621931728 0 0.0034083271313955512 -0.0017909994882729055 0 0.0033599576468418637 -0.0017213937942953056 0 0.0034432497375383904 -0.0017338576621931728 0 0.0034083271313955512 -0.0017909994882729055 0 0.0035168196132042994 -0.0017909476484777274 0 0.0036111296564506081 -0.0019658096921169777 0 0.0033937623715079544 -0.0019145748742404997 0 0.0035168196132042994 -0.0017909476484777274 0 0.0034083271313955512 -0.0017909994882729055 0 0.0033937623715079544 -0.0019145748742404997 0 0.0036423096365300208 -0.0018083022764939277 0 0.0035168196132042994 -0.0017909476484777274 0 0.0036111296564506081 -0.0019658096921169777 0 0.0034849466914402849 -0.0020781288635979755 0 0.0036111296564506081 -0.0019658096921169777 0 0.0033937623715079544 -0.0019145748742404997 0 0.003564763389287161 -0.0021258579139011927 0 0.0034908984750253997 -0.0020342369026248174 0 0.0035561998452173986 -0.002190421452728456 0 0.0035233773171149695 -0.0021186271203597761 0 0.003604535658172806 -0.0020949028002607102 0 0.0035561998452173986 -0.002190421452728456 0 0.0036416746511387867 -0.0021877001883281498 0 0.003604535658172806 -0.0020949028002607102 0 0.0034652127075025453 -0.0021658490493371581 0 0.0035561998452173986 -0.002190421452728456 0 0.0035233773171149695 -0.0021186271203597761 0 0.0035233773171149695 -0.0021186271203597761 0 0.0035048712719970782 -0.0020439759240499658 0 0.003604535658172806 -0.0020949028002607102 0 0.0035233773171149695 -0.0021186271203597761 0 0.0035048712719970782 -0.0020439759240499658 0 0.0034476732039828272 -0.0020806427763257231 0 0.0035635457929904823 -0.0020052670010433718 0 0.0035048712719970782 -0.0020439759240499658 0 0.003604535658172806 -0.0020949028002607102 0 0.0033090401890402518 -0.0017542072217079183 0 0.0034083271313955512 -0.0017909994882729055 0 0.0033937623715079544 -0.0019145748742404997 0 0.003589361148714762 -0.0016780679442184208 0 0.0034908984750253997 -0.0020342369026248174 0 0.0047185440574326011 -0.0013421203637309885 0 0.0046088527567522035 -0.0016066204996247459 0 0.0047195182673865094 -0.001383753932545259 0 0.0047809823273405857 -0.0014072665563817739 0 0.0047673860451460165 -0.0013370282595400347 0 0.0047195182673865094 -0.001383753932545259 0 0.0047809823273405857 -0.0014072665563817739 0 0.0047236165734333372 -0.0014445723429483365 0 0.0040313109619359308 -0.0014626781681318195 0 0.0039782919115639278 -0.0014981380048760178 0 0.0039606886685143432 -0.001422583598500757 0 0.0040861867198964527 -0.0017121700440788175 0 0.0043720344748732149 -0.0013368239144100063 0 0.0037427584926590595 -0.0017692539364851936 0 0.0040861867198964527 -0.0017121700440788175 0 0.0038214413594439812 -0.0020619347587646736 0 0.0040861867198964527 -0.0017121700440788175 0 0.0034652127075025453 -0.0021658490493371581 0 0.0035233773171149695 -0.0021186271203597761 0 0.0034476732039828272 -0.0020806427763257231 0 0.0041958901998085741 -0.0018804772343783166 0 0.0041857408128036242 -0.0018345532330276916 0 0.0041510721941184596 -0.0018574351769680558 0 0.0040861867198964527 -0.0017121700440788175 0 0.0046088527567522035 -0.0016066204996247459 0 0.0047268116317032713 -0.0013598205004197756 0 0.0047304699555843332 -0.0013926162254197577 0 0.0046982905800747963 -0.0013833322007503394 0 0.0046912125564100415 -0.0014183341432087576 0 0.0047304699555843332 -0.0013926162254197577 0 0.0046982905800747963 -0.0013833322007503394 0 0.004728431592847652 -0.0016191263136723689 0 0.0046088527567522035 -0.0016066204996247459 0 0.0046982905800747963 -0.0013833322007503394 0 0.0046858772823590309 -0.0014011317843367357 0 0.0046701988725834313 -0.001393754603771738 0 0.0053097739472147713 -0.0011099082354527579 0 0.0051046503854962014 -0.0012903246812063635 0 0.0046912125564100415 -0.0014183341432087576 0 0.0046982905800747963 -0.0013833322007503394 0 0.0046858772823590309 -0.0014011317843367357 0 0.0046705738987483664 -0.0014134663983718808 0 0.0046789290737709686 -0.0014077585972060379 0 0.0046701988725834313 -0.001393754603771738 0 0.0046789290737709686 -0.0014077585972060379 0 0.0046858772823590309 -0.0014011317843367357 0 0.0046701988725834313 -0.001393754603771738 0 0.0046982905800747963 -0.0013833322007503394 0 0.0046865985827192567 -0.0013495075536410089 0 0.0046701988725834313 -0.001393754603771738 0 0.0049094130004565225 -0.0012381418063175114 0 0.0051046503854962014 -0.0012903246812063635 0 0.0051830291294516061 -0.0011203916025660742 0 0.0051383062210859642 -0.0011418395363086381 0 0.0051368828774203323 -0.0012138647592556976 0 0.0047268116317032713 -0.0013598205004197756 0 0.0046982905800747963 -0.0013833322007503394 0 0.0046865985827192567 -0.0013495075536410089 0 0.0047268116317032713 -0.0013598205004197756 0 0.0046865985827192567 -0.0013495075536410089 0 0.004720888475915285 -0.0013246667463979972 0 0.0049094130004565225 -0.0012381418063175114 0 0.0049561783996708315 -0.0011970376056889848 0 0.0046865985827192567 -0.0013495075536410089 0 0.004720888475915285 -0.0013246667463979972 0 0.0047037422097798908 -0.0012929448557168943 0 0.0053097739472147713 -0.0011099082354527579 0 0.0054582051359865231 -0.0009310315441923943 0 0.0051830291294516061 -0.0011203916025660742 0 0.0051383062210859642 -0.0011418395363086381 0 0.0051425475186264212 -0.0010726321465040498 0 0.0051830291294516061 -0.0011203916025660742 0 0.0051425475186264212 -0.0010726321465040498 0 0.0052245438288773711 -0.0010332161651381646 0 0.0054582051359865231 -0.0009310315441923943 0 0.0056441437045651145 -0.00053457098340062119 0 0.0051425475186264212 -0.0010726321465040498 0 0.0052058452841335437 -0.0010115823107110569 0 0.0052245438288773711 -0.0010332161651381646 0 0.0056023436972129984 -0.00080897216224898587 0 0.0057681173256426584 -0.0006488250701379509 0 0.0056109268678044217 -0.00056901892409574829 0 0.0054582051359865231 -0.0009310315441923943 0 0.0055756149443799462 -0.00077623309575351957 0 0.004720888475915285 -0.0013246667463979972 0 0.0047037422097798908 -0.0012929448557168943 0 0.0047556924867433771 -0.001277096564337087 0 0.0047037422097798908 -0.0012929448557168943 0 0.0047556924867433771 -0.001277096564337087 0 0.004742839326819061 -0.0012119265873765863 0 0.0043227140438638024 -0.0013539715773088446 0 0.0043720344748732149 -0.0013368239144100063 0 0.0047185440574326011 -0.0013421203637309885 0 0.0047216616946069139 -0.0013409372397514461 0 0.0047195182673865094 -0.001383753932545259 0 0.004720888475915285 -0.0013246667463979972 0 0.0047673860451460165 -0.0013370282595400347 0 0.004720888475915285 -0.0013246667463979972 0 0.0047556924867433771 -0.001277096564337087 0 0.0047673860451460165 -0.0013370282595400347 0 0.0040313109619359308 -0.0014626781681318195 0 0.0040119594125918954 -0.0013978093829300532 0 0.0039606886685143432 -0.001422583598500757 0 0.0039443176415303177 -0.0013458446459419049 0 0.0040119594125918954 -0.0013978093829300532 0 0.0039606886685143432 -0.001422583598500757 0 0.0040387958924411813 -0.0013286033805040072 0 0.0039443176415303177 -0.0013458446459419049 0 0.0040119594125918954 -0.0013978093829300532 0 0.0040387958924411813 -0.0013286033805040072 0 0.0039761716080852286 -0.0012924943753959974 0 0.0039925553402251641 -0.001227743436866937 0 0.003620213181907059 -0.0014361460469260448 0 0.0036058279226820595 -0.001170275703050511 0 0.0040387958924411813 -0.0013286033805040072 0 0.0039443176415303177 -0.0013458446459419049 0 0.0039761716080852286 -0.0012924943753959974 0 0.0039443176415303177 -0.0013458446459419049 0 0.0039761716080852286 -0.0012924943753959974 0 0.0039294861083959791 -0.0012685532322056763 0 0.0043227140438638024 -0.0013539715773088446 0 0.0050373905066926688 -0.0009108116751570315 0 0.005936389494565192 -0.0004805948793819365 0 0.0059395956559042578 -0.00036188859895552368 0 0.0060184257671400685 -0.00030267556749286653 0 0.0050373905066926688 -0.0009108116751570315 0 0.0049854553549939853 -0.00057915611630045391 0 0.0048073281767639815 -0.000788480950504241 0 0.0047064292584393418 -0.00087892305962430385 0 0.0047413506990007532 -0.00091161611949088092 0 0.005936389494565192 -0.0004805948793819365 0 0.0059000646940049212 -0.00041376886364339368 0 0.0059395956559042578 -0.00036188859895552368 0 0.005936389494565192 -0.0004805948793819365 0 0.0059000646940049212 -0.00041376886364339368 0 0.005861988309293356 -0.00045793745580117095 0 0.0050373905066926688 -0.0009108116751570315 0 0.0039393019012899958 -0.00098727499482021558 0 0.0059395956559042578 -0.00036188859895552368 0 0.0059076801820688611 -0.0002733169336082639 0 0.0058644920320744427 -0.00036551298900545839 0 0.0059000646940049212 -0.00041376886364339368 0 0.0059395956559042578 -0.00036188859895552368 0 0.0058644920320744427 -0.00036551298900545839 0 0.0031919884284201186 -0.0015391361775442998 0 0.0030914976002979462 -0.0013197995453736993 0 0.0030722980082895273 -0.0013002295690851334 0 0.0039294861083959791 -0.0012685532322056763 0 0.0039813003706554786 -0.0012155614217532343 0 0.0039925553402251641 -0.001227743436866937 0 0.0039761716080852286 -0.0012924943753959974 0 0.0039294861083959791 -0.0012685532322056763 0 0.0039925553402251641 -0.001227743436866937 0 0.0039393019012899958 -0.00098727499482021558 0 0.0036058279226820595 -0.001170275703050511 0 0.0039393019012899958 -0.00098727499482021558 0 0.0049854553549939853 -0.00057915611630045391 0 0.0031571609683563556 -0.0012646478953591096 0 0.0030914976002979462 -0.0013197995453736993 0 0.0030717381790474154 -0.0012997221274520031 0 0.0031571609683563556 -0.0012646478953591096 0 0.0030421363668345414 -0.0012698346711286579 0 0.0030717381790474154 -0.0012997221274520031 0 0.0035229776106105036 -0.001143626201490082 0 0.0036058279226820595 -0.001170275703050511 0 0.0045660946905840228 -0.00067460277782554383 0 0.0041896140195186423 -0.00070792937624663036 0 0.0033891301029730114 -0.00094196573823217083 0 0.0034943998162541802 -0.00084329057877724283 0 0.0035164263627307812 -0.00091124520193886589 0 0.0031656214650744186 -0.0011441094433260249 0 0.0031571609683563556 -0.0012646478953591096 0 0.0030421363668345414 -0.0012698346711286579 0 0.0033891301029730114 -0.00094196573823217083 0 0.0035164263627307812 -0.00091124520193886589 0 0.0034347356364917989 -0.001038986959160462 0 0.0032007123667231172 -0.0011087439434303138 0 0.0039393019012899958 -0.00098727499482021558 0 0.0039393019012899958 -0.00098727499482021558 0 0.0045660946905840228 -0.00067460277782554383 0 0.0043608159530089423 -0.00084367679029430907 0 0.0043240767685059972 -0.00072950734592742809 0 0.0042978662483362023 -0.0007795077769469854 0 0.0045660946905840228 -0.00067460277782554383 0 0.0049854553549939853 -0.00057915611630045391 0 0.0060184257671400685 -0.00030267556749286653 0 0.0059076801820688611 -0.0002733169336082639 0 0.0059061098883814809 -0.00018867216912040016 0 0.0059395956559042578 -0.00036188859895552368 0 0.0060184257671400685 -0.00030267556749286653 0 0.0059076801820688611 -0.0002733169336082639 0 0.0058482631695211907 -0.00024586282994731504 0 0.0057629248986017763 -0.00019495910860234224 0 0.0045660946905840228 -0.00067460277782554383 0 0.00498555894967461 -0.00025946641221604935 0 0.0052682071544492594 -0.00040204129892869647 0 0.0052497242774984217 -0.00043769957099306094 0 0.0051358976958903345 -0.00032029135408570168 0 0.0052682071544492594 -0.00040204129892869647 0 0.0051358976958903345 -0.00032029135408570168 0 0.0052033599663548046 -0.00026778502013324998 0 0.0049854553549939853 -0.00057915611630045391 0 0.0057629248986017763 -0.00019495910860234224 0 0.0051358976958903345 -0.00032029135408570168 0 0.0052033599663548046 -0.00026778502013324998 0 0.005136732103938931 -0.00013299887809029042 0 0.0048856916955257405 -0.000477253024149839 0 0.0047813268286350926 -0.00026251818749841203 0 0.0049054314911636393 -0.00026374044037055143 0 0.0047813268286350926 -0.00026251818749841203 0 0.0048635398445716028 -0.00019760028313001027 0 0.0049054314911636393 -0.00026374044037055143 0 0.0057629248986017763 -0.00019495910860234224 0 0.0052593077014859956 -4.6674330455540475e-06 0 0.0047813268286350926 -0.00026251818749841203 0 0.004799396833625914 -0.00011355341818767855 0 0.0046821163742563933 -5.6221045012395113e-05 0 0.00498555894967461 -0.00025946641221604935 0 0.0052593077014859956 -4.6674330455540475e-06 0 0.0047813268286350926 -0.00026251818749841203 0 0.0048635398445716028 -0.00019760028313001027 0 0.004799396833625914 -0.00011355341818767855 0 0.0048856916955257405 -0.000477253024149839 0 0.0050233449878811795 -0.00021706397850186727 0 0.0049054314911636393 -0.00026374044037055143 0 0.0049688980578947587 -0.00015107121599028026 0 0.0050233449878811795 -0.00021706397850186727 0 0.0049054314911636393 -0.00026374044037055143 0 0.0048635398445716028 -0.00019760028313001027 0 0.0049688980578947587 -0.00015107121599028026 0 0.004799396833625914 -0.00011355341818767855 0 0.0048635398445716028 -0.00019760028313001027 0 0.0049688980578947587 -0.00015107121599028026 0 0.0049054314911636393 -0.00026374044037055143 0 0.0056055646804333637 -9.8112886919059935e-05 0 0.0057727018963418522 -2.2560517361560217e-05 0 0.0057325030369166528 -0.00022510202604351172 0 0.0057727018963418522 -2.2560517361560217e-05 0 0.0058287021681948017 -0.00019835354800686069 0 0.0057325030369166528 -0.00022510202604351172 0 0.0058672019577041329 -8.3313031985379277e-05 0 0.0057442044080817803 4.0442601843475721e-05 0 0.005868343938643307 8.4811064331506469e-05 0 0.0059129380917005737 -0.00017531644211766275 0 0.0057727018963418522 -2.2560517361560217e-05 0 0.0058287021681948017 -0.00019835354800686069 0 0.0057629248986017763 -0.00019495910860234224 0 0.00577097012623814 9.0164501536774729e-06 0 0.0058287021681948017 -0.00019835354800686069 0 0.0058161938330343237 -0.0002934310102097421 0 0.0057325030369166528 -0.00022510202604351172 0 0.0058161938330343237 -0.0002934310102097421 0 0.0057325030369166528 -0.00022510202604351172 0 0.0057414021472373088 -0.00039949017619632658 0 0.0059076801820688611 -0.0002733169336082639 0 0.0059129380917005737 -0.00017531644211766275 0 0.0058287021681948017 -0.00019835354800686069 0 0.0059076801820688611 -0.0002733169336082639 0 0.0058161938330343237 -0.0002934310102097421 0 0.0058644920320744427 -0.00036551298900545839 0 0.0059076801820688611 -0.0002733169336082639 0 0.0058287021681948017 -0.00019835354800686069 0 0.0058161938330343237 -0.0002934310102097421 0 0.0057325030369166528 -0.00022510202604351172 0 0.0057414021472373088 -0.00039949017619632658 0 0.0055927776992459443 -0.00029821078955846449 0 0.0056055646804333637 -9.8112886919059935e-05 0 0.0057325030369166528 -0.00022510202604351172 0 0.0055927776992459443 -0.00029821078955846449 0 0.0057414021472373088 -0.00039949017619632658 0 0.0056081576790161193 -0.00045052637010486584 0 0.0057597563303358875 -0.00052415748130131481 0 0.0057414021472373088 -0.00039949017619632658 0 0.0056081576790161193 -0.00045052637010486584 0 0.0055927776992459443 -0.00029821078955846449 0 0.0058161938330343237 -0.0002934310102097421 0 0.0057414021472373088 -0.00039949017619632658 0 0.0058644920320744427 -0.00036551298900545839 0 0.0057414021472373088 -0.00039949017619632658 0 0.005861988309293356 -0.00045793745580117095 0 0.0057597563303358875 -0.00052415748130131481 0 0.0059000646940049212 -0.00041376886364339368 0 0.0058644920320744427 -0.00036551298900545839 0 0.005861988309293356 -0.00045793745580117095 0 0.0057414021472373088 -0.00039949017619632658 0 0.0058644920320744427 -0.00036551298900545839 0 0.005861988309293356 -0.00045793745580117095 0 0.005936389494565192 -0.0004805948793819365 0 0.005861988309293356 -0.00045793745580117095 0 0.0057597563303358875 -0.00052415748130131481 0 0.0049561783996708315 -0.0011970376056889848 0 0.0050373905066926688 -0.0009108116751570315 0 0.0057681173256426584 -0.0006488250701379509 0 0.005936389494565192 -0.0004805948793819365 0 0.0057597563303358875 -0.00052415748130131481 0 0.0052058452841335437 -0.0010115823107110569 0 0.0052245438288773711 -0.0010332161651381646 0 0.005259492634373121 -0.0009524850319337846 0 0.0055756149443799462 -0.00077623309575351957 0 0.0050373905066926688 -0.0009108116751570315 0 0.0056081576790161193 -0.00045052637010486584 0 0.0057597563303358875 -0.00052415748130131481 0 0.0056109268678044217 -0.00056901892409574829 0 0.0057681173256426584 -0.0006488250701379509 0 0.0057597563303358875 -0.00052415748130131481 0 0.0056109268678044217 -0.00056901892409574829 0 0.0056081576790161193 -0.00045052637010486584 0 0.0054911260584988974 -0.00056462473266219101 0 0.0053976559461560592 -0.00042996187712048808 0 0.0056109268678044217 -0.00056901892409574829 0 0.0054911260584988974 -0.00056462473266219101 0 0.0054957147470615676 -0.00069133719060644879 0 0.0056081576790161193 -0.00045052637010486584 0 0.0056109268678044217 -0.00056901892409574829 0 0.0054911260584988974 -0.00056462473266219101 0 0.0053976559461560592 -0.00042996187712048808 0 0.0051838395552581519 -0.00053218473146628012 0 0.0053405933286044529 -0.00068430230883069639 0 0.0054911260584988974 -0.00056462473266219101 0 0.0053976559461560592 -0.00042996187712048808 0 0.0053405933286044529 -0.00068430230883069639 0 0.0056081576790161193 -0.00045052637010486584 0 0.0053976559461560592 -0.00042996187712048808 0 0.0055927776992459443 -0.00029821078955846449 0 0.0056055646804333637 -9.8112886919059935e-05 0 0.0055927776992459443 -0.00029821078955846449 0 0.0054431181979380881 -0.00019328257774111138 0 0.0053976559461560592 -0.00042996187712048808 0 0.0055927776992459443 -0.00029821078955846449 0 0.0054431181979380881 -0.00019328257774111138 0 0.0054431181979380881 -0.00019328257774111138 0 0.0053058360808336319 -0.0001019309818314629 0 0.0052234188365838886 -0.00027900296119440471 0 0.0053976559461560592 -0.00042996187712048808 0 0.0054431181979380881 -0.00019328257774111138 0 0.0052234188365838886 -0.00027900296119440471 0 0.0054431181979380881 -0.00019328257774111138 0 0.0053058360808336319 -0.0001019309818314629 0 0.0054528979361668914 3.0403516916733237e-05 0 0.0056055646804333637 -9.8112886919059935e-05 0 0.0054431181979380881 -0.00019328257774111138 0 0.0054528979361668914 3.0403516916733237e-05 0 0.0053058360808336319 -0.0001019309818314629 0 0.0049999920987758659 -6.3920262769431144e-05 0 0.0052234188365838886 -0.00027900296119440471 0 0.0053058360808336319 -0.0001019309818314629 0 0.0049999920987758659 -6.3920262769431144e-05 0 0.0052134832853618154 6.73762424599534e-05 0 0.0049999920987758659 -6.3920262769431144e-05 0 0.0052234188365838886 -0.00027900296119440471 0 0.0049999947599669477 -0.00035807224175331726 0 0.0052234188365838886 -0.00027900296119440471 0 0.0049999947599669477 -0.00035807224175331726 0 0.0051838395552581519 -0.00053218473146628012 0 0.0053976559461560592 -0.00042996187712048808 0 0.0052234188365838886 -0.00027900296119440471 0 0.0051838395552581519 -0.00053218473146628012 0 0.0049999947599669477 -0.00035807224175331726 0 0.0051838395552581519 -0.00053218473146628012 0 0.0049999959326713422 -0.00065221919656713236 0 0.0051838395552581519 -0.00053218473146628012 0 0.0049999959326713422 -0.00065221919656713236 0 0.0051701388844497612 -0.00078280469491004705 0 0.0051701388844497612 -0.00078280469491004705 0 0.0049999898128790356 -0.00094637800397357266 0 0.0051835402678052271 -0.00098793943202036064 0 0.0049999959326713422 -0.00065221919656713236 0 0.0051701388844497612 -0.00078280469491004705 0 0.0049999898128790356 -0.00094637800397357266 0 0.0051701388844497612 -0.00078280469491004705 0 0.0053405933286044529 -0.00068430230883069639 0 0.0053131935068203937 -0.00089470390932656517 0 0.0051701388844497612 -0.00078280469491004705 0 0.0053131935068203937 -0.00089470390932656517 0 0.0051835402678052271 -0.00098793943202036064 0 0.0051838395552581519 -0.00053218473146628012 0 0.0051701388844497612 -0.00078280469491004705 0 0.0053405933286044529 -0.00068430230883069639 0 0.0053405933286044529 -0.00068430230883069639 0 0.0054957147470615676 -0.00069133719060644879 0 0.0054446521773821466 -0.00082508606366837368 0 0.0054911260584988974 -0.00056462473266219101 0 0.0053405933286044529 -0.00068430230883069639 0 0.0054957147470615676 -0.00069133719060644879 0 0.005611729540694976 -0.00082411022690907516 0 0.0056109268678044217 -0.00056901892409574829 0 0.0054957147470615676 -0.00069133719060644879 0 0.005611729540694976 -0.00082411022690907516 0 0.0054957147470615676 -0.00069133719060644879 0 0.0054446521773821466 -0.00082508606366837368 0 0.005611729540694976 -0.00082411022690907516 0 0.0054446521773821466 -0.00082508606366837368 0 0.0054243241840456124 -0.001009971520326375 0 0.0054582051359865231 -0.0009310315441923943 0 0.005408689254952713 -0.0010362322557631531 0 0.0053405933286044529 -0.00068430230883069639 0 0.0054446521773821466 -0.00082508606366837368 0 0.0053131935068203937 -0.00089470390932656517 0 0.0054446521773821466 -0.00082508606366837368 0 0.0053131935068203937 -0.00089470390932656517 0 0.0054243241840456124 -0.001009971520326375 0 0.0053131935068203937 -0.00089470390932656517 0 0.0054243241840456124 -0.001009971520326375 0 0.0052914649835896594 -0.0010318396512580936 0 0.0054243241840456124 -0.001009971520326375 0 0.0052284703793382594 -0.0011967711142303588 0 0.0052914649835896594 -0.0010318396512580936 0 0.0054829060250686694 -0.00096693234709881095 0 0.0053624395325807634 -0.0010814322274936561 0 0.0054248479328662304 -0.0010748158044474399 0 0.0054801660511415847 -0.0010777668010336491 0 0.0054829060250686694 -0.00096693234709881095 0 0.0054248479328662304 -0.0010748158044474399 0 0.0054801660511415847 -0.0010777668010336491 0 0.0054248479328662304 -0.0010748158044474399 0 0.0054747840500632547 -0.0011913990013034436 0 0.0053624395325807634 -0.0010814322274936561 0 0.0054248479328662304 -0.0010748158044474399 0 0.0054069787105664457 -0.0011620553375402392 0 0.0054248479328662304 -0.0010748158044474399 0 0.0054069787105664457 -0.0011620553375402392 0 0.0054721005471397742 -0.001223179904217928 0 0.0054248479328662304 -0.0010748158044474399 0 0.0054605092994600962 -0.0012176035983329102 0 0.0054747840500632547 -0.0011913990013034436 0 0.0054640910208466256 -0.0010788120395925128 0 0.0052611305778155733 -0.0012690259404790215 0 0.0053794659883266453 -0.0012715280983282222 0 0.0054107118048310745 -0.0012232460158051314 0 0.0053655254630685795 -0.0012093434814667015 0 0.0053794659883266453 -0.0012715280983282222 0 0.0054107118048310745 -0.0012232460158051314 0 0.0054721005471397742 -0.001223179904217928 0 0.0054069787105664457 -0.0011620553375402392 0 0.0054107118048310745 -0.0012232460158051314 0 0.0054721005471397742 -0.001223179904217928 0 0.0054069787105664457 -0.0011620553375402392 0 0.0054107118048310745 -0.0012232460158051314 0 0.0053655254630685795 -0.0012093434814667015 0 0.0051058901528937741 -0.0013695994932624647 0 0.0050877656469205702 -0.0013070575693245371 0 0.005107995100802001 -0.0012679938303886576 0 0.005054181251094734 -0.0013944901593935515 0 0.0051046503854962014 -0.0012903246812063635 0 0.0052611305778155733 -0.0012690259404790215 0 0.0051046503854962014 -0.0012903246812063635 0 0.0053624395325807634 -0.0010814322274936561 0 0.0053005231576498573 -0.0012254649607725753 0 0.0052284703793382594 -0.0011967711142303588 0 0.005408689254952713 -0.0010362322557631531 0 0.0052305974862610592 -0.0011946503920367199 0 0.0053624395325807634 -0.0010814322274936561 0 0.0054069787105664457 -0.0011620553375402392 0 0.0053655254630685795 -0.0012093434814667015 0 0.0053624395325807634 -0.0010814322274936561 0 0.0053655254630685795 -0.0012093434814667015 0 0.0053005231576498573 -0.0012254649607725753 0 0.0053794659883266453 -0.0012715280983282222 0 0.0053655254630685795 -0.0012093434814667015 0 0.0053005231576498573 -0.0012254649607725753 0 0.0052360745476628667 -0.0013002527267287399 0 0.0052284703793382594 -0.0011967711142303588 0 0.0051204856854679109 -0.0011505356728035 0 0.0052284703793382594 -0.0011967711142303588 0 0.005206765886980675 -0.0010927949391235918 0 0.0052914649835896594 -0.0010318396512580936 0 0.0052284703793382594 -0.0011967711142303588 0 0.005206765886980675 -0.0010927949391235918 0 0.0051204856854679109 -0.0011505356728035 0 0.0052360745476628667 -0.0013002527267287399 0 0.0050000066532496822 -0.0012405044139593704 0 0.0051204856854679109 -0.0011505356728035 0 0.0050000066532496822 -0.0012405044139593704 0 0.0051204856854679109 -0.0011505356728035 0 0.0049999898128790356 -0.00094637800397357266 0 0.0051204856854679109 -0.0011505356728035 0 0.0049999898128790356 -0.00094637800397357266 0 0.0051835402678052271 -0.00098793943202036064 0 0.005206765886980675 -0.0010927949391235918 0 0.0051204856854679109 -0.0011505356728035 0 0.0051835402678052271 -0.00098793943202036064 0 0.0053131935068203937 -0.00089470390932656517 0 0.0051835402678052271 -0.00098793943202036064 0 0.0052914649835896594 -0.0010318396512580936 0 0.005206765886980675 -0.0010927949391235918 0 0.0051835402678052271 -0.00098793943202036064 0 0.0052914649835896594 -0.0010318396512580936 0 0.00069637808819288766 -0.0037616933258984597 0 0.00099435346691732719 -0.0038898591948032151 0 0.00049057345295158781 -0.0036180611077871543 0 0.00032410753599145073 -0.0035422412381451401 0 0.00023835140027721164 -0.0035047849604079723 0 0.00049057345295158781 -0.0036180611077871543 0 0.00060894956636004633 -0.0037154084903411656 0 0.00051016712437605574 -0.0036610651972135647 0 0.00032410753599145073 -0.0035422412381451401 0 0.00026264165995684333 -0.0035146135152327005 0 0.00024656993536540002 -0.0035051475097438657 0 0.00032410753599145073 -0.0035422412381451401 0 0.00026264165995684333 -0.0035146135152327005 0 0.00023835140027721164 -0.0035047849604079723 0 0.00026264165995684333 -0.0035146135152327005 0 0.00023835140027721164 -0.0035047849604079723 0 0.00019877158832900683 -0.003539923136377516 0 0.00069637808819288766 -0.0037616933258984597 0 0.00099435346691732719 -0.0038898591948032151 0 0.0009103634395037875 -0.0038353689221576393 0 0.0010130647989424549 -0.0038776722622229573 0 0.0009103634395037875 -0.0038353689221576393 0 0.0010841388620840419 -0.0039231606839171098 0 0.00099435346691732719 -0.0038898591948032151 0 0.0009103634395037875 -0.0038353689221576393 0 0.0010841388620840419 -0.0039231606839171098 0 0.0010130647989424549 -0.0038776722622229573 0 0.0010897352701946582 -0.0039152069648576409 0 0.0010841388620840419 -0.0039231606839171098 0 0.0010897352701946582 -0.0039152069648576409 0 0.0011244514672342006 -0.00394660754606177 0 0.0011299042865910551 -0.0039430532358118971 0 0.0010130647989424549 -0.0038776722622229573 0 0.0010897352701946582 -0.0039152069648576409 0 0.0010733795805148629 -0.0039190119267849136 0 0.0010897352701946582 -0.0039152069648576409 0 0.0010733795805148629 -0.0039190119267849136 0 0.0011164236201421077 -0.0039382863250727118 0 0.0011045927251239914 -0.0039558630274746107 0 0.0010182506820407547 -0.0039197078080828208 0 0.00095583385302973518 -0.004040103399974496 0 0.0010733795805148629 -0.0039190119267849136 0 0.0011045927251239914 -0.0039558630274746107 0 0.0011164236201421077 -0.0039382863250727118 0 0.0010733795805148629 -0.0039190119267849136 0 0.0011045927251239914 -0.0039558630274746107 0 0.0010182506820407547 -0.0039197078080828208 0 0.0010130647989424549 -0.0038776722622229573 0 0.0010733795805148629 -0.0039190119267849136 0 0.0010182506820407547 -0.0039197078080828208 0 0.0010130647989424549 -0.0038776722622229573 0 0.0009103634395037875 -0.0038353689221576393 0 0.00092728357575736235 -0.0038608581653061481 0 0.00069637808819288766 -0.0037616933258984597 0 0.0009103634395037875 -0.0038353689221576393 0 0.00092728357575736235 -0.0038608581653061481 0 0.0010130647989424549 -0.0038776722622229573 0 0.00092728357575736235 -0.0038608581653061481 0 0.0010182506820407547 -0.0039197078080828208 0 0.00092728357575736235 -0.0038608581653061481 0 0.0010182506820407547 -0.0039197078080828208 0 0.00095583385302973518 -0.004040103399974496 0 0.00073578603621890059 -0.0038202899444343833 0 0.00070057715930410905 -0.0036276968014810553 0 0.00069637808819288766 -0.0037616933258984597 0 0.00092728357575736235 -0.0038608581653061481 0 0.00095583385302973518 -0.004040103399974496 0 0.00043313709372218545 -0.0035788434561271417 0 0.00044044410037682628 -0.0035829790866546696 0 0.00042641386664867172 -0.0035871182970268639 0 0.00066914751550586329 -0.0034020396554968247 0 0.00038355655881090457 -0.0035669811636771199 0 0.00070057715930410905 -0.0036276968014810553 0 0.00066914751550586329 -0.0034020396554968247 0 0.0009957253929878682 -0.0033488849954711477 0 0.00099577126939594382 -0.0034382348424419592 0 0.0013076662895464975 -0.0033152928913340873 0 0.0011059855781651873 -0.0035997522801210352 0 0.00070057715930410905 -0.0036276968014810553 0 0.0010637200805454997 -0.0032529667446379888 0 0.00076699276833816542 -0.0033752310508650667 0 0.0009957253929878682 -0.0033488849954711477 0 0.0010065901766802185 -0.0033254332050606148 0 0.001011244632482483 -0.0031718535486922102 0 0.0009957253929878682 -0.0033488849954711477 0 0.00089402144074234989 -0.0034796251098380259 0 0.00099521739858808079 -0.0034392727922404821 0 0.00076699276833816542 -0.0033752310508650667 0 0.0009957253929878682 -0.0033488849954711477 0 0.00089402144074234989 -0.0034796251098380259 0 0.00086215533328444234 -0.0032623885526543322 0 0.00084949463822529532 -0.0032672635210645104 0 0.00084922998343798725 -0.0032507804748310547 0 0.00066914751550586329 -0.0034020396554968247 0 0.00085304179590574151 -0.0031179889291184271 0 0.00066914751550586329 -0.0034020396554968247 0 0.001011244632482483 -0.0031718535486922102 0 0.0012242638880327792 -0.002848500484571301 0 0.0011373617211862239 -0.0027435221397941034 0 0.0013577692119463539 -0.0027833481414647541 0 0.001011244632482483 -0.0031718535486922102 0 0.00085304179590574151 -0.0031179889291184271 0 0.0012242638880327792 -0.002848500484571301 0 0.0011373617211862239 -0.0027435221397941034 0 0.0011373116081085809 -0.0028814199709970996 0 0.00085304179590574151 -0.0031179889291184271 0 0.0005430089399657568 -0.0029641032747681892 0 0.00078433047050389558 -0.0028228838084443757 0 0.00082943364559991801 -0.0028620606501195012 0 0.00082897144330304853 -0.002810021611019853 0 0.0012242638880327792 -0.002848500484571301 0 0.0012645410389991213 -0.0029853953544289593 0 0.0011373116081085809 -0.0028814199709970996 0 0.0010402288363187909 -0.0025566829670816502 0 0.00085304179590574151 -0.0031179889291184271 0 0.00052699169620293058 -0.0035106992531747259 0 0.00050476056957808851 -0.0035206213911027125 0 0.00052603706085482479 -0.0035492735998851107 0 0.00049624757841249076 -0.0034861870367575358 0 0.00050476056957808851 -0.0035206213911027125 0 0.00046964597006302999 -0.0035359195865490617 0 0.00050476056957808851 -0.0035206213911027125 0 0.00052603706085482479 -0.0035492735998851107 0 0.00046964597006302999 -0.0035359195865490617 0 0.00049624757841249076 -0.0034861870367575358 0 0.00052699169620293058 -0.0035106992531747259 0 0.00050476056957808851 -0.0035206213911027125 0 0.00063079639283806133 -0.0022988830768412316 0 0.00053393811588955085 -0.0023285751664030886 0 0.00061859032102611414 -0.0024278338135180237 0 0.0010402288363187909 -0.0025566829670816502 0 0.0005430089399657568 -0.0029641032747681892 0 0.00042111597218578393 -0.0035213325438358169 0 0.00046964597006302999 -0.0035359195865490617 0 0.00039636601302950162 -0.0035894219978501282 0 0.00035480102230487178 -0.0031519678897684389 0 0.00035968751979729502 -0.0031493633420441522 0 0.00024599112206156228 -0.0031917245119435864 0 0.00052603706085482479 -0.0035492735998851107 0 0.00046964597006302999 -0.0035359195865490617 0 0.00039636601302950162 -0.0035894219978501282 0 0.00049624757841249076 -0.0034861870367575358 0 0.00042111597218578393 -0.0035213325438358169 0 0.00046964597006302999 -0.0035359195865490617 0 0.0005430089399657568 -0.0029641032747681892 0 0.00029184977469009653 -0.0034495319199919099 0 0.00038355655881090457 -0.0035669811636771199 0 0.00038699071583695854 -0.0035551727221255812 0 0.00042111597218578393 -0.0035213325438358169 0 0.00035982604522743404 -0.0035593829618886215 0 0.00039636601302950162 -0.0035894219978501282 0 0.00042641386664867172 -0.0035871182970268639 0 0.00042313270154334121 -0.0035878298654297086 0 0.00035982604522743404 -0.0035593829618886215 0 0.00051116728865706568 -0.0036484459336727391 0 0.00042313270154334121 -0.0035878298654297086 0 0.00049057345295158781 -0.0036180611077871543 0 0.00070057715930410905 -0.0036276968014810553 0 0.00035423974944458989 -0.0036095845002224462 0 0.00043313709372218545 -0.0035788434561271417 0 0.00042641386664867172 -0.0035871182970268639 0 0.00042313270154334121 -0.0035878298654297086 0 0.00069637808819288766 -0.0037616933258984597 0 0.00051116728865706568 -0.0036484459336727391 0 0.00049057345295158781 -0.0036180611077871543 0 0.00042313270154334121 -0.0035878298654297086 0 0.00049057345295158781 -0.0036180611077871543 0 0.00035495513784792882 -0.0035686992898656209 0 0.00032410753599145073 -0.0035422412381451401 0 0.00035495513784792882 -0.0035686992898656209 0 0.00024656993536540002 -0.0035051475097438657 0 0.00032410753599145073 -0.0035422412381451401 0 0.00049057345295158781 -0.0036180611077871543 0 0.00035495513784792882 -0.0035686992898656209 0 0.00042313270154334121 -0.0035878298654297086 0 0.00035495513784792882 -0.0035686992898656209 0 0.00031368224757814713 -0.0035464731885295844 0 0.00035495513784792882 -0.0035686992898656209 0 0.00031368224757814713 -0.0035464731885295844 0 0.00024656993536540002 -0.0035051475097438657 0 0.00035982604522743404 -0.0035593829618886215 0 0.00028332018796730745 -0.0035344182122805587 0 0.00039636601302950162 -0.0035894219978501282 0 0.00031368224757814713 -0.0035464731885295844 0 0.00035982604522743404 -0.0035593829618886215 0 0.00028332018796730745 -0.0035344182122805587 0 0.00042313270154334121 -0.0035878298654297086 0 0.00031368224757814713 -0.0035464731885295844 0 0.00035982604522743404 -0.0035593829618886215 0 0.00031368224757814713 -0.0035464731885295844 0 0.00028332018796730745 -0.0035344182122805587 0 0.00022781671290056046 -0.0034887869843897063 0 0.00028332018796730745 -0.0035344182122805587 0 0.00022781671290056046 -0.0034887869843897063 0 0.00022530261072047276 -0.0034898806433089863 0 0.00015455487352788541 -0.0034058190989279466 0 0.00013586202775145437 -0.0033568131550320902 0 0.00022781671290056046 -0.0034887869843897063 0 0.00015425827384180007 -0.0034368400136545289 0 0.00022530261072047276 -0.0034898806433089863 0 0.00015425827384180007 -0.0034368400136545289 0 0.00014278882582993314 -0.0034210602886336652 0 7.3718205188555045e-05 -0.0033721040712872672 0 0.00022781671290056046 -0.0034887869843897063 0 0.00015425827384180007 -0.0034368400136545289 0 0.00014278882582993314 -0.0034210602886336652 0 0.00022781671290056046 -0.0034887869843897063 0 0.00014278882582993314 -0.0034210602886336652 0 0.00024656993536540002 -0.0035051475097438657 0 0.00031368224757814713 -0.0035464731885295844 0 0.00022781671290056046 -0.0034887869843897063 0 0.00024656993536540002 -0.0035051475097438657 0 -6.0625702715517533e-05 -0.0032379351749054768 0 -3.1796809934377058e-05 -0.0032694302954463083 0 -8.4632319377608421e-06 -0.0032861206975846576 0 -6.0625702715517533e-05 -0.0032379351749054768 0 -8.4632319377608421e-06 -0.0032861206975846576 0 -4.4065723247222067e-05 -0.0032322073641353343 0 -6.0625702715517533e-05 -0.0032379351749054768 0 -3.1796809934377058e-05 -0.0032694302954463083 0 -6.3865326938083606e-05 -0.0032341606931379917 0 -3.1796809934377058e-05 -0.0032694302954463083 0 1.0479291239839195e-05 -0.0033137411773354604 0 -3.6655790658499603e-05 -0.0032650969101823109 0 -3.1796809934377058e-05 -0.0032694302954463083 0 -8.4632319377608421e-06 -0.0032861206975846576 0 1.0479291239839195e-05 -0.0033137411773354604 0 0.00015425827384180007 -0.0034368400136545289 0 7.3718205188555045e-05 -0.0033721040712872672 0 -2.2518025349132607e-05 -0.0032943810982861096 0 1.0479291239839195e-05 -0.0033137411773354604 0 7.3718205188555045e-05 -0.0033721040712872672 0 -2.2518025349132607e-05 -0.0032943810982861096 0 -8.4632319377608421e-06 -0.0032861206975846576 0 1.0479291239839195e-05 -0.0033137411773354604 0 7.1450734347074403e-05 -0.0033460077302731 0 1.0479291239839195e-05 -0.0033137411773354604 0 7.3718205188555045e-05 -0.0033721040712872672 0 7.1450734347074403e-05 -0.0033460077302731 0 0.00014278882582993314 -0.0034210602886336652 0 7.3718205188555045e-05 -0.0033721040712872672 0 7.1450734347074403e-05 -0.0033460077302731 0 7.1450734347074403e-05 -0.0033460077302731 0 0.00011830059494067705 -0.0033533953211369472 0 9.9937554391083918e-05 -0.0033948911167019985 0 0.00014278882582993314 -0.0034210602886336652 0 7.1450734347074403e-05 -0.0033460077302731 0 9.9937554391083918e-05 -0.0033948911167019985 0 0.0001365509048780011 -0.0033157018346308344 0 0.00014432026033069713 -0.0034519262218705013 0 5.7725956718003248e-05 -0.0033311970054187489 0 4.9729095909396782e-05 -0.0032744639648803375 0 7.1450734347074403e-05 -0.0033460077302731 0 0.00011830059494067705 -0.0033533953211369472 0 0.0001235999574164011 -0.0033507744875085278 0 -8.4632319377608421e-06 -0.0032861206975846576 0 7.1450734347074403e-05 -0.0033460077302731 0 -4.4065723247222067e-05 -0.0032322073641353343 0 0.0001365509048780011 -0.0033157018346308344 0 4.9729095909396782e-05 -0.0032744639648803375 0 0.00023418399905181917 -0.0034313922609849334 0 0.00022176016965525847 -0.0035043790837792342 0 0.00017770611263594042 -0.0034854273981886215 0 0.00017770611263594042 -0.0034854273981886215 0 0.0001778636465642055 -0.0035377030415615061 0 0.00017837339276054697 -0.0034920275425266169 0 0.00022176016965525847 -0.0035043790837792342 0 0.00017770611263594042 -0.0034854273981886215 0 0.0001778636465642055 -0.0035377030415615061 0 0.00022176016965525847 -0.0035043790837792342 0 0.0001778636465642055 -0.0035377030415615061 0 0.0002199572904520303 -0.0035772656281335175 0 0.00026264165995684333 -0.0035146135152327005 0 0.00024656993536540002 -0.0035051475097438657 0 0.00022494554465061836 -0.0035038831470691097 0 0.00024656993536540002 -0.0035051475097438657 0 0.00022494554465061836 -0.0035038831470691097 0 0.00017837339276054697 -0.0034920275425266169 0 0.00014278882582993314 -0.0034210602886336652 0 9.9937554391083918e-05 -0.0033948911167019985 0 0.00017837339276054697 -0.0034920275425266169 0 0.00014278882582993314 -0.0034210602886336652 0 0.00024656993536540002 -0.0035051475097438657 0 0.00017837339276054697 -0.0034920275425266169 0 0.00014432026033069713 -0.0034519262218705013 0 0.00016259970674132912 -0.0034817128287947447 0 0.0001778636465642055 -0.0035377030415615061 0 0.00017837339276054697 -0.0034920275425266169 0 0.00017233105938058971 -0.0035572680582748191 0 0.00022494554465061836 -0.0035038831470691097 0 0.00017837339276054697 -0.0034920275425266169 0 0.00019877158832900683 -0.003539923136377516 0 0.00017837339276054697 -0.0034920275425266169 0 0.00019877158832900683 -0.003539923136377516 0 0.00017233105938058971 -0.0035572680582748191 0 0.00026264165995684333 -0.0035146135152327005 0 0.00022494554465061836 -0.0035038831470691097 0 0.00019877158832900683 -0.003539923136377516 0 0.00019877158832900683 -0.003539923136377516 0 0.00015598452614014416 -0.0036224486813399661 0 0.00017509299109351442 -0.0036122521131849382 0 0.00019877158832900683 -0.003539923136377516 0 0.00017233105938058971 -0.0035572680582748191 0 0.00015598452614014416 -0.0036224486813399661 0 0.00017233105938058971 -0.0035572680582748191 0 0.00015598452614014416 -0.0036224486813399661 0 0.00015375266945440519 -0.0036235531447792292 0 0.00022066439347032428 -0.0036813382789997132 0 0.0002199572904520303 -0.0035772656281335175 0 0.00015375266945440519 -0.0036235531447792292 0 0.0001778636465642055 -0.0035377030415615061 0 0.0002199572904520303 -0.0035772656281335175 0 0.00015375266945440519 -0.0036235531447792292 0 0.0001778636465642055 -0.0035377030415615061 0 0.00017233105938058971 -0.0035572680582748191 0 0.00015375266945440519 -0.0036235531447792292 0 0.00015598452614014416 -0.0036224486813399661 0 0.00015375266945440519 -0.0036235531447792292 0 8.6418135978973847e-05 -0.0037350804609237137 0 0.00022066439347032428 -0.0036813382789997132 0 0.00015375266945440519 -0.0036235531447792292 0 8.6418135978973847e-05 -0.0037350804609237137 0 0.00015598452614014416 -0.0036224486813399661 0 8.6418135978973847e-05 -0.0037350804609237137 0 0.00015647492575343781 -0.003632171268670182 0 0.00025727157424040045 -0.0038655273906771604 0 8.6418135978973847e-05 -0.0037350804609237137 0 0.00013706188549579679 -0.0040373859143807336 0 6.7684081350089667e-05 -0.0037395541218767183 0 -3.1546981149051801e-05 -0.0038068706977749047 0 -0.00021138716736940821 -0.0042330327001980422 0 -5.4304368205567802e-05 -0.0040693725203242341 0 -0.00029358854490515285 -0.0039946181070846251 0 8.6418135978973847e-05 -0.0037350804609237137 0 -5.4304368205567802e-05 -0.0040693725203242341 0 -0.00029358854490515285 -0.0039946181070846251 0 8.6418135978973847e-05 -0.0037350804609237137 0 -5.4304368205567802e-05 -0.0040693725203242341 0 0.00013706188549579679 -0.0040373859143807336 0 0.00015598452614014416 -0.0036224486813399661 0 0.00017509299109351442 -0.0036122521131849382 0 0.00015647492575343781 -0.003632171268670182 0 -0.00031983222604511837 -0.0039193240579535535 0 -3.1546981149051801e-05 -0.0038068706977749047 0 0.00016881349690819707 -0.0036337884017854987 0 0.00017509299109351442 -0.0036122521131849382 0 0.00015647492575343781 -0.003632171268670182 0 0.00016881349690819707 -0.0036337884017854987 0 0.00017509299109351442 -0.0036122521131849382 0 0.0001597441010744916 -0.003624861423267896 0 0.0012953814707395775 -0.0041079119319741763 0 0.0011880473013501365 -0.0039783818679218746 0 0.0012060408398778385 -0.0040415643465575839 0 0.00076782094634864756 -0.003816963929323465 0 0.00067345342371521891 -0.0037981185274220666 0 0.00017509299109351442 -0.0036122521131849382 0 0.0001597441010744916 -0.003624861423267896 0 0.00017115715813437041 -0.0035803492027383916 0 0.00019877158832900683 -0.003539923136377516 0 0.00017509299109351442 -0.0036122521131849382 0 0.00017115715813437041 -0.0035803492027383916 0 0.00060894956636004633 -0.0037154084903411656 0 0.00067345342371521891 -0.0037981185274220666 0 0.00099435346691732719 -0.0038898591948032151 0 0.0011880473013501365 -0.0039783818679218746 0 0.0010841388620840419 -0.0039231606839171098 0 0.00023835140027721164 -0.0035047849604079723 0 0.00019877158832900683 -0.003539923136377516 0 0.00017115715813437041 -0.0035803492027383916 0 0.0010897352701946582 -0.0039152069648576409 0 0.0011244514672342006 -0.00394660754606177 0 0.0010841388620840419 -0.0039231606839171098 0 0.0011244514672342006 -0.00394660754606177 0 0.0010841388620840419 -0.0039231606839171098 0 0.0011648804486740971 -0.0039928198546059206 0 0.0011880473013501365 -0.0039783818679218746 0 0.0010841388620840419 -0.0039231606839171098 0 0.0012060408398778385 -0.0040415643465575839 0 0.0010841388620840419 -0.0039231606839171098 0 0.0011648804486740971 -0.0039928198546059206 0 0.0012060408398778385 -0.0040415643465575839 0 0.0011648804486740971 -0.0039928198546059206 0 0.0012060408398778385 -0.0040415643465575839 0 0.0012298009699035824 -0.0040942594127521591 0 0.0012729092413795524 -0.0041719996632732436 0 0.0012953814707395775 -0.0041079119319741763 0 0.0012060408398778385 -0.0040415643465575839 0 0.0012729092413795524 -0.0041719996632732436 0 0.0012060408398778385 -0.0040415643465575839 0 0.0012298009699035824 -0.0040942594127521591 0 0.0012716223615505851 -0.0041808134357223638 0 0.0012729092413795524 -0.0041719996632732436 0 0.0012298009699035824 -0.0040942594127521591 0 0.001281752410082675 -0.0042232630499287544 0 0.0012716223615505851 -0.0041808134357223638 0 0.0012298009699035824 -0.0040942594127521591 0 0.0011648804486740971 -0.0039928198546059206 0 0.0012298009699035824 -0.0040942594127521591 0 0.0011792303496299971 -0.0040175715599872729 0 0.0012298009699035824 -0.0040942594127521591 0 0.0011907458013341481 -0.0040577400689791199 0 0.0011792303496299971 -0.0040175715599872729 0 0.0011907458013341481 -0.0040577400689791199 0 0.0011731365733987499 -0.0040170657788567484 0 0.0011792303496299971 -0.0040175715599872729 0 0.001281752410082675 -0.0042232630499287544 0 0.0012298009699035824 -0.0040942594127521591 0 0.0011907458013341481 -0.0040577400689791199 0 0.0011907458013341481 -0.0040577400689791199 0 0.0011709682827347517 -0.0041018830456378899 0 0.0011763980317772687 -0.00404048993697403 0 0.001281752410082675 -0.0042232630499287544 0 0.0011907458013341481 -0.0040577400689791199 0 0.0011709682827347517 -0.0041018830456378899 0 0.0011709682827347517 -0.0041018830456378899 0 0.0011950452732687807 -0.0040330858144834473 0 0.0012223589465495592 -0.004023638269597167 0 0.0013033304549888902 -0.0042225144998504667 0 0.0013595690319819617 -0.004203948687505306 0 0.0011709682827347517 -0.0041018830456378899 0 0.0011763980317772687 -0.00404048993697403 0 0.0011950452732687807 -0.0040330858144834473 0 0.0011763980317772687 -0.00404048993697403 0 0.0011950452732687807 -0.0040330858144834473 0 0.0011650043097518774 -0.0040266660249735067 0 0.0011907458013341481 -0.0040577400689791199 0 0.0011731365733987499 -0.0040170657788567484 0 0.0011686798855120579 -0.004024228397331066 0 0.0011907458013341481 -0.0040577400689791199 0 0.0011763980317772687 -0.00404048993697403 0 0.0011686798855120579 -0.004024228397331066 0 0.0011731365733987499 -0.0040170657788567484 0 0.0011648479595525679 -0.0040028877686425317 0 0.0011641390297429022 -0.0039897787255603022 0 0.0011731365733987499 -0.0040170657788567484 0 0.0011686798855120579 -0.004024228397331066 0 0.0011648479595525679 -0.0040028877686425317 0 0.0011686798855120579 -0.004024228397331066 0 0.0011648479595525679 -0.0040028877686425317 0 0.0011650043097518774 -0.0040266660249735067 0 0.0011763980317772687 -0.00404048993697403 0 0.0011686798855120579 -0.004024228397331066 0 0.0011650043097518774 -0.0040266660249735067 0 0.0012411731506472275 -0.0039587518070592449 0 0.0014431555958871758 -0.0037080281190845442 0 0.0011648479595525679 -0.0040028877686425317 0 0.0011650043097518774 -0.0040266660249735067 0 0.0011555825094472154 -0.0039813582480245783 0 0.0011648479595525679 -0.0040028877686425317 0 0.0011603655891240148 -0.0039791395179349437 0 0.0011555825094472154 -0.0039813582480245783 0 0.0011648479595525679 -0.0040028877686425317 0 0.0011603655891240148 -0.0039791395179349437 0 0.0011641390297429022 -0.0039897787255603022 0 0.0011603655891240148 -0.0039791395179349437 0 0.0011641390297429022 -0.0039897787255603022 0 0.001151518672506217 -0.0039637915125970606 0 0.0011641390297429022 -0.0039897787255603022 0 0.0011516268843924724 -0.0039719628773896053 0 0.001151518672506217 -0.0039637915125970606 0 0.0011244514672342006 -0.00394660754606177 0 0.0011516268843924724 -0.0039719628773896053 0 0.0011299042865910551 -0.0039430532358118971 0 0.0011244514672342006 -0.00394660754606177 0 0.0011648804486740971 -0.0039928198546059206 0 0.0011516268843924724 -0.0039719628773896053 0 0.0011516268843924724 -0.0039719628773896053 0 0.0011299042865910551 -0.0039430532358118971 0 0.001151518672506217 -0.0039637915125970606 0 0.0011648804486740971 -0.0039928198546059206 0 0.0011516268843924724 -0.0039719628773896053 0 0.0011792303496299971 -0.0040175715599872729 0 0.0011731365733987499 -0.0040170657788567484 0 0.0011641390297429022 -0.0039897787255603022 0 0.0011792303496299971 -0.0040175715599872729 0 0.0011641390297429022 -0.0039897787255603022 0 0.0011516268843924724 -0.0039719628773896053 0 0.0011792303496299971 -0.0040175715599872729 0 0.0010711678593103293 -0.0039752071271549469 0 0.0010293842116018575 -0.0039611201085757537 0 0.0010322881414562919 -0.0037822969898754066 0 0.0015842388585615126 -0.0038502473662084874 0 0.0028404993796087466 -0.0029131469553666765 0 0.0016197880514168149 -0.0043728639658152197 0 0.0016230156878290847 -0.0044424271379641571 0 0.0015888156507193867 -0.0044018746025223897 0 0.0024354473362872592 -0.0033890498565911824 0 0.0028404993796087466 -0.0029131469553666765 0 0.0023665856319016083 -0.0033733175798780091 0 0.0023615542063917649 -0.0033733356176782209 0 0.002363158510358608 -0.0033724920858516764 0 0.0016197880514168149 -0.0043728639658152197 0 0.0016948512007231833 -0.0043584982459928204 0 0.0016230156878290847 -0.0044424271379641571 0 0.0024354473362872592 -0.0033890498565911824 0 0.0015842388585615126 -0.0038502473662084874 0 0.0016230156878290847 -0.0044424271379641571 0 0.0015888156507193867 -0.0044018746025223897 0 0.0015391636642217664 -0.0044117375154966026 0 0.0015514553684601502 -0.004344034596253799 0 0.0015888156507193867 -0.0044018746025223897 0 0.0015391636642217664 -0.0044117375154966026 0 0.0015842388585615126 -0.0038502473662084874 0 0.0013337927389545689 -0.0042367143312126519 0 0.0010711678593103293 -0.0039752071271549469 0 0.0011736536320142862 -0.003893813486779371 0 0.0010322881414562919 -0.0037822969898754066 0 0.0010711678593103293 -0.0039752071271549469 0 0.0011736536320142862 -0.003893813486779371 0 0.0012057518134583347 -0.0040063355371773171 0 0.0011736536320142862 -0.003893813486779371 0 0.0012220289284272303 -0.0039550198150963816 0 0.001259904414758575 -0.0038922543748015773 0 0.0012220289284272303 -0.0039550198150963816 0 0.0012372811145602751 -0.0040126382234410667 0 0.001259904414758575 -0.0038922543748015773 0 0.0012220289284272303 -0.0039550198150963816 0 0.0012057518134583347 -0.0040063355371773171 0 0.0012372811145602751 -0.0040126382234410667 0 0.0011736536320142862 -0.003893813486779371 0 0.0012220289284272303 -0.0039550198150963816 0 0.0012057518134583347 -0.0040063355371773171 0 0.0013337927389545689 -0.0042367143312126519 0 0.0013595690319819617 -0.004203948687505306 0 0.0015129905177989923 -0.0043640935677893055 0 0.0015391636642217664 -0.0044117375154966026 0 0.0014801885580659931 -0.0043771531136714247 0 0.0012057518134583347 -0.0040063355371773171 0 0.0012372811145602751 -0.0040126382234410667 0 0.0012223589465495592 -0.004023638269597167 0 0.0011950452732687807 -0.0040330858144834473 0 0.0012372811145602751 -0.0040126382234410667 0 0.0012223589465495592 -0.004023638269597167 0 0.0012504278664211539 -0.0039872379939008013 0 0.0012411731506472275 -0.0039587518070592449 0 0.0011950452732687807 -0.0040330858144834473 0 0.0012372811145602751 -0.0040126382234410667 0 0.0011650043097518774 -0.0040266660249735067 0 0.0012372811145602751 -0.0040126382234410667 0 0.0013703083298625869 -0.0038296996048652514 0 0.001259904414758575 -0.0038922543748015773 0 0.0013703083298625869 -0.0038296996048652514 0 0.0012831599938151147 -0.003799307912297943 0 0.001259904414758575 -0.0038922543748015773 0 0.0013703083298625869 -0.0038296996048652514 0 0.0013169837694648357 -0.0037282265276916203 0 0.0012831599938151147 -0.003799307912297943 0 0.0013703083298625869 -0.0038296996048652514 0 0.0013169837694648357 -0.0037282265276916203 0 0.0014244413948470329 -0.0036843123427278018 0 0.0014636213800594473 -0.0036661536978035013 0 0.001244852069638105 -0.0037498114461732893 0 0.0013169837694648357 -0.0037282265276916203 0 0.0012410419705383541 -0.0037471946495055792 0 0.0012831599938151147 -0.003799307912297943 0 0.001544427632503041 -0.0036387373058459553 0 0.0012410419705383541 -0.0037471946495055792 0 0.0013595572024926545 -0.0034833472716719327 0 0.0012410419705383541 -0.0037471946495055792 0 0.0011701577518312845 -0.0035933297735364377 0 0.0013595572024926545 -0.0034833472716719327 0 0.0011736536320142862 -0.003893813486779371 0 0.0012410419705383541 -0.0037471946495055792 0 0.0012399088654364422 -0.0038326338128178757 0 0.0012410419705383541 -0.0037471946495055792 0 0.0012399088654364422 -0.0038326338128178757 0 0.0012831599938151147 -0.003799307912297943 0 0.0011736536320142862 -0.003893813486779371 0 0.0012399088654364422 -0.0038326338128178757 0 0.001259904414758575 -0.0038922543748015773 0 0.0012399088654364422 -0.0038326338128178757 0 0.0012831599938151147 -0.003799307912297943 0 0.001259904414758575 -0.0038922543748015773 0 0.0011736536320142862 -0.003893813486779371 0 0.0012410419705383541 -0.0037471946495055792 0 0.0010322881414562919 -0.0037822969898754066 0 0.0010322881414562919 -0.0037822969898754066 0 0.0010376257289577268 -0.0034802418924992527 0 0.0011701577518312845 -0.0035933297735364377 0 0.0012410419705383541 -0.0037471946495055792 0 0.0010322881414562919 -0.0037822969898754066 0 0.0011701577518312845 -0.0035933297735364377 0 0.0023345013102402863 -0.0031236395926896592 0 0.0023677944814342392 -0.0029479730408942641 0 0.0037296710088546301 -0.0023443366285989531 0 0.0037443304861908087 -0.0023769452149848607 0 0.0037921738784086534 -0.002305652466761132 0 0.0028404993796087466 -0.0029131469553666765 0 0.0023345013102402863 -0.0031236395926896592 0 0.0037242377347975488 -0.0023760301469816568 0 0.0037257119538415887 -0.0023924956019513773 0 0.0037443304861908087 -0.0023769452149848607 0 0.0037452873630255379 -0.0022273013022862304 0 0.0037921738784086534 -0.002305652466761132 0 0.0038441918501368544 -0.0021528966003812496 0 0.0037296710088546301 -0.0023443366285989531 0 0.0037452873630255379 -0.0022273013022862304 0 0.0037921738784086534 -0.002305652466761132 0 0.0010376257289577268 -0.0034802418924992527 0 0.0011701577518312845 -0.0035933297735364377 0 0.0012333676805820844 -0.0033912485795442797 0 0.0010376257289577268 -0.0034802418924992527 0 0.0012333676805820844 -0.0033912485795442797 0 0.0011032100127870328 -0.0032592500710201542 0 0.0011701577518312845 -0.0035933297735364377 0 0.0012333676805820844 -0.0033912485795442797 0 0.0013595572024926545 -0.0034833472716719327 0 0.0012333676805820844 -0.0033912485795442797 0 0.0011032100127870328 -0.0032592500710201542 0 0.0014681939307871284 -0.0031659362670031716 0 0.0010376257289577268 -0.0034802418924992527 0 0.0011032100127870328 -0.0032592500710201542 0 0.0011265777413122719 -0.0030114153878329931 0 0.0023677944814342392 -0.0029479730408942641 0 0.0029095883496596578 -0.0022751768259870572 0 0.0011032100127870328 -0.0032592500710201542 0 0.0016807170385436075 -0.0030906939750678228 0 0.0011265777413122719 -0.0030114153878329931 0 0.0014681939307871284 -0.0031659362670031716 0 0.0013595572024926545 -0.0034833472716719327 0 0.0015390176706716408 -0.0033808120450285846 0 0.0012333676805820844 -0.0033912485795442797 0 0.0014681939307871284 -0.0031659362670031716 0 0.0013595572024926545 -0.0034833472716719327 0 0.00082131709726977785 -0.0034661885849169446 0 0.0022158520289582337 -0.0025147184650595867 0 0.001544427632503041 -0.0036387373058459553 0 0.0015390176706716408 -0.0033808120450285846 0 0.0017069107152691699 -0.0033888516884166666 0 0.001544427632503041 -0.0036387373058459553 0 0.0018063191505676109 -0.0035300235608584341 0 0.0017069107152691699 -0.0033888516884166666 0 0.001544427632503041 -0.0036387373058459553 0 0.0013595572024926545 -0.0034833472716719327 0 0.0015390176706716408 -0.0033808120450285846 0 0.0014636213800594473 -0.0036661536978035013 0 0.0014431555958871758 -0.0037080281190845442 0 0.0015390176706716408 -0.0033808120450285846 0 0.0017069107152691699 -0.0033888516884166666 0 0.0016897734808765136 -0.0032036701918675883 0 0.0022158520289582337 -0.0025147184650595867 0 0.0020277320528177913 -0.0027880575884856383 0 0.0014681939307871284 -0.0031659362670031716 0 0.0015390176706716408 -0.0033808120450285846 0 0.0016897734808765136 -0.0032036701918675883 0 0.0022158520289582337 -0.0025147184650595867 0 0.0031875388438931751 -0.001719809000419811 0 0.0036248614836935167 -0.0013114589865811516 0 0.0036058329026802979 -0.0013953385600608515 0 0.0034774232976605341 -0.0013265732084023749 0 0.0022822240316011919 -0.0023616388125643276 0 0.0023920375084796144 -0.0023796265679251138 0 0.0024162084261874417 -0.0023174792374509021 0 0.0036058329026802979 -0.0013953385600608515 0 0.0035445977049182527 -0.0014614258078865529 0 0.0034774232976605341 -0.0013265732084023749 0 0.0036058329026802979 -0.0013953385600608515 0 0.0035445977049182527 -0.0014614258078865529 0 0.0036620270669298618 -0.0014717063842740762 0 0.0035445977049182527 -0.0014614258078865529 0 0.0036620270669298618 -0.0014717063842740762 0 0.0035925737114300698 -0.0015425332685333464 0 0.0035445977049182527 -0.0014614258078865529 0 0.0034905743890156363 -0.0015589285777180641 0 0.0035925737114300698 -0.0015425332685333464 0 0.0036620270669298618 -0.0014717063842740762 0 0.0037022620346834462 -0.0014023796763398045 0 0.0037941361605900387 -0.0014974829723639232 0 0.0036620270669298618 -0.0014717063842740762 0 0.0037941361605900387 -0.0014974829723639232 0 0.0037057884537214218 -0.0015633569344524437 0 0.0036058329026802979 -0.0013953385600608515 0 0.0036620270669298618 -0.0014717063842740762 0 0.0037022620346834462 -0.0014023796763398045 0 0.0022158520289582337 -0.0025147184650595867 0 0.0029095883496596578 -0.0022751768259870572 0 0.0036248614836935167 -0.0013114589865811516 0 0.0037022620346834462 -0.0014023796763398045 0 0.0038074310797981317 -0.0013598678495982596 0 0.0036248614836935167 -0.0013114589865811516 0 0.0036058329026802979 -0.0013953385600608515 0 0.0037022620346834462 -0.0014023796763398045 0 0.0037022620346834462 -0.0014023796763398045 0 0.0038074310797981317 -0.0013598678495982596 0 0.0037941361605900387 -0.0014974829723639232 0 0.0038590258012539411 -0.0021515616160312358 0 0.0038909655447821969 -0.0019735945045970893 0 0.0038130159402116125 -0.0021429595506798388 0 0.0029095883496596578 -0.0022751768259870572 0 0.003927825113662871 -0.0016112113808175884 0 0.0038909655447821969 -0.0019735945045970893 0 0.0037821314533399925 -0.0020139359333423779 0 0.0038130159402116125 -0.0021429595506798388 0 0.0036748632115663803 -0.0019546885720424494 0 0.0037821314533399925 -0.0020139359333423779 0 0.0037985450408735567 -0.0018829101590074381 0 0.0038909655447821969 -0.0019735945045970893 0 0.0037821314533399925 -0.0020139359333423779 0 0.0037985450408735567 -0.0018829101590074381 0 0.0037452873630255379 -0.0022273013022862304 0 0.0038441918501368544 -0.0021528966003812496 0 0.0038130159402116125 -0.0021429595506798388 0 0.0037348115208670463 -0.0021020344868914664 0 0.0037821314533399925 -0.0020139359333423779 0 0.0038130159402116125 -0.0021429595506798388 0 0.0037348115208670463 -0.0021020344868914664 0 0.0037452873630255379 -0.0022273013022862304 0 0.0038130159402116125 -0.0021429595506798388 0 0.0029095883496596578 -0.0022751768259870572 0 0.0035741783402567727 -0.0023079713834084953 0 0.001675064358405233 -0.0030459802869395786 0 0.0014297260892412072 -0.0029219748838085757 0 0.0018406288416112941 -0.002456549770765024 0 0.0017120273866349101 -0.0026858475211054061 0 0.0014902128920991837 -0.0026044613471242007 0 0.0013583154611096866 -0.0031327167681723003 0 0.0016201097300225389 -0.0031796508265017351 0 0.0013076662895464975 -0.0033152928913340873 0 0.0012738215942174854 -0.0036287835724528429 0 0.001675064358405233 -0.0030459802869395786 0 0.0014572085279617355 -0.0034526819618911075 0 0.0015047997519777093 -0.0034347084998684538 0 0.001502733354202461 -0.0034587938708492607 0 0.0010637200805454997 -0.0032529667446379888 0 0.0009957253929878682 -0.0033488849954711477 0 0.0013076662895464975 -0.0033152928913340873 0 0.0010637200805454997 -0.0032529667446379888 0 0.0013583154611096866 -0.0031327167681723003 0 0.0013076662895464975 -0.0033152928913340873 0 0.0011045927251239914 -0.0039558630274746107 0 0.0011420602543709766 -0.003940452779719261 0 0.0011164236201421077 -0.0039382863250727118 0 0.0011059855781651873 -0.0035997522801210352 0 0.0012738215942174854 -0.0036287835724528429 0 0.0012738215942174854 -0.0036287835724528429 0 0.0011142539491687628 -0.0038862783285405805 0 0.0011426662849784522 -0.0039587752759458542 0 0.0011164236201421077 -0.0039382863250727118 0 0.0011299042865910551 -0.0039430532358118971 0 0.0011426662849784522 -0.0039587752759458542 0 0.0011299042865910551 -0.0039430532358118971 0 0.001151518672506217 -0.0039637915125970606 0 0.0010897352701946582 -0.0039152069648576409 0 0.0011164236201421077 -0.0039382863250727118 0 0.0011299042865910551 -0.0039430532358118971 0 0.0011426662849784522 -0.0039587752759458542 0 0.001151518672506217 -0.0039637915125970606 0 0.0011586303705890721 -0.0039703324971546742 0 0.0012738215942174854 -0.0036287835724528429 0 0.0013173390044773068 -0.0037098891973294246 0 0.0011603655891240148 -0.0039791395179349437 0 0.001151518672506217 -0.0039637915125970606 0 0.0011586303705890721 -0.0039703324971546742 0 0.0011603655891240148 -0.0039791395179349437 0 0.0011586303705890721 -0.0039703324971546742 0 0.0011555825094472154 -0.0039813582480245783 0 0.0015047997519777093 -0.0034347084998684538 0 0.0015444955553588764 -0.0034206944626042901 0 0.0015300511566211116 -0.0034613826570335871 0 0.0013173390044773068 -0.0037098891973294246 0 0.0014431555958871758 -0.0037080281190845442 0 0.0014431555958871758 -0.0037080281190845442 0 0.0019783549382258354 -0.0029408665331153157 0 0.0018063191505676109 -0.0035300235608584341 0 0.0017069107152691699 -0.0033888516884166666 0 0.0019153453595726741 -0.0032435286978634305 0 0.0017069107152691699 -0.0033888516884166666 0 0.0016897734808765136 -0.0032036701918675883 0 0.0019153453595726741 -0.0032435286978634305 0 0.0020277320528177913 -0.0027880575884856383 0 0.0019783549382258354 -0.0029408665331153157 0 0.0023920375084796144 -0.0023796265679251138 0 0.0025004873662753326 -0.0024003794022528836 0 0.0024162084261874417 -0.0023174792374509021 0 0.0018406288416112941 -0.002456549770765024 0 0.0020324123357238497 -0.0024923393290431197 0 0.0019226212928754808 -0.0027846845271395125 0 0.0015047997519777093 -0.0034347084998684538 0 0.001502733354202461 -0.0034587938708492607 0 0.0015300511566211116 -0.0034613826570335871 0 0.001675064358405233 -0.0030459802869395786 0 0.0019783549382258354 -0.0029408665331153157 0 0.0018406288416112941 -0.002456549770765024 0 0.0019226212928754808 -0.0027846845271395125 0 0.0017120273866349101 -0.0026858475211054061 0 0.0019783549382258354 -0.0029408665331153157 0 0.002460417954283554 -0.0020069530297887003 0 0.0032677592149560342 -0.0013509940823601412 0 0.0034774232976605341 -0.0013265732084023749 0 0.0033226710325694455 -0.0014225487622634347 0 0.0025004873662753326 -0.0024003794022528836 0 0.0025479641550300103 -0.0022753716068498278 0 0.0024162084261874417 -0.0023174792374509021 0 0.002460417954283554 -0.0020069530297887003 0 0.0031875388438931751 -0.001719809000419811 0 0.0034208207908374079 -0.001476651733428098 0 0.0032291406626370218 -0.0014673633695420282 0 0.0034227768492331389 -0.0016604761511443645 0 0.0035445977049182527 -0.0014614258078865529 0 0.0034774232976605341 -0.0013265732084023749 0 0.0034208207908374079 -0.001476651733428098 0 0.0034774232976605341 -0.0013265732084023749 0 0.0034208207908374079 -0.001476651733428098 0 0.0033226710325694455 -0.0014225487622634347 0 0.0035445977049182527 -0.0014614258078865529 0 0.0034208207908374079 -0.001476651733428098 0 0.0034905743890156363 -0.0015589285777180641 0 0.002460417954283554 -0.0020069530297887003 0 0.0026579786937269831 -0.0017731788183792323 0 0.0032677592149560342 -0.0013509940823601412 0 0.0032291406626370218 -0.0014673633695420282 0 0.0031659736275088815 -0.0015633605315400656 0 0.0034208207908374079 -0.001476651733428098 0 0.0032291406626370218 -0.0014673633695420282 0 0.0033226710325694455 -0.0014225487622634347 0 0.0032677592149560342 -0.0013509940823601412 0 0.0032291406626370218 -0.0014673633695420282 0 0.0033226710325694455 -0.0014225487622634347 0 0.0032291406626370218 -0.0014673633695420282 0 0.0031659736275088815 -0.0015633605315400656 0 0.0031907861737117877 -0.0016551097725208319 0 0.0022146191357770148 -0.0017932521930537129 0 0.0020656935717008932 -0.0021786322200190215 0 0.0017596427423208275 -0.0019284313209939499 0 0.0020656935717008932 -0.0021786322200190215 0 0.0017596427423208275 -0.0019284313209939499 0 0.0016118228752490186 -0.0023152221369227761 0 0.0015958213747638097 -0.0028849807462713963 0 0.0017120273866349101 -0.0026858475211054061 0 0.0014902128920991837 -0.0026044613471242007 0 0.0019226212928754808 -0.0027846845271395125 0 0.0015958213747638097 -0.0028849807462713963 0 0.0017120273866349101 -0.0026858475211054061 0 0.002460417954283554 -0.0020069530297887003 0 0.0016419525215990865 -0.0024281677061653616 0 0.0011373617211862239 -0.0027435221397941034 0 0.0014902128920991837 -0.0026044613471242007 0 0.0013577692119463539 -0.0027833481414647541 0 0.001011244632482483 -0.0031718535486922102 0 0.0014297260892412072 -0.0029219748838085757 0 0.0015958213747638097 -0.0028849807462713963 0 0.0014902128920991837 -0.0026044613471242007 0 0.0013577692119463539 -0.0027833481414647541 0 0.0010402288363187909 -0.0025566829670816502 0 0.0016419525215990865 -0.0024281677061653616 0 0.0013040590076217231 -0.002066223212867532 0 0.0017596427423208275 -0.0019284313209939499 0 0.0016118228752490186 -0.0023152221369227761 0 0.0012242638880327792 -0.002848500484571301 0 0.0012645410389991213 -0.0029853953544289593 0 0.0013577692119463539 -0.0027833481414647541 0 0.0012645410389991213 -0.0029853953544289593 0 0.0015958213747638097 -0.0028849807462713963 0 0.0013577692119463539 -0.0027833481414647541 0 0.00063079639283806133 -0.0022988830768412316 0 0.00080253527333850661 -0.0024341480335089388 0 0.00061859032102611414 -0.0024278338135180237 0 0.0010402288363187909 -0.0025566829670816502 0 0.0011316859480361321 -0.0023095235645918524 0 0.00080253527333850661 -0.0024341480335089388 0 0.00065209479769717316 -0.0025181039925161919 0 0.00061859032102611414 -0.0024278338135180237 0 0.00080253527333850661 -0.0024341480335089388 0 0.00065209479769717316 -0.0025181039925161919 0 0.00080225808168769928 -0.0025999154996104398 0 0.00065209479769717316 -0.0025181039925161919 0 0.00065325784912556529 -0.0026460020593845487 0 0.00080225808168769928 -0.0025999154996104398 0 0.00080225808168769928 -0.0025999154996104398 0 0.00071835553820053975 -0.0027340036422512431 0 0.00086415337513757269 -0.0028718878848923196 0 0.00065325784912556529 -0.0026460020593845487 0 0.00080225808168769928 -0.0025999154996104398 0 0.00071835553820053975 -0.0027340036422512431 0 0.0006349150810863746 -0.0027301734133138552 0 0.00071835553820053975 -0.0027340036422512431 0 0.0006444878594094336 -0.0028589428390306555 0 0.00065325784912556529 -0.0026460020593845487 0 0.0006349150810863746 -0.0027301734133138552 0 0.00071835553820053975 -0.0027340036422512431 0 0.0030850666621030191 -0.0018417344431370939 0 0.0031329324218139082 -0.0019845704544819011 0 0.002900024715912618 -0.0021500010408552778 0 0.0030850666621030191 -0.0018417344431370939 0 0.0030440293375579163 -0.001809146362369548 0 0.002900024715912618 -0.0021500010408552778 0 0.0021603774607914356 -0.0022017409360057523 0 0.0018526453227942744 -0.0026035616104977404 0 0.00080225808168769928 -0.0025999154996104398 0 0.00098375317185719446 -0.0025743298415279591 0 0.00086415337513757269 -0.0028718878848923196 0 0.0026579786937269831 -0.0017731788183792323 0 0.0021603774607914356 -0.0022017409360057523 0 0.0020656935717008932 -0.0021786322200190215 0 0.0016118228752490186 -0.0023152221369227761 0 0.0019180382324563013 -0.002563089458774699 0 0.0030850666621030191 -0.0018417344431370939 0 0.0030471561571691827 -0.0018098559568733535 0 0.0031484309313839823 -0.0017423811469832332 0 0.0031659736275088815 -0.0015633605315400656 0 0.0030471561571691827 -0.0018098559568733535 0 0.0031484309313839823 -0.0017423811469832332 0 0.0023409141259630516 -0.0022345832231904276 0 0.0021603774607914356 -0.0022017409360057523 0 0.0011316859480361321 -0.0023095235645918524 0 0.0021603774607914356 -0.0022017409360057523 0 0.00080253527333850661 -0.0024341480335089388 0 0.00080225808168769928 -0.0025999154996104398 0 0.00098375317185719446 -0.0025743298415279591 0 0.003245396906398303 -0.0015131846739013847 0 0.0034404184956723931 -0.0016066100857878456 0 0.0032291406626370218 -0.0014673633695420282 0 0.0032526815722438538 -0.0017254514561782924 0 0.0034348626930725307 -0.0017670208479764107 0 0.0031659736275088815 -0.0015633605315400656 0 0.0031907861737117877 -0.0016551097725208319 0 0.0031484309313839823 -0.0017423811469832332 0 0.0032291406626370218 -0.0014673633695420282 0 0.0031907861737117877 -0.0016551097725208319 0 0.0032526815722438538 -0.0017254514561782924 0 0.0031907861737117877 -0.0016551097725208319 0 0.0032526815722438538 -0.0017254514561782924 0 0.0031484309313839823 -0.0017423811469832332 0 0.0032526815722438538 -0.0017254514561782924 0 0.0034348626930725307 -0.0017670208479764107 0 0.003208985988984117 -0.001863541230852097 0 0.0030850666621030191 -0.0018417344431370939 0 0.0031484309313839823 -0.0017423811469832332 0 0.003208985988984117 -0.001863541230852097 0 0.0032526815722438538 -0.0017254514561782924 0 0.0031484309313839823 -0.0017423811469832332 0 0.003208985988984117 -0.001863541230852097 0 0.0034905743890156363 -0.0015589285777180641 0 0.0034665339912949501 -0.0016034487933428139 0 0.0035733611549393185 -0.0016213381951236819 0 0.0034208207908374079 -0.001476651733428098 0 0.0034905743890156363 -0.0015589285777180641 0 0.0034227768492331389 -0.0016604761511443645 0 0.0034750944972562476 -0.0015751932626538537 0 0.0034404184956723931 -0.0016066100857878456 0 0.0034404184956723931 -0.0016066100857878456 0 0.0035154913385877914 -0.0016598600569893145 0 0.0034669863702331428 -0.0014552867309345142 0 0.0034673069842494301 -0.0014630131478852227 0 0.003475569450700882 -0.0014611754495276596 0 0.003208985988984117 -0.001863541230852097 0 0.0031329324218139082 -0.0019845704544819011 0 0.0031840843769938994 -0.0021286875036757272 0 0.0034404184956723931 -0.0016066100857878456 0 0.0033451651965521602 -0.0018591586752677511 0 0.0034669863702331428 -0.0014552867309345142 0 0.0034580743978390111 -0.0014622802698419828 0 0.0034673069842494301 -0.0014630131478852227 0 0.0034348626930725307 -0.0017670208479764107 0 0.003208985988984117 -0.001863541230852097 0 0.0031840843769938994 -0.0021286875036757272 0 0.0030850666621030191 -0.0018417344431370939 0 0.003208985988984117 -0.001863541230852097 0 0.0031329324218139082 -0.0019845704544819011 0 0.0034580743978390111 -0.0014622802698419828 0 0.0034673069842494301 -0.0014630131478852227 0 0.0034640380851736581 -0.0014680818137071572 0 0.0034673069842494301 -0.0014630131478852227 0 0.0034718622700654067 -0.0014700498927746135 0 0.003475569450700882 -0.0014611754495276596 0 0.0035634083475977441 -0.0010016694968012854 0 0.0034593269759894724 -0.0010025897408435592 0 0.0034673069842494301 -0.0014630131478852227 0 0.0034718622700654067 -0.0014700498927746135 0 0.0034640380851736581 -0.0014680818137071572 0 0.0036950703479089017 -0.00058495553030988928 0 0.0037000659926670438 -0.00056644597476507936 0 0.0035126155826829312 -0.00056619282607053823 0 0.0034718622700654067 -0.0014700498927746135 0 0.0034640380851736581 -0.0014680818137071572 0 0.0034597894219091123 -0.0014675806540258565 0 0.0034580743978390111 -0.0014622802698419828 0 0.0034640380851736581 -0.0014680818137071572 0 0.0034557163550849035 -0.0014729736217267049 0 0.0034580743978390111 -0.0014622802698419828 0 0.0034557163550849035 -0.0014729736217267049 0 0.0034526699649551338 -0.0014742955225639377 0 0.003818454948942774 0.00017141623149285716 0 0.0035424355014806487 -0.00048934964593167743 0 0.0036950703479089017 -0.00058495553030988928 0 0.0035126155826829312 -0.00056619282607053823 0 0.0034872111495844612 -0.0005815646377831064 0 0.0033659684152238774 -0.0013891503823077714 0 0.0034593269759894724 -0.0010025897408435592 0 0.0034593269759894724 -0.0010025897408435592 0 0.0035424355014806487 -0.00048934964593167743 0 0.0034580743978390111 -0.0014622802698419828 0 0.0034526699649551338 -0.0014742955225639377 0 0.0034406703379776878 -0.0014748263827740083 0 0.0035424355014806487 -0.00048934964593167743 0 0.0029423973638334276 -0.0016052188395615948 0 0.0029423973638334276 -0.0016052188395615948 0 0.0017097055234563687 -0.002349443191252765 0 0.0017097055234563687 -0.002349443191252765 0 0.0018526453227942744 -0.0026035616104977404 0 0.0029113647145148289 -0.002495528867471362 0 0.0027570292235778197 -0.0024945819161666652 0 0.002900024715912618 -0.0021500010408552778 0 0.00073418644055335384 -0.0031604324241355452 0 0.00066837681630579936 -0.0030034636512017046 0 0.00050601470373416876 -0.0030603826747401326 0 0.00073418644055335384 -0.0031604324241355452 0 0.00066837681630579936 -0.0030034636512017046 0 0.00086415337513757269 -0.0028718878848923196 0 0.00071835553820053975 -0.0027340036422512431 0 0.0006444878594094336 -0.0028589428390306555 0 0.00086415337513757269 -0.0028718878848923196 0 0.00066837681630579936 -0.0030034636512017046 0 0.0006444878594094336 -0.0028589428390306555 0 0.00086415337513757269 -0.0028718878848923196 0 0.00066837681630579936 -0.0030034636512017046 0 0.0006444878594094336 -0.0028589428390306555 0 0.00058581670218217413 -0.0029017853358583676 0 0.0031329324218139082 -0.0019845704544819011 0 0.0031840843769938994 -0.0021286875036757272 0 0.002900024715912618 -0.0021500010408552778 0 0.0031840843769938994 -0.0021286875036757272 0 0.0029113647145148289 -0.002495528867471362 0 0.002900024715912618 -0.0021500010408552778 0 0.0033451651965521602 -0.0018591586752677511 0 0.0029423973638334276 -0.0016052188395615948 0 0.0037351102920136227 -0.0017800732258765341 0 0.0038194612300905448 -0.0017921751772198885 0 0.0037985450408735567 -0.0018829101590074381 0 0.0038194612300905448 -0.0017921751772198885 0 0.0037985450408735567 -0.0018829101590074381 0 0.0038906963346457442 -0.0018085981498310066 0 0.0037351102920136227 -0.0017800732258765341 0 0.0038194612300905448 -0.0017921751772198885 0 0.0038230777917229019 -0.0017339941962257386 0 0.0038194612300905448 -0.0017921751772198885 0 0.0038413462773996465 -0.0017501887805476777 0 0.0038230777917229019 -0.0017339941962257386 0 0.0037941361605900387 -0.0014974829723639232 0 0.0037835721234245785 -0.0016339864210375265 0 0.0037057884537214218 -0.0015633569344524437 0 0.003927825113662871 -0.0016112113808175884 0 0.003824567679383909 -0.0017550102503874148 0 0.0038909655447821969 -0.0019735945045970893 0 0.0037985450408735567 -0.0018829101590074381 0 0.0038906963346457442 -0.0018085981498310066 0 0.0038906963346457442 -0.0018085981498310066 0 0.0038413462773996465 -0.0017501887805476777 0 0.0038165551331788817 -0.0017240572204578843 0 0.003824567679383909 -0.0017550102503874148 0 0.0038227407451539969 -0.0017210806159143599 0 0.0037835721234245785 -0.0016339864210375265 0 0.0037639207383350255 -0.0017085843487597793 0 0.0038165551331788817 -0.0017240572204578843 0 0.0038194612300905448 -0.0017921751772198885 0 0.0038906963346457442 -0.0018085981498310066 0 0.0038413462773996465 -0.0017501887805476777 0 0.0037835721234245785 -0.0016339864210375265 0 0.0037165257271701644 -0.0016423165665389525 0 0.0037639207383350255 -0.0017085843487597793 0 0.0036660385416782955 -0.0016908949747404783 0 0.0037165257271701644 -0.0016423165665389525 0 0.0037639207383350255 -0.0017085843487597793 0 0.0036660385416782955 -0.0016908949747404783 0 0.0037165257271701644 -0.0016423165665389525 0 0.0036477866267417497 -0.0016083606695001826 0 0.0037057884537214218 -0.0015633569344524437 0 0.0036477866267417497 -0.0016083606695001826 0 0.0035925737114300698 -0.0015425332685333464 0 0.0037835721234245785 -0.0016339864210375265 0 0.0037165257271701644 -0.0016423165665389525 0 0.0037057884537214218 -0.0015633569344524437 0 0.0036620270669298618 -0.0014717063842740762 0 0.0037057884537214218 -0.0015633569344524437 0 0.0035925737114300698 -0.0015425332685333464 0 0.0037165257271701644 -0.0016423165665389525 0 0.0037057884537214218 -0.0015633569344524437 0 0.0036477866267417497 -0.0016083606695001826 0 0.0036477866267417497 -0.0016083606695001826 0 0.0035925737114300698 -0.0015425332685333464 0 0.0035733611549393185 -0.0016213381951236819 0 0.0034905743890156363 -0.0015589285777180641 0 0.0035925737114300698 -0.0015425332685333464 0 0.0035733611549393185 -0.0016213381951236819 0 0.0036660385416782955 -0.0016908949747404783 0 0.0035733611549393185 -0.0016213381951236819 0 0.0035859094787450119 -0.0017279629307666686 0 0.0034665339912949501 -0.0016034487933428139 0 0.0035733611549393185 -0.0016213381951236819 0 0.0035859094787450119 -0.0017279629307666686 0 0.0036660385416782955 -0.0016908949747404783 0 0.0036477866267417497 -0.0016083606695001826 0 0.0035733611549393185 -0.0016213381951236819 0 0.0036660385416782955 -0.0016908949747404783 0 0.0035859094787450119 -0.0017279629307666686 0 0.003713291709297884 -0.0018849897668581203 0 0.0035154913385877914 -0.0016598600569893145 0 0.0038274752297391464 -0.0012007948259523122 0 0.0035634083475977441 -0.0010016694968012854 0 0.0038274752297391464 -0.0012007948259523122 0 0.003818454948942774 0.00017141623149285716 0 0.0039264167638948001 -0.00049499494078715652 0 0.0036950703479089017 -0.00058495553030988928 0 0.003892891466693449 -0.0005701283948092075 0 0.0039088613306680958 -0.00059236059787128557 0 0.0036950703479089017 -0.00058495553030988928 0 0.0037000659926670438 -0.00056644597476507936 0 0.003892891466693449 -0.0005701283948092075 0 0.0034718622700654067 -0.0014700498927746135 0 0.003475569450700882 -0.0014611754495276596 0 0.0034882948819038562 -0.0014687397067437869 0 0.003713291709297884 -0.0018849897668581203 0 0.0037714328714827513 -0.0018837899384658038 0 0.0037639207383350255 -0.0017085843487597793 0 0.0038274752297391464 -0.0012007948259523122 0 0.0039264167638948001 -0.00049499494078715652 0 0.0041905714781321031 0.00062912317925156985 0 0.0041793573959158217 0.00064591421687605253 0 0.0041530484081492847 0.00057448382318895611 0 0.0042358585922804091 0.00064242328310574353 0 0.0041905714781321031 0.00062912317925156985 0 0.0041796855498213549 0.00064300930762327358 0 0.0040902387740326188 -0.00083197439538249701 0 0.0039264167638948001 -0.00049499494078715652 0 0.0038915796089144957 -0.00039150864453980889 0 0.0039264167638948001 -0.00049499494078715652 0 0.0041640202191295288 -0.00115752006576139 0 0.003841730764906254 -0.0011551805747879592 0 0.0041527763358616149 -0.0009928450644971689 0 0.0038274752297391464 -0.0012007948259523122 0 0.0039725447488800879 -0.001442145290943511 0 0.0037281682240262386 -0.00099599954175429791 0 0.003841730764906254 -0.0011551805747879592 0 0.0041527763358616149 -0.0009928450644971689 0 0.0040902387740326188 -0.00083197439538249701 0 0.0039725447488800879 -0.001442145290943511 0 0.0039725447488800879 -0.001442145290943511 0 0.0037447625361595877 -0.001857705126896921 0 0.0036660385416782955 -0.0016908949747404783 0 0.003713291709297884 -0.0018849897668581203 0 0.0037639207383350255 -0.0017085843487597793 0 0.0038283240587479611 -0.001745295294226377 0 0.0037639207383350255 -0.0017085843487597793 0 0.0038247706283942523 -0.0017327761633751065 0 0.0038413462773996465 -0.0017501887805476777 0 0.0038365976284280658 -0.0017249989024511309 0 0.0038230777917229019 -0.0017339941962257386 0 0.0038413462773996465 -0.0017501887805476777 0 0.0038365976284280658 -0.0017249989024511309 0 0.0038165551331788817 -0.0017240572204578843 0 0.0038365976284280658 -0.0017249989024511309 0 0.0038360398618567798 -0.0017210656600274894 0 0.003837365458797965 -0.0017081202362699021 0 0.0038365976284280658 -0.0017249989024511309 0 0.0038299767656049797 -0.001726741882110744 0 0.0038360398618567798 -0.0017210656600274894 0 0.0038365976284280658 -0.0017249989024511309 0 0.0038299767656049797 -0.001726741882110744 0 0.0038165551331788817 -0.0017240572204578843 0 0.0037639207383350255 -0.0017085843487597793 0 0.0038165551331788817 -0.0017240572204578843 0 0.0038247706283942523 -0.0017327761633751065 0 0.0038299767656049797 -0.001726741882110744 0 0.0038165551331788817 -0.0017240572204578843 0 0.0038247706283942523 -0.0017327761633751065 0 0.0039725447488800879 -0.001442145290943511 0 0.0039610513122567406 -0.0016170787902108636 0 0.0045375918486684503 -0.0014615045044842347 0 0.0042226402236357997 -0.0014629486158458977 0 0.004342657654805784 -0.0013617248203533726 0 0.0043046899928802151 -0.0014540387898294331 0 0.0043069614208692169 -0.0014838057821260407 0 0.0041253764241334315 -0.0014641449504894384 0 0.0038283240587479611 -0.001745295294226377 0 0.0038360398618567798 -0.0017210656600274894 0 0.0038485701294475594 -0.001693649553690535 0 0.0038283240587479611 -0.001745295294226377 0 0.0038247706283942523 -0.0017327761633751065 0 0.0038360398618567798 -0.0017210656600274894 0 0.0038299767656049797 -0.001726741882110744 0 0.0038247706283942523 -0.0017327761633751065 0 0.0038360398618567798 -0.0017210656600274894 0 0.0040902387740326188 -0.00083197439538249701 0 0.004229681692669224 -0.0014709786340940442 0 0.0043069614208692169 -0.0014838057821260407 0 0.0041253764241334315 -0.0014641449504894384 0 0.0040554186540744394 -0.0015048167013590877 0 0.0038360398618567798 -0.0017210656600274894 0 0.0038485701294475594 -0.001693649553690535 0 0.003837365458797965 -0.0017081202362699021 0 0.0039338058582184593 -0.0014810810008539629 0 0.004229681692669224 -0.0014709786340940442 0 0.0039260591398295229 -0.0014905223409403384 0 0.0041253764241334315 -0.0014641449504894384 0 0.0040554186540744394 -0.0015048167013590877 0 0.0039260591398295229 -0.0014905223409403384 0 0.0042226402236357997 -0.0014629486158458977 0 0.004065926285512997 -0.001337287964943348 0 0.0038268875573347523 -0.0016761938101249509 0 0.0038485701294475594 -0.001693649553690535 0 0.003837365458797965 -0.0017081202362699021 0 0.0037351102920136227 -0.0017800732258765341 0 0.0038268875573347523 -0.0016761938101249509 0 0.0038230777917229019 -0.0017339941962257386 0 0.0038268875573347523 -0.0016761938101249509 0 0.003837365458797965 -0.0017081202362699021 0 0.0038230777917229019 -0.0017339941962257386 0 0.0038365976284280658 -0.0017249989024511309 0 0.003837365458797965 -0.0017081202362699021 0 0.0038230777917229019 -0.0017339941962257386 0 0.0039212611580901544 -0.00087169199335005105 0 0.0041256735321458203 -0.00089637497863775701 0 0.0040554084376406598 -0.0011073813787666606 0 0.0041256735321458203 -0.00089637497863775701 0 0.0040554084376406598 -0.0011073813787666606 0 0.0042657214434498342 -0.0010514393664360815 0 0.0038867001682557022 -0.0010510648776390298 0 0.0039212611580901544 -0.00087169199335005105 0 0.0040554084376406598 -0.0011073813787666606 0 0.0039108454838197911 -0.0012073217578677689 0 0.0038867001682557022 -0.0010510648776390298 0 0.0040554084376406598 -0.0011073813787666606 0 0.0039108454838197911 -0.0012073217578677689 0 0.0040554084376406598 -0.0011073813787666606 0 0.004065926285512997 -0.001337287964943348 0 0.0039260591398295229 -0.0014905223409403384 0 0.0039357172614567079 -0.0013423388446724505 0 0.004065926285512997 -0.001337287964943348 0 0.0039357172614567079 -0.0013423388446724505 0 0.0039108454838197911 -0.0012073217578677689 0 0.004065926285512997 -0.001337287964943348 0 0.0042226402236357997 -0.0014629486158458977 0 0.004065926285512997 -0.001337287964943348 0 0.0042229461185956272 -0.0012638244638662277 0 0.0040554084376406598 -0.0011073813787666606 0 0.004065926285512997 -0.001337287964943348 0 0.0042229461185956272 -0.0012638244638662277 0 0.0040554084376406598 -0.0011073813787666606 0 0.0042229461185956272 -0.0012638244638662277 0 0.0042657214434498342 -0.0010514393664360815 0 0.0042229461185956272 -0.0012638244638662277 0 0.0043791171571799115 -0.0012288953034017226 0 0.0042657214434498342 -0.0010514393664360815 0 0.0045375918486684503 -0.0014615045044842347 0 0.0043791171571799115 -0.0012288953034017226 0 0.004501564995240531 -0.00096629310432189218 0 0.0042226402236357997 -0.0014629486158458977 0 0.0042229461185956272 -0.0012638244638662277 0 0.004342657654805784 -0.0013617248203533726 0 0.0042229461185956272 -0.0012638244638662277 0 0.004342657654805784 -0.0013617248203533726 0 0.0043791171571799115 -0.0012288953034017226 0 0.0045375918486684503 -0.0014615045044842347 0 0.004342657654805784 -0.0013617248203533726 0 0.0043791171571799115 -0.0012288953034017226 0 0.0043791171571799115 -0.0012288953034017226 0 0.0042657214434498342 -0.0010514393664360815 0 0.004501564995240531 -0.00096629310432189218 0 0.0042657214434498342 -0.0010514393664360815 0 0.004501564995240531 -0.00096629310432189218 0 0.0042772241045479281 -0.00080615716969306521 0 0.0041256735321458203 -0.00089637497863775701 0 0.0042657214434498342 -0.0010514393664360815 0 0.0042772241045479281 -0.00080615716969306521 0 0.004258321498848157 0.00037533308839876915 0 0.0041008339767683692 0.0003856480342844036 0 0.0041854057935566237 0.00024534325538600783 0 0.004258321498848157 0.00037533308839876915 0 0.0041477055885076547 0.00048785485799256195 0 0.0041008339767683692 0.0003856480342844036 0 0.0040902387740326188 -0.00083197439538249701 0 0.0044103479677144106 -0.00020445940248010972 0 0.0042358585922804091 0.00064242328310574353 0 0.004258321498848157 0.00037533308839876915 0 0.0041969823440734825 0.00054201976666507911 0 0.004258321498848157 0.00037533308839876915 0 0.0041969823440734825 0.00054201976666507911 0 0.0041477055885076547 0.00048785485799256195 0 0.0042358585922804091 0.00064242328310574353 0 0.0041905714781321031 0.00062912317925156985 0 0.0041969823440734825 0.00054201976666507911 0 0.0041905714781321031 0.00062912317925156985 0 0.0041969823440734825 0.00054201976666507911 0 0.0041530484081492847 0.00057448382318895611 0 0.0041793573959158217 0.00064591421687605253 0 0.0041530484081492847 0.00057448382318895611 0 0.0040445055548182915 0.00054998283233520019 0 0.0041530484081492847 0.00057448382318895611 0 0.0041477055885076547 0.00048785485799256195 0 0.0040445055548182915 0.00054998283233520019 0 0.0041969823440734825 0.00054201976666507911 0 0.0041530484081492847 0.00057448382318895611 0 0.0041477055885076547 0.00048785485799256195 0 0.0041477055885076547 0.00048785485799256195 0 0.0040445055548182915 0.00054998283233520019 0 0.0041008339767683692 0.0003856480342844036 0 0.0038947588163834404 0.00066851958979755597 0 0.0040445055548182915 0.00054998283233520019 0 0.0039362847935199893 0.00044455331699400698 0 0.0038947588163834404 0.00066851958979755597 0 0.0041793573959158217 0.00064591421687605253 0 0.0040445055548182915 0.00054998283233520019 0 0.0040445055548182915 0.00054998283233520019 0 0.0041008339767683692 0.0003856480342844036 0 0.0039362847935199893 0.00044455331699400698 0 0.0041008339767683692 0.0003856480342844036 0 0.0039362847935199893 0.00044455331699400698 0 0.0038890098342635325 0.00029655709131347341 0 0.0041008339767683692 0.0003856480342844036 0 0.0040715827179784664 0.00012495585963920652 0 0.0038890098342635325 0.00029655709131347341 0 0.0040715827179784664 0.00012495585963920652 0 0.0038890098342635325 0.00029655709131347341 0 0.0039338872621534939 0.00015161344773371101 0 0.0041031258677204146 0.00037108752286312609 0 0.0040935820550883524 0.00013713513269243162 0 0.0040715827179784664 0.00012495585963920652 0 0.0039338872621534939 0.00015161344773371101 0 0.0039924316949746623 2.5155341929727217e-05 0 0.0041145645140430566 0.00012980809987830094 0 0.0042588875995845325 0.00013214874669902361 0 0.0041855392876526112 4.8895844047502998e-05 0 0.0041145645140430566 0.00012980809987830094 0 0.0041854057935566237 0.00024534325538600783 0 0.0042588875995845325 0.00013214874669902361 0 0.004258321498848157 0.00037533308839876915 0 0.0041854057935566237 0.00024534325538600783 0 0.0042588875995845325 0.00013214874669902361 0 0.0041008339767683692 0.0003856480342844036 0 0.0041145645140430566 0.00012980809987830094 0 0.0041854057935566237 0.00024534325538600783 0 0.004501564995240531 -0.00096629310432189218 0 0.0042772241045479281 -0.00080615716969306521 0 0.0044055385815928013 -0.00046125995992912924 0 0.0042772241045479281 -0.00080615716969306521 0 0.0044055385815928013 -0.00046125995992912924 0 0.0041072078435213915 -0.00064940271538255938 0 0.0044103479677144106 -0.00020445940248010972 0 0.0043222057086525142 -0.00018793652416994219 0 0.0044055385815928013 -0.00046125995992912924 0 0.0040869556570048557 -0.00030656916829180814 0 0.0042275780384468551 -2.6680663577885435e-05 0 0.0044055385815928013 -0.00046125995992912924 0 0.0040869556570048557 -0.00030656916829180814 0 0.0041072078435213915 -0.00064940271538255938 0 0.0037714317005613815 -0.00055501472129877033 0 0.0040869556570048557 -0.00030656916829180814 0 0.0041072078435213915 -0.00064940271538255938 0 0.0039212611580901544 -0.00087169199335005105 0 0.0037714317005613815 -0.00055501472129877033 0 0.0041072078435213915 -0.00064940271538255938 0 0.0041256735321458203 -0.00089637497863775701 0 0.0042772241045479281 -0.00080615716969306521 0 0.0041072078435213915 -0.00064940271538255938 0 0.0039212611580901544 -0.00087169199335005105 0 0.0041256735321458203 -0.00089637497863775701 0 0.0041072078435213915 -0.00064940271538255938 0 0.0034601780552926272 0.00044578085987057194 0 0.0036020110200411437 0.00032118010788983136 0 0.0033856430826911944 0.00030995887557805932 0 0.003301959954153064 0.00046823352147836914 0 0.0033856430826911944 0.00030995887557805932 0 0.0032002279607846002 0.00028883616836999324 0 0.0034601780552926272 0.00044578085987057194 0 0.003301959954153064 0.00046823352147836914 0 0.0033856430826911944 0.00030995887557805932 0 0.003301959954153064 0.00046823352147836914 0 0.003279750849436081 0.00048488306670593849 0 0.0032002279607846002 0.00028883616836999324 0 0.0014986743435785575 -0.0018750527570819246 0 0.0014517821806002331 -0.0019954677850454938 0 0.0013473229801175938 -0.0018762531180360237 0 0.0034601780552926272 0.00044578085987057194 0 0.003301959954153064 0.00046823352147836914 0 0.0033497609144526744 0.00053693752510660525 0 0.0017097055234563687 -0.002349443191252765 0 0.0023616494339944154 -0.00071049183509851752 0 0.0025285626307466448 -0.0015534850994579209 0 0.0025299730077934716 -0.0010334562664862086 0 0.0027787682675743468 -0.00087899520194829515 0 0.003301959954153064 0.00046823352147836914 0 0.0033294315061922629 0.0005032711566269226 0 0.003279750849436081 0.00048488306670593849 0 0.0031244364215604896 -0.00018146536507524026 0 0.0023616494339944154 -0.00071049183509851752 0 0.0033862000575498167 0.00035335767670495997 0 0.0031244364215604896 -0.00018146536507524026 0 0.0021761510886295411 -0.0015507028124032915 0 0.0025285626307466448 -0.0015534850994579209 0 0.0025299730077934716 -0.0010334562664862086 0 0.0029423973638334276 -0.0016052188395615948 0 0.0031244364215604896 -0.00018146536507524026 0 0.0035971016961669012 0.0006792417781052633 0 0.0034601780552926272 0.00044578085987057194 0 0.0033497609144526744 0.00053693752510660525 0 0.0035424355014806487 -0.00048934964593167743 0 0.0031244364215604896 -0.00018146536507524026 0 0.0031908838800333334 -0.00064814940604706998 0 0.0031929714589902084 -0.00064717011199883162 0 0.0031942672469402879 -0.00063741163869139084 0 0.0035971016961669012 0.0006792417781052633 0 0.0034601780552926272 0.00044578085987057194 0 0.0037497250474559859 0.00048509573136114439 0 0.0038947588163834404 0.00066851958979755597 0 0.0035971016961669012 0.0006792417781052633 0 0.0037497250474559859 0.00048509573136114439 0 0.0038947588163834404 0.00066851958979755597 0 0.0037497250474559859 0.00048509573136114439 0 0.0039362847935199893 0.00044455331699400698 0 0.0037497250474559859 0.00048509573136114439 0 0.0039362847935199893 0.00044455331699400698 0 0.0038890098342635325 0.00029655709131347341 0 0.0034601780552926272 0.00044578085987057194 0 0.0037497250474559859 0.00048509573136114439 0 0.0036020110200411437 0.00032118010788983136 0 0.0037497250474559859 0.00048509573136114439 0 0.0036020110200411437 0.00032118010788983136 0 0.0038890098342635325 0.00029655709131347341 0 0.0036020110200411437 0.00032118010788983136 0 0.0038890098342635325 0.00029655709131347341 0 0.0037430087083092727 0.00015433928929130407 0 0.0036020110200411437 0.00032118010788983136 0 0.0037430087083092727 0.00015433928929130407 0 0.0034728843321774248 0.00017871153244810949 0 0.0038890098342635325 0.00029655709131347341 0 0.0039338872621534939 0.00015161344773371101 0 0.0037430087083092727 0.00015433928929130407 0 0.0039338872621534939 0.00015161344773371101 0 0.0039924316949746623 2.5155341929727217e-05 0 0.0037430087083092727 0.00015433928929130407 0 0.0037430087083092727 0.00015433928929130407 0 0.0035128721466612793 6.3200737189526631e-05 0 0.0034728843321774248 0.00017871153244810949 0 0.0034537897750422167 7.261885245355714e-05 0 0.0032549807130316136 0.00013721976830433769 0 0.0035128721466612793 6.3200737189526631e-05 0 0.0034728843321774248 0.00017871153244810949 0 0.0033321612773800921 7.2808251800464524e-05 0 0.0036020110200411437 0.00032118010788983136 0 0.0034728843321774248 0.00017871153244810949 0 0.0033856430826911944 0.00030995887557805932 0 0.0033856430826911944 0.00030995887557805932 0 0.0033321612773800921 7.2808251800464524e-05 0 0.0032002279607846002 0.00028883616836999324 0 0.0034728843321774248 0.00017871153244810949 0 0.0033856430826911944 0.00030995887557805932 0 0.0033321612773800921 7.2808251800464524e-05 0 0.0032549807130316136 0.00013721976830433769 0 0.0024462673384111509 -0.0002219846347128432 0 0.0033321612773800921 7.2808251800464524e-05 0 0.003118783826406644 8.7742916262746015e-05 0 0.0032002279607846002 0.00028883616836999324 0 0.0030273822173227873 0.00017127437646936538 0 0.0025466243708419929 0.00023789350545160319 0 0.0027048891754299399 -6.9555824133997598e-05 0 0.0019797136845503007 -0.0011073643453659108 0 0.0018807614613728957 -0.00088330776870562439 0 0.0016815869670025873 -0.0010848925998554349 0 0.0025159124472816331 0.00019656440077296317 0 0.0022853298890542994 8.5173517450926446e-05 0 0.0024075476954432272 -0.00010502124776963822 0 0.0024462673384111509 -0.0002219846347128432 0 0.0018939298635335226 -0.00040428288749819863 0 0.0025159124472816331 0.00019656440077296317 0 0.0022853298890542994 8.5173517450926446e-05 0 0.0021222785392351895 0.00023816930909250286 0 0.0022853298890542994 8.5173517450926446e-05 0 0.0021222785392351895 0.00023816930909250286 0 0.0020903163829334099 7.614138229010843e-06 0 0.0018807614613728957 -0.00088330776870562439 0 0.0016815869670025873 -0.0010848925998554349 0 0.001678556570976918 -0.00081730296556202823 0 0.0018807614613728957 -0.00088330776870562439 0 0.001678556570976918 -0.00081730296556202823 0 0.0019468726318345353 -0.00065885439682292722 0 0.0018807614613728957 -0.00088330776870562439 0 0.0020938699100471136 -0.00080153768657410102 0 0.0019468726318345353 -0.00065885439682292722 0 0.0024462673384111509 -0.0002219846347128432 0 0.0027063868782065295 -0.00016259367606565977 0 0.0019797136845503007 -0.0011073643453659108 0 0.0018807614613728957 -0.00088330776870562439 0 0.0020938699100471136 -0.00080153768657410102 0 0.0016037219291156954 6.2662915289011376e-05 0 0.0016792339557686845 0.00027104287981152803 0 0.0019770518302401883 0.00020895040475782511 0 0.0010418740761955131 -0.0011484121678538653 0 0.0010731347715042109 -0.0012767101743726887 0 0.0007852178351429015 -0.0013020902192915724 0 0.00045051098036055277 -0.0021000110644811814 0 0.00068489281944477363 -0.0019389808301361656 0 0.00020283416005637147 -0.002859147399125319 0 0.00017992518440916125 -0.0028561198387457186 0 0.00019253740504960622 -0.0028944315694768249 0 0.0014308857128228017 -0.00030827155624903668 0 0.0013225376546647408 -0.0011293480000174455 0 0.0010418740761955131 -0.0011484121678538653 0 0.0010731347715042109 -0.0012767101743726887 0 0.001116505834973993 -0.0011556816091299505 0 0.00068489281944477363 -0.0019389808301361656 0 0.0013225376546647408 -0.0011293480000174455 0 0.0010033652800234094 -0.0017967388997889278 0 0.0011230572475133067 -0.0018094549242641418 0 0.0011620237815570744 -0.0017025204261705265 0 0.00068489281944477363 -0.0019389808301361656 0 0.0009394242314302632 -0.0020386697857542957 0 0.0013225376546647408 -0.0011293480000174455 0 0.0009394242314302632 -0.0020386697857542957 0 0.0014308857128228017 -0.00030827155624903668 0 0.0020350357096434891 0.0002238891545614784 0 0.0016478964712418685 8.5707554168583619e-05 0 0.0019770518302401883 0.00020895040475782511 0 0.0018773099532151559 -1.8993907766058276e-06 0 0.0013225376546647408 -0.0011293480000174455 0 0.0018939298635335226 -0.00040428288749819863 0 0.0016792339557686845 0.00027104287981152803 0 0.0021222785392351895 0.00023816930909250286 0 0.0019770518302401883 0.00020895040475782511 0 0.0013745132223933858 -0.0010602616181594308 0 0.0016815869670025873 -0.0010848925998554349 0 0.0014021707862482071 -0.00098391186204334043 0 0.0021222785392351895 0.00023816930909250286 0 0.0019770518302401883 0.00020895040475782511 0 0.0020903163829334099 7.614138229010843e-06 0 0.0019770518302401883 0.00020895040475782511 0 0.0020903163829334099 7.614138229010843e-06 0 0.0018773099532151559 -1.8993907766058276e-06 0 0.001538494807564328 -0.0014052337207615727 0 0.0009394242314302632 -0.0020386697857542957 0 0.0012012076997170306 -0.0021413690169431346 0 0.0010837601687832567 -0.0022092491886507308 0 0.0011424766188574329 -0.0020494340375519942 0 0.0016815869670025873 -0.0010848925998554349 0 0.001678556570976918 -0.00081730296556202823 0 0.0014021707862482071 -0.00098391186204334043 0 0.0009394242314302632 -0.0020386697857542957 0 0.00057691668959007549 -0.0025943428391449206 0 0.00014229461359624809 -0.0028798237622893554 0 0.00020097565920054099 -0.0029667542565736762 0 9.6550544711782979e-05 -0.0030262414017150087 0 0.00017992518440916125 -0.0028561198387457186 0 0.00014229461359624809 -0.0028798237622893554 0 0.00019253740504960622 -0.0028944315694768249 0 0.00014229461359624809 -0.0028798237622893554 0 0.00020097565920054099 -0.0029667542565736762 0 0.00019253740504960622 -0.0028944315694768249 0 0.00020097565920054099 -0.0029667542565736762 0 9.6550544711782979e-05 -0.0030262414017150087 0 0.00019585420951225604 -0.0030716291499623097 0 0.0012012076997170306 -0.0021413690169431346 0 0.0011424766188574329 -0.0020494340375519942 0 0.0012463545057629175 -0.0019911114685643638 0 0.0011424766188574329 -0.0020494340375519942 0 0.0012463545057629175 -0.0019911114685643638 0 0.0011995712112785515 -0.0018820083057777231 0 9.6550544711782979e-05 -0.0030262414017150087 0 4.9881068099991824e-05 -0.0031808371703774241 0 0.00019944308716200536 -0.0031881455633516343 0 0.00057691668959007549 -0.0025943428391449206 0 0.00057178089727387903 -0.0027948542038997871 0 9.6550544711782979e-05 -0.0030262414017150087 0 0.00019585420951225604 -0.0030716291499623097 0 0.00019944308716200536 -0.0031881455633516343 0 0.0014517821806002331 -0.0019954677850454938 0 0.0013238202970579332 -0.0020705604168631689 0 0.0013463364760386463 -0.0019769851619599842 0 0.0022089647621232516 -0.0005039649906702395 0 0.0020938699100471136 -0.00080153768657410102 0 0.0019468726318345353 -0.00065885439682292722 0 0.0023616494339944154 -0.00071049183509851752 0 0.0027063868782065295 -0.00016259367606565977 0 0.0023616494339944154 -0.00071049183509851752 0 0.0015025070701437486 -0.0014576902088772774 0 0.001538494807564328 -0.0014052337207615727 0 0.0015025070701437486 -0.0014576902088772774 0 0.0012012076997170306 -0.0021413690169431346 0 0.0013238202970579332 -0.0020705604168631689 0 0.0012463545057629175 -0.0019911114685643638 0 0.0013238202970579332 -0.0020705604168631689 0 0.0012463545057629175 -0.0019911114685643638 0 0.0013463364760386463 -0.0019769851619599842 0 0.0012463545057629175 -0.0019911114685643638 0 0.0013463364760386463 -0.0019769851619599842 0 0.0013473229801175938 -0.0018762531180360237 0 0.0012463545057629175 -0.0019911114685643638 0 0.0013473229801175938 -0.0018762531180360237 0 0.0011995712112785515 -0.0018820083057777231 0 0.0014517821806002331 -0.0019954677850454938 0 0.0013463364760386463 -0.0019769851619599842 0 0.0013473229801175938 -0.0018762531180360237 0 0.0017097055234563687 -0.002349443191252765 0 0.00085567983272856062 -0.0024939439434282003 0 0.00073418644055335384 -0.0031604324241355452 0 0.00048236877180273083 -0.0031266964687467575 0 0.00050601470373416876 -0.0030603826747401326 0 0.00048236877180273083 -0.0031266964687467575 0 0.00050601470373416876 -0.0030603826747401326 0 0.00046075102253987195 -0.0030807934255129548 0 0.00050601470373416876 -0.0030603826747401326 0 0.00045528018203811691 -0.0030732379508768 0 0.00040968246150814482 -0.0030967600907554644 0 0.00050601470373416876 -0.0030603826747401326 0 0.00058581670218217413 -0.0029017853358583676 0 0.00052396529997534604 -0.002682709313219915 0 0.00066837681630579936 -0.0030034636512017046 0 0.00050601470373416876 -0.0030603826747401326 0 0.00058581670218217413 -0.0029017853358583676 0 0.00050219589806703663 -0.0030798132966964225 0 0.00045662108675070183 -0.0028432005799219721 0 0.0006444878594094336 -0.0028589428390306555 0 0.00058581670218217413 -0.0029017853358583676 0 0.00052396529997534604 -0.002682709313219915 0 0.00050601470373416876 -0.0030603826747401326 0 0.00045528018203811691 -0.0030732379508768 0 0.00046075102253987195 -0.0030807934255129548 0 0.00045528018203811691 -0.0030732379508768 0 0.00045841165129718967 -0.0030706322871453624 0 0.00046075102253987195 -0.0030807934255129548 0 0.00031567609175297282 -0.0032306298158415944 0 0.00057178089727387903 -0.0027948542038997871 0 0.00045841165129718967 -0.0030706322871453624 0 0.00046075102253987195 -0.0030807934255129548 0 0.00043316802001502544 -0.0030963563972226343 0 0.00048236877180273083 -0.0031266964687467575 0 0.00046075102253987195 -0.0030807934255129548 0 0.00043316802001502544 -0.0030963563972226343 0 0.00085567983272856062 -0.0024939439434282003 0 0.00057178089727387903 -0.0027948542038997871 0 0.00022247090618074159 -0.0032259447938519075 0 0.00019944308716200536 -0.0031881455633516343 0 0.00022030350912692411 -0.0032285997253221929 0 0.00057178089727387903 -0.0027948542038997871 0 2.0424834149101662e-05 -0.0032715795369329258 0 0.00019944308716200536 -0.0031881455633516343 0 0.00022016421413070282 -0.0032401336094807992 0 0.00023469607156024162 -0.00322105844965297 0 0.00019944308716200536 -0.0031881455633516343 0 0.00022016421413070282 -0.0032401336094807992 0 0.00022030350912692411 -0.0032285997253221929 0 0.00022016421413070282 -0.0032401336094807992 0 0.00022030350912692411 -0.0032285997253221929 0 0.00023733990993983318 -0.0032328300531563573 0 0.00024229889590612013 -0.0032360706404272912 0 0.00022247090618074159 -0.0032259447938519075 0 0.00022030350912692411 -0.0032285997253221929 0 0.00024229889590612013 -0.0032360706404272912 0 0.00022030350912692411 -0.0032285997253221929 0 0.00023733990993983318 -0.0032328300531563573 0 0.00022016421413070282 -0.0032401336094807992 0 0.00023733990993983318 -0.0032328300531563573 0 0.00022177741794342161 -0.0032636635480253521 0 0.00029184977469009653 -0.0034495319199919099 0 0.00025642705356551589 -0.0033840229261358885 0 0.00028332018796730745 -0.0035344182122805587 0 0.00039636601302950162 -0.0035894219978501282 0 0.00024859500615876843 -0.00353471438535315 0 0.00023733990993983318 -0.0032328300531563573 0 0.00024599112206156228 -0.0031917245119435864 0 0.00022177741794342161 -0.0032636635480253521 0 0.00023733990993983318 -0.0032328300531563573 0 0.00024599112206156228 -0.0031917245119435864 0 0.00026436370623823 -0.0032128030866413184 0 0.00035480102230487178 -0.0031519678897684389 0 0.00024599112206156228 -0.0031917245119435864 0 0.00029389638936771519 -0.0031941944894799336 0 0.00035480102230487178 -0.0031519678897684389 0 0.00029389638936771519 -0.0031941944894799336 0 0.0002907405613874342 -0.0032271907903778005 0 0.00024599112206156228 -0.0031917245119435864 0 0.00026436370623823 -0.0032128030866413184 0 0.00029389638936771519 -0.0031941944894799336 0 0.00026436370623823 -0.0032128030866413184 0 0.00029389638936771519 -0.0031941944894799336 0 0.0002907405613874342 -0.0032271907903778005 0 0.00053393811588955085 -0.0023285751664030886 0 0.00061859032102611414 -0.0024278338135180237 0 0.00052396529997534604 -0.002682709313219915 0 0.00035480102230487178 -0.0031519678897684389 0 0.00040968246150814482 -0.0030967600907554644 0 0.00043355674926007475 -0.0031028255826926064 0 0.00035480102230487178 -0.0031519678897684389 0 0.00035968751979729502 -0.0031493633420441522 0 0.00040968246150814482 -0.0030967600907554644 0 0.0005430089399657568 -0.0029641032747681892 0 0.00045662108675070183 -0.0028432005799219721 0 0.00035716181879474841 -0.0031549992782779345 0 0.00036703594073226594 -0.0031420312217889683 0 0.00065209479769717316 -0.0025181039925161919 0 0.00061859032102611414 -0.0024278338135180237 0 0.00052396529997534604 -0.002682709313219915 0 0.00045528018203811691 -0.0030732379508768 0 0.00040968246150814482 -0.0030967600907554644 0 0.00043355674926007475 -0.0031028255826926064 0 0.00065325784912556529 -0.0026460020593845487 0 0.0006349150810863746 -0.0027301734133138552 0 0.00052396529997534604 -0.002682709313219915 0 0.00065209479769717316 -0.0025181039925161919 0 0.00065325784912556529 -0.0026460020593845487 0 0.00052396529997534604 -0.002682709313219915 0 0.0006349150810863746 -0.0027301734133138552 0 0.0006444878594094336 -0.0028589428390306555 0 0.00052396529997534604 -0.002682709313219915 0 0.00024229889590612013 -0.0032360706404272912 0 0.00023733990993983318 -0.0032328300531563573 0 0.0002907405613874342 -0.0032271907903778005 0 0.00031567609175297282 -0.0032306298158415944 0 0.00036703594073226594 -0.0031420312217889683 0 0.00045528018203811691 -0.0030732379508768 0 0.00045841165129718967 -0.0030706322871453624 0 0.00043355674926007475 -0.0031028255826926064 0 0.00023733990993983318 -0.0032328300531563573 0 0.00026436370623823 -0.0032128030866413184 0 0.0002907405613874342 -0.0032271907903778005 0 0.00016438936403108588 -0.0032394739120308706 0 0.00013586202775145437 -0.0033568131550320902 0 0.00037732667230103015 -0.0033208012833393255 0 0.00027909200707748491 -0.0034439313603102542 0 0.00027646590082904801 -0.0033592491714978996 0 0.00037732667230103015 -0.0033208012833393255 0 0.00027646590082904801 -0.0033592491714978996 0 0.00031326242468489768 -0.0032757123892661897 0 -0.00010162599849468689 -0.0031759402387838776 0 -0.00015755402971544377 -0.003145499636838296 0 -0.00010885864229838057 -0.0031801965522532151 0 -0.00015755402971544377 -0.003145499636838296 0 -0.00010896826259481974 -0.0031784665362734944 0 -0.00010885864229838057 -0.0031801965522532151 0 -0.00010896826259481974 -0.0031784665362734944 0 -0.00010885864229838057 -0.0031801965522532151 0 -6.86493722182317e-05 -0.0032276158285158012 0 -0.00010162599849468689 -0.0031759402387838776 0 -0.00010885864229838057 -0.0031801965522532151 0 -6.86493722182317e-05 -0.0032276158285158012 0 -0.00010896826259481974 -0.0031784665362734944 0 -6.86493722182317e-05 -0.0032276158285158012 0 -6.3865326938083606e-05 -0.0032341606931379917 0 -3.1796809934377058e-05 -0.0032694302954463083 0 -6.3865326938083606e-05 -0.0032341606931379917 0 -3.6655790658499603e-05 -0.0032650969101823109 0 -6.86493722182317e-05 -0.0032276158285158012 0 -6.3865326938083606e-05 -0.0032341606931379917 0 -3.6655790658499603e-05 -0.0032650969101823109 0 -6.86493722182317e-05 -0.0032276158285158012 0 -3.6655790658499603e-05 -0.0032650969101823109 0 -2.2518025349132607e-05 -0.0032943810982861096 0 -0.00010162599849468689 -0.0031759402387838776 0 -6.86493722182317e-05 -0.0032276158285158012 0 -2.2518025349132607e-05 -0.0032943810982861096 0 1.0479291239839195e-05 -0.0033137411773354604 0 -3.6655790658499603e-05 -0.0032650969101823109 0 -2.2518025349132607e-05 -0.0032943810982861096 0 0.00015425827384180007 -0.0034368400136545289 0 0.00027909200707748491 -0.0034439313603102542 0 0.00022530261072047276 -0.0034898806433089863 0 0.00022530261072047276 -0.0034898806433089863 0 0.00024859500615876843 -0.00353471438535315 0 0.00027646590082904801 -0.0033592491714978996 0 0.00027909200707748491 -0.0034439313603102542 0 0.00022530261072047276 -0.0034898806433089863 0 0.00027646590082904801 -0.0033592491714978996 0 0.00028332018796730745 -0.0035344182122805587 0 0.00022530261072047276 -0.0034898806433089863 0 0.00024859500615876843 -0.00353471438535315 0 0.00022016421413070282 -0.0032401336094807992 0 0.00022177741794342161 -0.0032636635480253521 0 0.00024402439242759692 -0.0032687799995406116 0 0.00022177741794342161 -0.0032636635480253521 0 0.00027646590082904801 -0.0033592491714978996 0 0.00024402439242759692 -0.0032687799995406116 0 0.00025642705356551589 -0.0033840229261358885 0 0.00028129342059760704 -0.0033642668998404026 0 0.00027646590082904801 -0.0033592491714978996 0 0.00024402439242759692 -0.0032687799995406116 0 0.00031326242468489768 -0.0032757123892661897 0 0.00024402439242759692 -0.0032687799995406116 0 0.00030788957278666916 -0.0032129865357704559 0 0.00031326242468489768 -0.0032757123892661897 0 0.00024402439242759692 -0.0032687799995406116 0 0.00023469607156024162 -0.00322105844965297 0 0.00030788957278666916 -0.0032129865357704559 0 0.00022016421413070282 -0.0032401336094807992 0 0.00024402439242759692 -0.0032687799995406116 0 0.00023469607156024162 -0.00322105844965297 0 0.00023469607156024162 -0.00322105844965297 0 0.00030788957278666916 -0.0032129865357704559 0 0.00025700432385252804 -0.0031491026070251645 0 0.00019944308716200536 -0.0031881455633516343 0 0.00023469607156024162 -0.00322105844965297 0 0.00025700432385252804 -0.0031491026070251645 0 0.00030788957278666916 -0.0032129865357704559 0 0.00025700432385252804 -0.0031491026070251645 0 0.00034038356877920015 -0.0031085030795721734 0 0.00030788957278666916 -0.0032129865357704559 0 0.00037608769211540524 -0.0031845788222613896 0 0.00034038356877920015 -0.0031085030795721734 0 0.00037732667230103015 -0.0033208012833393255 0 0.00036534017305037332 -0.0032459978817015091 0 0.00043250761747159935 -0.0032275536393618978 0 0.00030788957278666916 -0.0032129865357704559 0 0.00037608769211540524 -0.0031845788222613896 0 0.00036534017305037332 -0.0032459978817015091 0 0.00030788957278666916 -0.0032129865357704559 0 0.00036534017305037332 -0.0032459978817015091 0 0.00031326242468489768 -0.0032757123892661897 0 0.00037608769211540524 -0.0031845788222613896 0 0.00036534017305037332 -0.0032459978817015091 0 0.00043250761747159935 -0.0032275536393618978 0 0.00037732667230103015 -0.0033208012833393255 0 0.00036534017305037332 -0.0032459978817015091 0 0.00031326242468489768 -0.0032757123892661897 0 -0.00010162599849468689 -0.0031759402387838776 0 -0.00015755402971544377 -0.003145499636838296 0 -0.000146036256511368 -0.0031895530895552819 0 0.00016438936403108588 -0.0032394739120308706 0 -0.00015400396793897831 -0.0031542151052726219 0 -0.00017500032626932552 -0.0031169254030052737 0 -0.00015400396793897831 -0.0031542151052726219 0 -0.00018268309775823299 -0.0030560933773211688 0 -0.00015755402971544377 -0.003145499636838296 0 -0.00026219008909108085 -0.0030194245343875153 0 -0.00018268309775823299 -0.0030560933773211688 0 -0.00021839486729713812 -0.0029766754692500258 0 -0.00026219008909108085 -0.0030194245343875153 0 -0.00015400396793897831 -0.0031542151052726219 0 -8.9505038916736496e-05 -0.0030515828202612233 0 -0.0003476536441669765 -0.0029589288938614996 0 -0.00015400396793897831 -0.0031542151052726219 0 -0.00025793895074570117 -0.0028910532390176063 0 -0.00021839486729713812 -0.0029766754692500258 0 -0.00026219008909108085 -0.0030194245343875153 0 0.00037608769211540524 -0.0031845788222613896 0 0.00043250761747159935 -0.0032275536393618978 0 0.00041892473294327995 -0.0031193992834351678 0 -0.00040521117478484279 -0.0030158766843559723 0 -0.00053685224465746452 -0.0032511165713012581 0 -0.00062239165437913792 -0.0029385533989645207 0 -0.00062239165437913792 -0.0029385533989645207 0 -0.00048073055204568695 -0.0027811658697200945 0 -0.00072460068438316184 -0.002626276338344989 0 -0.00040521117478484279 -0.0030158766843559723 0 -0.00062239165437913792 -0.0029385533989645207 0 -0.00048073055204568695 -0.0027811658697200945 0 -8.9505038916736496e-05 -0.0030515828202612233 0 -0.00015642948619663273 -0.0027833639469943576 0 0.00037608769211540524 -0.0031845788222613896 0 0.00041892473294327995 -0.0031193992834351678 0 0.00034038356877920015 -0.0031085030795721734 0 0.00041892473294327995 -0.0031193992834351678 0 0.00041374778430550732 -0.0029988522720186032 0 0.00034038356877920015 -0.0031085030795721734 0 0.00041374778430550732 -0.0029988522720186032 0 0.00034038356877920015 -0.0031085030795721734 0 0.00032803059014299289 -0.0029940448812388817 0 -0.00041364410635415401 -0.0025873440003085619 0 -0.00048073055204568695 -0.0027811658697200945 0 -0.00072460068438316184 -0.002626276338344989 0 0.00019585420951225604 -0.0030716291499623097 0 0.00025700432385252804 -0.0031491026070251645 0 0.00026665516643478401 -0.0030489985581395296 0 0.00019585420951225604 -0.0030716291499623097 0 0.00019944308716200536 -0.0031881455633516343 0 0.00025700432385252804 -0.0031491026070251645 0 0.00025700432385252804 -0.0031491026070251645 0 0.00034038356877920015 -0.0031085030795721734 0 0.00026665516643478401 -0.0030489985581395296 0 0.00034038356877920015 -0.0031085030795721734 0 0.00032803059014299289 -0.0029940448812388817 0 0.00026665516643478401 -0.0030489985581395296 0 0.00032803059014299289 -0.0029940448812388817 0 0.00026665516643478401 -0.0030489985581395296 0 0.00026705181983779599 -0.0029665365293981821 0 0.00020097565920054099 -0.0029667542565736762 0 0.00019585420951225604 -0.0030716291499623097 0 0.00026665516643478401 -0.0030489985581395296 0 0.00020097565920054099 -0.0029667542565736762 0 0.00026665516643478401 -0.0030489985581395296 0 0.00026705181983779599 -0.0029665365293981821 0 0.00020283416005637147 -0.002859147399125319 0 0.00023550267390775418 -0.0029110714392068756 0 0.00026504904379753488 -0.0028629499501831072 0 0.00020283416005637147 -0.002859147399125319 0 0.00019253740504960622 -0.0028944315694768249 0 0.00023550267390775418 -0.0029110714392068756 0 0.00020097565920054099 -0.0029667542565736762 0 0.00019253740504960622 -0.0028944315694768249 0 0.00023550267390775418 -0.0029110714392068756 0 0.00020097565920054099 -0.0029667542565736762 0 0.00023550267390775418 -0.0029110714392068756 0 0.00026705181983779599 -0.0029665365293981821 0 0.00023550267390775418 -0.0029110714392068756 0 0.00026705181983779599 -0.0029665365293981821 0 0.00029674817108130234 -0.0029106831494675129 0 0.00023550267390775418 -0.0029110714392068756 0 0.00029674817108130234 -0.0029106831494675129 0 0.00026504904379753488 -0.0028629499501831072 0 0.00032803059014299289 -0.0029940448812388817 0 0.00026705181983779599 -0.0029665365293981821 0 0.00029674817108130234 -0.0029106831494675129 0 0.00032803059014299289 -0.0029940448812388817 0 0.00029674817108130234 -0.0029106831494675129 0 0.00035373584151285467 -0.0029225081345252367 0 0.00029674817108130234 -0.0029106831494675129 0 0.00035373584151285467 -0.0029225081345252367 0 0.00032483059475537371 -0.0028431418294908436 0 0.00032483059475537371 -0.0028431418294908436 0 0.00026867934005313682 -0.0027900304741842194 0 0.00037415476537620737 -0.002712016508317584 0 0.00032483059475537371 -0.0028431418294908436 0 0.0004013298369630443 -0.0028608181449083655 0 0.00037415476537620737 -0.002712016508317584 0 0.00035373584151285467 -0.0029225081345252367 0 0.00032483059475537371 -0.0028431418294908436 0 0.0004013298369630443 -0.0028608181449083655 0 0.00032483059475537371 -0.0028431418294908436 0 0.00026504904379753488 -0.0028629499501831072 0 0.00026867934005313682 -0.0027900304741842194 0 0.00029674817108130234 -0.0029106831494675129 0 0.00032483059475537371 -0.0028431418294908436 0 0.00026504904379753488 -0.0028629499501831072 0 0.00068489281944477363 -0.0019389808301361656 0 0.00047316695437845459 -0.0021192198755229886 0 0.00020283416005637147 -0.002859147399125319 0 0.00018026564259893146 -0.0028565694665359676 0 0.00026867934005313682 -0.0027900304741842194 0 0.00020283416005637147 -0.002859147399125319 0 0.00026504904379753488 -0.0028629499501831072 0 0.00026867934005313682 -0.0027900304741842194 0 -0.00041364410635415401 -0.0025873440003085619 0 -0.00072460068438316184 -0.002626276338344989 0 -0.00053104124437940593 -0.0023701177437226322 0 -0.00072460068438316184 -0.002626276338344989 0 -0.00053104124437940593 -0.0023701177437226322 0 -0.00087253188341884801 -0.002265685664900337 0 0.00041374778430550732 -0.0029988522720186032 0 0.00032803059014299289 -0.0029940448812388817 0 0.00035373584151285467 -0.0029225081345252367 0 -0.00015642948619663273 -0.0027833639469943576 0 -0.00030499007192564398 -0.0026705642367555187 0 0.00041374778430550732 -0.0029988522720186032 0 0.00035373584151285467 -0.0029225081345252367 0 0.0004013298369630443 -0.0028608181449083655 0 -0.00030499007192564398 -0.0026705642367555187 0 0.00047901676318111956 -0.0014740130533529806 0 -0.00087253188341884801 -0.002265685664900337 0 -0.00060544447893074002 -0.002024701357167257 0 -0.0011173742246958997 -0.0016039544057988456 0 -0.00033276536830601991 -0.0021995412708565882 0 -0.00053104124437940593 -0.0023701177437226322 0 -0.00060544447893074002 -0.002024701357167257 0 -0.00053104124437940593 -0.0023701177437226322 0 -0.00087253188341884801 -0.002265685664900337 0 -0.00060544447893074002 -0.002024701357167257 0 -0.00058363249546759127 -0.0020031137557592728 0 0.00017365791890889951 -0.0018099147304765082 0 -0.00060544447893074002 -0.002024701357167257 0 -0.00019697191936035048 -0.0015437278796214618 0 0.000523308198671918 -0.0015894757441519602 0 -0.00019697191936035048 -0.0015437278796214618 0 -0.00036776672475731379 -0.0012058515051496426 0 0.00013092954283179398 -0.0013166136575238996 0 -0.00019697191936035048 -0.0015437278796214618 0 -0.00063210647543451707 -0.0015892665219781838 0 -0.00036776672475731379 -0.0012058515051496426 0 -0.00060544447893074002 -0.002024701357167257 0 -0.00019697191936035048 -0.0015437278796214618 0 -0.00063210647543451707 -0.0015892665219781838 0 -0.00060544447893074002 -0.002024701357167257 0 -0.0011173742246958997 -0.0016039544057988456 0 -0.0010120660498489247 -0.0015230540948422463 0 -0.0010120660498489247 -0.0015230540948422463 0 -0.00063210647543451707 -0.0015892665219781838 0 -0.00036776672475731379 -0.0012058515051496426 0 -0.00060544447893074002 -0.002024701357167257 0 -0.0010120660498489247 -0.0015230540948422463 0 -0.00063210647543451707 -0.0015892665219781838 0 0.00047901676318111956 -0.0014740130533529806 0 0.00035358144046057627 -0.0010634129567590911 0 0.0010999110648642271 -0.00034289726586479317 0 0.001112418509596392 -0.0003673077391176179 0 0.0011168295579279904 -0.00032876616066166591 0 0.0011128949618563391 -0.00032596067620370873 0 0.0010999110648642271 -0.00034289726586479317 0 0.0011168295579279904 -0.00032876616066166591 0 0.00035358144046057627 -0.0010634129567590911 0 0.0010477567003647772 -0.00046476376237762943 0 0.00058919413792210497 -0.00078546777042376979 0 0.00082422709848886167 -0.00062977833151253845 0 0.00086694019509081651 -0.00066640586273345077 0 0.0010999110648642271 -0.00034289726586479317 0 0.0010927143458027676 -0.00039553745563118681 0 0.0010488407238595681 -0.000438051747708856 0 0.0010927143458027676 -0.00039553745563118681 0 0.0010876167464414805 -0.00043090396648973292 0 0.0010488407238595681 -0.000438051747708856 0 0.00035358144046057627 -0.0010634129567590911 0 0.00014823954533740716 -0.00097024612954771296 0 0.0010927143458027676 -0.00039553745563118681 0 0.0011231416539218162 -0.00040956085182279937 0 0.0010876167464414805 -0.00043090396648973292 0 0.001112418509596392 -0.0003673077391176179 0 0.0010927143458027676 -0.00039553745563118681 0 0.0011231416539218162 -0.00040956085182279937 0 0.0010999110648642271 -0.00034289726586479317 0 0.001112418509596392 -0.0003673077391176179 0 0.0010927143458027676 -0.00039553745563118681 0 0.0011231416539218162 -0.00040956085182279937 0 0.0011150441273222696 -0.00047129228984674529 0 0.0010876167464414805 -0.00043090396648973292 0 0.0010876167464414805 -0.00043090396648973292 0 0.0010777342712776797 -0.00047523201060398901 0 0.0010488407238595681 -0.000438051747708856 0 0.0011150441273222696 -0.00047129228984674529 0 0.0010876167464414805 -0.00043090396648973292 0 0.0010777342712776797 -0.00047523201060398901 0 0.0010550728280152525 -0.0004720984216695889 0 0.0010488407238595681 -0.000438051747708856 0 0.0010398281883831138 -0.0004964124153899489 0 0.00082422709848886167 -0.00062977833151253845 0 0.00086694019509081651 -0.00066640586273345077 0 0.0010049536499864042 -0.00053399119078459878 0 0.0010477567003647772 -0.00046476376237762943 0 0.00095874557839066923 -0.00054942497505662774 0 0.0010777342712776797 -0.00047523201060398901 0 0.0010550728280152525 -0.0004720984216695889 0 0.0010488407238595681 -0.000438051747708856 0 0.0010488407238595681 -0.000438051747708856 0 0.0010398281883831138 -0.0004964124153899489 0 0.0010049536499864042 -0.00053399119078459878 0 0.0014308857128228017 -0.00030827155624903668 0 0.0011213538035605595 -0.00072692092166709381 0 0.0013284358007543409 -0.00013645064771427624 0 0.0013621916063568927 -0.00027774918387952238 0 0.0015713597880015237 -0.00014737587067648123 0 0.0010731347715042109 -0.0012767101743726887 0 0.0007852178351429015 -0.0013020902192915724 0 0.00080232733230333527 -0.0013730569350145288 0 0.0016254370008113633 5.7358063919997837e-06 0 0.0013284358007543409 -0.00013645064771427624 0 0.0015713597880015237 -0.00014737587067648123 0 0.0013621916063568927 -0.00027774918387952238 0 0.0014684951265828085 -0.00037869284340395369 0 0.0015713597880015237 -0.00014737587067648123 0 0.0013284358007543409 -0.00013645064771427624 0 0.0013621916063568927 -0.00027774918387952238 0 0.0012192795308569458 -0.00031055713222954452 0 0.00047316695437845459 -0.0021192198755229886 0 0.00047901676318111956 -0.0014740130533529806 0 0.00047901676318111956 -0.0014740130533529806 0 0.0011213538035605595 -0.00072692092166709381 0 0.0011036978345932771 -0.00029423786055851923 0 0.0013284358007543409 -0.00013645064771427624 0 0.0012192795308569458 -0.00031055713222954452 0 0.0007852178351429015 -0.0013020902192915724 0 0.00052494459941284646 -0.0014556847694121413 0 0.00080232733230333527 -0.0013730569350145288 0 0.0011036978345932771 -0.00029423786055851923 0 0.0012192795308569458 -0.00031055713222954452 0 0.0011168295579279904 -0.00032876616066166591 0 0.0012192795308569458 -0.00031055713222954452 0 0.0011168295579279904 -0.00032876616066166591 0 0.0011534856000799713 -0.00036001479806891545 0 0.00047901676318111956 -0.0014740130533529806 0 0.00048334928581842687 -0.0012070570961897386 0 0.001112418509596392 -0.0003673077391176179 0 0.0011168295579279904 -0.00032876616066166591 0 0.0011534856000799713 -0.00036001479806891545 0 0.0011730499089757304 -0.00047361412430852655 0 0.0012637227305019431 -0.00040584968167485926 0 0.001236766999105492 -0.00061554939564781481 0 0.0011231416539218162 -0.00040956085182279937 0 0.0011534856000799713 -0.00036001479806891545 0 0.0011862747687025907 -0.00039259044878762355 0 0.001112418509596392 -0.0003673077391176179 0 0.0011231416539218162 -0.00040956085182279937 0 0.0011534856000799713 -0.00036001479806891545 0 0.0012192795308569458 -0.00031055713222954452 0 0.0011534856000799713 -0.00036001479806891545 0 0.0011862747687025907 -0.00039259044878762355 0 0.0011231416539218162 -0.00040956085182279937 0 0.0011862747687025907 -0.00039259044878762355 0 0.0011730499089757304 -0.00047361412430852655 0 0.0011231416539218162 -0.00040956085182279937 0 0.0011150441273222696 -0.00047129228984674529 0 0.0011730499089757304 -0.00047361412430852655 0 0.0011862747687025907 -0.00039259044878762355 0 0.0011730499089757304 -0.00047361412430852655 0 0.0012637227305019431 -0.00040584968167485926 0 0.0012192795308569458 -0.00031055713222954452 0 0.0011862747687025907 -0.00039259044878762355 0 0.0012637227305019431 -0.00040584968167485926 0 0.0012637227305019431 -0.00040584968167485926 0 0.0014684951265828085 -0.00037869284340395369 0 0.001236766999105492 -0.00061554939564781481 0 0.0013621916063568927 -0.00027774918387952238 0 0.0012192795308569458 -0.00031055713222954452 0 0.0012637227305019431 -0.00040584968167485926 0 0.0013621916063568927 -0.00027774918387952238 0 0.0012637227305019431 -0.00040584968167485926 0 0.0014684951265828085 -0.00037869284340395369 0 0.0012439981042181407 -0.00064374881889573397 0 0.0013471856273411292 -0.00077317510664752509 0 0.0014684951265828085 -0.00037869284340395369 0 0.001236766999105492 -0.00061554939564781481 0 0.0016613565968674419 -0.00058345621156971443 0 0.001236766999105492 -0.00061554939564781481 0 0.0011559352680619449 -0.00053041187358334266 0 0.0011605370232177716 -0.00054247368370884401 0 0.0011730499089757304 -0.00047361412430852655 0 0.001236766999105492 -0.00061554939564781481 0 0.0011559352680619449 -0.00053041187358334266 0 0.0011150441273222696 -0.00047129228984674529 0 0.0011730499089757304 -0.00047361412430852655 0 0.0011559352680619449 -0.00053041187358334266 0 0.001236766999105492 -0.00061554939564781481 0 0.0011925236509444628 -0.00056017013386826817 0 0.0011605370232177716 -0.00054247368370884401 0 0.0011925236509444628 -0.00056017013386826817 0 0.0011605370232177716 -0.00054247368370884401 0 0.0011811290502333348 -0.00052064666356000408 0 0.0011925236509444628 -0.00056017013386826817 0 0.0011194602806615791 -0.00053417605779295806 0 0.0011014671202777644 -0.00061593095018837654 0 0.001236766999105492 -0.00061554939564781481 0 0.0011925236509444628 -0.00056017013386826817 0 0.0011014671202777644 -0.00061593095018837654 0 0.0010604775600081475 -0.00051215965658776201 0 0.001109055728321645 -0.00051862801979733471 0 0.0011008938790249792 -0.00051679802730850231 0 0.0010604775600081475 -0.00051215965658776201 0 0.0010299327448902876 -0.00051967484678776461 0 0.0010381029315800431 -0.00051122290016028527 0 0.0010604775600081475 -0.00051215965658776201 0 0.0010398281883831138 -0.0004964124153899489 0 0.0010299327448902876 -0.00051967484678776461 0 0.0010398281883831138 -0.0004964124153899489 0 0.0010299327448902876 -0.00051967484678776461 0 0.0010049536499864042 -0.00053399119078459878 0 0.0010777342712776797 -0.00047523201060398901 0 0.0010550728280152525 -0.0004720984216695889 0 0.0010604775600081475 -0.00051215965658776201 0 0.0010550728280152525 -0.0004720984216695889 0 0.0010604775600081475 -0.00051215965658776201 0 0.0010398281883831138 -0.0004964124153899489 0 0.0010777342712776797 -0.00047523201060398901 0 0.0010604775600081475 -0.00051215965658776201 0 0.001109055728321645 -0.00051862801979733471 0 0.0011150441273222696 -0.00047129228984674529 0 0.0010777342712776797 -0.00047523201060398901 0 0.001109055728321645 -0.00051862801979733471 0 0.0011150441273222696 -0.00047129228984674529 0 0.0011559352680619449 -0.00053041187358334266 0 0.001109055728321645 -0.00051862801979733471 0 0.0011559352680619449 -0.00053041187358334266 0 0.001109055728321645 -0.00051862801979733471 0 0.0011605370232177716 -0.00054247368370884401 0 0.0011605370232177716 -0.00054247368370884401 0 0.0011008938790249792 -0.00051679802730850231 0 0.0011811290502333348 -0.00052064666356000408 0 0.001109055728321645 -0.00051862801979733471 0 0.0011605370232177716 -0.00054247368370884401 0 0.0011008938790249792 -0.00051679802730850231 0 0.0011008938790249792 -0.00051679802730850231 0 0.0010503625564363961 -0.00050355579409996389 0 0.0010381029315800431 -0.00051122290016028527 0 0.0010604775600081475 -0.00051215965658776201 0 0.0011008938790249792 -0.00051679802730850231 0 0.0010381029315800431 -0.00051122290016028527 0 0.0011008938790249792 -0.00051679802730850231 0 0.0010640070243822758 -0.00050789458724554673 0 0.0010503625564363961 -0.00050355579409996389 0 0.0011008938790249792 -0.00051679802730850231 0 0.0010640070243822758 -0.00050789458724554673 0 0.00114089993389168 -0.00050542439984176601 0 0.0010640070243822758 -0.00050789458724554673 0 0.0011064206981334175 -0.00055080594477447287 0 0.00096544123620086728 -0.00057714185607999323 0 0.0010640070243822758 -0.00050789458724554673 0 0.00114089993389168 -0.00050542439984176601 0 0.0011064206981334175 -0.00055080594477447287 0 0.00114089993389168 -0.00050542439984176601 0 0.0011811290502333348 -0.00052064666356000408 0 0.0012251842238089965 -0.00046965992840389758 0 0.00114089993389168 -0.00050542439984176601 0 0.0012251842238089965 -0.00046965992840389758 0 0.0011064206981334175 -0.00055080594477447287 0 0.0011008938790249792 -0.00051679802730850231 0 0.00114089993389168 -0.00050542439984176601 0 0.0011811290502333348 -0.00052064666356000408 0 0.0011811290502333348 -0.00052064666356000408 0 0.0011923778636846374 -0.0005099201980755105 0 0.0012251842238089965 -0.00046965992840389758 0 0.0011925236509444628 -0.00056017013386826817 0 0.0011811290502333348 -0.00052064666356000408 0 0.0011923778636846374 -0.0005099201980755105 0 0.0011923778636846374 -0.0005099201980755105 0 0.0012018565266166408 -0.00044201283759023473 0 0.0011194602806615791 -0.00053417605779295806 0 0.0011925236509444628 -0.00056017013386826817 0 0.0011923778636846374 -0.0005099201980755105 0 0.0011194602806615791 -0.00053417605779295806 0 0.0011923778636846374 -0.0005099201980755105 0 0.0012018565266166408 -0.00044201283759023473 0 0.0012251842238089965 -0.00046965992840389758 0 0.0013246077240611496 -0.00034970800836737738 0 0.0015525918777698656 -0.00030648690960681806 0 0.0012251842238089965 -0.00046965992840389758 0 0.0013180525390268855 -0.00034089847893232784 0 0.0011877554029733758 -0.00058960738349206853 0 0.0012018565266166408 -0.00044201283759023473 0 0.0012251842238089965 -0.00046965992840389758 0 0.0013180525390268855 -0.00034089847893232784 0 0.0012018565266166408 -0.00044201283759023473 0 0.0013180525390268855 -0.00034089847893232784 0 0.0010304550450803576 -0.00029980049220797904 0 0.0013180525390268855 -0.00034089847893232784 0 0.0015151712699465517 0.0001787335221296981 0 0.00091151773987886199 0.00015590384971227015 0 0.0013180525390268855 -0.00034089847893232784 0 0.0019812081458155484 -3.3010357487645915e-05 0 0.0015151712699465517 0.0001787335221296981 0 0.0019812081458155484 -3.3010357487645915e-05 0 0.0019473432917702796 0.00013368680635646773 0 0.0018388240916757676 0.00020380956780685573 0 0.0015525918777698656 -0.00030648690960681806 0 0.0014167633126751027 -0.00026894489078770588 0 0.0011877554029733758 -0.00058960738349206853 0 0.0011064206981334175 -0.00055080594477447287 0 0.001012926145264417 -0.000722581428296906 0 0.0011064206981334175 -0.00055080594477447287 0 0.001012926145264417 -0.000722581428296906 0 0.00096544123620086728 -0.00057714185607999323 0 0.0012251842238089965 -0.00046965992840389758 0 0.0011877554029733758 -0.00058960738349206853 0 0.0011064206981334175 -0.00055080594477447287 0 0.00074496145312801106 -0.00021760206342469684 0 0.00083276795765071046 -0.0001467115278917767 0 0.00083112379674784751 -0.00037025365329701492 0 0.00074496145312801106 -0.00021760206342469684 0 0.00065311234141826016 -0.00017256544700924102 0 0.00072205801893776957 -0.00010869408359726598 0 0.00074496145312801106 -0.00021760206342469684 0 0.00072205801893776957 -0.00010869408359726598 0 0.00083276795765071046 -0.0001467115278917767 0 0.00074496145312801106 -0.00021760206342469684 0 0.00069345268603415234 -0.00030742940230962047 0 0.00083112379674784751 -0.00037025365329701492 0 0.00074496145312801106 -0.00021760206342469684 0 0.00065311234141826016 -0.00017256544700924102 0 0.00069345268603415234 -0.00030742940230962047 0 0.00065311234141826016 -0.00017256544700924102 0 0.00069345268603415234 -0.00030742940230962047 0 0.00047135881120628174 -0.0001826319883165692 0 0.00065311234141826016 -0.00017256544700924102 0 0.00056937069188155002 -0.00010935124095819051 0 0.00047135881120628174 -0.0001826319883165692 0 0.00065311234141826016 -0.00017256544700924102 0 0.00056937069188155002 -0.00010935124095819051 0 0.00064489741932257088 -4.6041991944329595e-05 0 0.00057767765830578008 -4.1557086565883905e-05 0 0.00064489741932257088 -4.6041991944329595e-05 0 0.00054858900705973294 2.4609318393739295e-06 0 0.00056937069188155002 -0.00010935124095819051 0 0.00057767765830578008 -4.1557086565883905e-05 0 0.00054789598138207018 -1.4069430992458033e-05 0 0.00057767765830578008 -4.1557086565883905e-05 0 0.00054789598138207018 -1.4069430992458033e-05 0 0.00054858900705973294 2.4609318393739295e-06 0 0.00056937069188155002 -0.00010935124095819051 0 0.00057767765830578008 -4.1557086565883905e-05 0 0.00064489741932257088 -4.6041991944329595e-05 0 0.00072205801893776957 -0.00010869408359726598 0 0.00083276795765071046 -0.0001467115278917767 0 0.00072755313535883452 4.7269451258345426e-05 0 0.00064489741932257088 -4.6041991944329595e-05 0 0.00072205801893776957 -0.00010869408359726598 0 0.00072755313535883452 4.7269451258345426e-05 0 0.00065311234141826016 -0.00017256544700924102 0 0.00064489741932257088 -4.6041991944329595e-05 0 0.00072205801893776957 -0.00010869408359726598 0 0.00083276795765071046 -0.0001467115278917767 0 0.00091151773987886199 0.00015590384971227015 0 0.00072755313535883452 4.7269451258345426e-05 0 0.00083276795765071046 -0.0001467115278917767 0 0.0010304550450803576 -0.00029980049220797904 0 0.00091151773987886199 0.00015590384971227015 0 0.0013180525390268855 -0.00034089847893232784 0 0.0010304550450803576 -0.00029980049220797904 0 0.00091151773987886199 0.00015590384971227015 0 0.00083276795765071046 -0.0001467115278917767 0 0.0010304550450803576 -0.00029980049220797904 0 0.00083112379674784751 -0.00037025365329701492 0 0.0010312905767092047 -0.00044872230331095413 0 0.00093404992255680845 -0.00057950280635933073 0 0.00083112379674784751 -0.00037025365329701492 0 0.0010304550450803576 -0.00029980049220797904 0 0.0010312905767092047 -0.00044872230331095413 0 0.00083112379674784751 -0.00037025365329701492 0 0.0012018565266166408 -0.00044201283759023473 0 0.0010312905767092047 -0.00044872230331095413 0 0.0011194602806615791 -0.00053417605779295806 0 0.0012018565266166408 -0.00044201283759023473 0 0.0010304550450803576 -0.00029980049220797904 0 0.0010312905767092047 -0.00044872230331095413 0 0.0010312905767092047 -0.00044872230331095413 0 0.0011194602806615791 -0.00053417605779295806 0 0.00093404992255680845 -0.00057950280635933073 0 0.002008654538237023 -0.001248947232940976 0 0.0024437050724365988 -0.0012362510919913014 0 0.0024009884573563986 -0.0015071265672917569 0 0.00093404992255680845 -0.00057950280635933073 0 0.00074439208395455693 -0.0004731255850727464 0 0.00083112379674784751 -0.00037025365329701492 0 0.0014995043649856951 -0.00097826293810346679 0 0.0016096234569140924 -0.00039829196353680123 0 0.00070769451375735613 -0.00047081452517327006 0 0.00069345268603415234 -0.00030742940230962047 0 0.00063439912923244789 -0.00041536139442723333 0 0.00070769451375735613 -0.00047081452517327006 0 0.00069345268603415234 -0.00030742940230962047 0 0.00083112379674784751 -0.00037025365329701492 0 0.0016096234569140924 -0.00039829196353680123 0 0.00066945104408007818 -0.00054263533252483977 0 0.00069345268603415234 -0.00030742940230962047 0 0.00063439912923244789 -0.00041536139442723333 0 0.00047135881120628174 -0.0001826319883165692 0 0.0017715948903054594 8.6864451328770527e-05 0 0.0013682361677549882 -2.9481977892242626e-05 0 0.0023613509244055225 0.00032358281621182035 0 0.0024076940824308223 0.00030643957601856627 0 0.0024280651044368802 0.00027631352145860967 0 0.0017715948903054594 8.6864451328770527e-05 0 0.0024811808965705313 0.00022210620445001032 0 0.0023448372018142799 0.00033498674641050112 0 0.0023692772164732975 0.00032348511267628766 0 0.0023893399505287025 0.00033640907076071741 0 0.0016096234569140924 -0.00039829196353680123 0 0.0017715948903054594 8.6864451328770527e-05 0 0.0023692772164732975 0.00032348511267628766 0 0.0023893399505287025 0.00033640907076071741 0 0.0024076940824308223 0.00030643957601856627 0 0.0023448372018142799 0.00033498674641050112 0 0.0023893399505287025 0.00033640907076071741 0 0.0023961494734932942 0.00037985013451324748 0 0.0024437050724365988 -0.0012362510919913014 0 0.0024009884573563986 -0.0015071265672917569 0 0.0027262524465885211 -0.0012047043964292443 0 0.0016096234569140924 -0.00039829196353680123 0 0.0026135390835286764 -0.00039000050508344598 0 0.0027262524465885211 -0.0012047043964292443 0 0.0024182958124159353 -0.00096789805439582337 0 0.0028024056811584023 -0.00085226977290508131 0 0.0024437050724365988 -0.0012362510919913014 0 0.0027262524465885211 -0.0012047043964292443 0 0.0024182958124159353 -0.00096789805439582337 0 0.002008654538237023 -0.001248947232940976 0 0.0024437050724365988 -0.0012362510919913014 0 0.0024182958124159353 -0.00096789805439582337 0 0.0024182958124159353 -0.00096789805439582337 0 0.0023068274828903119 -0.00065753403146714994 0 0.0025428362443468936 -0.00076080258493603004 0 0.0024182958124159353 -0.00096789805439582337 0 0.0023068274828903119 -0.00065753403146714994 0 0.0020006582115217561 -0.00081634327795849539 0 0.0023068274828903119 -0.00065753403146714994 0 0.0025428362443468936 -0.00076080258493603004 0 0.0026423080389839575 -0.0005633236208902174 0 0.0024182958124159353 -0.00096789805439582337 0 0.0028024056811584023 -0.00085226977290508131 0 0.0025428362443468936 -0.00076080258493603004 0 0.0028024056811584023 -0.00085226977290508131 0 0.0025428362443468936 -0.00076080258493603004 0 0.0026423080389839575 -0.0005633236208902174 0 0.0011194602806615791 -0.00053417605779295806 0 0.00093404992255680845 -0.00057950280635933073 0 0.0011014671202777644 -0.00061593095018837654 0 0.0014995043649856951 -0.00097826293810346679 0 0.0013471856273411292 -0.00077317510664752509 0 0.002008654538237023 -0.001248947232940976 0 0.0024182958124159353 -0.00096789805439582337 0 0.0020006582115217561 -0.00081634327795849539 0 0.002008654538237023 -0.001248947232940976 0 0.0016137801113941096 -0.00096595278896408846 0 0.0020006582115217561 -0.00081634327795849539 0 0.0023068274828903119 -0.00065753403146714994 0 0.0020006582115217561 -0.00081634327795849539 0 0.0019793768149401637 -0.00048269498487221111 0 0.0020006582115217561 -0.00081634327795849539 0 0.0016613565968674419 -0.00058345621156971443 0 0.0019793768149401637 -0.00048269498487221111 0 0.0016137801113941096 -0.00096595278896408846 0 0.0020006582115217561 -0.00081634327795849539 0 0.0016613565968674419 -0.00058345621156971443 0 0.001236766999105492 -0.00061554939564781481 0 0.0016137801113941096 -0.00096595278896408846 0 0.0016613565968674419 -0.00058345621156971443 0 0.0014684951265828085 -0.00037869284340395369 0 0.0016613565968674419 -0.00058345621156971443 0 0.0017360668599633445 -0.00030858248871899844 0 0.0016613565968674419 -0.00058345621156971443 0 0.0017360668599633445 -0.00030858248871899844 0 0.0019793768149401637 -0.00048269498487221111 0 0.0017360668599633445 -0.00030858248871899844 0 0.0019793768149401637 -0.00048269498487221111 0 0.0019463391741117823 -0.00020858598525523242 0 0.0019793768149401637 -0.00048269498487221111 0 0.0019463391741117823 -0.00020858598525523242 0 0.002270320427141211 -0.00033149959626478941 0 0.0020903163829334099 7.614138229010843e-06 0 0.0019463391741117823 -0.00020858598525523242 0 0.002270320427141211 -0.00033149959626478941 0 0.0018773099532151559 -1.8993907766058276e-06 0 0.0019463391741117823 -0.00020858598525523242 0 0.0017557305076276511 -0.00013953233056504964 0 0.0020903163829334099 7.614138229010843e-06 0 0.0018773099532151559 -1.8993907766058276e-06 0 0.0019463391741117823 -0.00020858598525523242 0 0.0017360668599633445 -0.00030858248871899844 0 0.0019463391741117823 -0.00020858598525523242 0 0.0017557305076276511 -0.00013953233056504964 0 0.0017360668599633445 -0.00030858248871899844 0 0.0017557305076276511 -0.00013953233056504964 0 0.0015713597880015237 -0.00014737587067648123 0 0.0016478964712418685 8.5707554168583619e-05 0 0.0017557305076276511 -0.00013953233056504964 0 0.0015713597880015237 -0.00014737587067648123 0 0.0016478964712418685 8.5707554168583619e-05 0 0.0018773099532151559 -1.8993907766058276e-06 0 0.0017557305076276511 -0.00013953233056504964 0 0.0014308857128228017 -0.00030827155624903668 0 0.0015824046768247351 -3.7430038444325332e-05 0 0.0014684951265828085 -0.00037869284340395369 0 0.0017360668599633445 -0.00030858248871899844 0 0.0015713597880015237 -0.00014737587067648123 0 0.0025863710882866411 -0.00028451026907047919 0 0.0026423080389839575 -0.0005633236208902174 0 0.002270320427141211 -0.00033149959626478941 0 0.0025863710882866411 -0.00028451026907047919 0 0.0026423080389839575 -0.0005633236208902174 0 0.0029134467809720428 -0.00034640780716493734 0 0.0023068274828903119 -0.00065753403146714994 0 0.0026423080389839575 -0.0005633236208902174 0 0.002270320427141211 -0.00033149959626478941 0 0.0023068274828903119 -0.00065753403146714994 0 0.0019793768149401637 -0.00048269498487221111 0 0.002270320427141211 -0.00033149959626478941 0 0.0025863710882866411 -0.00028451026907047919 0 0.002270320427141211 -0.00033149959626478941 0 0.0024075476954432272 -0.00010502124776963822 0 0.0020903163829334099 7.614138229010843e-06 0 0.002270320427141211 -0.00033149959626478941 0 0.0024075476954432272 -0.00010502124776963822 0 0.0022853298890542994 8.5173517450926446e-05 0 0.0020903163829334099 7.614138229010843e-06 0 0.0024075476954432272 -0.00010502124776963822 0 0.0024462673384111509 -0.0002219846347128432 0 0.0024744830652886213 6.2727208840924044e-05 0 0.0025466243708419929 0.00023789350545160319 0 0.0024075476954432272 -0.00010502124776963822 0 0.0027048891754299399 -6.9555824133997598e-05 0 0.0025863710882866411 -0.00028451026907047919 0 0.0024075476954432272 -0.00010502124776963822 0 0.0027048891754299399 -6.9555824133997598e-05 0 0.0025863710882866411 -0.00028451026907047919 0 0.0027048891754299399 -6.9555824133997598e-05 0 0.0029134467809720428 -0.00034640780716493734 0 0.0030273822173227873 0.00017127437646936538 0 0.0029134467809720428 -0.00034640780716493734 0 0.0033020978804521668 -0.00025748927529973902 0 0.0030273822173227873 0.00017127437646936538 0 0.0027048891754299399 -6.9555824133997598e-05 0 0.0029134467809720428 -0.00034640780716493734 0 0.0029134467809720428 -0.00034640780716493734 0 0.0033020978804521668 -0.00025748927529973902 0 0.0030217664302252746 -0.00062399667554300623 0 0.0026423080389839575 -0.0005633236208902174 0 0.0029134467809720428 -0.00034640780716493734 0 0.0030217664302252746 -0.00062399667554300623 0 0.0033020978804521668 -0.00025748927529973902 0 0.0030217664302252746 -0.00062399667554300623 0 0.0034364162251589976 -0.00058732956048695832 0 0.0033020978804521668 -0.00025748927529973902 0 0.003749976014538507 -0.00025030189197231814 0 0.0034364162251589976 -0.00058732956048695832 0 0.0035128721466612793 6.3200737189526631e-05 0 0.0033020978804521668 -0.00025748927529973902 0 0.003749976014538507 -0.00025030189197231814 0 0.0035128721466612793 6.3200737189526631e-05 0 0.0030273822173227873 0.00017127437646936538 0 0.0033020978804521668 -0.00025748927529973902 0 0.0037430087083092727 0.00015433928929130407 0 0.0035128721466612793 6.3200737189526631e-05 0 0.003749976014538507 -0.00025030189197231814 0 0.0039924316949746623 2.5155341929727217e-05 0 0.0037430087083092727 0.00015433928929130407 0 0.003749976014538507 -0.00025030189197231814 0 0.0039986931982508023 1.6920840160804582e-05 0 0.0039062766705885831 -0.00010391176483046022 0 0.0039924316949746623 2.5155341929727217e-05 0 0.004095241308844531 5.2011184701461198e-05 0 0.0040522752396780068 3.9020219779081106e-05 0 0.004095241308844531 5.2011184701461198e-05 0 0.0040914495971809337 6.2341704601574384e-05 0 0.0041082929002790435 7.026721903267627e-05 0 0.004095241308844531 5.2011184701461198e-05 0 0.0040522752396780068 3.9020219779081106e-05 0 0.0040914495971809337 6.2341704601574384e-05 0 0.004095241308844531 5.2011184701461198e-05 0 0.0041082929002790435 7.026721903267627e-05 0 0.0040770502277539646 7.2980630103942516e-05 0 0.0039062766705885831 -0.00010391176483046022 0 0.0038175360494368659 -0.00023808333096159327 0 0.0041020982330351296 -4.8624917901061814e-05 0 0.0036675219415742799 0.00046244684672430068 0 0.0041082929002790435 7.026721903267627e-05 0 0.0040614464344864111 2.7918317618282884e-05 0 0.0040770502277539646 7.2980630103942516e-05 0 0.0040914495971809337 6.2341704601574384e-05 0 0.0041147322155466563 7.6178612402264385e-05 0 0.004135727172765411 8.0709035010372384e-05 0 0.0040914495971809337 6.2341704601574384e-05 0 0.0041082929002790435 7.026721903267627e-05 0 0.0041147322155466563 7.6178612402264385e-05 0 0.0041082929002790435 7.026721903267627e-05 0 0.0041147322155466563 7.6178612402264385e-05 0 0.0041277941546192468 9.1083909221541503e-05 0 0.0041147322155466563 7.6178612402264385e-05 0 0.0041277941546192468 9.1083909221541503e-05 0 0.0041399958732231375 9.9678858614797835e-05 0 0.0036675219415742799 0.00046244684672430068 0 0.0039305999985932948 0.00060510097531590434 0 0.0041277941546192468 9.1083909221541503e-05 0 0.004122482533718959 8.7604700883508319e-05 0 0.0041501519127972314 0.00012893348564505495 0 0.0041082929002790435 7.026721903267627e-05 0 0.0040992086363041439 2.2383570528615947e-05 0 0.0040614464344864111 2.7918317618282884e-05 0 0.0041082929002790435 7.026721903267627e-05 0 0.0041277941546192468 9.1083909221541503e-05 0 0.004122482533718959 8.7604700883508319e-05 0 0.0036675219415742799 0.00046244684672430068 0 0.0032316420909985059 0.00021989306856717245 0 0.0025372547832812832 0.00040510098028176845 0 0.0024913712905406172 0.00041448371551456724 0 0.0024902929996102811 0.00037946878618725201 0 0.0024913712905406172 0.00041448371551456724 0 0.0024578506868955501 0.00038916092993030024 0 0.0024467244834932345 0.00042271328370255636 0 0.0032316420909985059 0.00021989306856717245 0 0.0030806116401200477 -0.00039031102700435867 0 0.0024913712905406172 0.00041448371551456724 0 0.0024578506868955501 0.00038916092993030024 0 0.0024902929996102811 0.00037946878618725201 0 0.0023961494734932942 0.00037985013451324748 0 0.0024578506868955501 0.00038916092993030024 0 0.0024467244834932345 0.00042271328370255636 0 0.0027262524465885211 -0.0012047043964292443 0 0.0028024056811584023 -0.00085226977290508131 0 0.0030379045981847068 -0.00090985000957927566 0 0.0026135390835286764 -0.00039000050508344598 0 0.0030806116401200477 -0.00039031102700435867 0 0.0028024056811584023 -0.00085226977290508131 0 0.0026423080389839575 -0.0005633236208902174 0 0.0030217664302252746 -0.00062399667554300623 0 0.0029068690065166586 -0.00075039889549383197 0 0.0030806116401200477 -0.00039031102700435867 0 0.0028024056811584023 -0.00085226977290508131 0 0.0030767375429899867 -0.00092899672222731611 0 0.0030217664302252746 -0.00062399667554300623 0 0.0030806116401200477 -0.00039031102700435867 0 0.0038175360494368659 -0.00023808333096159327 0 0.0030767375429899867 -0.00092899672222731611 0 0.0030217664302252746 -0.00062399667554300623 0 0.0034364162251589976 -0.00058732956048695832 0 0.0040614464344864111 2.7918317618282884e-05 0 0.0040129096117747414 3.3660033562647425e-05 0 0.0040770502277539646 7.2980630103942516e-05 0 0.0040694621937413739 -6.2427572177863795e-05 0 0.0038887232293716885 -0.00015361860425251476 0 0.0040206583490484627 3.6286380599361046e-05 0 0.0040694621937413739 -6.2427572177863795e-05 0 0.0041260453411963134 2.6605758324332734e-05 0 0.0040206583490484627 3.6286380599361046e-05 0 0.0040869556570048557 -0.00030656916829180814 0 0.0040694621937413739 -6.2427572177863795e-05 0 0.0038887232293716885 -0.00015361860425251476 0 0.0043222057086525142 -0.00018793652416994219 0 0.0042472243935872869 -3.0128669334753218e-05 0 0.0040869556570048557 -0.00030656916829180814 0 0.0040694621937413739 -6.2427572177863795e-05 0 0.0042275780384468551 -2.6680663577885435e-05 0 0.0042275780384468551 -2.6680663577885435e-05 0 0.0041260453411963134 2.6605758324332734e-05 0 0.0041781141830019766 3.2893734057286268e-05 0 0.0040694621937413739 -6.2427572177863795e-05 0 0.0042275780384468551 -2.6680663577885435e-05 0 0.0041260453411963134 2.6605758324332734e-05 0 0.0041781141830019766 3.2893734057286268e-05 0 0.0041581972565009496 1.3993187514520953e-05 0 0.0041616572845281996 6.0801612994174663e-05 0 0.0042275780384468551 -2.6680663577885435e-05 0 0.0041781141830019766 3.2893734057286268e-05 0 0.0041581972565009496 1.3993187514520953e-05 0 0.0042588875995845325 0.00013214874669902361 0 0.0042275780384468551 -2.6680663577885435e-05 0 0.0041855392876526112 4.8895844047502998e-05 0 0.0042275780384468551 -2.6680663577885435e-05 0 0.0041855392876526112 4.8895844047502998e-05 0 0.0041581972565009496 1.3993187514520953e-05 0 0.0040715827179784664 0.00012495585963920652 0 0.0039924316949746623 2.5155341929727217e-05 0 0.0040462371455817908 2.1112886234784547e-05 0 0.0040935820550883524 0.00013713513269243162 0 0.0041036397671972572 2.0912927439257258e-05 0 0.0041145645140430566 0.00012980809987830094 0 0.0041855392876526112 4.8895844047502998e-05 0 0.0041581972565009496 1.3993187514520953e-05 0 0.0039924316949746623 2.5155341929727217e-05 0 0.0040522752396780068 3.9020219779081106e-05 0 0.0040462371455817908 2.1112886234784547e-05 0 0.0041581972565009496 1.3993187514520953e-05 0 0.004135727172765411 8.0709035010372384e-05 0 0.0041616572845281996 6.0801612994174663e-05 0 0.0041036397671972572 2.0912927439257258e-05 0 0.0041295732713464133 6.9043459435085024e-05 0 0.0040522752396780068 3.9020219779081106e-05 0 0.0040914495971809337 6.2341704601574384e-05 0 0.0040462371455817908 2.1112886234784547e-05 0 0.0040914495971809337 6.2341704601574384e-05 0 0.0040462371455817908 2.1112886234784547e-05 0 0.004135727172765411 8.0709035010372384e-05 0 0.004135727172765411 8.0709035010372384e-05 0 0.004148026613330867 0.00010312343619772526 0 0.0041616572845281996 6.0801612994174663e-05 0 0.004135727172765411 8.0709035010372384e-05 0 0.0041399958732231375 9.9678858614797835e-05 0 0.004148026613330867 0.00010312343619772526 0 0.0041147322155466563 7.6178612402264385e-05 0 0.004135727172765411 8.0709035010372384e-05 0 0.0041399958732231375 9.9678858614797835e-05 0 0.0041277941546192468 9.1083909221541503e-05 0 0.0041399958732231375 9.9678858614797835e-05 0 0.0041501519127972314 0.00012893348564505495 0 0.0041399958732231375 9.9678858614797835e-05 0 0.0041501519127972314 0.00012893348564505495 0 0.004148026613330867 0.00010312343619772526 0 0.004148026613330867 0.00010312343619772526 0 0.0040641615421770638 0.00018801014548983533 0 0.0041040115221399236 0.00026102536794036434 0 0.004150506626837875 0.00011084979810013497 0 0.0041023451744271527 0.00015028747214526899 0 0.0041501519127972314 0.00012893348564505495 0 0.004148026613330867 0.00010312343619772526 0 0.0041040115221399236 0.00026102536794036434 0 0.004148026613330867 0.00010312343619772526 0 0.0041616572845281996 6.0801612994174663e-05 0 0.0041398038092834693 0.00011402897072743409 0 0.0041781141830019766 3.2893734057286268e-05 0 0.0041616572845281996 6.0801612994174663e-05 0 0.0041398038092834693 0.00011402897072743409 0 0.0041260453411963134 2.6605758324332734e-05 0 0.0041781141830019766 3.2893734057286268e-05 0 0.0041398038092834693 0.00011402897072743409 0 0.0041023451744271527 0.00015028747214526899 0 0.0039262146901907135 0.00019819007088799746 0 0.0040641615421770638 0.00018801014548983533 0 0.0039068694151015316 0.00022999764138344106 0 0.0039157339729695611 0.00035005826378666974 0 0.0041398038092834693 0.00011402897072743409 0 0.0040206583490484627 3.6286380599361046e-05 0 0.0039628056669356072 0.00017160680019799948 0 0.0041260453411963134 2.6605758324332734e-05 0 0.0041398038092834693 0.00011402897072743409 0 0.0040206583490484627 3.6286380599361046e-05 0 0.0036429924383168583 0.0010398141610757328 0 0.0036388488458880632 0.0010624030447829577 0 0.0036416681307258666 0.0010515718233118341 0 0.0040641615421770638 0.00018801014548983533 0 0.00399301107747868 0.0004017219668572161 0 0.0039157339729695611 0.00035005826378666974 0 0.0038141579933706682 0.00072208747791696723 0 0.0038545784084774671 0.000659528161689099 0 0.0040641615421770638 0.00018801014548983533 0 0.00399301107747868 0.0004017219668572161 0 0.0041040115221399236 0.00026102536794036434 0 0.0036429924383168583 0.0010398141610757328 0 0.0036365164976328995 0.0010579880918003247 0 0.0036388488458880632 0.0010624030447829577 0 0.0036365164976328995 0.0010579880918003247 0 0.0036388488458880632 0.0010624030447829577 0 0.0036318035664556266 0.0010662094291995427 0 0.0036365164976328995 0.0010579880918003247 0 0.0036318035664556266 0.0010662094291995427 0 0.0036320629457565535 0.00106146569260831 0 0.0036316063943786269 0.0010559329421904458 0 0.0036365164976328995 0.0010579880918003247 0 0.0036320629457565535 0.00106146569260831 0 0.0039305999985932948 0.00060510097531590434 0 0.0038545784084774671 0.000659528161689099 0 0.0036316063943786269 0.0010559329421904458 0 0.0036320629457565535 0.00106146569260831 0 0.0036287330784357304 0.0010660860765283702 0 0.0036318035664556266 0.0010662094291995427 0 0.0036320629457565535 0.00106146569260831 0 0.0036287330784357304 0.0010660860765283702 0 0.0036318035664556266 0.0010662094291995427 0 0.0036287330784357304 0.0010660860765283702 0 0.003627614686996395 0.0010796103631010036 0 0.0036287330784357304 0.0010660860765283702 0 0.003627614686996395 0.0010796103631010036 0 0.0036213007037321793 0.0010814667285174264 0 0.0036213007037321793 0.0010814667285174264 0 0.0036121175624313582 0.0010970435521872888 0 0.0036159805243005699 0.001095644541333943 0 0.003627614686996395 0.0010796103631010036 0 0.0036213007037321793 0.0010814667285174264 0 0.0036159805243005699 0.001095644541333943 0 0.003627614686996395 0.0010796103631010036 0 0.0036268171996206352 0.0010967451147614212 0 0.0036159805243005699 0.001095644541333943 0 0.003627614686996395 0.0010796103631010036 0 0.0036338703735234274 0.0010847277240257967 0 0.0036268171996206352 0.0010967451147614212 0 0.0036388488458880632 0.0010624030447829577 0 0.003627614686996395 0.0010796103631010036 0 0.0036338703735234274 0.0010847277240257967 0 0.0036388488458880632 0.0010624030447829577 0 0.0036318035664556266 0.0010662094291995427 0 0.003627614686996395 0.0010796103631010036 0 0.0036388488458880632 0.0010624030447829577 0 0.0036338703735234274 0.0010847277240257967 0 0.0036417808566771822 0.0010814459192304059 0 0.0036338703735234274 0.0010847277240257967 0 0.0036417808566771822 0.0010814459192304059 0 0.0036384929560678305 0.0011001807917757611 0 0.0036338703735234274 0.0010847277240257967 0 0.0036384929560678305 0.0011001807917757611 0 0.0036268171996206352 0.0010967451147614212 0 0.0036417808566771822 0.0010814459192304059 0 0.0036384929560678305 0.0011001807917757611 0 0.0036414721672024222 0.0011071492600566962 0 0.0036417808566771822 0.0010814459192304059 0 0.0036414721672024222 0.0011071492600566962 0 0.0036416681307258666 0.0010515718233118341 0 0.0036388488458880632 0.0010624030447829577 0 0.0036417808566771822 0.0010814459192304059 0 0.0036416681307258666 0.0010515718233118341 0 0.0024607016966826335 0.00031057301626587268 0 0.0024484613388175468 0.00034934251276860334 0 0.002517472545459446 0.00034156718364646184 0 0.0024607016966826335 0.00031057301626587268 0 0.002517472545459446 0.00034156718364646184 0 0.0024984428809971611 0.00028596808570975396 0 0.0024607016966826335 0.00031057301626587268 0 0.0024076940824308223 0.00030643957601856627 0 0.0024484613388175468 0.00034934251276860334 0 0.0023893399505287025 0.00033640907076071741 0 0.0024076940824308223 0.00030643957601856627 0 0.0024484613388175468 0.00034934251276860334 0 0.0023893399505287025 0.00033640907076071741 0 0.0023961494734932942 0.00037985013451324748 0 0.0024484613388175468 0.00034934251276860334 0 0.0023961494734932942 0.00037985013451324748 0 0.0024578506868955501 0.00038916092993030024 0 0.0024484613388175468 0.00034934251276860334 0 0.0024578506868955501 0.00038916092993030024 0 0.0024484613388175468 0.00034934251276860334 0 0.0024902929996102811 0.00037946878618725201 0 0.0024484613388175468 0.00034934251276860334 0 0.0024902929996102811 0.00037946878618725201 0 0.002517472545459446 0.00034156718364646184 0 0.0036675219415742799 0.00046244684672430068 0 0.0030222943987775449 0.00075121817736382209 0 0.0036354537423842741 0.0010473402336797838 0 0.0036320058380471826 0.0010571646090683027 0 0.0036337544254789436 0.0010591074880959453 0 0.0025372547832812832 0.00040510098028176845 0 0.0024902929996102811 0.00037946878618725201 0 0.002517472545459446 0.00034156718364646184 0 0.0036354537423842741 0.0010473402336797838 0 0.0036316063943786269 0.0010559329421904458 0 0.0036320058380471826 0.0010571646090683027 0 0.0036316063943786269 0.0010559329421904458 0 0.0036287330784357304 0.0010660860765283702 0 0.0036320058380471826 0.0010571646090683027 0 0.0036287330784357304 0.0010660860765283702 0 0.0036320058380471826 0.0010571646090683027 0 0.0036289307559198309 0.00106769574181751 0 0.0036320058380471826 0.0010571646090683027 0 0.0036289307559198309 0.00106769574181751 0 0.0036337544254789436 0.0010591074880959453 0 0.0030222943987775449 0.00075121817736382209 0 0.0030807528143905662 0.00065437793505013588 0 0.0036289307559198309 0.00106769574181751 0 0.0036337544254789436 0.0010591074880959453 0 0.0036300579625723416 0.0010723113330372203 0 0.0036287330784357304 0.0010660860765283702 0 0.0036289307559198309 0.00106769574181751 0 0.0036213007037321793 0.0010814667285174264 0 0.0036289307559198309 0.00106769574181751 0 0.0036300579625723416 0.0010723113330372203 0 0.0036213007037321793 0.0010814667285174264 0 0.0036213007037321793 0.0010814667285174264 0 0.0036170069808653519 0.001094211153237783 0 0.0036121175624313582 0.0010970435521872888 0 0.0036300579625723416 0.0010723113330372203 0 0.0036213007037321793 0.0010814667285174264 0 0.0036170069808653519 0.001094211153237783 0 0.0024984428809971611 0.00028596808570975396 0 0.002474145560858009 0.00023957008671652343 0 0.0024852278683508938 0.00024088779219246745 0 0.0036300579625723416 0.0010723113330372203 0 0.0036251344231299611 0.0010917975202808445 0 0.0036170069808653519 0.001094211153237783 0 0.0030807528143905662 0.00065437793505013588 0 0.002918501131455514 0.00075324321609021344 0 0.0024984428809971611 0.00028596808570975396 0 0.0024280651044368802 0.00027631352145860967 0 0.002474145560858009 0.00023957008671652343 0 0.0013682361677549882 -2.9481977892242626e-05 0 0.0017305268675483708 0.00051441484172261135 0 0.0024607016966826335 0.00031057301626587268 0 0.0024984428809971611 0.00028596808570975396 0 0.0024280651044368802 0.00027631352145860967 0 0.0024607016966826335 0.00031057301626587268 0 0.0024076940824308223 0.00030643957601856627 0 0.0024280651044368802 0.00027631352145860967 0 0.00056937069188155002 -0.00010935124095819051 0 0.00047135881120628174 -0.0001826319883165692 0 0.00054789598138207018 -1.4069430992458033e-05 0 0.00047135881120628174 -0.0001826319883165692 0 0.00035461299905194845 -8.9078690640659469e-06 0 0.00054789598138207018 -1.4069430992458033e-05 0 0.0017305268675483708 0.00051441484172261135 0 0.0004361552143960148 0.00052119369048782391 0 0.0013729058471010549 0.0010104834167789349 0 0.0011806624997308442 0.0011405026620164734 0 0.0011498343326293956 0.00090899435247876958 0 0.0013729058471010549 0.0010104834167789349 0 0.0015746211931641138 0.0011577109732335245 0 0.0011806624997308442 0.0011405026620164734 0 0.00035461299905194845 -8.9078690640659469e-06 0 0.00054789598138207018 -1.4069430992458033e-05 0 0.00055019913031962664 6.8606165950487041e-07 0 0.001433665150836348 0.00084967461853843772 0 0.0013475642022535495 0.00068723468201387398 0 0.0011498343326293956 0.00090899435247876958 0 0.0013729058471010549 0.0010104834167789349 0 0.001433665150836348 0.00084967461853843772 0 0.0011498343326293956 0.00090899435247876958 0 0.0026074810217693641 0.00099888213264881032 0 0.0024297657663542782 0.0011753693573766876 0 0.0036165097318426528 0.0011187322533390146 0 0.0036087336507287199 0.0011337453643811941 0 0.003616671575416004 0.0011471672578691559 0 0.001433665150836348 0.00084967461853843772 0 0.0016050521581872062 0.00089740798069122226 0 0.0015814870796022763 0.00069783988163307255 0 0.0013729058471010549 0.0010104834167789349 0 0.001433665150836348 0.00084967461853843772 0 0.0015248349826599125 0.0010077858650576108 0 0.001433665150836348 0.00084967461853843772 0 0.0016050521581872062 0.00089740798069122226 0 0.0015248349826599125 0.0010077858650576108 0 0.0016050521581872062 0.00089740798069122226 0 0.0015248349826599125 0.0010077858650576108 0 0.0016307067294324489 0.001096132260145563 0 0.0026074810217693641 0.00099888213264881032 0 0.0027409183159750562 0.00091596250895053144 0 0.0013729058471010549 0.0010104834167789349 0 0.0015248349826599125 0.0010077858650576108 0 0.0015746211931641138 0.0011577109732335245 0 0.0015248349826599125 0.0010077858650576108 0 0.0015746211931641138 0.0011577109732335245 0 0.0016307067294324489 0.001096132260145563 0 0.0017305268675483708 0.00051441484172261135 0 0.002918501131455514 0.00075324321609021344 0 0.002523525858519443 0.00056532344785127002 0 0.0024572655105320491 0.00056294503665548304 0 0.0024663273104675132 0.00063324941162653972 0 0.0017305268675483708 0.00051441484172261135 0 0.0027409183159750562 0.00091596250895053144 0 0.0036141027365559223 0.0011005201631235186 0 0.0036170069808653519 0.001094211153237783 0 0.0036121875257251919 0.0011071519087860967 0 0.002918501131455514 0.00075324321609021344 0 0.0027409183159750562 0.00091596250895053144 0 0.0036137102298053419 0.0010987360778353013 0 0.0036141027365559223 0.0011005201631235186 0 0.0036170069808653519 0.001094211153237783 0 0.0036165097318426528 0.0011187322533390146 0 0.0036130770873183007 0.001100406262472999 0 0.0036121875257251919 0.0011071519087860967 0 0.002918501131455514 0.00075324321609021344 0 0.0037946035675580662 0.0010475432486590018 0 0.0036170069808653519 0.001094211153237783 0 0.0036121875257251919 0.0011071519087860967 0 0.0036089436205469535 0.0011073801121927003 0 0.0027409183159750562 0.00091596250895053144 0 0.003344439863133208 0.00085258520059620728 0 0.0036121175624313582 0.0010970435521872888 0 0.0036089436205469535 0.0011073801121927003 0 0.003598859143101772 0.001107786038568973 0 0.0036170069808653519 0.001094211153237783 0 0.0036121175624313582 0.0010970435521872888 0 0.0036089436205469535 0.0011073801121927003 0 0.0036089436205469535 0.0011073801121927003 0 0.003602998190312099 0.0011215941379223331 0 0.003598859143101772 0.001107786038568973 0 0.0036089436205469535 0.0011073801121927003 0 0.003602998190312099 0.0011215941379223331 0 0.0036062673278851481 0.0011235443533499435 0 0.003602998190312099 0.0011215941379223331 0 0.0036062673278851481 0.0011235443533499435 0 0.0036005778624884593 0.0011385934310832475 0 0.003602998190312099 0.0011215941379223331 0 0.0035965645845092999 0.0011321333527896695 0 0.003598859143101772 0.001107786038568973 0 0.003602998190312099 0.0011215941379223331 0 0.0035965645845092999 0.0011321333527896695 0 0.0036005778624884593 0.0011385934310832475 0 0.0036165097318426528 0.0011187322533390146 0 0.0036121875257251919 0.0011071519087860967 0 0.0036062673278851481 0.0011235443533499435 0 0.0036121875257251919 0.0011071519087860967 0 0.0036089436205469535 0.0011073801121927003 0 0.0036062673278851481 0.0011235443533499435 0 0.0036062673278851481 0.0011235443533499435 0 0.0036087336507287199 0.0011337453643811941 0 0.0035955685482125118 0.001149139208094104 0 0.0036165097318426528 0.0011187322533390146 0 0.0036062673278851481 0.0011235443533499435 0 0.0036087336507287199 0.0011337453643811941 0 0.0027283747116577275 0.0033519726494380207 0 0.0020508661698346725 0.0029062269288623603 0 0.0036087336507287199 0.0011337453643811941 0 0.0035955685482125118 0.001149139208094104 0 0.003616671575416004 0.0011471672578691559 0 0.0035955685482125118 0.001149139208094104 0 0.0036005238646961524 0.0011506574378262367 0 0.0035709790857114398 0.0011568498150481973 0 0.0038440520274800275 0.0011788742515084537 0 0.0024297657663542782 0.0011753693573766876 0 0.0036062673278851481 0.0011235443533499435 0 0.0035955685482125118 0.001149139208094104 0 0.0036005778624884593 0.0011385934310832475 0 0.0035955685482125118 0.001149139208094104 0 0.0035709790857114398 0.0011568498150481973 0 0.003574921951904318 0.0011591300633583233 0 0.0035965645845092999 0.0011321333527896695 0 0.0036005778624884593 0.0011385934310832475 0 0.0036005238646961524 0.0011506574378262367 0 0.0035955685482125118 0.001149139208094104 0 0.0036005778624884593 0.0011385934310832475 0 0.0036005238646961524 0.0011506574378262367 0 0.0017388500352738688 0.0051940552455389914 0 0.0017947783203561718 0.0050347074713101474 0 0.0019096934176606043 0.0051405043554546646 0 0.0017388500352738688 0.0051940552455389914 0 0.0017947783203561718 0.0050347074713101474 0 0.001607673232501232 0.0050295511730446265 0 0.0017947783203561718 0.0050347074713101474 0 0.001607673232501232 0.0050295511730446265 0 0.0016616858132206479 0.0049042737693074899 0 0.001607673232501232 0.0050295511730446265 0 0.0013924527942341058 0.0050841579556248949 0 0.0015011614475011993 0.0049180968451243536 0 0.0017388500352738688 0.0051940552455389914 0 0.001607673232501232 0.0050295511730446265 0 0.0013924527942341058 0.0050841579556248949 0 0.00083955052916168278 0.0029671889392799623 0 0.0010212199131723458 0.0030243346880158353 0 0.00085893649327268217 0.0032369682888503601 0 0.0020508661698346725 0.0029062269288623603 0 0.0010963816849409135 0.0023470593367644864 0 0.001732997625881437 0.0018687697570168734 0 0.001416336673409218 0.0017702470804409258 0 0.0014608071752333536 0.002080779115283384 0 0.001416336673409218 0.0017702470804409258 0 0.0014608071752333536 0.002080779115283384 0 0.0011633488406810858 0.0020655545455711736 0 0.0013550470292598394 0.0013830049922404174 0 0.0006889879029611664 0.0013198443340786876 0 0.001732997625881437 0.0018687697570168734 0 0.0014608071752333536 0.002080779115283384 0 0.0017637901189666103 0.0020937303611745866 0 0.0013550470292598394 0.0013830049922404174 0 0.0024297657663542782 0.0011753693573766876 0 0.001433665150836348 0.00084967461853843772 0 0.0013475642022535495 0.00068723468201387398 0 0.0015814870796022763 0.00069783988163307255 0 0.0020508661698346725 0.0029062269288623603 0 0.0024297657663542782 0.0011753693573766876 0 0.0036384929560678305 0.0011001807917757611 0 0.0036343438644870873 0.0011002263754806665 0 0.0036401035931280835 0.0011190169189924989 0 0.0039145225337199252 0.00132427842598964 0 0.0038066787713371035 0.0013703167138380944 0 0.0037805779938440806 0.001257375469644305 0 0.0038891174696948673 0.001124142779799753 0 0.0036831326658298543 0.0011951440938539313 0 0.0036384929560678305 0.0011001807917757611 0 0.0036414721672024222 0.0011071492600566962 0 0.0036401035931280835 0.0011190169189924989 0 0.0036384929560678305 0.0011001807917757611 0 0.0036343438644870873 0.0011002263754806665 0 0.0036268171996206352 0.0010967451147614212 0 0.0038891174696948673 0.001124142779799753 0 0.0031142540392243424 0.0021916844881599892 0 0.0036343438644870873 0.0011002263754806665 0 0.0036179979954120635 0.0011011115046014948 0 0.0036268171996206352 0.0010967451147614212 0 0.0036343438644870873 0.0011002263754806665 0 0.0036179979954120635 0.0011011115046014948 0 0.0036138779083546976 0.0010937891707382629 0 0.0036179979954120635 0.0011011115046014948 0 0.0036268171996206352 0.0010967451147614212 0 0.0036159805243005699 0.001095644541333943 0 0.0036121175624313582 0.0010970435521872888 0 0.0036159805243005699 0.001095644541333943 0 0.003598859143101772 0.001107786038568973 0 0.0036179979954120635 0.0011011115046014948 0 0.0036159805243005699 0.001095644541333943 0 0.003598859143101772 0.001107786038568973 0 0.0035965645845092999 0.0011321333527896695 0 0.003598859143101772 0.001107786038568973 0 0.0035643387781904602 0.0011454906307699437 0 0.0036179979954120635 0.0011011115046014948 0 0.003598859143101772 0.001107786038568973 0 0.0036138779083546976 0.0010937891707382629 0 0.0038558090989590349 0.00081451254398106688 0 0.0031142540392243424 0.0021916844881599892 0 0.0027283747116577275 0.0033519726494380207 0 0.0031142540392243424 0.0021916844881599892 0 0.0017388500352738688 0.0051940552455389914 0 0.0019096934176606043 0.0051405043554546646 0 0.0020888510998003703 0.0052818547160224738 0 0.0019096934176606043 0.0051405043554546646 0 0.0020145184057189791 0.0050489927671094441 0 0.0020888510998003703 0.0052818547160224738 0 0.0035965645845092999 0.0011321333527896695 0 0.0036005238646961524 0.0011506574378262367 0 0.0035643387781904602 0.0011454906307699437 0 0.0017947783203561718 0.0050347074713101474 0 0.0019096934176606043 0.0051405043554546646 0 0.0020145184057189791 0.0050489927671094441 0 0.0017947783203561718 0.0050347074713101474 0 0.0020145184057189791 0.0050489927671094441 0 0.0018821532453915147 0.0048888859698084531 0 0.0020145184057189791 0.0050489927671094441 0 0.0023119216380378862 0.0050692846006273372 0 0.0021078262835210792 0.0048737365915271979 0 0.0020145184057189791 0.0050489927671094441 0 0.0020888510998003703 0.0052818547160224738 0 0.0023119216380378862 0.0050692846006273372 0 0.0031142540392243424 0.0021916844881599892 0 0.0030705283435015374 0.0034670951002164145 0 0.0039145225337199252 0.00132427842598964 0 0.0040351262661209022 0.0013849174683287708 0 0.003949075818746272 0.0014884154781001908 0 0.0039145225337199252 0.00132427842598964 0 0.003949075818746272 0.0014884154781001908 0 0.0038066787713371035 0.0013703167138380944 0 0.0030705283435015374 0.0034670951002164145 0 0.0031993981189667232 0.0032627755118047326 0 0.003949075818746272 0.0014884154781001908 0 0.0038066787713371035 0.0013703167138380944 0 0.003783763886054422 0.0014895311749587637 0 0.003949075818746272 0.0014884154781001908 0 0.0038720847225879266 0.0016245174422790387 0 0.003783763886054422 0.0014895311749587637 0 0.0025733000942933424 0.0046703859432244968 0 0.0025429367656946023 0.004853096928755643 0 0.0026324074155284396 0.0046873808263166745 0 0.0025733000942933424 0.0046703859432244968 0 0.0024448946166533698 0.0046837975432999961 0 0.0025429367656946023 0.004853096928755643 0 0.0025733000942933424 0.0046703859432244968 0 0.0026324074155284396 0.0046873808263166745 0 0.0026486008037512753 0.0045925506490775876 0 0.0025733000942933424 0.0046703859432244968 0 0.0025477624555151103 0.0045689831387337428 0 0.0026486008037512753 0.0045925506490775876 0 0.0025733000942933424 0.0046703859432244968 0 0.0024448946166533698 0.0046837975432999961 0 0.0025477624555151103 0.0045689831387337428 0 0.0024448946166533698 0.0046837975432999961 0 0.002443999708021912 0.0045596383458914183 0 0.0025477624555151103 0.0045689831387337428 0 0.0023119216380378862 0.0050692846006273372 0 0.0025429367656946023 0.004853096928755643 0 0.0023142596813655733 0.0047702047268765512 0 0.0023119216380378862 0.0050692846006273372 0 0.0023142596813655733 0.0047702047268765512 0 0.0021078262835210792 0.0048737365915271979 0 0.0024448946166533698 0.0046837975432999961 0 0.0025429367656946023 0.004853096928755643 0 0.0023142596813655733 0.0047702047268765512 0 0.0024448946166533698 0.0046837975432999961 0 0.002324232761083558 0.0046052939141609274 0 0.002443999708021912 0.0045596383458914183 0 0.0024448946166533698 0.0046837975432999961 0 0.0023142596813655733 0.0047702047268765512 0 0.002324232761083558 0.0046052939141609274 0 0.002324232761083558 0.0046052939141609274 0 0.0022349830116827995 0.0046760019993881 0 0.0021842973587107035 0.0045844029831033951 0 0.0023142596813655733 0.0047702047268765512 0 0.002324232761083558 0.0046052939141609274 0 0.0022349830116827995 0.0046760019993881 0 0.0022349830116827995 0.0046760019993881 0 0.0021175730599442923 0.0047297664252711202 0 0.0021842973587107035 0.0045844029831033951 0 0.0021175730599442923 0.0047297664252711202 0 0.0020424035593799481 0.0045955626771816875 0 0.0021842973587107035 0.0045844029831033951 0 0.0021175730599442923 0.0047297664252711202 0 0.0021078262835210792 0.0048737365915271979 0 0.0019613633331258193 0.0047371928007296712 0 0.0023142596813655733 0.0047702047268765512 0 0.0022349830116827995 0.0046760019993881 0 0.0021175730599442923 0.0047297664252711202 0 0.0023142596813655733 0.0047702047268765512 0 0.0021175730599442923 0.0047297664252711202 0 0.0021078262835210792 0.0048737365915271979 0 0.0018821532453915147 0.0048888859698084531 0 0.0019613633331258193 0.0047371928007296712 0 0.0017493037981692007 0.0047299277556528312 0 0.0021078262835210792 0.0048737365915271979 0 0.0018821532453915147 0.0048888859698084531 0 0.0019613633331258193 0.0047371928007296712 0 0.0020145184057189791 0.0050489927671094441 0 0.0021078262835210792 0.0048737365915271979 0 0.0018821532453915147 0.0048888859698084531 0 0.0019613633331258193 0.0047371928007296712 0 0.0019031511606294182 0.0045979521015208332 0 0.0017493037981692007 0.0047299277556528312 0 0.0021175730599442923 0.0047297664252711202 0 0.0019613633331258193 0.0047371928007296712 0 0.0020424035593799481 0.0045955626771816875 0 0.0019613633331258193 0.0047371928007296712 0 0.0019031511606294182 0.0045979521015208332 0 0.0020424035593799481 0.0045955626771816875 0 0.0019031511606294182 0.0045979521015208332 0 0.0019669979050187273 0.0044571174124842568 0 0.0020424035593799481 0.0045955626771816875 0 0.0019031511606294182 0.0045979521015208332 0 0.0019669979050187273 0.0044571174124842568 0 0.0018080227530022648 0.0044576421597299033 0 0.0019669979050187273 0.0044571174124842568 0 0.0018997229120915407 0.0043496202884834856 0 0.0018080227530022648 0.0044576421597299033 0 0.0018997229120915407 0.0043496202884834856 0 0.0017308923067215457 0.0043168830208609905 0 0.0018443626013163112 0.0042325171569778169 0 0.0018997229120915407 0.0043496202884834856 0 0.0019910883928224575 0.0042602965978413131 0 0.0018443626013163112 0.0042325171569778169 0 0.0018997229120915407 0.0043496202884834856 0 0.0019910883928224575 0.0042602965978413131 0 0.0020631727726789987 0.0043609605545344952 0 0.0019669979050187273 0.0044571174124842568 0 0.0018997229120915407 0.0043496202884834856 0 0.0020631727726789987 0.0043609605545344952 0 0.0022016076966298497 0.0043499083505031261 0 0.0023405901023809323 0.0042717070113226195 0 0.0021279837015135985 0.0042061063317743227 0 0.0020631727726789987 0.0043609605545344952 0 0.0022016076966298497 0.0043499083505031261 0 0.0021182595481596084 0.004464143569698281 0 0.0020631727726789987 0.0043609605545344952 0 0.0022016076966298497 0.0043499083505031261 0 0.0021279837015135985 0.0042061063317743227 0 0.0019910883928224575 0.0042602965978413131 0 0.0020631727726789987 0.0043609605545344952 0 0.0021279837015135985 0.0042061063317743227 0 0.0022016076966298497 0.0043499083505031261 0 0.0021182595481596084 0.004464143569698281 0 0.0022530020425420246 0.0044760460029330878 0 0.0021182595481596084 0.004464143569698281 0 0.0021842973587107035 0.0045844029831033951 0 0.0022530020425420246 0.0044760460029330878 0 0.0019669979050187273 0.0044571174124842568 0 0.0020631727726789987 0.0043609605545344952 0 0.0021182595481596084 0.004464143569698281 0 0.0019669979050187273 0.0044571174124842568 0 0.0021182595481596084 0.004464143569698281 0 0.0020424035593799481 0.0045955626771816875 0 0.0021182595481596084 0.004464143569698281 0 0.0020424035593799481 0.0045955626771816875 0 0.0021842973587107035 0.0045844029831033951 0 0.002324232761083558 0.0046052939141609274 0 0.0021842973587107035 0.0045844029831033951 0 0.0022530020425420246 0.0044760460029330878 0 0.002324232761083558 0.0046052939141609274 0 0.0023831243269511427 0.0044773694388711783 0 0.0022530020425420246 0.0044760460029330878 0 0.002324232761083558 0.0046052939141609274 0 0.002443999708021912 0.0045596383458914183 0 0.0023831243269511427 0.0044773694388711783 0 0.0023831243269511427 0.0044773694388711783 0 0.0024181294329703265 0.0043746308090797164 0 0.0025073454736554463 0.0044574881253218318 0 0.002443999708021912 0.0045596383458914183 0 0.0023831243269511427 0.0044773694388711783 0 0.0025073454736554463 0.0044574881253218318 0 0.0023831243269511427 0.0044773694388711783 0 0.0022530020425420246 0.0044760460029330878 0 0.0023107564196183854 0.0043870990693906306 0 0.0022016076966298497 0.0043499083505031261 0 0.0022530020425420246 0.0044760460029330878 0 0.0023107564196183854 0.0043870990693906306 0 0.0023405901023809323 0.0042717070113226195 0 0.0024181294329703265 0.0043746308090797164 0 0.0025370053980700398 0.0043012573732455033 0 0.0022016076966298497 0.0043499083505031261 0 0.0023107564196183854 0.0043870990693906306 0 0.0023405901023809323 0.0042717070113226195 0 0.0023107564196183854 0.0043870990693906306 0 0.0023405901023809323 0.0042717070113226195 0 0.0024181294329703265 0.0043746308090797164 0 0.0023831243269511427 0.0044773694388711783 0 0.0023107564196183854 0.0043870990693906306 0 0.0024181294329703265 0.0043746308090797164 0 0.0025370053980700398 0.0043012573732455033 0 0.0026659189174000689 0.0044534169365155517 0 0.0027181362488317372 0.0042590946615479611 0 0.0024181294329703265 0.0043746308090797164 0 0.0025370053980700398 0.0043012573732455033 0 0.0025073454736554463 0.0044574881253218318 0 0.0025370053980700398 0.0043012573732455033 0 0.0025073454736554463 0.0044574881253218318 0 0.0026659189174000689 0.0044534169365155517 0 0.0025073454736554463 0.0044574881253218318 0 0.0025477624555151103 0.0045689831387337428 0 0.0026659189174000689 0.0044534169365155517 0 0.002443999708021912 0.0045596383458914183 0 0.0025073454736554463 0.0044574881253218318 0 0.0025477624555151103 0.0045689831387337428 0 0.0025477624555151103 0.0045689831387337428 0 0.0026486008037512753 0.0045925506490775876 0 0.0026659189174000689 0.0044534169365155517 0 0.0010333155701328777 0.0033527979203754666 0 0.00085893649327268217 0.0032369682888503601 0 0.00086847724421541296 0.003515020578530093 0 0.00099572640451131957 0.0042513244717879385 0 0.0010552491505571562 0.0039531483558403425 0 0.0013278264897925605 0.0047993146663910064 0 0.0014259752715054272 0.0045345035746883703 0 0.0012183389646269606 0.0045094953447356399 0 0.0010333155701328777 0.0033527979203754666 0 0.0010733898374518107 0.0031983703122503847 0 0.00085893649327268217 0.0032369682888503601 0 0.0010212199131723458 0.0030243346880158353 0 0.0010733898374518107 0.0031983703122503847 0 0.0012119751848487857 0.0030819467259338667 0 0.0010212199131723458 0.0030243346880158353 0 0.0010733898374518107 0.0031983703122503847 0 0.00085893649327268217 0.0032369682888503601 0 0.0013924527942341058 0.0050841579556248949 0 0.0013278264897925605 0.0047993146663910064 0 0.0015011614475011993 0.0049180968451243536 0 0.0020508661698346725 0.0029062269288623603 0 0.00099572640451131957 0.0042513244717879385 0 0.0013278264897925605 0.0047993146663910064 0 0.0015011614475011993 0.0049180968451243536 0 0.0015371024738658221 0.0047571995589807811 0 0.001607673232501232 0.0050295511730446265 0 0.0015011614475011993 0.0049180968451243536 0 0.0016616858132206479 0.0049042737693074899 0 0.0015011614475011993 0.0049180968451243536 0 0.0016616858132206479 0.0049042737693074899 0 0.0015371024738658221 0.0047571995589807811 0 0.0016616858132206479 0.0049042737693074899 0 0.0017493037981692007 0.0047299277556528312 0 0.0015371024738658221 0.0047571995589807811 0 0.0018821532453915147 0.0048888859698084531 0 0.0016616858132206479 0.0049042737693074899 0 0.0017493037981692007 0.0047299277556528312 0 0.0017947783203561718 0.0050347074713101474 0 0.0018821532453915147 0.0048888859698084531 0 0.0016616858132206479 0.0049042737693074899 0 0.0017493037981692007 0.0047299277556528312 0 0.0015371024738658221 0.0047571995589807811 0 0.0016013408009782541 0.0046093639514074563 0 0.0017493037981692007 0.0047299277556528312 0 0.0016013408009782541 0.0046093639514074563 0 0.0017332067018568167 0.0045664722373862498 0 0.0019031511606294182 0.0045979521015208332 0 0.0017493037981692007 0.0047299277556528312 0 0.0017332067018568167 0.0045664722373862498 0 0.0015371024738658221 0.0047571995589807811 0 0.0016013408009782541 0.0046093639514074563 0 0.0014259752715054272 0.0045345035746883703 0 0.0013278264897925605 0.0047993146663910064 0 0.0015371024738658221 0.0047571995589807811 0 0.0014259752715054272 0.0045345035746883703 0 0.0016013408009782541 0.0046093639514074563 0 0.0014259752715054272 0.0045345035746883703 0 0.0015974652015581245 0.0044285674054237245 0 0.0014259752715054272 0.0045345035746883703 0 0.001432460230779885 0.0043793089961210478 0 0.0013223161810997912 0.0043809028256075492 0 0.0014259752715054272 0.0045345035746883703 0 0.0015974652015581245 0.0044285674054237245 0 0.001432460230779885 0.0043793089961210478 0 0.0019031511606294182 0.0045979521015208332 0 0.0017332067018568167 0.0045664722373862498 0 0.0018080227530022648 0.0044576421597299033 0 0.0016013408009782541 0.0046093639514074563 0 0.0015974652015581245 0.0044285674054237245 0 0.0017332067018568167 0.0045664722373862498 0 0.0015974652015581245 0.0044285674054237245 0 0.0017332067018568167 0.0045664722373862498 0 0.0018080227530022648 0.0044576421597299033 0 0.0018997229120915407 0.0043496202884834856 0 0.0018080227530022648 0.0044576421597299033 0 0.0017308923067215457 0.0043168830208609905 0 0.0015974652015581245 0.0044285674054237245 0 0.0017308923067215457 0.0043168830208609905 0 0.0015827215997578868 0.0042569456882220252 0 0.0015974652015581245 0.0044285674054237245 0 0.0018080227530022648 0.0044576421597299033 0 0.0017308923067215457 0.0043168830208609905 0 0.0017308923067215457 0.0043168830208609905 0 0.0015827215997578868 0.0042569456882220252 0 0.0016922049520656434 0.0041854519384008342 0 0.0017308923067215457 0.0043168830208609905 0 0.0016922049520656434 0.0041854519384008342 0 0.0018443626013163112 0.0042325171569778169 0 0.001432460230779885 0.0043793089961210478 0 0.0014634887840061634 0.0042796312194342797 0 0.0013430278521551363 0.0042620496991461216 0 0.0015974652015581245 0.0044285674054237245 0 0.0015827215997578868 0.0042569456882220252 0 0.0014634887840061634 0.0042796312194342797 0 0.0015974652015581245 0.0044285674054237245 0 0.001432460230779885 0.0043793089961210478 0 0.0014634887840061634 0.0042796312194342797 0 0.0015827215997578868 0.0042569456882220252 0 0.0014634887840061634 0.0042796312194342797 0 0.0014715914719024576 0.0041871667372798188 0 0.0014634887840061634 0.0042796312194342797 0 0.0013716335052822975 0.0041731209352916529 0 0.0014715914719024576 0.0041871667372798188 0 0.0014634887840061634 0.0042796312194342797 0 0.0013716335052822975 0.0041731209352916529 0 0.0013430278521551363 0.0042620496991461216 0 0.0013716335052822975 0.0041731209352916529 0 0.0012604795391549508 0.0041366252279342458 0 0.0013430278521551363 0.0042620496991461216 0 0.0010552491505571562 0.0039531483558403425 0 0.0010384575752434662 0.0040153094436260342 0 0.0012306763814641328 0.0042272213378235571 0 0.0013223161810997912 0.0043809028256075492 0 0.0012183389646269606 0.0045094953447356399 0 0.0012604795391549508 0.0041366252279342458 0 0.0012306763814641328 0.0042272213378235571 0 0.0011666158384719696 0.0040747077309385149 0 0.0012306763814641328 0.0042272213378235571 0 0.0012183389646269606 0.0045094953447356399 0 0.0010414179054623596 0.0040056669120860982 0 0.00086847724421541296 0.003515020578530093 0 0.0010053522862732305 0.0037139510561058722 0 0.0010414179054623596 0.0040056669120860982 0 0.0012604795391549508 0.0041366252279342458 0 0.0012306763814641328 0.0042272213378235571 0 0.0013430278521551363 0.0042620496991461216 0 0.0012306763814641328 0.0042272213378235571 0 0.0011666158384719696 0.0040747077309385149 0 0.0010414179054623596 0.0040056669120860982 0 0.0012306763814641328 0.0042272213378235571 0 0.0013430278521551363 0.0042620496991461216 0 0.0013223161810997912 0.0043809028256075492 0 0.001432460230779885 0.0043793089961210478 0 0.0013430278521551363 0.0042620496991461216 0 0.0013223161810997912 0.0043809028256075492 0 0.0014259752715054272 0.0045345035746883703 0 0.0013223161810997912 0.0043809028256075492 0 0.0012183389646269606 0.0045094953447356399 0 0.0010333155701328777 0.0033527979203754666 0 0.00086847724421541296 0.003515020578530093 0 0.0010594387370601187 0.0035564069440625705 0 0.00086847724421541296 0.003515020578530093 0 0.0010594387370601187 0.0035564069440625705 0 0.0010053522862732305 0.0037139510561058722 0 0.0010594387370601187 0.0035564069440625705 0 0.001082098184823308 0.0036475524448231359 0 0.0010053522862732305 0.0037139510561058722 0 0.001082098184823308 0.0036475524448231359 0 0.0010053522862732305 0.0037139510561058722 0 0.0010505721069333795 0.0037886430891796693 0 0.0010053522862732305 0.0037139510561058722 0 0.0010505721069333795 0.0037886430891796693 0 0.0010414179054623596 0.0040056669120860982 0 0.0010505721069333795 0.0037886430891796693 0 0.0010768472271907236 0.003868697745685525 0 0.0010604890955629752 0.0039432148583037141 0 0.001082098184823308 0.0036475524448231359 0 0.0010505721069333795 0.0037886430891796693 0 0.0010914032362554775 0.0037568716224688843 0 0.0010505721069333795 0.0037886430891796693 0 0.0010914032362554775 0.0037568716224688843 0 0.0010768472271907236 0.003868697745685525 0 0.0010914032362554775 0.0037568716224688843 0 0.0011068502674118632 0.00366855275979507 0 0.001141683012448878 0.003693187187967112 0 0.0010914032362554775 0.0037568716224688843 0 0.001141683012448878 0.003693187187967112 0 0.0010768472271907236 0.003868697745685525 0 0.001082098184823308 0.0036475524448231359 0 0.0010914032362554775 0.0037568716224688843 0 0.0011068502674118632 0.00366855275979507 0 0.0011068502674118632 0.00366855275979507 0 0.001141683012448878 0.003693187187967112 0 0.0011092580210166063 0.0035771905205448174 0 0.001082098184823308 0.0036475524448231359 0 0.0011092580210166063 0.0035771905205448174 0 0.001071950635483488 0.0034931505423311791 0 0.001082098184823308 0.0036475524448231359 0 0.0011068502674118632 0.00366855275979507 0 0.0011092580210166063 0.0035771905205448174 0 0.0012189589591923744 0.0035258327356107199 0 0.00098212808457179041 0.0036842724239434152 0 0.0010393304958525688 0.0039164028896773798 0 0.00098212808457179041 0.0036842724239434152 0 0.00090103575063028504 0.0040750052165931944 0 0.00074712386660890902 0.0040861319202559008 0 0.00080460621532137968 0.0040400362822115852 0 0.0011092580210166063 0.0035771905205448174 0 0.0010886130626879085 0.0034523821656442452 0 0.001087267085013851 0.003421137794967864 0 0.001141683012448878 0.003693187187967112 0 0.0011092580210166063 0.0035771905205448174 0 0.0014142167776345185 0.0036109752922612675 0 0.0010886130626879085 0.0034523821656442452 0 0.0010749370836195514 0.0033883549724998186 0 0.0010887261713495595 0.0033705585069308259 0 0.0010886130626879085 0.0034523821656442452 0 0.0010772059154441006 0.0034655779487907361 0 0.0010749370836195514 0.0033883549724998186 0 0.0011092580210166063 0.0035771905205448174 0 0.0010886130626879085 0.0034523821656442452 0 0.0010772059154441006 0.0034655779487907361 0 0.0010749370836195514 0.0033883549724998186 0 0.0010481656478065406 0.0034174332822369188 0 0.0010710378026936845 0.0032824056935453036 0 0.0010772059154441006 0.0034655779487907361 0 0.0010749370836195514 0.0033883549724998186 0 0.0010481656478065406 0.0034174332822369188 0 0.0010749370836195514 0.0033883549724998186 0 0.0010710378026936845 0.0032824056935453036 0 0.0010887261713495595 0.0033705585069308259 0 0.0010915010727394919 0.0035521701345210448 0 0.0010368800079039583 0.0032644300184805231 0 0.001071950635483488 0.0034931505423311791 0 0.0010481656478065406 0.0034174332822369188 0 0.0010428482179071939 0.0033649283799127914 0 0.0010594387370601187 0.0035564069440625705 0 0.001071950635483488 0.0034931505423311791 0 0.0010428482179071939 0.0033649283799127914 0 0.0010594387370601187 0.0035564069440625705 0 0.001082098184823308 0.0036475524448231359 0 0.001071950635483488 0.0034931505423311791 0 0.0011092580210166063 0.0035771905205448174 0 0.0010772059154441006 0.0034655779487907361 0 0.001071950635483488 0.0034931505423311791 0 0.0010772059154441006 0.0034655779487907361 0 0.001071950635483488 0.0034931505423311791 0 0.0010481656478065406 0.0034174332822369188 0 0.0010333155701328777 0.0033527979203754666 0 0.0010594387370601187 0.0035564069440625705 0 0.001245752249598031 0.0033000289586828991 0 0.0010333155701328777 0.0033527979203754666 0 0.0010733898374518107 0.0031983703122503847 0 0.001245752249598031 0.0033000289586828991 0 0.0010420818201795313 0.0034032837413586229 0 0.0010368800079039583 0.0032644300184805231 0 0.00098073524207396628 0.0032473100284116348 0 0.0010710378026936845 0.0032824056935453036 0 0.001036133984964019 0.0031101743491118352 0 0.0010710378026936845 0.0032824056935453036 0 0.001036133984964019 0.0031101743491118352 0 0.0010914770696392037 0.0031793905789447973 0 0.0010481656478065406 0.0034174332822369188 0 0.00098073524207396628 0.0032473100284116348 0 0.0010710378026936845 0.0032824056935453036 0 0.0010368800079039583 0.0032644300184805231 0 0.00065958495563837806 0.0025246519866375214 0 0.00085360872536779063 0.0029437358074477045 0 0.001057450979010742 0.0026793290677036342 0 0.00080514028842921658 0.0025970118807707291 0 0.00065958495563837806 0.0025246519866375214 0 0.0010036300672433191 0.0023939613151449414 0 0.0010368800079039583 0.0032644300184805231 0 0.0010036300672433191 0.0023939613151449414 0 0.0010733898374518107 0.0031983703122503847 0 0.001245752249598031 0.0033000289586828991 0 0.0012119751848487857 0.0030819467259338667 0 0.00074322672708943775 0.0028751292083724479 0 0.0010889381355991541 0.002942136019749349 0 0.00090426898202419423 0.002280313771882102 0 0.00040189854899838054 0.0026740879966916527 0 0.0011138559859374655 0.0029199618390124025 0 0.00090426898202419423 0.002280313771882102 0 0.0011138559859374655 0.0029199618390124025 0 0.0013531178085289333 0.0025181390376619503 0 0.00090426898202419423 0.002280313771882102 0 0.00040189854899838054 0.0026740879966916527 0 0.00018966091623126292 0.0019545099820464191 0 -0.0002080551281424638 0.0024692176016912451 0 0.00040189854899838054 0.0026740879966916527 0 0.00018966091623126292 0.0019545099820464191 0 0.001036133984964019 0.0031101743491118352 0 0.0010968844602989043 0.0031102148765151279 0 0.0010914770696392037 0.0031793905789447973 0 0.00065958495563837806 0.0025246519866375214 0 0.00074322672708943775 0.0028751292083724479 0 0.0010968844602989043 0.0031102148765151279 0 0.0010914770696392037 0.0031793905789447973 0 0.0011083167052864532 0.0031195365844008736 0 0.0010710378026936845 0.0032824056935453036 0 0.0010914770696392037 0.0031793905789447973 0 0.0011028078258627574 0.0032609127354831053 0 0.0010914770696392037 0.0031793905789447973 0 0.0011083167052864532 0.0031195365844008736 0 0.0011028078258627574 0.0032609127354831053 0 0.0011083167052864532 0.0031195365844008736 0 0.0011839306587490576 0.0032768866327910731 0 0.0011028078258627574 0.0032609127354831053 0 0.0010968844602989043 0.0031102148765151279 0 0.0011083167052864532 0.0031195365844008736 0 0.0011138559859374655 0.0029199618390124025 0 0.0011083167052864532 0.0031195365844008736 0 0.0011839306587490576 0.0032768866327910731 0 0.0013386709419786374 0.0031916508984175572 0 0.0011083167052864532 0.0031195365844008736 0 0.0011138559859374655 0.0029199618390124025 0 0.0013386709419786374 0.0031916508984175572 0 0.0011839306587490576 0.0032768866327910731 0 0.0012316610986554133 0.0034288388384876934 0 0.0013386709419786374 0.0031916508984175572 0 0.0011839306587490576 0.0032768866327910731 0 0.0011028078258627574 0.0032609127354831053 0 0.0011283664563832474 0.0033583054804996928 0 0.0011839306587490576 0.0032768866327910731 0 0.0011283664563832474 0.0033583054804996928 0 0.0012316610986554133 0.0034288388384876934 0 0.0010710378026936845 0.0032824056935453036 0 0.0011028078258627574 0.0032609127354831053 0 0.0010887261713495595 0.0033705585069308259 0 0.0011028078258627574 0.0032609127354831053 0 0.0011283664563832474 0.0033583054804996928 0 0.0010887261713495595 0.0033705585069308259 0 0.0010886130626879085 0.0034523821656442452 0 0.0010887261713495595 0.0033705585069308259 0 0.001087267085013851 0.003421137794967864 0 0.0011283664563832474 0.0033583054804996928 0 0.0010887261713495595 0.0033705585069308259 0 0.001087267085013851 0.003421137794967864 0 0.00074712386660890902 0.0040861319202559008 0 0.00072164723642491476 0.0040329108320170393 0 0.00080460621532137968 0.0040400362822115852 0 0.00074712386660890902 0.0040861319202559008 0 0.00070053270117460104 0.0040459194003251387 0 0.00072164723642491476 0.0040329108320170393 0 0.00098212808457179041 0.0036842724239434152 0 0.0010677206532219202 0.0039688078658080836 0 0.00098212808457179041 0.0036842724239434152 0 0.0012314640306645616 0.0034555247853606643 0 0.00074712386660890902 0.0040861319202559008 0 0.00070053270117460104 0.0040459194003251387 0 0.0006658171530659079 0.0040532429568416913 0 0.00078083578888918435 0.0036374932465456523 0 0.0012092228450056909 0.0035131525064421762 0 0.0013500091761161361 0.0036893663610782302 0 0.0011283664563832474 0.0033583054804996928 0 0.001087267085013851 0.003421137794967864 0 0.0012316610986554133 0.0034288388384876934 0 0.0012092228450056909 0.0035131525064421762 0 0.0013500091761161361 0.0036893663610782302 0 0.0016514708710518823 0.0033820808118934296 0 0.0010677206532219202 0.0039688078658080836 0 0.00081876247490824945 0.0033829083787714335 0 0.0016514708710518823 0.0033820808118934296 0 0.0018768574380192773 0.0034055004146337753 0 0.0019369154771596805 0.0037414523119583491 0 0.0013500091761161361 0.0036893663610782302 0 0.0016514708710518823 0.0033820808118934296 0 0.0019369154771596805 0.0037414523119583491 0 0.0006658171530659079 0.0040532429568416913 0 0.00062527735254583371 0.0040384812200818321 0 0.00065158753111555585 0.0040323415894575974 0 0.001462334776325727 0.0032238917156538422 0 0.00081876247490824945 0.0033829083787714335 0 0.001462334776325727 0.0032238917156538422 0 0.0019125172210805077 0.0030620361645534613 0 0.0016514708710518823 0.0033820808118934296 0 0.0018768574380192773 0.0034055004146337753 0 0.0018568117238921514 0.0030297096294878019 0 0.0016514708710518823 0.0033820808118934296 0 0.0015907470308875542 0.0031418524926489981 0 0.0018568117238921514 0.0030297096294878019 0 0.0012314640306645616 0.0034555247853606643 0 0.0016215564526468869 0.0033849820562586968 0 0.0012316610986554133 0.0034288388384876934 0 0.0016514708710518823 0.0033820808118934296 0 0.0013386709419786374 0.0031916508984175572 0 0.0016514708710518823 0.0033820808118934296 0 0.0013386709419786374 0.0031916508984175572 0 0.0015907470308875542 0.0031418524926489981 0 0.00023170000298236489 0.0027797911440125959 0 0.00016282012668042089 0.0026560218433333903 0 0.00040592825848466532 0.0027559910388855169 0 0.00016040269717653745 0.0026328010622368538 0 0.00016282012668042089 0.0026560218433333903 0 0.00015769055240607552 0.0026261241743789515 0 0.00016190038403275721 0.0026490898175270242 0 0.0003239403105432839 0.0027079061039060191 0 0.00023170000298236489 0.0027797911440125959 0 0.00016286491869566929 0.0027220164273774965 0 0.00016282012668042089 0.0026560218433333903 0 0.00023170000298236489 0.0027797911440125959 0 0.00016286491869566929 0.0027220164273774965 0 0.00011428392312155485 0.0027511747842923957 0 9.9418886314982442e-05 0.0026418309254840114 0 9.1318747503864846e-05 0.0027127832150457233 0 0.00010982379902346996 0.0026687411646198066 0 0.00016282012668042089 0.0026560218433333903 0 0.00012410300445111141 0.002669702762742681 0 0.00013386077351432071 0.0026397948352907194 0 0.00012410300445111141 0.002669702762742681 0 0.00012351339393277161 0.0027051144910504514 0 0.00010668757418748272 0.0027004916688867235 0 0.00016286491869566929 0.0027220164273774965 0 0.00016282012668042089 0.0026560218433333903 0 0.00012351339393277161 0.0027051144910504514 0 0.00016282012668042089 0.0026560218433333903 0 0.00012410300445111141 0.002669702762742681 0 0.00012351339393277161 0.0027051144910504514 0 0.00016286491869566929 0.0027220164273774965 0 0.00011428392312155485 0.0027511747842923957 0 0.00012351339393277161 0.0027051144910504514 0 0.00022242977461067287 0.003027915888870181 0 0.00025676126339127471 0.0030478283222382697 0 0.00011428392312155485 0.0027511747842923957 0 0.0001059965630135033 0.002739111090338065 0 0.00012351339393277161 0.0027051144910504514 0 0.0001059965630135033 0.002739111090338065 0 0.00012351339393277161 0.0027051144910504514 0 0.00010668757418748272 0.0027004916688867235 0 0.00011899811327925699 0.0027171728464798184 0 0.00010668757418748272 0.0027004916688867235 0 9.1318747503864846e-05 0.0027127832150457233 0 0.00025676126339127471 0.0030478283222382697 0 0.00014765974637028252 0.0028756604343674499 0 0.00025676126339127471 0.0030478283222382697 0 0.00081876247490824945 0.0033829083787714335 0 0.00010668757418748272 0.0027004916688867235 0 9.1318747503864846e-05 0.0027127832150457233 0 0.00010982379902346996 0.0026687411646198066 0 0.00012410300445111141 0.002669702762742681 0 0.00010982379902346996 0.0026687411646198066 0 0.00013386077351432071 0.0026397948352907194 0 0.00012410300445111141 0.002669702762742681 0 0.00010668757418748272 0.0027004916688867235 0 0.00010982379902346996 0.0026687411646198066 0 0.001462334776325727 0.0032238917156538422 0 0.0014181351007332963 0.0028709098953085088 0 9.9418886314982442e-05 0.0026418309254840114 0 0.00013386077351432071 0.0026397948352907194 0 0.00015640883286214004 0.0026050444514648212 0 9.9418886314982442e-05 0.0026418309254840114 0 0.00010982379902346996 0.0026687411646198066 0 0.00013386077351432071 0.0026397948352907194 0 0.00013386077351432071 0.0026397948352907194 0 0.0001590268245289833 0.002625608388621972 0 0.00015640883286214004 0.0026050444514648212 0 0.00016282012668042089 0.0026560218433333903 0 0.00013386077351432071 0.0026397948352907194 0 0.0001590268245289833 0.002625608388621972 0 0.00016040269717653745 0.0026328010622368538 0 0.00016282012668042089 0.0026560218433333903 0 0.0001590268245289833 0.002625608388621972 0 0.00016040269717653745 0.0026328010622368538 0 0.0001590268245289833 0.002625608388621972 0 0.00015890835907723621 0.0026181858500062037 0 0.00015640883286214004 0.0026050444514648212 0 0.0001613584979582468 0.0026087716872908533 0 0.00016734452958617685 0.0025983614758306006 0 0.0001590268245289833 0.002625608388621972 0 0.00015640883286214004 0.0026050444514648212 0 0.0001613584979582468 0.0026087716872908533 0 0.0026833172253405216 0.002989900890255923 0 0.0022775578839936261 0.0025755042153494355 0 0.0019312757710169346 0.0030044987357197629 0 0.0020503859624268301 0.0035832291501831509 0 0.0026833172253405216 0.002989900890255923 0 0.0019312757710169346 0.0030044987357197629 0 0.0022775578839936261 0.0025755042153494355 0 0.0027146978089601682 0.0023262013069035286 0 0.0022956420446254241 0.0019556614778284557 0 0.0026833172253405216 0.002989900890255923 0 0.0022775578839936261 0.0025755042153494355 0 0.0027146978089601682 0.0023262013069035286 0 0.0014181351007332963 0.0028709098953085088 0 0.0012386669758048887 0.0018771874950786591 0 0.0026833172253405216 0.002989900890255923 0 0.0027146978089601682 0.0023262013069035286 0 0.0033462722284356926 0.0023579534424988668 0 0.0011138559859374655 0.0029199618390124025 0 0.0014961012849511754 0.0028988956568689675 0 0.0013386709419786374 0.0031916508984175572 0 0.0014961012849511754 0.0028988956568689675 0 0.0013386709419786374 0.0031916508984175572 0 0.0015907470308875542 0.0031418524926489981 0 0.0014961012849511754 0.0028988956568689675 0 0.0018568117238921514 0.0030297096294878019 0 0.0018136002433254733 0.0024520455951718913 0 0.0014961012849511754 0.0028988956568689675 0 0.0015907470308875542 0.0031418524926489981 0 0.0018568117238921514 0.0030297096294878019 0 0.0022775578839936261 0.0025755042153494355 0 0.0019312757710169346 0.0030044987357197629 0 0.0018136002433254733 0.0024520455951718913 0 0.0019125172210805077 0.0030620361645534613 0 0.0018082448912838916 0.0024879101151186571 0 0.0022775578839936261 0.0025755042153494355 0 0.0018136002433254733 0.0024520455951718913 0 0.0022956420446254241 0.0019556614778284557 0 0.0018136002433254733 0.0024520455951718913 0 0.0013531178085289333 0.0025181390376619503 0 0.0013824521164051778 0.0019701430748608616 0 0.0014961012849511754 0.0028988956568689675 0 0.0018136002433254733 0.0024520455951718913 0 0.0013531178085289333 0.0025181390376619503 0 0.0011138559859374655 0.0029199618390124025 0 0.0014961012849511754 0.0028988956568689675 0 0.0013531178085289333 0.0025181390376619503 0 0.00090426898202419423 0.002280313771882102 0 0.0013531178085289333 0.0025181390376619503 0 0.0013824521164051778 0.0019701430748608616 0 0.0013824521164051778 0.0019701430748608616 0 0.0011788108664227079 0.0014918403493223741 0 0.00086789696603798772 0.0017935973145635281 0 0.0018136002433254733 0.0024520455951718913 0 0.0013824521164051778 0.0019701430748608616 0 0.0018471660998307764 0.0019420598248843484 0 0.0018136002433254733 0.0024520455951718913 0 0.0018471660998307764 0.0019420598248843484 0 0.0022956420446254241 0.0019556614778284557 0 0.0018471660998307764 0.0019420598248843484 0 0.0022956420446254241 0.0019556614778284557 0 0.0021961077430088047 0.0013676989213894368 0 0.0013824521164051778 0.0019701430748608616 0 0.0018471660998307764 0.0019420598248843484 0 0.0017065601070373878 0.0014210734110102108 0 0.0017065601070373878 0.0014210734110102108 0 0.0021961077430088047 0.0013676989213894368 0 0.0017657176901471627 0.00076626115872532419 0 0.0017065601070373878 0.0014210734110102108 0 0.0014230653236794084 0.00099099018269188546 0 0.0017657176901471627 0.00076626115872532419 0 0.0018471660998307764 0.0019420598248843484 0 0.0017065601070373878 0.0014210734110102108 0 0.0021961077430088047 0.0013676989213894368 0 0.0017065601070373878 0.0014210734110102108 0 0.0014230653236794084 0.00099099018269188546 0 0.0011938057698168579 0.0012357007139958082 0 0.0016731687284393642 0.0014084827236078938 0 0.0011922463547514529 0.001364620407616363 0 0.0013824521164051778 0.0019701430748608616 0 0.0017065601070373878 0.0014210734110102108 0 0.0011788108664227079 0.0014918403493223741 0 0.0014230653236794084 0.00099099018269188546 0 0.0011938057698168579 0.0012357007139958082 0 0.0011148167364886223 0.00091544096630487802 0 0.0025086414409270889 0.00056009400148589162 0 0.0012386669758048887 0.0018771874950786591 0 0.0027146978089601682 0.0023262013069035286 0 0.0029842839738233157 0.0016674719629921901 0 0.0022956420446254241 0.0019556614778284557 0 0.0027146978089601682 0.0023262013069035286 0 0.0029842839738233157 0.0016674719629921901 0 0.0033462722284356926 0.0023579534424988668 0 0.0029842839738233157 0.0016674719629921901 0 0.0022956420446254241 0.0019556614778284557 0 0.0021961077430088047 0.0013676989213894368 0 0.0029842839738233157 0.0016674719629921901 0 0.0021961077430088047 0.0013676989213894368 0 0.0025675293233822089 0.00093074503054909393 0 0.0021961077430088047 0.0013676989213894368 0 0.0025675293233822089 0.00093074503054909393 0 0.0017657176901471627 0.00076626115872532419 0 0.0018604767319725813 -0.00035568176734576137 0 0.001988320735848273 -8.9799136137960604e-05 0 0.0017484356085785086 -0.00020273358921834986 0 0.0025086414409270889 0.00056009400148589162 0 0.0022557070469192636 0.00043514522494911701 0 0.001988320735848273 -8.9799136137960604e-05 0 0.0017803550059314573 1.6850084390181224e-05 0 0.0017484356085785086 -0.00020273358921834986 0 0.001988320735848273 -8.9799136137960604e-05 0 0.0019473432917702796 0.00013368680635646773 0 0.0017803550059314573 1.6850084390181224e-05 0 0.0025675293233822089 0.00093074503054909393 0 0.0020079820479944319 0.00021741598597850285 0 0.0017657176901471627 0.00076626115872532419 0 0.0022557070469192636 0.00043514522494911701 0 0.0020485854024357769 0.00021809591463492687 0 0.001988320735848273 -8.9799136137960604e-05 0 0.0020079820479944319 0.00021741598597850285 0 0.0019473432917702796 0.00013368680635646773 0 0.0019812081458155484 -3.3010357487645915e-05 0 0.0020079820479944319 0.00021741598597850285 0 0.0019473432917702796 0.00013368680635646773 0 0.0019473432917702796 0.00013368680635646773 0 0.0018388240916757676 0.00020380956780685573 0 0.0017803550059314573 1.6850084390181224e-05 0 0.0014230653236794084 0.00099099018269188546 0 0.0012461749951124721 0.00059453925078518152 0 0.0017657176901471627 0.00076626115872532419 0 0.0012461749951124721 0.00059453925078518152 0 0.0017657176901471627 0.00076626115872532419 0 0.0015151712699465517 0.0001787335221296981 0 0.0014230653236794084 0.00099099018269188546 0 0.0012461749951124721 0.00059453925078518152 0 0.0011148167364886223 0.00091544096630487802 0 0.0020079820479944319 0.00021741598597850285 0 0.0017657176901471627 0.00076626115872532419 0 0.0015151712699465517 0.0001787335221296981 0 0.0019812081458155484 -3.3010357487645915e-05 0 0.0020079820479944319 0.00021741598597850285 0 0.0015151712699465517 0.0001787335221296981 0 0.0012461749951124721 0.00059453925078518152 0 0.0015151712699465517 0.0001787335221296981 0 0.00091151773987886199 0.00015590384971227015 0 0.0012461749951124721 0.00059453925078518152 0 0.00091151773987886199 0.00015590384971227015 0 0.00088384291359829275 0.00065436772395056724 0 0.00088384291359829275 0.00065436772395056724 0 0.0011148167364886223 0.00091544096630487802 0 0.00086507769414659015 0.0010483351410519081 0 0.00088384291359829275 0.00065436772395056724 0 0.00086507769414659015 0.0010483351410519081 0 0.00063072013839860842 0.00092594823677871719 0 0.0012461749951124721 0.00059453925078518152 0 0.00088384291359829275 0.00065436772395056724 0 0.0011148167364886223 0.00091544096630487802 0 0.00091151773987886199 0.00015590384971227015 0 0.00088384291359829275 0.00065436772395056724 0 0.00049993518090564243 0.00064060057448423824 0 0.00049993518090564243 0.00064060057448423824 0 0.00028184946331506988 0.0011285750419414479 0 0.00063072013839860842 0.00092594823677871719 0 0.00088384291359829275 0.00065436772395056724 0 0.00049993518090564243 0.00064060057448423824 0 0.00063072013839860842 0.00092594823677871719 0 0.00092194447560288917 0.00015644475661241283 0 0.00042324578685133679 6.7746134803277886e-05 0 0.00091151773987886199 0.00015590384971227015 0 0.00049993518090564243 0.00064060057448423824 0 0.0002480710322635158 0.00016756736994223587 0 0.0002480710322635158 0.00016756736994223587 0 -0.00035264274282893152 0.00015631694568013062 0 -0.00029078257976132641 0.00062911053647204062 0 0.0004361552143960148 0.00052119369048782391 0 0.00041755537198763065 0.00071167426502819788 0 0.00042324578685133679 6.7746134803277886e-05 0 0.0004361552143960148 0.00052119369048782391 0 0.00064489741932257088 -4.6041991944329595e-05 0 0.00072755313535883452 4.7269451258345426e-05 0 0.00054858900705973294 2.4609318393739295e-06 0 0.00043274849708634707 0.00043693613589191758 0 0.0004361552143960148 0.00052119369048782391 0 0.00041755537198763065 0.00071167426502819788 0 0.0006889879029611664 0.0013198443340786876 0 -0.00029078257976132641 0.00062911053647204062 0 0.00010881615374184498 0.00074477716141791545 0 -0.00022153955128805449 0.0011034885990399374 0 0.00049993518090564243 0.00064060057448423824 0 0.0002480710322635158 0.00016756736994223587 0 0.00010881615374184498 0.00074477716141791545 0 0.0002480710322635158 0.00016756736994223587 0 -0.00029078257976132641 0.00062911053647204062 0 0.00010881615374184498 0.00074477716141791545 0 0.00049993518090564243 0.00064060057448423824 0 0.00010881615374184498 0.00074477716141791545 0 0.00028184946331506988 0.0011285750419414479 0 0.00010881615374184498 0.00074477716141791545 0 0.00028184946331506988 0.0011285750419414479 0 -0.00022153955128805449 0.0011034885990399374 0 0.00066843838869064286 0.0017774931064134926 0 0.00050191984466063135 0.0017683487978422145 0 0.00062139573440101782 0.0018889479721434916 0 0.00038335213960404322 0.0014555768485077073 0 0.0006889879029611664 0.0013198443340786876 0 0.0013475642022535495 0.00068723468201387398 0 0.0011498343326293956 0.00090899435247876958 0 0.0011165123324441918 0.0006788127433221754 0 0.001416336673409218 0.0017702470804409258 0 0.0011087610010291752 0.0016751054930905633 0 0.0011633488406810858 0.0020655545455711736 0 0.00053115466154405038 0.0019780159890454519 0 0.00050191984466063135 0.0017683487978422145 0 0.00062139573440101782 0.0018889479721434916 0 0.0010036300672433191 0.0023939613151449414 0 0.0006889879029611664 0.0013198443340786876 0 0.0010963816849409135 0.0023470593367644864 0 0.0010036300672433191 0.0023939613151449414 0 0.00066843838869064286 0.0017774931064134926 0 0.00062139573440101782 0.0018889479721434916 0 0.00074646772131305454 0.0019012854411886071 0 0.00065806952865779859 0.0020200079267091481 0 0.00053115466154405038 0.0019780159890454519 0 0.00062139573440101782 0.0018889479721434916 0 0.00065806952865779859 0.0020200079267091481 0 0.00062139573440101782 0.0018889479721434916 0 0.00074646772131305454 0.0019012854411886071 0 0.00065958495563837806 0.0025246519866375214 0 0.00044735250705830895 0.001959187782480849 0 0.00018966091623126292 0.0019545099820464191 0 0.00086789696603798772 0.0017935973145635281 0 0.00058122061024218417 0.0014686079645712389 0 0.00044735250705830895 0.001959187782480849 0 0.00076302981019491954 0.001451258134970469 0 0.00090426898202419423 0.002280313771882102 0 0.0013824521164051778 0.0019701430748608616 0 0.00086789696603798772 0.0017935973145635281 0 0.00090426898202419423 0.002280313771882102 0 0.00018966091623126292 0.0019545099820464191 0 0.00086789696603798772 0.0017935973145635281 0 0.0011788108664227079 0.0014918403493223741 0 0.00086789696603798772 0.0017935973145635281 0 0.00058122061024218417 0.0014686079645712389 0 0.0011922463547514529 0.001364620407616363 0 0.00076302981019491954 0.001451258134970469 0 0.0011938057698168579 0.0012357007139958082 0 0.00086507769414659015 0.0010483351410519081 0 0.00077467284895992201 0.0011612251549603747 0 0.0011938057698168579 0.0012357007139958082 0 0.0011148167364886223 0.00091544096630487802 0 0.00086507769414659015 0.0010483351410519081 0 0.00087501563225377552 0.0012295571549739686 0 0.00076302981019491954 0.001451258134970469 0 0.00028184946331506988 0.0011285750419414479 0 0.00063072013839860842 0.00092594823677871719 0 0.0007776725256283891 0.0011578217788907482 0 0.00086507769414659015 0.0010483351410519081 0 0.00063072013839860842 0.00092594823677871719 0 0.0007776725256283891 0.0011578217788907482 0 0.00038335213960404322 0.0014555768485077073 0 0.00076302981019491954 0.001451258134970469 0 0.00066843838869064286 0.0017774931064134926 0 0.00074646772131305454 0.0019012854411886071 0 0.00083525132168834151 0.001783552696099902 0 0.0049999921153727868 0.0011126783530085935 0 0.0052246102287751249 0.0011721957754977684 0 0.0052079650843682001 0.00090020814641742354 0 0.0052246102287751249 0.0011721957754977684 0 0.0053166263303720427 0.0010215632013939227 0 0.0052079650843682001 0.00090020814641742354 0 0.0049999921153727868 0.0011126783530085935 0 0.0052246102287751249 0.0011721957754977684 0 0.0049999793359510282 0.0014068166038030874 0 0.0052246102287751249 0.0011721957754977684 0 0.0053608120343515255 0.0011597185250670442 0 0.0053681926677260662 0.0012443746648787288 0 0.0052246102287751249 0.0011721957754977684 0 0.0053608120343515255 0.0011597185250670442 0 0.0053166263303720427 0.0010215632013939227 0 0.0053608120343515255 0.0011597185250670442 0 0.005382343940276489 0.00121646114208039 0 0.0053681926677260662 0.0012443746648787288 0 0.0053608120343515255 0.0011597185250670442 0 0.0054114126046065757 0.0010378851897966939 0 0.005382343940276489 0.00121646114208039 0 0.0054114126046065757 0.0010378851897966939 0 0.0053166263303720427 0.0010215632013939227 0 0.0053793254977580517 0.00089763797595458729 0 0.0053608120343515255 0.0011597185250670442 0 0.0054114126046065757 0.0010378851897966939 0 0.0053166263303720427 0.0010215632013939227 0 0.0053793254977580517 0.00089763797595458729 0 0.0053607788820422232 0.00076755965292521315 0 0.0052079650843682001 0.00090020814641742354 0 0.0053166263303720427 0.0010215632013939227 0 0.0053793254977580517 0.00089763797595458729 0 0.0052079650843682001 0.00090020814641742354 0 0.0053793254977580517 0.00089763797595458729 0 0.0054482868190343968 0.00078652714869780025 0 0.005499941987289138 0.000882960226265986 0 0.0054114126046065757 0.0010378851897966939 0 0.0053793254977580517 0.00089763797595458729 0 0.005499941987289138 0.000882960226265986 0 0.0054482868190343968 0.00078652714869780025 0 0.0053607788820422232 0.00076755965292521315 0 0.0054553434314363403 0.00071221312273385591 0 0.0053711010865766179 0.00076075969800535226 0 0.0055106616825305313 0.00065603338250622373 0 0.0053793254977580517 0.00089763797595458729 0 0.0054482868190343968 0.00078652714869780025 0 0.0053607788820422232 0.00076755965292521315 0 0.0054482868190343968 0.00078652714869780025 0 0.0054553434314363403 0.00071221312273385591 0 0.0055026357634381925 0.00073379535863781972 0 0.0053607788820422232 0.00076755965292521315 0 0.0051911915999982555 0.00065817255368974656 0 0.0053755268171034919 0.00057808997097961057 0 0.0053607788820422232 0.00076755965292521315 0 0.0051911915999982555 0.00065817255368974656 0 0.0052079650843682001 0.00090020814641742354 0 0.0049999921153727868 0.0011126783530085935 0 0.0052079650843682001 0.00090020814641742354 0 0.0049999759024724876 0.00081857490643712303 0 0.0051911915999982555 0.00065817255368974656 0 0.0049999759024724876 0.00081857490643712303 0 0.0049999789303869363 0.00052440535076267458 0 0.0051911915999982555 0.00065817255368974656 0 0.0052079650843682001 0.00090020814641742354 0 0.0049999759024724876 0.00081857490643712303 0 0.0051911915999982555 0.00065817255368974656 0 0.0049999789303869363 0.00052440535076267458 0 0.0052098109700479244 0.00044808444648383717 0 0.0051911915999982555 0.00065817255368974656 0 0.0052098109700479244 0.00044808444648383717 0 0.0053755268171034919 0.00057808997097961057 0 0.0049999789303869363 0.00052440535076267458 0 0.0052098109700479244 0.00044808444648383717 0 0.0049999867075656507 0.00023023687114791811 0 0.0052098109700479244 0.00044808444648383717 0 0.0049999867075656507 0.00023023687114791811 0 0.0052928935794693812 0.00024933075850218161 0 0.0049999867075656507 0.00023023687114791811 0 0.0052134832853618154 6.73762424599534e-05 0 0.0052928935794693812 0.00024933075850218161 0 0.0049999920987758659 -6.3920262769431144e-05 0 0.0049999867075656507 0.00023023687114791811 0 0.0052134832853618154 6.73762424599534e-05 0 0.0056055646804333637 -9.8112886919059935e-05 0 0.0054528979361668914 3.0403516916733237e-05 0 0.0056278494412313248 0.00013505040953640257 0 0.0054528979361668914 3.0403516916733237e-05 0 0.0054718178511594549 0.00029745205345655339 0 0.0056278494412313248 0.00013505040953640257 0 0.0052134832853618154 6.73762424599534e-05 0 0.0054528979361668914 3.0403516916733237e-05 0 0.0052928935794693812 0.00024933075850218161 0 0.0053058360808336319 -0.0001019309818314629 0 0.0052134832853618154 6.73762424599534e-05 0 0.0054528979361668914 3.0403516916733237e-05 0 0.0054528979361668914 3.0403516916733237e-05 0 0.0052928935794693812 0.00024933075850218161 0 0.0054718178511594549 0.00029745205345655339 0 0.0052928935794693812 0.00024933075850218161 0 0.0054718178511594549 0.00029745205345655339 0 0.0053911382924915893 0.00040693683433159383 0 0.0054718178511594549 0.00029745205345655339 0 0.005546706324383986 0.00036920128503486902 0 0.0056149221079866583 0.00016363444223324632 0 0.0054841619750481806 0.00028513793765939634 0 0.0056159552742240772 0.00015330087948374938 0 0.005546706324383986 0.00036920128503486902 0 0.0053911382924915893 0.00040693683433159383 0 0.0054989671572287869 0.00049401369588531017 0 0.0054718178511594549 0.00029745205345655339 0 0.005546706324383986 0.00036920128503486902 0 0.0053911382924915893 0.00040693683433159383 0 0.005546706324383986 0.00036920128503486902 0 0.0054989671572287869 0.00049401369588531017 0 0.0056616561346837886 0.00034591799349783776 0 0.0054992259639202162 0.00048983242970834903 0 0.0056932327582464208 0.00034873073257357814 0 0.0052098109700479244 0.00044808444648383717 0 0.0052928935794693812 0.00024933075850218161 0 0.0053911382924915893 0.00040693683433159383 0 0.0052098109700479244 0.00044808444648383717 0 0.0053911382924915893 0.00040693683433159383 0 0.0053755268171034919 0.00057808997097961057 0 0.0053911382924915893 0.00040693683433159383 0 0.0053755268171034919 0.00057808997097961057 0 0.0054989671572287869 0.00049401369588531017 0 0.0054989671572287869 0.00049401369588531017 0 0.0055631070561668397 0.00059440274938084466 0 0.0057183031615988021 0.00045288528380866075 0 0.0053607788820422232 0.00076755965292521315 0 0.0053755268171034919 0.00057808997097961057 0 0.0055631070561668397 0.00059440274938084466 0 0.0053755268171034919 0.00057808997097961057 0 0.0054989671572287869 0.00049401369588531017 0 0.0055631070561668397 0.00059440274938084466 0 0.0055026357634381925 0.00073379535863781972 0 0.0055566862489628329 0.00074081760804088203 0 0.0055580213601817557 0.00062823710675846212 0 0.0055106616825305313 0.00065603338250622373 0 0.00558308307605823 0.00049524898296340392 0 0.0055566862489628329 0.00074081760804088203 0 0.0055995450264795027 0.00070686895640443886 0 0.0055580213601817557 0.00062823710675846212 0 0.0054891839459914266 0.00076654704017450502 0 0.00558308307605823 0.00049524898296340392 0 0.0054553434314363403 0.00071221312273385591 0 0.0055026357634381925 0.00073379535863781972 0 0.0055609070076245654 0.00062019706774787845 0 0.0056381709702911058 0.00070948118704216819 0 0.0056776310561987503 0.0006447361954162236 0 0.0056846521925631435 0.00076821329646193249 0 0.0055566862489628329 0.00074081760804088203 0 0.0055995450264795027 0.00070686895640443886 0 0.0056129624098326253 0.00077478138271503468 0 0.0056381709702911058 0.00070948118704216819 0 0.0055995450264795027 0.00070686895640443886 0 0.0056129624098326253 0.00077478138271503468 0 0.0056381709702911058 0.00070948118704216819 0 0.0055995450264795027 0.00070686895640443886 0 0.005620865089520078 0.00065020461838248415 0 0.0055995450264795027 0.00070686895640443886 0 0.005620865089520078 0.00065020461838248415 0 0.0055580213601817557 0.00062823710675846212 0 0.0056381709702911058 0.00070948118704216819 0 0.005620865089520078 0.00065020461838248415 0 0.0056776310561987503 0.0006447361954162236 0 0.005620865089520078 0.00065020461838248415 0 0.0056732079295164139 0.00052657694381372049 0 0.0056776310561987503 0.0006447361954162236 0 0.005620865089520078 0.00065020461838248415 0 0.0055580213601817557 0.00062823710675846212 0 0.0056732079295164139 0.00052657694381372049 0 0.00558308307605823 0.00049524898296340392 0 0.0055926325509529024 0.00019895851086474331 0 0.00558308307605823 0.00049524898296340392 0 0.0051608693023109118 0.00037537791692997648 0 0.0056664219515644675 0.00036685419659446137 0 0.0057183031615988021 0.00045288528380866075 0 0.005819962425535361 0.00024138195588478161 0 0.0054989671572287869 0.00049401369588531017 0 0.0056664219515644675 0.00036685419659446137 0 0.0057183031615988021 0.00045288528380866075 0 0.0056616561346837886 0.00034591799349783776 0 0.005705032818612313 0.00021736192553181816 0 0.0058037111398833484 0.00021979480893603897 0 0.005546706324383986 0.00036920128503486902 0 0.0056616561346837886 0.00034591799349783776 0 0.0056149221079866583 0.00016363444223324632 0 0.0056616561346837886 0.00034591799349783776 0 0.005705032818612313 0.00021736192553181816 0 0.0056149221079866583 0.00016363444223324632 0 0.0053908220826501202 0.00031788493104737304 0 0.0053787189240200942 0.00033011812301895241 0 0.0053725126829102347 0.00032620599785646595 0 0.0056932327582464208 0.00034873073257357814 0 0.0055926325509529024 0.00019895851086474331 0 0.0055926325509529024 0.00019895851086474331 0 0.0050258060405820402 0.00017728699601198629 0 0.0053787189240200942 0.00033011812301895241 0 0.0053710549343664879 0.00033394320709354198 0 0.0053725126829102347 0.00032620599785646595 0 0.005705032818612313 0.00021736192553181816 0 0.0058037111398833484 0.00021979480893603897 0 0.0057483489230582335 0.00014505492067212034 0 0.0058037111398833484 0.00021979480893603897 0 0.0057483489230582335 0.00014505492067212034 0 0.005868343938643307 8.4811064331506469e-05 0 0.0053417071005662925 0.00013497631306865927 0 0.0053391696511528872 0.00013246459316299132 0 0.0053402696366033377 0.00013383167862403633 0 0.0055926325509529024 0.00019895851086474331 0 0.0052593077014859956 -4.6674330455540475e-06 0 0.0057442044080817803 4.0442601843475721e-05 0 0.0057483489230582335 0.00014505492067212034 0 0.005868343938643307 8.4811064331506469e-05 0 0.0056055646804333637 -9.8112886919059935e-05 0 0.0057727018963418522 -2.2560517361560217e-05 0 0.0056278494412313248 0.00013505040953640257 0 0.0057442044080817803 4.0442601843475721e-05 0 0.0057483489230582335 0.00014505492067212034 0 0.0056149221079866583 0.00016363444223324632 0 0.00577097012623814 9.0164501536774729e-06 0 0.0056159552742240772 0.00015330087948374938 0 0.005705032818612313 0.00021736192553181816 0 0.0057483489230582335 0.00014505492067212034 0 0.0056149221079866583 0.00016363444223324632 0 0.0049688980578947587 -0.00015107121599028026 0 0.0050233449878811795 -0.00021706397850186727 0 0.0051735296584110276 7.018553943180026e-05 0 0.004934094737791766 7.8431542117049299e-05 0 0.0049456750302129381 0.00020925130409169367 0 0.0051735296584110276 7.018553943180026e-05 0 0.0049688980578947587 -0.00015107121599028026 0 0.004934094737791766 7.8431542117049299e-05 0 0.0051735296584110276 7.018553943180026e-05 0 0.0049688980578947587 -0.00015107121599028026 0 0.004799396833625914 -0.00011355341818767855 0 0.0046820267304520657 7.3112313021089464e-05 0 0.004934094737791766 7.8431542117049299e-05 0 0.0046463970913113708 0.00011946717492768306 0 0.0047943610510194625 0.00019247039686390706 0 0.0049688980578947587 -0.00015107121599028026 0 0.004934094737791766 7.8431542117049299e-05 0 0.0046463970913113708 0.00011946717492768306 0 0.0048341837567147695 -0.00013140806871016989 0 0.0050258060405820402 0.00017728699601198629 0 0.004799396833625914 -0.00011355341818767855 0 0.0046821163742563933 -5.6221045012395113e-05 0 0.0046820267304520657 7.3112313021089464e-05 0 0.0052593077014859956 -4.6674330455540475e-06 0 0.0050258060405820402 0.00017728699601198629 0 0.0047943610510194625 0.00019247039686390706 0 0.0048282901974361246 0.00031631309919326035 0 0.0049456750302129381 0.00020925130409169367 0 0.0047661622186950968 0.00033322288947448234 0 0.0051608693023109118 0.00037537791692997648 0 0.0050258060405820402 0.00017728699601198629 0 0.0051608693023109118 0.00037537791692997648 0 0.0046463970913113708 0.00011946717492768306 0 0.0047943610510194625 0.00019247039686390706 0 0.0046494483694393528 0.00031605258098807193 0 0.0047943610510194625 0.00019247039686390706 0 0.0046452765267427348 0.00032216798751863175 0 0.0048282901974361246 0.00031631309919326035 0 0.0046452765267427348 0.00032216798751863175 0 0.0048282901974361246 0.00031631309919326035 0 0.0047562698988513584 0.00048001907915702456 0 0.0048282901974361246 0.00031631309919326035 0 0.0049456750302129381 0.00020925130409169367 0 0.0050017335395520415 0.00036633276538707834 0 0.0050803194146573404 0.00088940801066836339 0 0.0040928063367204138 -8.3531373737773365e-05 0 0.0049456750302129381 0.00020925130409169367 0 0.0050017335395520415 0.00036633276538707834 0 0.0051735296584110276 7.018553943180026e-05 0 0.0048282901974361246 0.00031631309919326035 0 0.0050017335395520415 0.00036633276538707834 0 0.0047562698988513584 0.00048001907915702456 0 0.004934094737791766 7.8431542117049299e-05 0 0.0047943610510194625 0.00019247039686390706 0 0.0049456750302129381 0.00020925130409169367 0 0.0050017335395520415 0.00036633276538707834 0 0.0047562698988513584 0.00048001907915702456 0 0.0048278700405952005 0.00066070511353714576 0 0.0050239637864951123 0.0013104001349792866 0 0.0050199955281932888 0.0013824128195169415 0 0.005055932839197628 0.0013734754359565917 0 0.0050803194146573404 0.00088940801066836339 0 0.0048932866526264912 0.0010456772234735091 0 0.0051608693023109118 0.00037537791692997648 0 0.0051665142885402356 0.0006118864352769941 0 0.0046452765267427348 0.00032216798751863175 0 0.0047562698988513584 0.00048001907915702456 0 0.0046484450876511183 0.00063807595586565105 0 0.0047562698988513584 0.00048001907915702456 0 0.0046484450876511183 0.00063807595586565105 0 0.0048278700405952005 0.00066070511353714576 0 0.0051665142885402356 0.0006118864352769941 0 0.0050902475666616733 0.0010718033351176611 0 0.0046484450876511183 0.00063807595586565105 0 0.0048278700405952005 0.00066070511353714576 0 0.0046540387732732199 0.00095363021253042632 0 0.0050199955281932888 0.0013824128195169415 0 0.0050535776391294612 0.0014158637512032119 0 0.005064681444337615 0.0014172332762925136 0 0.0050199955281932888 0.0013824128195169415 0 0.0050373286472126791 0.001412182098287044 0 0.0050535776391294612 0.0014158637512032119 0 0.0048932866526264912 0.0010456772234735091 0 0.0050902475666616733 0.0010718033351176611 0 0.0050199955281932888 0.0013824128195169415 0 0.0050373286472126791 0.001412182098287044 0 0.005055932839197628 0.0013734754359565917 0 0.0050373286472126791 0.001412182098287044 0 0.0050561848868822604 0.0014088469041940806 0 0.005055932839197628 0.0013734754359565917 0 0.0050447533413279025 0.0014018523198127684 0 0.0049977155237191503 0.0013953625282501455 0 0.0049957282976205771 0.0014247828479370997 0 0.0050373286472126791 0.001412182098287044 0 0.0050447533413279025 0.0014018523198127684 0 0.0049957282976205771 0.0014247828479370997 0 0.0050222362574043481 0.0014093583624818187 0 0.0050590701888847201 0.001425087617670965 0 0.0050373286472126791 0.001412182098287044 0 0.0050447533413279025 0.0014018523198127684 0 0.0050535776391294612 0.0014158637512032119 0 0.005019817239432337 0.0013759805457856866 0 0.0050487229636638859 0.0013493107869423967 0 0.004986599334504252 0.0013539387956918827 0 0.0050447533413279025 0.0014018523198127684 0 0.005019817239432337 0.0013759805457856866 0 0.0050487229636638859 0.0013493107869423967 0 0.0050447533413279025 0.0014018523198127684 0 0.005019817239432337 0.0013759805457856866 0 0.0049977155237191503 0.0013953625282501455 0 0.005019817239432337 0.0013759805457856866 0 0.004986599334504252 0.0013539387956918827 0 0.0049977155237191503 0.0013953625282501455 0 0.0050447533413279025 0.0014018523198127684 0 0.0050936658648117524 0.0013893147768998953 0 0.0050487229636638859 0.0013493107869423967 0 0.0050447533413279025 0.0014018523198127684 0 0.0050936658648117524 0.0013893147768998953 0 0.0050698790947540069 0.0014066016142138327 0 0.0050936658648117524 0.0013893147768998953 0 0.0050823741152324032 0.0014208704491280408 0 0.0050698790947540069 0.0014066016142138327 0 0.0050823741152324032 0.0014208704491280408 0 0.0050698790947540069 0.0014066016142138327 0 0.0050535776391294612 0.0014158637512032119 0 0.0050447533413279025 0.0014018523198127684 0 0.0050698790947540069 0.0014066016142138327 0 0.0050535776391294612 0.0014158637512032119 0 0.0050823741152324032 0.0014208704491280408 0 0.0050535776391294612 0.0014158637512032119 0 0.005064681444337615 0.0014172332762925136 0 0.0050871728998126003 0.0012960369543335677 0 0.0050902475666616733 0.0010718033351176611 0 0.0050902475666616733 0.0010718033351176611 0 0.0054192134387849242 0.0011279261982872044 0 0.0056129624098326253 0.00077478138271503468 0 0.0055633878543215011 0.00081556446054368312 0 0.0056281820744630119 0.00088767651266223992 0 0.0056846521925631435 0.00076821329646193249 0 0.0056129624098326253 0.00077478138271503468 0 0.0056281820744630119 0.00088767651266223992 0 0.0050823741152324032 0.0014208704491280408 0 0.0050745305568724751 0.0014345393898571651 0 0.0051579566899738402 0.0014002866914173137 0 0.0056381709702911058 0.00070948118704216819 0 0.0056846521925631435 0.00076821329646193249 0 0.0056129624098326253 0.00077478138271503468 0 0.0055566862489628329 0.00074081760804088203 0 0.0056129624098326253 0.00077478138271503468 0 0.0055633878543215011 0.00081556446054368312 0 0.0055026357634381925 0.00073379535863781972 0 0.0055566862489628329 0.00074081760804088203 0 0.0055087342783670147 0.00079149805909912421 0 0.0054482868190343968 0.00078652714869780025 0 0.0055026357634381925 0.00073379535863781972 0 0.0055087342783670147 0.00079149805909912421 0 0.0055566862489628329 0.00074081760804088203 0 0.0055087342783670147 0.00079149805909912421 0 0.0055633878543215011 0.00081556446054368312 0 0.0055087342783670147 0.00079149805909912421 0 0.0055633878543215011 0.00081556446054368312 0 0.005499941987289138 0.000882960226265986 0 0.0054482868190343968 0.00078652714869780025 0 0.0055087342783670147 0.00079149805909912421 0 0.005499941987289138 0.000882960226265986 0 0.0055633878543215011 0.00081556446054368312 0 0.005499941987289138 0.000882960226265986 0 0.0056281820744630119 0.00088767651266223992 0 0.005499941987289138 0.000882960226265986 0 0.0056281820744630119 0.00088767651266223992 0 0.0055495687044271099 0.0010380821502670855 0 0.0054192134387849242 0.0011279261982872044 0 0.0053969046539443025 0.0011877964912108566 0 0.0050936658648117524 0.0013893147768998953 0 0.0051579566899738402 0.0014002866914173137 0 0.0051356641410460931 0.0013284442213579121 0 0.0050936658648117524 0.0013893147768998953 0 0.0050823741152324032 0.0014208704491280408 0 0.0051579566899738402 0.0014002866914173137 0 0.0051356641410460931 0.0013284442213579121 0 0.0052552289757001984 0.0013398614756689675 0 0.0052432039442866429 0.0012203368525615646 0 0.0051579566899738402 0.0014002866914173137 0 0.0051356641410460931 0.0013284442213579121 0 0.0052552289757001984 0.0013398614756689675 0 0.0053969046539443025 0.0011877964912108566 0 0.0053892359063101962 0.0012076857598730941 0 0.0054114126046065757 0.0010378851897966939 0 0.0055495687044271099 0.0010380821502670855 0 0.005382343940276489 0.00121646114208039 0 0.0054114126046065757 0.0010378851897966939 0 0.005499941987289138 0.000882960226265986 0 0.0055495687044271099 0.0010380821502670855 0 0.0052552289757001984 0.0013398614756689675 0 0.005382343940276489 0.00121646114208039 0 0.0052432039442866429 0.0012203368525615646 0 0.0051356641410460931 0.0013284442213579121 0 0.0052432039442866429 0.0012203368525615646 0 0.0051354669829232827 0.0012429606019234659 0 0.0051356641410460931 0.0013284442213579121 0 0.0051354669829232827 0.0012429606019234659 0 0.0050779860287050579 0.0013021851176326484 0 0.0051354669829232827 0.0012429606019234659 0 0.005061983682313146 0.0012531019351179062 0 0.0050779860287050579 0.0013021851176326484 0 0.0051354669829232827 0.0012429606019234659 0 0.005061983682313146 0.0012531019351179062 0 0.0050777272578768299 0.0012030821875765581 0 0.005061983682313146 0.0012531019351179062 0 0.0050275870104161957 0.001289004553001037 0 0.0049981267425149431 0.001229920024050087 0 0.0050275870104161957 0.001289004553001037 0 0.0049797436916244348 0.0012742438890603043 0 0.0049981267425149431 0.001229920024050087 0 0.0050275870104161957 0.001289004553001037 0 0.0049950181190797898 0.0013165945109827255 0 0.0049797436916244348 0.0012742438890603043 0 0.005061983682313146 0.0012531019351179062 0 0.0050275870104161957 0.001289004553001037 0 0.0050779860287050579 0.0013021851176326484 0 0.0050275870104161957 0.001289004553001037 0 0.0050487229636638859 0.0013493107869423967 0 0.0050779860287050579 0.0013021851176326484 0 0.0049950181190797898 0.0013165945109827255 0 0.0050487229636638859 0.0013493107869423967 0 0.004986599334504252 0.0013539387956918827 0 0.0050275870104161957 0.001289004553001037 0 0.0049950181190797898 0.0013165945109827255 0 0.0050487229636638859 0.0013493107869423967 0 0.0051356641410460931 0.0013284442213579121 0 0.0050487229636638859 0.0013493107869423967 0 0.0050779860287050579 0.0013021851176326484 0 0.0050936658648117524 0.0013893147768998953 0 0.0051356641410460931 0.0013284442213579121 0 0.0050487229636638859 0.0013493107869423967 0 0.0048698636608920905 0.0013358412835017429 0 0.0049272932665849131 0.0013440587311972303 0 0.004892885979959718 0.0012922581110759597 0 0.0049272932665849131 0.0013440587311972303 0 0.0049515714925329858 0.0013046646519107696 0 0.004892885979959718 0.0012922581110759597 0 0.0048698636608920905 0.0013358412835017429 0 0.004892885979959718 0.0012922581110759597 0 0.0048312637425735076 0.0012837593661029867 0 0.0048698636608920905 0.0013358412835017429 0 0.0049272932665849131 0.0013440587311972303 0 0.0048936628750668931 0.0013800933852384555 0 0.0049272932665849131 0.0013440587311972303 0 0.004986599334504252 0.0013539387956918827 0 0.0049515714925329858 0.0013046646519107696 0 0.0049950181190797898 0.0013165945109827255 0 0.0049515714925329858 0.0013046646519107696 0 0.0049797436916244348 0.0012742438890603043 0 0.0049950181190797898 0.0013165945109827255 0 0.004986599334504252 0.0013539387956918827 0 0.0049515714925329858 0.0013046646519107696 0 0.0049515714925329858 0.0013046646519107696 0 0.0049797436916244348 0.0012742438890603043 0 0.0049354181280557782 0.0012576427432913725 0 0.0049515714925329858 0.0013046646519107696 0 0.0049354181280557782 0.0012576427432913725 0 0.004892885979959718 0.0012922581110759597 0 0.0049797436916244348 0.0012742438890603043 0 0.0049354181280557782 0.0012576427432913725 0 0.0049981267425149431 0.001229920024050087 0 0.0049354181280557782 0.0012576427432913725 0 0.004892885979959718 0.0012922581110759597 0 0.0048603694262459203 0.0012431011475649962 0 0.004892885979959718 0.0012922581110759597 0 0.0048312637425735076 0.0012837593661029867 0 0.0048603694262459203 0.0012431011475649962 0 0.0048125230786397475 0.0012455526009652964 0 0.0048312637425735076 0.0012837593661029867 0 0.0048603694262459203 0.0012431011475649962 0 0.0047921619519377279 0.0012651672916303329 0 0.0048125230786397475 0.0012455526009652964 0 0.0047797753641566146 0.001219893337197736 0 0.0047921619519377279 0.0012651672916303329 0 0.0048125230786397475 0.0012455526009652964 0 0.0048312637425735076 0.0012837593661029867 0 0.0047921619519377279 0.0012651672916303329 0 0.0048312637425735076 0.0012837593661029867 0 0.0047944129944370176 0.0012983899759863755 0 0.0043042593956592341 0.0012062762467332888 0 0.0048123800853358926 0.0012009477750527407 0 0.00473875672227397 0.001242606974020588 0 0.0047422929579975627 0.001254407205078622 0 0.0047797753641566146 0.001219893337197736 0 0.0034478775183718665 0.001108769495466506 0 0.003454698539293124 0.0011199227810744724 0 0.0034663923136577131 0.0012006656036876826 0 0.0047921619519377279 0.0012651672916303329 0 0.004750572061337068 0.0012838143505731728 0 0.0047797753641566146 0.001219893337197736 0 0.0039242980114185515 0.0011638284002820269 0 0.0038864108164747588 0.0011322810385540926 0 0.0047921619519377279 0.0012651672916303329 0 0.004750572061337068 0.0012838143505731728 0 0.0047944129944370176 0.0012983899759863755 0 0.0039242980114185515 0.0011638284002820269 0 0.0043042593956592341 0.0012062762467332888 0 0.003822697410713752 0.0011409432831963248 0 0.003804568727520235 0.0011068149002006688 0 0.0038655762881190147 0.00098265226708834697 0 0.0040775668698641307 0.0011237849308173909 0 0.0040492967063553197 0.001070185245278714 0 0.0041010127857805858 0.001048831208510199 0 0.0043042593956592341 0.0012062762467332888 0 0.0036430832592560559 0.00087896611948195592 0 0.0043042593956592341 0.0012062762467332888 0 0.0044444235052008832 0.0012742438988011678 0 0.004750572061337068 0.0012838143505731728 0 0.0047776908324004014 0.0013385009994777903 0 0.0047944129944370176 0.0012983899759863755 0 0.0047776908324004014 0.0013385009994777903 0 0.0048188438162067547 0.0013248529405710354 0 0.0048056319036819447 0.0013957422040152389 0 0.0048698636608920905 0.0013358412835017429 0 0.0048188438162067547 0.0013248529405710354 0 0.0048056319036819447 0.0013957422040152389 0 0.0048698636608920905 0.0013358412835017429 0 0.0048312637425735076 0.0012837593661029867 0 0.0048188438162067547 0.0013248529405710354 0 0.0048312637425735076 0.0012837593661029867 0 0.0047944129944370176 0.0012983899759863755 0 0.0048188438162067547 0.0013248529405710354 0 0.0047776908324004014 0.0013385009994777903 0 0.0047944129944370176 0.0012983899759863755 0 0.0048188438162067547 0.0013248529405710354 0 0.0048698636608920905 0.0013358412835017429 0 0.0048056319036819447 0.0013957422040152389 0 0.0048936628750668931 0.0013800933852384555 0 0.0044444235052008832 0.0012742438988011678 0 0.0040358711542476666 0.00091944370116547121 0 0.0040492967063553197 0.001070185245278714 0 0.0040218543310264199 0.0010165467926647981 0 0.0041010127857805858 0.001048831208510199 0 0.0032290190470534784 0.00049900002924215328 0 0.0033684379684974165 0.00029569118067156148 0 0.0035237928396233123 0.00061680851009233561 0 0.0040358711542476666 0.00091944370116547121 0 0.0036430832592560559 0.00087896611948195592 0 0.0032290190470534784 0.00049900002924215328 0 0.0033684379684974165 0.00029569118067156148 0 0.0031153837955127774 0.00028192269816435059 0 0.0040358711542476666 0.00091944370116547121 0 0.0035588966646831711 0.0004514132919403307 0 0.0033684379684974165 0.00029569118067156148 0 0.0031153837955127774 0.00028192269816435059 0 0.0032245578620060068 0.00014588620558909525 0 0.0041264044231779078 0.00083291872013585848 0 0.0041204463450012409 0.00081944032748945586 0 0.0041109812384781076 0.00082640267883890919 0 0.0041204463450012409 0.00081944032748945586 0 0.0041109812384781076 0.00082640267883890919 0 0.0041125677578673515 0.00080475964957974844 0 0.0040358711542476666 0.00091944370116547121 0 0.0048289530610529357 0.0012408726671731317 0 0.0048056319036819447 0.0013957422040152389 0 0.0049222234338760417 0.0014416246979037861 0 0.0048936628750668931 0.0013800933852384555 0 0.0049222234338760417 0.0014416246979037861 0 0.0048936628750668931 0.0013800933852384555 0 0.0049461652842865793 0.0013895699450440491 0 0.0049272932665849131 0.0013440587311972303 0 0.0048936628750668931 0.0013800933852384555 0 0.0049461652842865793 0.0013895699450440491 0 0.004986599334504252 0.0013539387956918827 0 0.0049461652842865793 0.0013895699450440491 0 0.0049977155237191503 0.0013953625282501455 0 0.0049272932665849131 0.0013440587311972303 0 0.004986599334504252 0.0013539387956918827 0 0.0049461652842865793 0.0013895699450440491 0 0.0048289530610529357 0.0012408726671731317 0 0.0048912508885836023 0.0014037339168548177 0 0.0049461652842865793 0.0013895699450440491 0 0.0049977155237191503 0.0013953625282501455 0 0.0049708024047967264 0.0014075024398492498 0 0.0049977155237191503 0.0013953625282501455 0 0.0049708024047967264 0.0014075024398492498 0 0.0049957282976205771 0.0014247828479370997 0 0.0049434520233525127 0.0014174970442804547 0 0.0049461652842865793 0.0013895699450440491 0 0.0049708024047967264 0.0014075024398492498 0 0.0048289530610529357 0.0012408726671731317 0 0.0050590701888847201 0.001425087617670965 0 0.0049434520233525127 0.0014174970442804547 0 0.0049708024047967264 0.0014075024398492498 0 0.0049957282976205771 0.0014247828479370997 0 0.0050806813318491706 0.0014169489312672561 0 0.0050561848868822604 0.0014088469041940806 0 0.0050727133792839363 0.0013916245172737372 0 0.005055932839197628 0.0013734754359565917 0 0.0050727133792839363 0.0013916245172737372 0 0.0050993722366142321 0.0013665150831211228 0 0.0050561848868822604 0.0014088469041940806 0 0.005055932839197628 0.0013734754359565917 0 0.0050727133792839363 0.0013916245172737372 0 0.0048289530610529357 0.0012408726671731317 0 0.0037837085463251633 0.0006185578257339125 0 0.0050806813318491706 0.0014169489312672561 0 0.0050727133792839363 0.0013916245172737372 0 0.0050993722366142321 0.0013665150831211228 0 0.0035588966646831711 0.0004514132919403307 0 0.0037837085463251633 0.0006185578257339125 0 0.0037837085463251633 0.0006185578257339125 0 0.0030757909045813605 -0.00024488054894748713 0 0.0030279984746104456 0.00011986979147961866 0 0.002877883101842595 -0.00016992313162819198 0 0.0031183442494001983 -0.00016812650427995614 0 0.0037837085463251633 0.0006185578257339125 0 0.0040182718677291007 0.00067715471131944867 0 0.005055932839197628 0.0013734754359565917 0 0.0050993722366142321 0.0013665150831211228 0 0.0050821326704001231 0.0013107977493497557 0 0.0050239637864951123 0.0013104001349792866 0 0.005055932839197628 0.0013734754359565917 0 0.0050821326704001231 0.0013107977493497557 0 0.0050239637864951123 0.0013104001349792866 0 0.0050821326704001231 0.0013107977493497557 0 0.0050474830430696557 0.0012319156535277726 0 0.002877883101842595 -0.00016992313162819198 0 0.0029960432703657557 -0.00031714440746777556 0 0.0027434652297958473 -0.00044503762420844786 0 0.0040182718677291007 0.00067715471131944867 0 0.0040928063367204138 -8.3531373737773365e-05 0 0.002877883101842595 -0.00016992313162819198 0 0.0029960432703657557 -0.00031714440746777556 0 0.0031183442494001983 -0.00016812650427995614 0 0.0029960432703657557 -0.00031714440746777556 0 0.0029892868360017616 -0.00049534427638239006 0 0.0027434652297958473 -0.00044503762420844786 0 0.0029960432703657557 -0.00031714440746777556 0 0.0029892868360017616 -0.00049534427638239006 0 0.003190053275983781 -0.00044604160657188484 0 0.0030590921391508174 -0.00064672710014465921 0 0.0029892868360017616 -0.00049534427638239006 0 0.003190053275983781 -0.00044604160657188484 0 0.0029892868360017616 -0.00049534427638239006 0 0.0029266179847104827 -0.0005801682107329807 0 0.0027434652297958473 -0.00044503762420844786 0 0.0030590921391508174 -0.00064672710014465921 0 0.0029892868360017616 -0.00049534427638239006 0 0.0029266179847104827 -0.0005801682107329807 0 0.0029125690210469505 -0.00073280855823561317 0 0.0029266179847104827 -0.0005801682107329807 0 0.0027434652297958473 -0.00044503762420844786 0 0.0041896140195186423 -0.00070792937624663036 0 0.0040928063367204138 -8.3531373737773365e-05 0 0.0030048898503412277 -0.00096624315254342037 0 0.0040928063367204138 -8.3531373737773365e-05 0 0.0033655675275859036 -0.0010657639552695479 0 0.0034347356364917989 -0.001038986959160462 0 0.003373032015469418 -0.0011152623855981321 0 0.0033726253109102457 -0.00052659582421412461 0 0.003190053275983781 -0.00044604160657188484 0 0.0033398179454538048 -0.00024001118083663689 0 0.0032302396844555146 -0.00074435042805331996 0 0.0033726253109102457 -0.00052659582421412461 0 0.003190053275983781 -0.00044604160657188484 0 0.0029960432703657557 -0.00031714440746777556 0 0.003190053275983781 -0.00044604160657188484 0 0.0031183442494001983 -0.00016812650427995614 0 0.0031832839936212498 -0.00040179526944801488 0 0.0030757909045813605 -0.00024488054894748713 0 0.003190053275983781 -0.00044604160657188484 0 0.0030943933375133684 -0.0001932811649838073 0 0.0033398179454538048 -0.00024001118083663689 0 0.0033726253109102457 -0.00052659582421412461 0 0.0033398179454538048 -0.00024001118083663689 0 0.0035388339819686829 -0.00041187562933724185 0 0.0033398179454538048 -0.00024001118083663689 0 0.0033653669650613115 3.7672502713464275e-05 0 0.0035638312369634085 -0.00012714359962962441 0 0.0033398179454538048 -0.00024001118083663689 0 0.0031758174129231384 -1.730302745678227e-05 0 0.0033653669650613115 3.7672502713464275e-05 0 0.0030943933375133684 -0.0001932811649838073 0 0.0033398179454538048 -0.00024001118083663689 0 0.0031758174129231384 -1.730302745678227e-05 0 0.003003454725406618 6.654082712220277e-05 0 0.0030943933375133684 -0.0001932811649838073 0 0.0031758174129231384 -1.730302745678227e-05 0 0.0031153837955127774 0.00028192269816435059 0 0.003003454725406618 6.654082712220277e-05 0 0.0032245578620060068 0.00014588620558909525 0 0.003003454725406618 6.654082712220277e-05 0 0.0031758174129231384 -1.730302745678227e-05 0 0.0032245578620060068 0.00014588620558909525 0 0.0031758174129231384 -1.730302745678227e-05 0 0.0032245578620060068 0.00014588620558909525 0 0.0033653669650613115 3.7672502713464275e-05 0 0.0033684379684974165 0.00029569118067156148 0 0.0032245578620060068 0.00014588620558909525 0 0.0033653669650613115 3.7672502713464275e-05 0 0.0033684379684974165 0.00029569118067156148 0 0.0033653669650613115 3.7672502713464275e-05 0 0.0035221406293638718 0.00012943914228818798 0 0.0033653669650613115 3.7672502713464275e-05 0 0.0035221406293638718 0.00012943914228818798 0 0.0035638312369634085 -0.00012714359962962441 0 0.0035221406293638718 0.00012943914228818798 0 0.0037126154362179665 9.3812318543634127e-05 0 0.0036130800420131675 0.00035305101697222523 0 0.0035221406293638718 0.00012943914228818798 0 0.0037126154362179665 9.3812318543634127e-05 0 0.0035638312369634085 -0.00012714359962962441 0 0.0035968663150100209 0.00034646660795123859 0 0.0035058123185090634 0.00024940502499412018 0 0.0033888197494536952 0.00053600441610590014 0 0.0035968663150100209 0.00034646660795123859 0 0.0036316374162570432 0.00021693935774217503 0 0.0037688421251914996 0.00033507603308457237 0 0.0035968663150100209 0.00034646660795123859 0 0.0035058123185090634 0.00024940502499412018 0 0.0036316374162570432 0.00021693935774217503 0 0.0036319428844317995 0.00018364692574895775 0 0.0036611979730790567 -6.5125805320315693e-05 0 0.0035058123185090634 0.00024940502499412018 0 0.0036316374162570432 0.00021693935774217503 0 0.0035928629413861939 6.1847898976796132e-06 0 0.0036316374162570432 0.00021693935774217503 0 0.0035928629413861939 6.1847898976796132e-06 0 0.0037312278475749613 4.2941670611682553e-05 0 0.0037126154362179665 9.3812318543634127e-05 0 0.003783773065827428 -0.00017486586567495152 0 0.0035638312369634085 -0.00012714359962962441 0 0.0035638312369634085 -0.00012714359962962441 0 0.0037047082754420721 -0.00034152936326996221 0 0.0035388339819686829 -0.00041187562933724185 0 0.0033398179454538048 -0.00024001118083663689 0 0.0035638312369634085 -0.00012714359962962441 0 0.0035388339819686829 -0.00041187562933724185 0 0.0036611979730790567 -6.5125805320315693e-05 0 0.0036425116628878602 -0.00014175513377031167 0 0.0035928629413861939 6.1847898976796132e-06 0 0.0036575906697951031 -0.0001989000323697216 0 0.0037383854527665811 -8.9495829597241756e-05 0 0.003783773065827428 -0.00017486586567495152 0 0.0037047082754420721 -0.00034152936326996221 0 0.0038558604169923877 -0.00046374745150219764 0 0.0036611979730790567 -6.5125805320315693e-05 0 0.0037626624812026471 -0.00037168031453034208 0 0.0036001454289470774 2.5975607437211053e-05 0 0.0036575906697951031 -0.0001989000323697216 0 0.0036609191741300098 -0.00027365745012436591 0 0.003783773065827428 -0.00017486586567495152 0 0.0035638312369634085 -0.00012714359962962441 0 0.0037047082754420721 -0.00034152936326996221 0 0.0037047082754420721 -0.00034152936326996221 0 0.0037109329645841752 -0.00050498094909227432 0 0.0038558604169923877 -0.00046374745150219764 0 0.0037109329645841752 -0.00050498094909227432 0 0.0038558604169923877 -0.00046374745150219764 0 0.0038052243222443747 -0.00059741739206229522 0 0.003735858056110325 -0.00066793950258946884 0 0.0037109329645841752 -0.00050498094909227432 0 0.0038052243222443747 -0.00059741739206229522 0 0.0035125410129078728 -0.00072069959770608796 0 0.0037109329645841752 -0.00050498094909227432 0 0.0035388339819686829 -0.00041187562933724185 0 0.0035125410129078728 -0.00072069959770608796 0 0.0033726253109102457 -0.00052659582421412461 0 0.0035388339819686829 -0.00041187562933724185 0 0.0037047082754420721 -0.00034152936326996221 0 0.0037109329645841752 -0.00050498094909227432 0 0.0035388339819686829 -0.00041187562933724185 0 0.004062996095539559 -0.00033009631474336521 0 0.0038275629678726285 -0.00041235643704507592 0 0.0038745118996385431 -0.0001641999950019871 0 0.0038275629678726285 -0.00041235643704507592 0 0.0037560015433646464 -0.00022177015389455971 0 0.0038745118996385431 -0.0001641999950019871 0 0.0038483986504584838 -0.00069197239356297356 0 0.0037626624812026471 -0.00037168031453034208 0 0.0039161900946948465 -0.00075167575316446302 0 0.0038558604169923877 -0.00046374745150219764 0 0.0038052243222443747 -0.00059741739206229522 0 0.0037755031925666479 -0.0006339241227657958 0 0.0036609191741300098 -0.00027365745012436591 0 0.0038275629678726285 -0.00041235643704507592 0 0.0036609191741300098 -0.00027365745012436591 0 0.0038275629678726285 -0.00041235643704507592 0 0.0037560015433646464 -0.00022177015389455971 0 0.0036575906697951031 -0.0001989000323697216 0 0.0036609191741300098 -0.00027365745012436591 0 0.0037560015433646464 -0.00022177015389455971 0 0.0037560015433646464 -0.00022177015389455971 0 0.0038745118996385431 -0.0001641999950019871 0 0.0037383854527665811 -8.9495829597241756e-05 0 0.0036575906697951031 -0.0001989000323697216 0 0.0037560015433646464 -0.00022177015389455971 0 0.0037383854527665811 -8.9495829597241756e-05 0 0.0035928629413861939 6.1847898976796132e-06 0 0.0037383854527665811 -8.9495829597241756e-05 0 0.0037312278475749613 4.2941670611682553e-05 0 0.0037383854527665811 -8.9495829597241756e-05 0 0.003826033907614248 -1.6692147775601152e-05 0 0.0037312278475749613 4.2941670611682553e-05 0 0.0038745118996385431 -0.0001641999950019871 0 0.0037383854527665811 -8.9495829597241756e-05 0 0.003826033907614248 -1.6692147775601152e-05 0 0.0039752663067150924 -0.00025041062677394612 0 0.004016362014499163 1.0532109818701347e-05 0 0.0038745118996385431 -0.0001641999950019871 0 0.003826033907614248 -1.6692147775601152e-05 0 0.0040206583490484627 3.6286380599361046e-05 0 0.004062996095539559 -0.00033009631474336521 0 0.0038745118996385431 -0.0001641999950019871 0 0.0040206583490484627 3.6286380599361046e-05 0 0.003826033907614248 -1.6692147775601152e-05 0 0.0040206583490484627 3.6286380599361046e-05 0 0.0038429964898735874 8.3422485823248372e-05 0 0.0040206583490484627 3.6286380599361046e-05 0 0.0038429964898735874 8.3422485823248372e-05 0 0.0039628056669356072 0.00017160680019799948 0 0.0036316374162570432 0.00021693935774217503 0 0.0037312278475749613 4.2941670611682553e-05 0 0.0038429964898735874 8.3422485823248372e-05 0 0.0036316374162570432 0.00021693935774217503 0 0.0038429964898735874 8.3422485823248372e-05 0 0.0039628056669356072 0.00017160680019799948 0 0.003826033907614248 -1.6692147775601152e-05 0 0.0037312278475749613 4.2941670611682553e-05 0 0.0038429964898735874 8.3422485823248372e-05 0 0.0036456781070119747 0.00021590146757194219 0 0.0039262146901907135 0.00019819007088799746 0 0.0036316374162570432 0.00021693935774217503 0 0.0037688421251914996 0.00033507603308457237 0 0.0039068694151015316 0.00022999764138344106 0 0.0037688421251914996 0.00033507603308457237 0 0.0039068694151015316 0.00022999764138344106 0 0.0039157339729695611 0.00035005826378666974 0 0.00399301107747868 0.0004017219668572161 0 0.0039157339729695611 0.00035005826378666974 0 0.0038033515744169142 0.0005897923209750044 0 0.0036429924383168583 0.0010398141610757328 0 0.0036256788414401873 0.00098804169978102484 0 0.0036416681307258666 0.0010515718233118341 0 0.0038141579933706682 0.00072208747791696723 0 0.0036944642865984808 0.00079111605464330628 0 0.0036256788414401873 0.00098804169978102484 0 0.0036416681307258666 0.0010515718233118341 0 0.0036052321287146204 0.0010178004616882938 0 0.0037688421251914996 0.00033507603308457237 0 0.0039157339729695611 0.00035005826378666974 0 0.0038033515744169142 0.0005897923209750044 0 0.0037688421251914996 0.00033507603308457237 0 0.0038033515744169142 0.0005897923209750044 0 0.0036388314739985756 0.00046510017401107316 0 0.0035968663150100209 0.00034646660795123859 0 0.0036388314739985756 0.00046510017401107316 0 0.0033888197494536952 0.00053600441610590014 0 0.0036388314739985756 0.00046510017401107316 0 0.0033888197494536952 0.00053600441610590014 0 0.0035824324141758724 0.00061703528816157657 0 0.0038033515744169142 0.0005897923209750044 0 0.0036388314739985756 0.00046510017401107316 0 0.0035824324141758724 0.00061703528816157657 0 0.0035968663150100209 0.00034646660795123859 0 0.0037688421251914996 0.00033507603308457237 0 0.0036388314739985756 0.00046510017401107316 0 0.0036319428844317995 0.00018364692574895775 0 0.0035864280788985669 0.00039738862110103701 0 0.003683373220221386 0.0001809495599200531 0 0.0035878138092782369 0.00051518312841658087 0 0.0035556761957520125 0.00050240830443183356 0 0.0036319428844317995 0.00018364692574895775 0 0.0034788526250760119 0.00053494818209763291 0 0.0033684379684974165 0.00029569118067156148 0 0.0036130800420131675 0.00035305101697222523 0 0.0035237928396233123 0.00061680851009233561 0 0.0033684379684974165 0.00029569118067156148 0 0.0035221406293638718 0.00012943914228818798 0 0.0036130800420131675 0.00035305101697222523 0 0.0035864280788985669 0.00039738862110103701 0 0.0036430832592560559 0.00087896611948195592 0 0.0034788526250760119 0.00053494818209763291 0 0.0035172401466006444 0.00092821507688458803 0 0.0033888197494536952 0.00053600441610590014 0 0.0034590376149585423 0.00086117460917697138 0 0.0032920267397627163 0.00093727336615043383 0 0.0035878138092782369 0.00051518312841658087 0 0.0035556761957520125 0.00050240830443183356 0 0.003440231971360677 0.00083500748004660091 0 0.0035878138092782369 0.00051518312841658087 0 0.0034887924344986975 0.00085432338922597853 0 0.003440231971360677 0.00083500748004660091 0 0.0035172401466006444 0.00092821507688458803 0 0.0036430832592560559 0.00087896611948195592 0 0.0033888197494536952 0.00053600441610590014 0 0.0034590376149585423 0.00086117460917697138 0 0.0035824324141758724 0.00061703528816157657 0 0.0036256788414401873 0.00098804169978102484 0 0.0034590376149585423 0.00086117460917697138 0 0.0036052321287146204 0.0010178004616882938 0 0.0038033515744169142 0.0005897923209750044 0 0.0034590376149585423 0.00086117460917697138 0 0.0035824324141758724 0.00061703528816157657 0 0.0036944642865984808 0.00079111605464330628 0 0.0034579874341631911 0.00086117254243593352 0 0.0034590376149585423 0.00086117460917697138 0 0.0035223967886044254 0.0010131826546116442 0 0.0036052321287146204 0.0010178004616882938 0 0.0035223967886044254 0.0010131826546116442 0 0.0035798449559396196 0.001074584211915571 0 0.0035294504490541632 0.0010675384627460457 0 0.0035223967886044254 0.0010131826546116442 0 0.0034944560728617348 0.0010579287606369706 0 0.0035294504490541632 0.0010675384627460457 0 0.0035223967886044254 0.0010131826546116442 0 0.0035798449559396196 0.001074584211915571 0 0.0036052321287146204 0.0010178004616882938 0 0.003804568727520235 0.0011068149002006688 0 0.0038655762881190147 0.00098265226708834697 0 0.0038471227769791456 0.00097528662394351373 0 0.0034490486753157934 0.0011087411129605059 0 0.0034730164542780984 0.00099745801016455356 0 0.0034944560728617348 0.0010579287606369706 0 0.0039242980114185515 0.0011638284002820269 0 0.0035172401466006444 0.00092821507688458803 0 0.0034730164542780984 0.00099745801016455356 0 0.0035223967886044254 0.0010131826546116442 0 0.0034944560728617348 0.0010579287606369706 0 0.0034590376149585423 0.00086117460917697138 0 0.0032920267397627163 0.00093727336615043383 0 0.0035223967886044254 0.0010131826546116442 0 0.0035172401466006444 0.00092821507688458803 0 0.0034720823843151587 0.00099323240477993758 0 0.0034490486753157934 0.0011087411129605059 0 0.0034944560728617348 0.0010579287606369706 0 0.0034939941289533669 0.0011066507878869671 0 0.0034939941289533669 0.0011066507878869671 0 0.0035294504490541632 0.0010675384627460457 0 0.0035446759223601207 0.0011181555906026647 0 0.0034944560728617348 0.0010579287606369706 0 0.0034939941289533669 0.0011066507878869671 0 0.0035294504490541632 0.0010675384627460457 0 0.0034939941289533669 0.0011066507878869671 0 0.0035446759223601207 0.0011181555906026647 0 0.003506890470114322 0.0011585793621583845 0 0.003454698539293124 0.0011199227810744724 0 0.0034939941289533669 0.0011066507878869671 0 0.0034811581928928048 0.0011306996997775692 0 0.0034939941289533669 0.0011066507878869671 0 0.0034811581928928048 0.0011306996997775692 0 0.003506890470114322 0.0011585793621583845 0 0.0034490486753157934 0.0011087411129605059 0 0.003454698539293124 0.0011199227810744724 0 0.0034939941289533669 0.0011066507878869671 0 0.0034811581928928048 0.0011306996997775692 0 0.0034775126535600063 0.0011524899577263893 0 0.003506890470114322 0.0011585793621583845 0 0.003454698539293124 0.0011199227810744724 0 0.0034811581928928048 0.0011306996997775692 0 0.0034775126535600063 0.0011524899577263893 0 0.0035798449559396196 0.001074584211915571 0 0.0035446759223601207 0.0011181555906026647 0 0.0036244012905546174 0.0011767608834036241 0 0.0035798449559396196 0.001074584211915571 0 0.0035294504490541632 0.0010675384627460457 0 0.0035446759223601207 0.0011181555906026647 0 0.003624102525004772 0.0010831546243162699 0 0.0036414721672024222 0.0011071492600566962 0 0.0036244012905546174 0.0011767608834036241 0 0.0035798449559396196 0.001074584211915571 0 0.003624102525004772 0.0010831546243162699 0 0.0036244012905546174 0.0011767608834036241 0 0.003624102525004772 0.0010831546243162699 0 0.0036414721672024222 0.0011071492600566962 0 0.0036416681307258666 0.0010515718233118341 0 0.0035798449559396196 0.001074584211915571 0 0.003624102525004772 0.0010831546243162699 0 0.0036052321287146204 0.0010178004616882938 0 0.003624102525004772 0.0010831546243162699 0 0.0036416681307258666 0.0010515718233118341 0 0.0036052321287146204 0.0010178004616882938 0 0.0036651198825365873 0.0013136678596825609 0 0.0037805779938440806 0.001257375469644305 0 0.0036244012905546174 0.0011767608834036241 0 0.0036651198825365873 0.0013136678596825609 0 0.0036244012905546174 0.0011767608834036241 0 0.0035799619071906481 0.0013225132368652876 0 0.0038066787713371035 0.0013703167138380944 0 0.0036651198825365873 0.0013136678596825609 0 0.0037805779938440806 0.001257375469644305 0 0.0036414721672024222 0.0011071492600566962 0 0.0036401035931280835 0.0011190169189924989 0 0.0036244012905546174 0.0011767608834036241 0 0.0036831326658298543 0.0011951440938539313 0 0.0036343121569684294 0.0011734999697975939 0 0.0036244012905546174 0.0011767608834036241 0 0.0035530089601329066 0.0011708935027295855 0 0.0035338707687233382 0.001232190108700065 0 0.0035446759223601207 0.0011181555906026647 0 0.0036244012905546174 0.0011767608834036241 0 0.0035530089601329066 0.0011708935027295855 0 0.0035446759223601207 0.0011181555906026647 0 0.0035530089601329066 0.0011708935027295855 0 0.003506890470114322 0.0011585793621583845 0 0.003454698539293124 0.0011199227810744724 0 0.0034775126535600063 0.0011524899577263893 0 0.0034663923136577131 0.0012006656036876826 0 0.0034775126535600063 0.0011524899577263893 0 0.003506890470114322 0.0011585793621583845 0 0.0034663923136577131 0.0012006656036876826 0 0.0035530089601329066 0.0011708935027295855 0 0.003506890470114322 0.0011585793621583845 0 0.0035338707687233382 0.001232190108700065 0 0.0035338707687233382 0.001232190108700065 0 0.0034898796058506522 0.0012689784076056765 0 0.0034663923136577131 0.0012006656036876826 0 0.003506890470114322 0.0011585793621583845 0 0.0035338707687233382 0.001232190108700065 0 0.0034663923136577131 0.0012006656036876826 0 0.0035338707687233382 0.001232190108700065 0 0.0034898796058506522 0.0012689784076056765 0 0.0035291134957000985 0.001318281397203543 0 0.0035338707687233382 0.001232190108700065 0 0.0035291134957000985 0.001318281397203543 0 0.0035799619071906481 0.0013225132368652876 0 0.0034898796058506522 0.0012689784076056765 0 0.0035291134957000985 0.001318281397203543 0 0.0034708044234979091 0.0013211066363911326 0 0.0036244012905546174 0.0011767608834036241 0 0.0035338707687233382 0.001232190108700065 0 0.0035799619071906481 0.0013225132368652876 0 0.0036651198825365873 0.0013136678596825609 0 0.0035799619071906481 0.0013225132368652876 0 0.0036235776390696963 0.0014001280719601063 0 0.0035799619071906481 0.0013225132368652876 0 0.0035642511341161883 0.0013868160546468291 0 0.0036235776390696963 0.0014001280719601063 0 0.0035291134957000985 0.001318281397203543 0 0.0035799619071906481 0.0013225132368652876 0 0.0035642511341161883 0.0013868160546468291 0 0.0035642511341161883 0.0013868160546468291 0 0.0036235776390696963 0.0014001280719601063 0 0.0035923807267695344 0.0014606943722593774 0 0.0035291134957000985 0.001318281397203543 0 0.0035157683677080804 0.0013798356854143668 0 0.0034708044234979091 0.0013211066363911326 0 0.0035291134957000985 0.001318281397203543 0 0.0035642511341161883 0.0013868160546468291 0 0.0035157683677080804 0.0013798356854143668 0 0.0035642511341161883 0.0013868160546468291 0 0.0035157683677080804 0.0013798356854143668 0 0.0035488128288798698 0.0014294143594217159 0 0.0035631501308723426 0.0014807465029803902 0 0.0035923807267695344 0.0014606943722593774 0 0.0035931094296202393 0.0015158904076886788 0 0.0035157683677080804 0.0013798356854143668 0 0.0035488128288798698 0.0014294143594217159 0 0.0035130735488340514 0.0014386067575740216 0 0.0035488128288798698 0.0014294143594217159 0 0.0035631501308723426 0.0014807465029803902 0 0.0035130735488340514 0.0014386067575740216 0 0.0035642511341161883 0.0013868160546468291 0 0.0035488128288798698 0.0014294143594217159 0 0.0035923807267695344 0.0014606943722593774 0 0.0035488128288798698 0.0014294143594217159 0 0.0035631501308723426 0.0014807465029803902 0 0.0035923807267695344 0.0014606943722593774 0 0.0035631501308723426 0.0014807465029803902 0 0.0035415560986848372 0.0014821165485618343 0 0.0035130735488340514 0.0014386067575740216 0 0.0036235776390696963 0.0014001280719601063 0 0.0035923807267695344 0.0014606943722593774 0 0.003657372430840744 0.0014956586747624117 0 0.0035923807267695344 0.0014606943722593774 0 0.003657372430840744 0.0014956586747624117 0 0.0036172115190319129 0.0015305732442833016 0 0.0036235776390696963 0.0014001280719601063 0 0.003657372430840744 0.0014956586747624117 0 0.0037078849660533331 0.001410121905104744 0 0.0036651198825365873 0.0013136678596825609 0 0.0036235776390696963 0.0014001280719601063 0 0.0037078849660533331 0.001410121905104744 0 0.0038066787713371035 0.0013703167138380944 0 0.0037078849660533331 0.001410121905104744 0 0.003783763886054422 0.0014895311749587637 0 0.0038066787713371035 0.0013703167138380944 0 0.0036651198825365873 0.0013136678596825609 0 0.0037078849660533331 0.001410121905104744 0 0.003657372430840744 0.0014956586747624117 0 0.0037078849660533331 0.001410121905104744 0 0.003783763886054422 0.0014895311749587637 0 0.003657372430840744 0.0014956586747624117 0 0.003783763886054422 0.0014895311749587637 0 0.0037043729236599333 0.0015929510591726811 0 0.0038720847225879266 0.0016245174422790387 0 0.003783763886054422 0.0014895311749587637 0 0.0037043729236599333 0.0015929510591726811 0 0.0038720847225879266 0.0016245174422790387 0 0.0037043729236599333 0.0015929510591726811 0 0.0037055711090035587 0.0019206671744861877 0 0.0036905508037736604 0.0015931558824544413 0 0.0034835863329247935 0.0017289312243584124 0 0.0037043729236599333 0.0015929510591726811 0 0.0036454694359742477 0.001549038214648583 0 0.0036083747593352797 0.0015464598911266256 0 0.003657372430840744 0.0014956586747624117 0 0.0036454694359742477 0.001549038214648583 0 0.0036172115190319129 0.0015305732442833016 0 0.003657372430840744 0.0014956586747624117 0 0.0037043729236599333 0.0015929510591726811 0 0.0036454694359742477 0.001549038214648583 0 0.0036454694359742477 0.001549038214648583 0 0.0036083747593352797 0.0015464598911266256 0 0.0036172115190319129 0.0015305732442833016 0 0.0037043729236599333 0.0015929510591726811 0 0.0033438190676784076 0.0019175168748749491 0 0.0035684754860353077 0.0018949542442198012 0 0.0033438190676784076 0.0019175168748749491 0 0.0035684754860353077 0.0018949542442198012 0 0.0035073643823389762 0.0020217350542478777 0 0.0035684754860353077 0.0018949542442198012 0 0.0035073643823389762 0.0020217350542478777 0 0.0036155723744128072 0.0019827959199380427 0 0.0035073643823389762 0.0020217350542478777 0 0.0036155723744128072 0.0019827959199380427 0 0.0036484474675079915 0.0020848806320062259 0 0.0033438190676784076 0.0019175168748749491 0 0.0035073643823389762 0.0020217350542478777 0 0.0033744211099671607 0.0022407189177264743 0 0.0037043729236599333 0.0015929510591726811 0 0.0035684754860353077 0.0018949542442198012 0 0.0037055711090035587 0.0019206671744861877 0 0.0031993981189667232 0.0032627755118047326 0 0.0032949652321698818 0.003021804100953992 0 0.0038720847225879266 0.0016245174422790387 0 0.0037055711090035587 0.0019206671744861877 0 0.0036984706035484683 0.0019786806163223053 0 0.0025429367656946023 0.004853096928755643 0 0.0026324074155284396 0.0046873808263166745 0 0.0027651030679026554 0.0046346549407027598 0 0.00344147445391232 0.0026201994487185442 0 0.0032949652321698818 0.003021804100953992 0 0.0037055711090035587 0.0019206671744861877 0 0.0036950353066548449 0.0020082073819702021 0 0.0036155723744128072 0.0019827959199380427 0 0.0035684754860353077 0.0018949542442198012 0 0.0037055711090035587 0.0019206671744861877 0 0.0036155723744128072 0.0019827959199380427 0 0.0036950353066548449 0.0020082073819702021 0 0.0036155723744128072 0.0019827959199380427 0 0.0036484474675079915 0.0020848806320062259 0 0.0032949652321698818 0.003021804100953992 0 0.0035544425276901968 0.0026689259113500661 0 0.0026324074155284396 0.0046873808263166745 0 0.0027651030679026554 0.0046346549407027598 0 0.0026486008037512753 0.0045925506490775876 0 0.0037073791213084822 0.0020139160825127351 0 0.0036484474675079915 0.0020848806320062259 0 0.0035588019746783596 0.0026122172517275615 0 0.0027651030679026554 0.0046346549407027598 0 0.0026486008037512753 0.0045925506490775876 0 0.0026659189174000689 0.0044534169365155517 0 0.0027651030679026554 0.0046346549407027598 0 0.0026659189174000689 0.0044534169365155517 0 0.0028712147755087626 0.0043727753959284694 0 0.0032949652321698818 0.003021804100953992 0 0.0031955706341494231 0.0035602666227988211 0 0.0036484474675079915 0.0020848806320062259 0 0.0033744211099671607 0.0022407189177264743 0 0.0035588019746783596 0.0026122172517275615 0 0.0035073643823389762 0.0020217350542478777 0 0.0036484474675079915 0.0020848806320062259 0 0.0033744211099671607 0.0022407189177264743 0 0.0033744211099671607 0.0022407189177264743 0 0.0035588019746783596 0.0026122172517275615 0 0.0033257494669474254 0.0025086489693062165 0 0.0035588019746783596 0.0026122172517275615 0 0.003263896070543388 0.0027901483284006128 0 0.0033511038999707809 0.0032656719167425395 0 0.0035588019746783596 0.0026122172517275615 0 0.0033257494669474254 0.0025086489693062165 0 0.003263896070543388 0.0027901483284006128 0 0.0026659189174000689 0.0044534169365155517 0 0.0028712147755087626 0.0043727753959284694 0 0.0027181362488317372 0.0042590946615479611 0 0.0028712147755087626 0.0043727753959284694 0 0.0027181362488317372 0.0042590946615479611 0 0.0028366670795712551 0.004187115490091986 0 0.002949040678055371 0.0025572043628614271 0 0.0029670443239046178 0.0023006953111279534 0 0.0027549519890661175 0.0025457857473159314 0 0.002949040678055371 0.0025572043628614271 0 0.0027549519890661175 0.0025457857473159314 0 0.0028883413258305865 0.0027111748895779254 0 0.0031034044361753633 0.0024533500907217461 0 0.0029918320025932731 0.0029520319670675089 0 0.003263896070543388 0.0027901483284006128 0 0.0031051585497163903 0.0024066055820014575 0 0.0029625133697760426 0.003193297331305486 0 0.002949040678055371 0.0025572043628614271 0 0.0031051585497163903 0.0024066055820014575 0 0.0030511641670730194 0.0028073413315335902 0 0.0033257494669474254 0.0025086489693062165 0 0.003263896070543388 0.0027901483284006128 0 0.0031051585497163903 0.0024066055820014575 0 0.002949040678055371 0.0025572043628614271 0 0.0031051585497163903 0.0024066055820014575 0 0.0029670443239046178 0.0023006953111279534 0 0.0033744211099671607 0.0022407189177264743 0 0.0031051585497163903 0.0024066055820014575 0 0.0029670443239046178 0.0023006953111279534 0 0.0033438190676784076 0.0019175168748749491 0 0.0033744211099671607 0.0022407189177264743 0 0.0029670443239046178 0.0023006953111279534 0 0.0033744211099671607 0.0022407189177264743 0 0.0033257494669474254 0.0025086489693062165 0 0.0031051585497163903 0.0024066055820014575 0 0.0035874229782543619 0.0014572478090820169 0 0.0036321088353744565 0.0015071962888883841 0 0.0036014357425516634 0.0015036519548688163 0 0.0035874229782543619 0.0014572478090820169 0 0.0037463490347300985 0.001406706236763808 0 0.003823041626559884 0.0012383233860191235 0 0.0032976049760642489 0.0018737599867901863 0 0.0032273176439440521 0.0018641000067251905 0 0.0035874229782543619 0.0014572478090820169 0 0.0037463490347300985 0.001406706236763808 0 0.0036321088353744565 0.0015071962888883841 0 0.0037463490347300985 0.001406706236763808 0 0.0036321088353744565 0.0015071962888883841 0 0.0036180376258887438 0.0015320286858559078 0 0.0036321088353744565 0.0015071962888883841 0 0.0036034311892917427 0.0015246083703672603 0 0.0036014357425516634 0.0015036519548688163 0 0.0036321088353744565 0.0015071962888883841 0 0.0036034311892917427 0.0015246083703672603 0 0.0036081050503635761 0.0015234677712902356 0 0.0036081050503635761 0.0015234677712902356 0 0.0035751913085060117 0.0015101713082147496 0 0.0036180376258887438 0.0015320286858559078 0 0.0036321088353744565 0.0015071962888883841 0 0.0036081050503635761 0.0015234677712902356 0 0.0036180376258887438 0.0015320286858559078 0 0.0034835863329247935 0.0017289312243584124 0 0.0032976049760642489 0.0018737599867901863 0 0.0036083747593352797 0.0015464598911266256 0 0.0036014357425516634 0.0015036519548688163 0 0.003604276706649858 0.0015305529205486331 0 0.0036083747593352797 0.0015464598911266256 0 0.0035874229782543619 0.0014572478090820169 0 0.0036014357425516634 0.0015036519548688163 0 0.0036034311892917427 0.0015246083703672603 0 0.0036014357425516634 0.0015036519548688163 0 0.003604276706649858 0.0015305529205486331 0 0.0036083747593352797 0.0015464598911266256 0 0.003604276706649858 0.0015305529205486331 0 0.0036172115190319129 0.0015305732442833016 0 0.0035923807267695344 0.0014606943722593774 0 0.0035931094296202393 0.0015158904076886788 0 0.0036172115190319129 0.0015305732442833016 0 0.0036034311892917427 0.0015246083703672603 0 0.003604276706649858 0.0015305529205486331 0 0.0035931094296202393 0.0015158904076886788 0 0.003604276706649858 0.0015305529205486331 0 0.0035931094296202393 0.0015158904076886788 0 0.0036172115190319129 0.0015305732442833016 0 0.0036081050503635761 0.0015234677712902356 0 0.0035931094296202393 0.0015158904076886788 0 0.0035751913085060117 0.0015101713082147496 0 0.0036034311892917427 0.0015246083703672603 0 0.0036081050503635761 0.0015234677712902356 0 0.0035931094296202393 0.0015158904076886788 0 0.0035631501308723426 0.0014807465029803902 0 0.0035751913085060117 0.0015101713082147496 0 0.0035415560986848372 0.0014821165485618343 0 0.0035631501308723426 0.0014807465029803902 0 0.0035931094296202393 0.0015158904076886788 0 0.0035751913085060117 0.0015101713082147496 0 0.0035751913085060117 0.0015101713082147496 0 0.0035076261236340642 0.001495950942157188 0 0.0035415560986848372 0.0014821165485618343 0 0.0035751913085060117 0.0015101713082147496 0 0.0035076261236340642 0.001495950942157188 0 0.0036180376258887438 0.0015320286858559078 0 0.003752500131815514 0.001754685726121656 0 0.0037557807173158346 0.0015678609423994615 0 0.0040334314970886902 0.001979774199651424 0 0.0041226502143995964 0.001748725539735611 0 0.0038998528245404742 0.0016383184681823717 0 0.0045492919430169098 0.0016193885319365079 0 0.004400048155604434 0.0016302743005325736 0 0.0044778383218583417 0.0016224494016785032 0 0.0043999247030733152 0.001838319273640377 0 0.0044180971079965849 0.0016257175795979103 0 0.0042586094616669703 0.0019987057906882474 0 0.0041226502143995964 0.001748725539735611 0 0.004400048155604434 0.0016302743005325736 0 0.0040334314970886902 0.001979774199651424 0 0.0042586094616669703 0.0019987057906882474 0 0.0041226502143995964 0.001748725539735611 0 0.0042466515020259015 0.0015761003438350425 0 0.0040036532956926841 0.0015115080799825383 0 0.0044425756896490434 0.0014417390488538511 0 0.0041226502143995964 0.001748725539735611 0 0.004400048155604434 0.0016302743005325736 0 0.0042466515020259015 0.0015761003438350425 0 0.0041226502143995964 0.001748725539735611 0 0.0042466515020259015 0.0015761003438350425 0 0.0040036532956926841 0.0015115080799825383 0 0.004400048155604434 0.0016302743005325736 0 0.0042466515020259015 0.0015761003438350425 0 0.0044425756896490434 0.0014417390488538511 0 0.0037463490347300985 0.001406706236763808 0 0.0038998528245404742 0.0016383184681823717 0 0.0040036532956926841 0.0015115080799825383 0 0.0041226502143995964 0.001748725539735611 0 0.0038998528245404742 0.0016383184681823717 0 0.0040036532956926841 0.0015115080799825383 0 0.0037463490347300985 0.001406706236763808 0 0.0040036532956926841 0.0015115080799825383 0 0.0039414200904933526 0.0013874381231721636 0 0.0037345914040673891 0.0014123311950046341 0 0.0037557807173158346 0.0015678609423994615 0 0.0037463490347300985 0.001406706236763808 0 0.0039414200904933526 0.0013874381231721636 0 0.003823041626559884 0.0012383233860191235 0 0.0040036532956926841 0.0015115080799825383 0 0.0039414200904933526 0.0013874381231721636 0 0.0040687619273205439 0.0014260346484350913 0 0.004045207750027798 0.0015099159530217229 0 0.0042938342048411855 0.0014497434903189487 0 0.004080874031614173 0.0013106698750604106 0 0.0043006014723672307 0.0012457177823397929 0 0.0042374337194120643 0.0014837193251739445 0 0.0040036532956926841 0.0015115080799825383 0 0.0040687619273205439 0.0014260346484350913 0 0.0042374337194120643 0.0014837193251739445 0 0.0040687619273205439 0.0014260346484350913 0 0.004080874031614173 0.0013106698750604106 0 0.0042374337194120643 0.0014837193251739445 0 0.0039414200904933526 0.0013874381231721636 0 0.0040687619273205439 0.0014260346484350913 0 0.004080874031614173 0.0013106698750604106 0 0.004080874031614173 0.0013106698750604106 0 0.0043006014723672307 0.0012457177823397929 0 0.0040831703545042416 0.0010464884312575259 0 0.0045648011092307688 0.0017501696277316674 0 0.0038073866856685747 0.00228202686500527 0 0.004080874031614173 0.0013106698750604106 0 0.003823041626559884 0.0012383233860191235 0 0.0040831703545042416 0.0010464884312575259 0 0.0039414200904933526 0.0013874381231721636 0 0.004080874031614173 0.0013106698750604106 0 0.003823041626559884 0.0012383233860191235 0 0.0032273176439440521 0.0018641000067251905 0 0.0038073866856685747 0.00228202686500527 0 0.0049393242465872638 0.0023263044376277756 0 0.0047401324647062901 0.0023139488297081565 0 0.0049388063570154333 0.0024853943738820505 0 0.0049393242465872638 0.0023263044376277756 0 0.0051076876368312272 0.0022798297191862363 0 0.0049450963961559184 0.002065908173078993 0 0.0049393242465872638 0.0023263044376277756 0 0.0049643885382128425 0.0024810362449392397 0 0.0051076876368312272 0.0022798297191862363 0 0.0049393242465872638 0.0023263044376277756 0 0.0047401324647062901 0.0023139488297081565 0 0.0049450963961559184 0.002065908173078993 0 0.0043006014723672307 0.0012457177823397929 0 0.0042374337194120643 0.0014837193251739445 0 0.0045168590798883614 0.0014406511395398526 0 0.0044425756896490434 0.0014417390488538511 0 0.0046452482376052795 0.0014202597018619738 0 0.0045673142737381791 0.0015626738000247705 0 0.0042938342048411855 0.0014497434903189487 0 0.0047845971393797055 0.0016630662396102658 0 0.0045648011092307688 0.0017501696277316674 0 0.0047845971393797055 0.0016630662396102658 0 0.0049393242465872638 0.0023263044376277756 0 0.0049388063570154333 0.0024853943738820505 0 0.0049643885382128425 0.0024810362449392397 0 0.0047845971393797055 0.0016630662396102658 0 0.0046250562869159231 0.0013017447978016957 0 0.0046249849339978014 0.0012393226098506853 0 0.0046526046456765412 0.0012345811542815645 0 0.0047400725365307379 0.0013616901036374186 0 0.0047845971393797055 0.0016630662396102658 0 0.0051114217131098885 0.0019349773032404296 0 0.0046060658886919051 0.0012566576526154838 0 0.0046277672515432512 0.0014473681957069243 0 0.0047400725365307379 0.0013616901036374186 0 0.0046060658886919051 0.0012566576526154838 0 0.0045168626377450182 0.0014543610077324628 0 0.0046277672515432512 0.0014473681957069243 0 0.0047845971393797055 0.0016630662396102658 0 0.0045623491703432259 0.0014731204409518762 0 0.0045168626377450182 0.0014543610077324628 0 0.0046277672515432512 0.0014473681957069243 0 0.0045594590927723246 0.0015526049815011661 0 0.0046277672515432512 0.0014473681957069243 0 0.0045594590927723246 0.0015526049815011661 0 0.0047091856521238092 0.001537673756648853 0 0.004400048155604434 0.0016302743005325736 0 0.0044425756896490434 0.0014417390488538511 0 0.0045673142737381791 0.0015626738000247705 0 0.004400048155604434 0.0016302743005325736 0 0.0045673142737381791 0.0015626738000247705 0 0.0044778383218583417 0.0016224494016785032 0 0.0045623491703432259 0.0014731204409518762 0 0.0044822419810716854 0.001609140883364085 0 0.0045168626377450182 0.0014543610077324628 0 0.0044778383218583417 0.0016224494016785032 0 0.0045594590927723246 0.0015526049815011661 0 0.0045492919430169098 0.0016193885319365079 0 0.0044778383218583417 0.0016224494016785032 0 0.0045244456134438792 0.0015837329489281691 0 0.0044778383218583417 0.0016224494016785032 0 0.0044985299095536297 0.0016295778222707421 0 0.0045244456134438792 0.0015837329489281691 0 0.0045594590927723246 0.0015526049815011661 0 0.0044985299095536297 0.0016295778222707421 0 0.0047091856521238092 0.001537673756648853 0 0.0044778383218583417 0.0016224494016785032 0 0.0045594590927723246 0.0015526049815011661 0 0.0044985299095536297 0.0016295778222707421 0 0.0049841101672450407 0.0010652968695603188 0 0.004999844527518245 0.001083945596417204 0 0.0050152799962981318 0.0011385552189264161 0 0.004745415481611984 0.0013440518680004189 0 0.004857663679571602 0.0013306318495789012 0 0.0049841101672450407 0.0010652968695603188 0 0.0049955004389217548 0.0010765338701922999 0 0.004999844527518245 0.001083945596417204 0 0.0049841101672450407 0.0010652968695603188 0 0.0049594679208352825 0.0010879761134755233 0 0.0049955004389217548 0.0010765338701922999 0 0.0049594679208352825 0.0010879761134755233 0 0.0049868326103575025 0.0011175992001454206 0 0.0049955004389217548 0.0010765338701922999 0 0.0049594679208352825 0.0010879761134755233 0 0.0049868326103575025 0.0011175992001454206 0 0.0049415108167217619 0.001124675628419573 0 0.0049594679208352825 0.0010879761134755233 0 0.0048867394667339381 0.0010811077163170226 0 0.0049415108167217619 0.001124675628419573 0 0.004745415481611984 0.0013440518680004189 0 0.0047090443428673594 0.0012723768119497906 0 0.0044985299095536297 0.0016295778222707421 0 0.0045180262317930523 0.0014556535647006269 0 0.0045244456134438792 0.0015837329489281691 0 0.0049841101672450407 0.0010652968695603188 0 0.0049594679208352825 0.0010879761134755233 0 0.0048867394667339381 0.0010811077163170226 0 0.0045492919430169098 0.0016193885319365079 0 0.0045244456134438792 0.0015837329489281691 0 0.0046767649061063045 0.0015078805853388794 0 0.0043999247030733152 0.001838319273640377 0 0.00426845781090963 0.001614507788430117 0 0.0040334314970886902 0.001979774199651424 0 0.0042586094616669703 0.0019987057906882474 0 0.0041581396689309453 0.0023087815644484808 0 0.0045180262317930523 0.0014556535647006269 0 0.0045244456134438792 0.0015837329489281691 0 0.0046767649061063045 0.0015078805853388794 0 0.003752500131815514 0.001754685726121656 0 0.00426845781090963 0.001614507788430117 0 0.0035076261236340642 0.001495950942157188 0 0.0035130735488340514 0.0014386067575740216 0 0.003436795166377204 0.0014111640640577163 0 0.0035076261236340642 0.001495950942157188 0 0.0035415560986848372 0.0014821165485618343 0 0.0035130735488340514 0.0014386067575740216 0 0.0035130735488340514 0.0014386067575740216 0 0.0034849365529871197 0.0013881923347819815 0 0.003436795166377204 0.0014111640640577163 0 0.003436795166377204 0.0014111640640577163 0 0.0034708044234979091 0.0013211066363911326 0 0.0034342742185887562 0.0012642908101246633 0 0.0034849365529871197 0.0013881923347819815 0 0.003436795166377204 0.0014111640640577163 0 0.0034708044234979091 0.0013211066363911326 0 0.00426845781090963 0.001614507788430117 0 0.0041215920087592393 0.0011985796237837776 0 0.0035157683677080804 0.0013798356854143668 0 0.0035130735488340514 0.0014386067575740216 0 0.0034849365529871197 0.0013881923347819815 0 0.0035157683677080804 0.0013798356854143668 0 0.0034849365529871197 0.0013881923347819815 0 0.0034708044234979091 0.0013211066363911326 0 0.004743427702497062 0.0014556808730868754 0 0.0046935559974559671 0.0013020593188829974 0 0.0048071470468437245 0.0011972573871293368 0 0.00426845781090963 0.001614507788430117 0 0.0046912398458701038 0.0013224406364409727 0 0.0045180262317930523 0.0014556535647006269 0 0.0046767649061063045 0.0015078805853388794 0 0.0046935559974559671 0.0013020593188829974 0 0.0048867394667339381 0.0010811077163170226 0 0.0047508041633122977 0.0011996360559079196 0 0.0048384842789800618 0.0012000599814613862 0 0.0045180262317930523 0.0014556535647006269 0 0.0046935559974559671 0.0013020593188829974 0 0.0047508041633122977 0.0011996360559079196 0 0.0047090443428673594 0.0012723768119497906 0 0.0047440335585662904 0.0012072049617766279 0 0.0046935559974559671 0.0013020593188829974 0 0.0047508041633122977 0.0011996360559079196 0 0.0048071470468437245 0.0011972573871293368 0 0.0047508041633122977 0.0011996360559079196 0 0.0048071470468437245 0.0011972573871293368 0 0.0047856298620667023 0.0012036724731581917 0 0.0047508041633122977 0.0011996360559079196 0 0.0048112593439944328 0.0012214043477439243 0 0.0048384842789800618 0.0012000599814613862 0 0.0034898796058506522 0.0012689784076056765 0 0.0034342742185887562 0.0012642908101246633 0 0.0034663923136577131 0.0012006656036876826 0 0.0034898796058506522 0.0012689784076056765 0 0.0034708044234979091 0.0013211066363911326 0 0.0034342742185887562 0.0012642908101246633 0 0.0034478775183718665 0.001108769495466506 0 0.0034342742185887562 0.0012642908101246633 0 0.0034663923136577131 0.0012006656036876826 0 0.00473875672227397 0.001242606974020588 0 0.0048071470468437245 0.0011972573871293368 0 0.0047797753641566146 0.001219893337197736 0 0.0039242980114185515 0.0011638284002820269 0 0.0041215920087592393 0.0011985796237837776 0 0.0048071470468437245 0.0011972573871293368 0 0.0047797753641566146 0.001219893337197736 0 0.0047856298620667023 0.0012036724731581917 0 0.0048112593439944328 0.0012214043477439243 0 0.0048603694262459203 0.0012431011475649962 0 0.0048384842789800618 0.0012000599814613862 0 0.0047797753641566146 0.001219893337197736 0 0.0048112593439944328 0.0012214043477439243 0 0.0047856298620667023 0.0012036724731581917 0 0.0047508041633122977 0.0011996360559079196 0 0.0048112593439944328 0.0012214043477439243 0 0.0047856298620667023 0.0012036724731581917 0 0.0048125230786397475 0.0012455526009652964 0 0.0047797753641566146 0.001219893337197736 0 0.0048112593439944328 0.0012214043477439243 0 0.0048125230786397475 0.0012455526009652964 0 0.0048112593439944328 0.0012214043477439243 0 0.0048603694262459203 0.0012431011475649962 0 0.0049354181280557782 0.0012576427432913725 0 0.0048603694262459203 0.0012431011475649962 0 0.0049196679739887837 0.0012143900000862278 0 0.0048603694262459203 0.0012431011475649962 0 0.0049196679739887837 0.0012143900000862278 0 0.0048384842789800618 0.0012000599814613862 0 0.0049354181280557782 0.0012576427432913725 0 0.0049196679739887837 0.0012143900000862278 0 0.0049981267425149431 0.001229920024050087 0 0.0049196679739887837 0.0012143900000862278 0 0.0049595274290817485 0.0011689608137362357 0 0.0049981267425149431 0.001229920024050087 0 0.0049196679739887837 0.0012143900000862278 0 0.0049595274290817485 0.0011689608137362357 0 0.004902733199213462 0.0011667143552702719 0 0.0049595274290817485 0.0011689608137362357 0 0.0049868326103575025 0.0011175992001454206 0 0.0050246675599403285 0.0011596769508636702 0 0.0049595274290817485 0.0011689608137362357 0 0.0049868326103575025 0.0011175992001454206 0 0.0049415108167217619 0.001124675628419573 0 0.0049595274290817485 0.0011689608137362357 0 0.0049415108167217619 0.001124675628419573 0 0.004902733199213462 0.0011667143552702719 0 0.0048867394667339381 0.0010811077163170226 0 0.0048384842789800618 0.0012000599814613862 0 0.004902733199213462 0.0011667143552702719 0 0.0048867394667339381 0.0010811077163170226 0 0.0049415108167217619 0.001124675628419573 0 0.004902733199213462 0.0011667143552702719 0 0.0049196679739887837 0.0012143900000862278 0 0.0048384842789800618 0.0012000599814613862 0 0.004902733199213462 0.0011667143552702719 0 0.0050848415504084043 0.001150537781667679 0 0.0051219469214447743 0.0011080853148521331 0 0.0051701848330654183 0.0011669790987875286 0 0.0050848415504084043 0.001150537781667679 0 0.0051219469214447743 0.0011080853148521331 0 0.0050435270370753496 0.001099076462983695 0 0.0049868326103575025 0.0011175992001454206 0 0.0050246675599403285 0.0011596769508636702 0 0.0050435270370753496 0.001099076462983695 0 0.0050848415504084043 0.001150537781667679 0 0.0050246675599403285 0.0011596769508636702 0 0.0050435270370753496 0.001099076462983695 0 0.005061983682313146 0.0012531019351179062 0 0.0049981267425149431 0.001229920024050087 0 0.0050777272578768299 0.0012030821875765581 0 0.0049595274290817485 0.0011689608137362357 0 0.0050246675599403285 0.0011596769508636702 0 0.0049981267425149431 0.001229920024050087 0 0.0050246675599403285 0.0011596769508636702 0 0.0049981267425149431 0.001229920024050087 0 0.0050777272578768299 0.0012030821875765581 0 0.0050848415504084043 0.001150537781667679 0 0.0050777272578768299 0.0012030821875765581 0 0.0051701848330654183 0.0011669790987875286 0 0.0051354669829232827 0.0012429606019234659 0 0.0050777272578768299 0.0012030821875765581 0 0.0051701848330654183 0.0011669790987875286 0 0.0050848415504084043 0.001150537781667679 0 0.0050246675599403285 0.0011596769508636702 0 0.0050777272578768299 0.0012030821875765581 0 0.0052432039442866429 0.0012203368525615646 0 0.0051354669829232827 0.0012429606019234659 0 0.0051701848330654183 0.0011669790987875286 0 0.005382343940276489 0.00121646114208039 0 0.0052432039442866429 0.0012203368525615646 0 0.0053390268719604754 0.0011539000133264996 0 0.0052432039442866429 0.0012203368525615646 0 0.0051701848330654183 0.0011669790987875286 0 0.0053390268719604754 0.0011539000133264996 0 0.0052869218608579882 0.0012885906240109267 0 0.0054933359340139298 0.0012995726913982389 0 0.0051701848330654183 0.0011669790987875286 0 0.0052051927620115025 0.0010833446601152281 0 0.0053390268719604754 0.0011539000133264996 0 0.0051219469214447743 0.0011080853148521331 0 0.0051701848330654183 0.0011669790987875286 0 0.0052051927620115025 0.0010833446601152281 0 0.0052869218608579882 0.0012885906240109267 0 0.0049742717524619354 0.0010137592846388404 0 0.0052869218608579882 0.0012885906240109267 0 0.0053387528314698639 0.0014832573690177801 0 0.0051219469214447743 0.0011080853148521331 0 0.0052051927620115025 0.0010833446601152281 0 0.0051000820805230818 0.0010605171125060203 0 0.0048971275798018032 0.001006049770210186 0 0.0048907422883652284 0.0011010589032776866 0 0.0049422778705787446 0.0010372059013255414 0 0.0057741077831867139 0.0015554081571170226 0 0.0055768536293751073 0.0017127959078255405 0 0.0055842905288130545 0.0014091544915062167 0 0.0057741077831867139 0.0015554081571170226 0 0.0057728228099426862 0.0018595761877784876 0 0.0055768536293751073 0.0017127959078255405 0 0.0057728228099426862 0.0018595761877784876 0 0.0055769276575218466 0.0020163826047500662 0 0.0055768536293751073 0.0017127959078255405 0 0.0048907422883652284 0.0011010589032776866 0 0.0049469840377566465 0.0010948584319488825 0 0.0049422778705787446 0.0010372059013255414 0 0.0049469840377566465 0.0010948584319488825 0 0.0049422778705787446 0.0010372059013255414 0 0.0050032011549575274 0.0010654604627493389 0 0.0049469840377566465 0.0010948584319488825 0 0.0050032011549575274 0.0010654604627493389 0 0.004976607744791476 0.0011155265088583118 0 0.0049742717524619354 0.0010137592846388404 0 0.0050300220045435811 0.0010762007560084182 0 0.0051000820805230818 0.0010605171125060203 0 0.0050435270370753496 0.001099076462983695 0 0.0050032011549575274 0.0010654604627493389 0 0.0051219469214447743 0.0011080853148521331 0 0.0051000820805230818 0.0010605171125060203 0 0.0050435270370753496 0.001099076462983695 0 0.0050435270370753496 0.001099076462983695 0 0.0049955004389217548 0.0010765338701922999 0 0.0050032011549575274 0.0010654604627493389 0 0.0049868326103575025 0.0011175992001454206 0 0.0050435270370753496 0.001099076462983695 0 0.0049955004389217548 0.0010765338701922999 0 0.0049955004389217548 0.0010765338701922999 0 0.0050032011549575274 0.0010654604627493389 0 0.004999844527518245 0.001083945596417204 0 0.0050032011549575274 0.0010654604627493389 0 0.004999844527518245 0.001083945596417204 0 0.004976607744791476 0.0011155265088583118 0 0.004999844527518245 0.001083945596417204 0 0.004976607744791476 0.0011155265088583118 0 0.0050152799962981318 0.0011385552189264161 0 0.004976607744791476 0.0011155265088583118 0 0.0049589530737578014 0.001173286617853955 0 0.0050152799962981318 0.0011385552189264161 0 0.0049469840377566465 0.0010948584319488825 0 0.004976607744791476 0.0011155265088583118 0 0.0049339399212232557 0.0011531154043415896 0 0.004976607744791476 0.0011155265088583118 0 0.0049339399212232557 0.0011531154043415896 0 0.0049589530737578014 0.001173286617853955 0 0.0049339399212232557 0.0011531154043415896 0 0.0049589530737578014 0.001173286617853955 0 0.0049347966982946244 0.0012052835881984692 0 0.0049589530737578014 0.001173286617853955 0 0.0049347966982946244 0.0012052835881984692 0 0.0049408297234828265 0.0012539183110444393 0 0.0049589530737578014 0.001173286617853955 0 0.0050152799962981318 0.0011385552189264161 0 0.0049408297234828265 0.0012539183110444393 0 0.004857663679571602 0.0013306318495789012 0 0.0049352247438745429 0.001260093294541489 0 0.0047091856521238092 0.001537673756648853 0 0.0047400725365307379 0.0013616901036374186 0 0.0049408297234828265 0.0012539183110444393 0 0.0046277672515432512 0.0014473681957069243 0 0.0047091856521238092 0.001537673756648853 0 0.0047400725365307379 0.0013616901036374186 0 0.0051114217131098885 0.0019349773032404296 0 0.0054295206715638039 0.0017982065932188416 0 0.0046526046456765412 0.0012345811542815645 0 0.0049408297234828265 0.0012539183110444393 0 0.0049493510623287995 0.0012068470968818856 0 0.0046526046456765412 0.0012345811542815645 0 0.0047400725365307379 0.0013616901036374186 0 0.0049408297234828265 0.0012539183110444393 0 0.0059294223156431802 0.0024133206883543193 0 0.005845760810883162 0.0024318642870792711 0 0.0058784639070135472 0.0024535129337566524 0 0.0049372156292210685 0.0012260767584669067 0 0.0049493510623287995 0.0012068470968818856 0 0.0049095096253267568 0.0012558589608949906 0 0.0054295206715638039 0.0017982065932188416 0 0.0053161029460372369 0.0019499374468211184 0 0.0049408297234828265 0.0012539183110444393 0 0.0049372156292210685 0.0012260767584669067 0 0.0049493510623287995 0.0012068470968818856 0 0.005845760810883162 0.0024318642870792711 0 0.0058103166054616151 0.0024574006871030327 0 0.0057356999708210003 0.0024430416007492034 0 0.0049347966982946244 0.0012052835881984692 0 0.0049408297234828265 0.0012539183110444393 0 0.0049372156292210685 0.0012260767584669067 0 0.0049347966982946244 0.0012052835881984692 0 0.0049372156292210685 0.0012260767584669067 0 0.0049219317875927289 0.0012224296678542334 0 0.005845760810883162 0.0024318642870792711 0 0.0058474414720228705 0.002471932361938095 0 0.0058103166054616151 0.0024574006871030327 0 0.005845760810883162 0.0024318642870792711 0 0.0058474414720228705 0.002471932361938095 0 0.0058784639070135472 0.0024535129337566524 0 0.0058474414720228705 0.002471932361938095 0 0.0058066262785969255 0.0024811920679649103 0 0.0058103166054616151 0.0024574006871030327 0 0.0058338922694197749 0.0025211125355891709 0 0.0057779309777510465 0.0025039797874440782 0 0.0057909405787243172 0.0025574695518213622 0 0.0058066262785969255 0.0024811920679649103 0 0.0058338922694197749 0.0025211125355891709 0 0.0057779309777510465 0.0025039797874440782 0 0.0058474414720228705 0.002471932361938095 0 0.0058338922694197749 0.0025211125355891709 0 0.0058918726851105935 0.0024948515014185171 0 0.0058474414720228705 0.002471932361938095 0 0.0058066262785969255 0.0024811920679649103 0 0.0058338922694197749 0.0025211125355891709 0 0.0059294223156431802 0.0024133206883543193 0 0.0058918726851105935 0.0024948515014185171 0 0.0058784639070135472 0.0024535129337566524 0 0.0051114217131098885 0.0019349773032404296 0 0.0055225981498664258 0.0024198403299020891 0 0.0058474414720228705 0.002471932361938095 0 0.0058918726851105935 0.0024948515014185171 0 0.0058784639070135472 0.0024535129337566524 0 0.0056301533481881256 0.0024433911800779951 0 0.005738091107554911 0.0024914180662612977 0 0.0056603962272840248 0.0023236976296705293 0 0.0056301533481881256 0.0024433911800779951 0 0.0055492183491423156 0.002492224357468268 0 0.0055314012761094071 0.0023456239788378669 0 0.0056301533481881256 0.0024433911800779951 0 0.0056603962272840248 0.0023236976296705293 0 0.0055314012761094071 0.0023456239788378669 0 0.0056301533481881256 0.0024433911800779951 0 0.0055492183491423156 0.002492224357468268 0 0.0056354896934493904 0.0025465819793860354 0 0.0056301533481881256 0.0024433911800779951 0 0.005738091107554911 0.0024914180662612977 0 0.0056354896934493904 0.0025465819793860354 0 0.0058066262785969255 0.0024811920679649103 0 0.0058103166054616151 0.0024574006871030327 0 0.0057356999708210003 0.0024430416007492034 0 0.005738091107554911 0.0024914180662612977 0 0.0057779309777510465 0.0025039797874440782 0 0.0057909405787243172 0.0025574695518213622 0 0.0058066262785969255 0.0024811920679649103 0 0.0057779309777510465 0.0025039797874440782 0 0.0057356999708210003 0.0024430416007492034 0 0.0056009435595317661 0.0025345978305834379 0 0.0053161029460372369 0.0019499374468211184 0 0.005738091107554911 0.0024914180662612977 0 0.0057779309777510465 0.0025039797874440782 0 0.0057356999708210003 0.0024430416007492034 0 0.005738091107554911 0.0024914180662612977 0 0.0057548139975383437 0.0023663663613662945 0 0.0056603962272840248 0.0023236976296705293 0 0.0053161029460372369 0.0019499374468211184 0 0.0053292760197233072 0.0016641099918583103 0 0.0049095096253267568 0.0012558589608949906 0 0.0049219317875927289 0.0012224296678542334 0 0.004893742393546242 0.0012060118372311942 0 0.0057548139975383437 0.0023663663613662945 0 0.0056603962272840248 0.0023236976296705293 0 0.0057659727280118872 0.0021660008160373305 0 0.0049372156292210685 0.0012260767584669067 0 0.0049095096253267568 0.0012558589608949906 0 0.0049219317875927289 0.0012224296678542334 0 0.0056603962272840248 0.0023236976296705293 0 0.0056004880118290861 0.0022012717780487434 0 0.0057659727280118872 0.0021660008160373305 0 0.0056603962272840248 0.0023236976296705293 0 0.0056004880118290861 0.0022012717780487434 0 0.0055314012761094071 0.0023456239788378669 0 0.0056004880118290861 0.0022012717780487434 0 0.0057659727280118872 0.0021660008160373305 0 0.0055769276575218466 0.0020163826047500662 0 0.0049339399212232557 0.0011531154043415896 0 0.0049347966982946244 0.0012052835881984692 0 0.004893742393546242 0.0012060118372311942 0 0.0049347966982946244 0.0012052835881984692 0 0.0049219317875927289 0.0012224296678542334 0 0.004893742393546242 0.0012060118372311942 0 0.0048907422883652284 0.0011010589032776866 0 0.0049339399212232557 0.0011531154043415896 0 0.004893742393546242 0.0012060118372311942 0 0.0053387528314698639 0.0014832573690177801 0 0.0053292760197233072 0.0016641099918583103 0 0.0048907422883652284 0.0011010589032776866 0 0.0049469840377566465 0.0010948584319488825 0 0.0049339399212232557 0.0011531154043415896 0 0.0057728228099426862 0.0018595761877784876 0 0.0057659727280118872 0.0021660008160373305 0 0.0055769276575218466 0.0020163826047500662 0 0.0055769276575218466 0.0020163826047500662 0 0.0054135922816043857 0.0018870777718643626 0 0.0053578546163052737 0.002085016023719318 0 0.0054135922816043857 0.0018870777718643626 0 0.0053578546163052737 0.002085016023719318 0 0.005206291513245578 0.0018889523641008967 0 0.0053578546163052737 0.002085016023719318 0 0.0053450585094697561 0.0023176358553688267 0 0.0051767356362484611 0.0021728841380691914 0 0.0053578546163052737 0.002085016023719318 0 0.0054693265402716287 0.0021926483697873086 0 0.0053450585094697561 0.0023176358553688267 0 0.0055769276575218466 0.0020163826047500662 0 0.0053578546163052737 0.002085016023719318 0 0.0054693265402716287 0.0021926483697873086 0 0.0056004880118290861 0.0022012717780487434 0 0.0055769276575218466 0.0020163826047500662 0 0.0054693265402716287 0.0021926483697873086 0 0.0056004880118290861 0.0022012717780487434 0 0.0054693265402716287 0.0021926483697873086 0 0.0055314012761094071 0.0023456239788378669 0 0.0054693265402716287 0.0021926483697873086 0 0.0055314012761094071 0.0023456239788378669 0 0.0053450585094697561 0.0023176358553688267 0 0.0053450585094697561 0.0023176358553688267 0 0.0051587924234751123 0.0024286072548682799 0 0.0053232651924143906 0.0025383010184109184 0 0.0053450585094697561 0.0023176358553688267 0 0.0054368691835751937 0.0024721331033639659 0 0.0053232651924143906 0.0025383010184109184 0 0.0055314012761094071 0.0023456239788378669 0 0.0053450585094697561 0.0023176358553688267 0 0.0054368691835751937 0.0024721331033639659 0 0.0055492183491423156 0.002492224357468268 0 0.0055314012761094071 0.0023456239788378669 0 0.0054368691835751937 0.0024721331033639659 0 0.0051587924234751123 0.0024286072548682799 0 0.0049999758620480166 0.0022893090423064715 0 0.0049999912626427119 0.002583447485055867 0 0.0051587924234751123 0.0024286072548682799 0 0.0052095790781996817 0.0025795695506337815 0 0.0053232651924143906 0.0025383010184109184 0 0.0053450585094697561 0.0023176358553688267 0 0.0051587924234751123 0.0024286072548682799 0 0.0051767356362484611 0.0021728841380691914 0 0.0051587924234751123 0.0024286072548682799 0 0.0049999758620480166 0.0022893090423064715 0 0.0051767356362484611 0.0021728841380691914 0 0.0049999758620480166 0.0022893090423064715 0 0.0051767356362484611 0.0021728841380691914 0 0.004999981740081717 0.0019951446523253547 0 0.0053578546163052737 0.002085016023719318 0 0.0051767356362484611 0.0021728841380691914 0 0.005206291513245578 0.0018889523641008967 0 0.0051767356362484611 0.0021728841380691914 0 0.005206291513245578 0.0018889523641008967 0 0.004999981740081717 0.0019951446523253547 0 0.005206291513245578 0.0018889523641008967 0 0.004999981740081717 0.0019951446523253547 0 0.0049999782267547855 0.0017009803156250291 0 0.005206291513245578 0.0018889523641008967 0 0.0049999782267547855 0.0017009803156250291 0 0.0051545767470388432 0.0016283622791500652 0 0.0049999782267547855 0.0017009803156250291 0 0.0051545767470388432 0.0016283622791500652 0 0.0049999793359510282 0.0014068166038030874 0 0.0051545767470388432 0.0016283622791500652 0 0.0053373689030685205 0.0017100941069941832 0 0.0052417708954742223 0.0014428037581215363 0 0.005206291513245578 0.0018889523641008967 0 0.0051545767470388432 0.0016283622791500652 0 0.0053373689030685205 0.0017100941069941832 0 0.0054135922816043857 0.0018870777718643626 0 0.005206291513245578 0.0018889523641008967 0 0.0053373689030685205 0.0017100941069941832 0 0.0054135922816043857 0.0018870777718643626 0 0.0055768536293751073 0.0017127959078255405 0 0.0053373689030685205 0.0017100941069941832 0 0.0055769276575218466 0.0020163826047500662 0 0.0054135922816043857 0.0018870777718643626 0 0.0055768536293751073 0.0017127959078255405 0 0.0055768536293751073 0.0017127959078255405 0 0.0053373689030685205 0.0017100941069941832 0 0.0054075684348348909 0.0015113718335777401 0 0.0053373689030685205 0.0017100941069941832 0 0.0054075684348348909 0.0015113718335777401 0 0.0052417708954742223 0.0014428037581215363 0 0.0054075684348348909 0.0015113718335777401 0 0.0053681926677260662 0.0012443746648787288 0 0.0052417708954742223 0.0014428037581215363 0 0.0054075684348348909 0.0015113718335777401 0 0.0055842905288130545 0.0014091544915062167 0 0.0053681926677260662 0.0012443746648787288 0 0.0055768536293751073 0.0017127959078255405 0 0.0054075684348348909 0.0015113718335777401 0 0.0055842905288130545 0.0014091544915062167 0 0.005382343940276489 0.00121646114208039 0 0.0053390268719604754 0.0011539000133264996 0 0.0053681926677260662 0.0012443746648787288 0 0.0054933359340139298 0.0012995726913982389 0 0.0053601499530756807 0.0012329502301576766 0 0.0052246102287751249 0.0011721957754977684 0 0.0053681926677260662 0.0012443746648787288 0 0.0052417708954742223 0.0014428037581215363 0 0.0052246102287751249 0.0011721957754977684 0 0.0049999793359510282 0.0014068166038030874 0 0.0052417708954742223 0.0014428037581215363 0 0.0051545767470388432 0.0016283622791500652 0 0.0049999793359510282 0.0014068166038030874 0 0.0052417708954742223 0.0014428037581215363 0 0.0049999767198283694 0.003457122208045906 0 0.0051606359917151269 0.0036339657628334833 0 0.004999928194782708 0.0038352341640885421 0 0.0051606359917151269 0.0036339657628334833 0 0.0052930695969576084 0.0035265373982797409 0 0.0051573116085781578 0.0033845627195546162 0 0.0049999767198283694 0.003457122208045906 0 0.0051606359917151269 0.0036339657628334833 0 0.0051573116085781578 0.0033845627195546162 0 0.0051606359917151269 0.0036339657628334833 0 0.0053341324024393346 0.0036992313304735516 0 0.005204456399141761 0.0038815110984262236 0 0.0051606359917151269 0.0036339657628334833 0 0.0053341324024393346 0.0036992313304735516 0 0.0052930695969576084 0.0035265373982797409 0 0.0050940367102272639 0.0038798798219694583 0 0.0052423536144585794 0.0035911854122685624 0 0.0053341324024393346 0.0036992313304735516 0 0.0055136686243665014 0.0037617830804956899 0 0.0054690172051765698 0.0034924749679689795 0 0.0047124272729723209 0.0039759943245734801 0 0.0046886930841837761 0.0038019793403043056 0 0.0048167799137234183 0.0038878038113764847 0 0.0053341324024393346 0.0036992313304735516 0 0.0054690172051765698 0.0034924749679689795 0 0.0052930695969576084 0.0035265373982797409 0 0.005481601413154763 0.0034847403395069135 0 0.0052930695969576084 0.0035265373982797409 0 0.0053139490228890128 0.0033717457167567757 0 0.0052423536144585794 0.0035911854122685624 0 0.0053970106505928121 0.0035013284221825747 0 0.005481601413154763 0.0034847403395069135 0 0.0053139490228890128 0.0033717457167567757 0 0.0054384817861021055 0.003263939972281432 0 0.0052423536144585794 0.0035911854122685624 0 0.0054416969615961657 0.0032022155218277902 0 0.0054404950468564866 0.0033500050317627631 0 0.0054956826548227143 0.0032586551892304369 0 0.0054169472157310269 0.003208176985632557 0 0.0054416969615961657 0.0032022155218277902 0 0.005393632494323332 0.0030816047272597324 0 0.0054956826548227143 0.0032586551892304369 0 0.0054169472157310269 0.003208176985632557 0 0.0054769435007707137 0.0031505061068704721 0 0.0054169472157310269 0.003208176985632557 0 0.0054769435007707137 0.0031505061068704721 0 0.0053913383848947678 0.0030559793602510108 0 0.0053139490228890128 0.0033717457167567757 0 0.0054384817861021055 0.003263939972281432 0 0.0052100988908573712 0.0032045116773631336 0 0.0054384817861021055 0.003263939972281432 0 0.0052100988908573712 0.0032045116773631336 0 0.0052773993802915043 0.003094330680942432 0 0.0053139490228890128 0.0033717457167567757 0 0.0052100988908573712 0.0032045116773631336 0 0.0051573116085781578 0.0033845627195546162 0 0.0052930695969576084 0.0035265373982797409 0 0.0053139490228890128 0.0033717457167567757 0 0.0051573116085781578 0.0033845627195546162 0 0.0049999767198283694 0.003457122208045906 0 0.0051573116085781578 0.0033845627195546162 0 0.0049999701757107761 0.0031718100806530495 0 0.0052100988908573712 0.0032045116773631336 0 0.0051573116085781578 0.0033845627195546162 0 0.0049999701757107761 0.0031718100806530495 0 0.0050000221059578256 0.003171705289364364 0 0.0051116787791440762 0.0029689024778685232 0 0.0050000030286930439 0.0031717477871084777 0 0.005125655711354881 0.0029482874685908297 0 0.0049999899899355041 0.0028775797575706966 0 0.0052100988908573712 0.0032045116773631336 0 0.0049999701757107761 0.0031718100806530495 0 0.0051004253336571397 0.0029899296444840517 0 0.0052565287937269764 0.0029671702198650379 0 0.0051004253336571397 0.0029899296444840517 0 0.0052773993802915043 0.003094330680942432 0 0.0052100988908573712 0.0032045116773631336 0 0.0051004253336571397 0.0029899296444840517 0 0.0052773993802915043 0.003094330680942432 0 0.005125655711354881 0.0029482874685908297 0 0.005119243858711848 0.0027980907627139593 0 0.0052353865986742559 0.0027213869685835082 0 0.0051116787791440762 0.0029689024778685232 0 0.0052192255171810333 0.0027504821156394406 0 0.0052565287937269764 0.0029671702198650379 0 0.0052002189857936441 0.002784883161956186 0 0.0052867444189266489 0.0028551931554911089 0 0.0052565287937269764 0.0029671702198650379 0 0.0051004253336571397 0.0029899296444840517 0 0.0052002189857936441 0.002784883161956186 0 0.005125655711354881 0.0029482874685908297 0 0.0049999899899355041 0.0028775797575706966 0 0.005119243858711848 0.0027980907627139593 0 0.0049999899899355041 0.0028775797575706966 0 0.005119243858711848 0.0027980907627139593 0 0.0049999912626427119 0.002583447485055867 0 0.005119243858711848 0.0027980907627139593 0 0.0051419182185568181 0.002669880858457283 0 0.0049999912626427119 0.002583447485055867 0 0.0052353865986742559 0.0027213869685835082 0 0.0051419182185568181 0.002669880858457283 0 0.0052095790781996817 0.0025795695506337815 0 0.005119243858711848 0.0027980907627139593 0 0.0052353865986742559 0.0027213869685835082 0 0.0051419182185568181 0.002669880858457283 0 0.0052353865986742559 0.0027213869685835082 0 0.0052095790781996817 0.0025795695506337815 0 0.0053232651924143906 0.0025383010184109184 0 0.0051419182185568181 0.002669880858457283 0 0.0052095790781996817 0.0025795695506337815 0 0.0049999912626427119 0.002583447485055867 0 0.0051587924234751123 0.0024286072548682799 0 0.0052095790781996817 0.0025795695506337815 0 0.0049999912626427119 0.002583447485055867 0 0.0055492183491423156 0.002492224357468268 0 0.0054368691835751937 0.0024721331033639659 0 0.0054400645151600766 0.0026873720574218181 0 0.0054368691835751937 0.0024721331033639659 0 0.0054400645151600766 0.0026873720574218181 0 0.0053232651924143906 0.0025383010184109184 0 0.0054400645151600766 0.0026873720574218181 0 0.0053232651924143906 0.0025383010184109184 0 0.0052826804895270627 0.0026874193564409669 0 0.0052002189857936441 0.002784883161956186 0 0.0053232651924143906 0.0025383010184109184 0 0.0052826804895270627 0.0026874193564409669 0 0.0052192255171810333 0.0027504821156394406 0 0.0053190117011963104 0.0025520979624740914 0 0.0052826804895270627 0.0026874193564409669 0 0.0052867444189266489 0.0028551931554911089 0 0.0053996319047192251 0.0028891515015686342 0 0.0052889680891088356 0.0027030399158065174 0 0.0053753886847938285 0.0028624553180840347 0 0.0054400645151600766 0.0026873720574218181 0 0.0052826804895270627 0.0026874193564409669 0 0.005357972874108493 0.0028440763165913335 0 0.0052002189857936441 0.002784883161956186 0 0.0052826804895270627 0.0026874193564409669 0 0.0052867444189266489 0.0028551931554911089 0 0.0054400645151600766 0.0026873720574218181 0 0.005357972874108493 0.0028440763165913335 0 0.005460320675133223 0.002791699645342826 0 0.0053996319047192251 0.0028891515015686342 0 0.0053913383848947678 0.0030559793602510108 0 0.0054844350687596249 0.0030571725554710289 0 0.005357972874108493 0.0028440763165913335 0 0.0053844200461779408 0.0029451005363214499 0 0.0054227886683044799 0.0028689954749400413 0 0.005357972874108493 0.0028440763165913335 0 0.0054227886683044799 0.0028689954749400413 0 0.005460320675133223 0.002791699645342826 0 0.0053753886847938285 0.0028624553180840347 0 0.0054345502595791687 0.0030069691057785812 0 0.0052565287937269764 0.0029671702198650379 0 0.0052867444189266489 0.0028551931554911089 0 0.0053996319047192251 0.0028891515015686342 0 0.0052565287937269764 0.0029671702198650379 0 0.0053996319047192251 0.0028891515015686342 0 0.0053913383848947678 0.0030559793602510108 0 0.0054384817861021055 0.003263939972281432 0 0.0053913383848947678 0.0030559793602510108 0 0.0052773993802915043 0.003094330680942432 0 0.0052565287937269764 0.0029671702198650379 0 0.0053913383848947678 0.0030559793602510108 0 0.0052773993802915043 0.003094330680942432 0 0.0054769435007707137 0.0031505061068704721 0 0.0053913383848947678 0.0030559793602510108 0 0.0054844350687596249 0.0030571725554710289 0 0.0053844200461779408 0.0029451005363214499 0 0.005448353844376465 0.0029675012978840204 0 0.0054332242745322359 0.0030780959270126185 0 0.0053844200461779408 0.0029451005363214499 0 0.005448353844376465 0.0029675012978840204 0 0.0054446496354087605 0.0029075554617609399 0 0.005448353844376465 0.0029675012978840204 0 0.0054871442233005658 0.0029002101455035344 0 0.0054446496354087605 0.0029075554617609399 0 0.0054799396319765003 0.0029536931217089544 0 0.0055265667173595963 0.0029845190628803742 0 0.0054480852600733596 0.003013118242221969 0 0.005448353844376465 0.0029675012978840204 0 0.0054799396319765003 0.0029536931217089544 0 0.0054480852600733596 0.003013118242221969 0 0.005448353844376465 0.0029675012978840204 0 0.0054799396319765003 0.0029536931217089544 0 0.0054871442233005658 0.0029002101455035344 0 0.0054799396319765003 0.0029536931217089544 0 0.0054871442233005658 0.0029002101455035344 0 0.0055192487897668084 0.0029228290095518988 0 0.0054871442233005658 0.0029002101455035344 0 0.0055119792201433759 0.0028664276704893814 0 0.0055278253097425763 0.0028860490144169346 0 0.0054871442233005658 0.0029002101455035344 0 0.0054643989988287494 0.0028616392927802445 0 0.0054939938317181292 0.0028394973471518679 0 0.0054871442233005658 0.0029002101455035344 0 0.0055119792201433759 0.0028664276704893814 0 0.0054939938317181292 0.0028394973471518679 0 0.0054446496354087605 0.0029075554617609399 0 0.0054643989988287494 0.0028616392927802445 0 0.0054227886683044799 0.0028689954749400413 0 0.0053844200461779408 0.0029451005363214499 0 0.0054446496354087605 0.0029075554617609399 0 0.0054227886683044799 0.0028689954749400413 0 0.0054871442233005658 0.0029002101455035344 0 0.0054446496354087605 0.0029075554617609399 0 0.0054643989988287494 0.0028616392927802445 0 0.0054643989988287494 0.0028616392927802445 0 0.0054227886683044799 0.0028689954749400413 0 0.005460320675133223 0.002791699645342826 0 0.0054400645151600766 0.0026873720574218181 0 0.005460320675133223 0.002791699645342826 0 0.0054875690405578464 0.0027868163008379905 0 0.0054643989988287494 0.0028616392927802445 0 0.005460320675133223 0.002791699645342826 0 0.0054939938317181292 0.0028394973471518679 0 0.005460320675133223 0.002791699645342826 0 0.0054939938317181292 0.0028394973471518679 0 0.0054875690405578464 0.0027868163008379905 0 0.0054939938317181292 0.0028394973471518679 0 0.0054875690405578464 0.0027868163008379905 0 0.0055309958143780367 0.0028475776933706617 0 0.0055119792201433759 0.0028664276704893814 0 0.0054939938317181292 0.0028394973471518679 0 0.0055309958143780367 0.0028475776933706617 0 0.0056319304847901996 0.0027268800748374584 0 0.0055179562727578841 0.0025195991552938793 0 0.0057137173644704522 0.0026321841117852834 0 0.0057909405787243172 0.0025574695518213622 0 0.0058486088904070458 0.0025950565313822165 0 0.005738091107554911 0.0024914180662612977 0 0.0057137173644704522 0.0026321841117852834 0 0.0057909405787243172 0.0025574695518213622 0 0.005738091107554911 0.0024914180662612977 0 0.0057137173644704522 0.0026321841117852834 0 0.0056354896934493904 0.0025465819793860354 0 0.0055492183491423156 0.002492224357468268 0 0.0054400645151600766 0.0026873720574218181 0 0.0056354896934493904 0.0025465819793860354 0 0.0054400645151600766 0.0026873720574218181 0 0.0057137173644704522 0.0026321841117852834 0 0.0056354896934493904 0.0025465819793860354 0 0.0054248601790121732 0.0026873280240273059 0 0.0056319304847901996 0.0027268800748374584 0 0.0051076876368312272 0.0022798297191862363 0 0.0052522674840317892 0.0020744886831344962 0 0.0049450963961559184 0.002065908173078993 0 0.0055179562727578841 0.0025195991552938793 0 0.0053132487125362431 0.0024094314212815245 0 0.0055225981498664258 0.0024198403299020891 0 0.0055179562727578841 0.0025195991552938793 0 0.0058338922694197749 0.0025211125355891709 0 0.0058918726851105935 0.0024948515014185171 0 0.0058486088904070458 0.0025950565313822165 0 0.0058338922694197749 0.0025211125355891709 0 0.0057909405787243172 0.0025574695518213622 0 0.0058486088904070458 0.0025950565313822165 0 0.0055309958143780367 0.0028475776933706617 0 0.0055336924867594945 0.0028730968020031903 0 0.0055278253097425763 0.0028860490144169346 0 0.0054875690405578464 0.0027868163008379905 0 0.00555016445554738 0.0028181830027751128 0 0.0055309958143780367 0.0028475776933706617 0 0.0055337900786787365 0.0028650172124155392 0 0.0055309958143780367 0.0028475776933706617 0 0.0055336924867594945 0.0028730968020031903 0 0.0055179562727578841 0.0025195991552938793 0 0.0054595854851749665 0.0028451646528016893 0 0.0055337900786787365 0.0028650172124155392 0 0.0055336924867594945 0.0028730968020031903 0 0.0055129804654517585 0.0028963977118986041 0 0.0055336924867594945 0.0028730968020031903 0 0.0055435707680570783 0.0028929140082344621 0 0.0055006711614196792 0.0028724715462577015 0 0.0055336924867594945 0.0028730968020031903 0 0.0055435707680570783 0.0028929140082344621 0 0.0055278253097425763 0.0028860490144169346 0 0.0054871442233005658 0.0029002101455035344 0 0.0055278253097425763 0.0028860490144169346 0 0.0055192487897668084 0.0029228290095518988 0 0.0055435707680570783 0.0028929140082344621 0 0.0055278253097425763 0.0028860490144169346 0 0.0055192487897668084 0.0029228290095518988 0 0.0055119792201433759 0.0028664276704893814 0 0.0055309958143780367 0.0028475776933706617 0 0.0055278253097425763 0.0028860490144169346 0 0.0055435707680570783 0.0028929140082344621 0 0.0055192487897668084 0.0029228290095518988 0 0.0055265667173595963 0.0029845190628803742 0 0.0050094065107835813 0.0033758393472267485 0 0.0052237413493105914 0.0032600737686091018 0 0.0054799396319765003 0.0029536931217089544 0 0.0055192487897668084 0.0029228290095518988 0 0.0055265667173595963 0.0029845190628803742 0 0.0044604395930085035 0.0038842603262624858 0 0.0045264025798233461 0.0034814252469290217 0 0.0049386901257939403 0.0035522528488872648 0 0.0044604395930085035 0.0038842603262624858 0 0.0045264025798233461 0.0034814252469290217 0 0.0041608711648113529 0.0035272894638432306 0 0.0045264025798233461 0.0034814252469290217 0 0.004356978009653012 0.0031424796569479957 0 0.0047863835288150247 0.0031912049799706476 0 0.004356978009653012 0.0031424796569479957 0 0.0048142852916898075 0.003005700535425879 0 0.0047863835288150247 0.0031912049799706476 0 0.0038612444638884795 0.0033585491065585946 0 0.0044129174063501789 0.0033903224378322139 0 0.0034519642718360273 0.0035739240746348994 0 0.003465065975250863 0.0035816485145511792 0 0.0034588561628382908 0.0035825463198051401 0 0.0048388429112154281 0.0029638696634082208 0 0.00507290470150943 0.0031236497458314878 0 0.0053464770593595456 0.0029303434842506775 0 0.0044129174063501789 0.0033903224378322139 0 0.0051208437535102133 0.0033966534933610416 0 0.0044129174063501789 0.0033903224378322139 0 0.0046370770907617547 0.0030943640847815989 0 0.0048388429112154281 0.0029638696634082208 0 0.0047863835288150247 0.0031912049799706476 0 0.00507290470150943 0.0031236497458314878 0 0.0047863835288150247 0.0031912049799706476 0 0.00507290470150943 0.0031236497458314878 0 0.0049386901257939403 0.0035522528488872648 0 0.0045264025798233461 0.0034814252469290217 0 0.0047863835288150247 0.0031912049799706476 0 0.0049386901257939403 0.0035522528488872648 0 0.0052237413493105914 0.0032600737686091018 0 0.0053825303569914077 0.0030801740735722873 0 0.00507290470150943 0.0031236497458314878 0 0.0049386901257939403 0.0035522528488872648 0 0.0053864168857290515 0.0030583818331859384 0 0.0055265667173595963 0.0029845190628803742 0 0.0054480852600733596 0.003013118242221969 0 0.0053864168857290515 0.0030583818331859384 0 0.005448353844376465 0.0029675012978840204 0 0.0054480852600733596 0.003013118242221969 0 0.0054332242745322359 0.0030780959270126185 0 0.0054769435007707137 0.0031505061068704721 0 0.0054844350687596249 0.0030571725554710289 0 0.0055506484462876336 0.0031899846782400426 0 0.0054956826548227143 0.0032586551892304369 0 0.0054769435007707137 0.0031505061068704721 0 0.0055506484462876336 0.0031899846782400426 0 0.0054345502595791687 0.0030069691057785812 0 0.0055183618156405666 0.003100575979947597 0 0.0054480852600733596 0.003013118242221969 0 0.0054332242745322359 0.0030780959270126185 0 0.0053864168857290515 0.0030583818331859384 0 0.0054956826548227143 0.0032586551892304369 0 0.0055506484462876336 0.0031899846782400426 0 0.0056198518541604571 0.0033121097275368035 0 0.0055183618156405666 0.003100575979947597 0 0.0051208437535102133 0.0033966534933610416 0 0.0054404950468564866 0.0033500050317627631 0 0.0054956826548227143 0.0032586551892304369 0 0.0056198518541604571 0.0033121097275368035 0 0.0054332242745322359 0.0030780959270126185 0 0.0053864168857290515 0.0030583818331859384 0 0.0053464770593595456 0.0029303434842506775 0 0.00507290470150943 0.0031236497458314878 0 0.0053864168857290515 0.0030583818331859384 0 0.0053464770593595456 0.0029303434842506775 0 0.0048708578872838281 0.0037659845944791413 0 0.0049195102843488771 0.0038497977986007145 0 0.0048167799137234183 0.0038878038113764847 0 0.0051208437535102133 0.0033966534933610416 0 0.0047884203622807278 0.0037460504462456666 0 0.0045850782137866449 0.0036017204973336657 0 0.004623394697370874 0.0035954534357506723 0 0.0046070594603411846 0.0035753978686294593 0 0.0046886930841837761 0.0038019793403043056 0 0.0048708578872838281 0.0037659845944791413 0 0.0048167799137234183 0.0038878038113764847 0 0.0052423536144585794 0.0035911854122685624 0 0.0051208437535102133 0.0033966534933610416 0 0.0047124272729723209 0.0039759943245734801 0 0.0048167799137234183 0.0038878038113764847 0 0.0048180958247506121 0.0039906465685122005 0 0.0048967988647151389 0.0039283340961681762 0 0.004959626523714223 0.0039808096801724219 0 0.0048180958247506121 0.0039906465685122005 0 0.0049195102843488771 0.0038497977986007145 0 0.0048167799137234183 0.0038878038113764847 0 0.0048967988647151389 0.0039283340961681762 0 0.0048167799137234183 0.0038878038113764847 0 0.0048967988647151389 0.0039283340961681762 0 0.0048180958247506121 0.0039906465685122005 0 0.0049195102843488771 0.0038497977986007145 0 0.0048967988647151389 0.0039283340961681762 0 0.0049673328406933445 0.0039324428336042815 0 0.0048967988647151389 0.0039283340961681762 0 0.0049673328406933445 0.0039324428336042815 0 0.004959626523714223 0.0039808096801724219 0 0.0043338855452338901 0.0037426132009492599 0 0.0044877961592538658 0.0040164563885597415 0 0.0042514893722076222 0.0038739278278736703 0 0.0042821662338535516 0.003925053703342507 0 0.0042429119195063394 0.0039266878629561457 0 0.0043338855452338901 0.0037426132009492599 0 0.004050989406308097 0.003604919303058902 0 0.0047884203622807278 0.0037460504462456666 0 0.0043338855452338901 0.0037426132009492599 0 0.0034684746308585664 0.0035818718158857417 0 0.0034641966456285642 0.0035824488896947669 0 0.003465297881886036 0.0035826604395724211 0 0.0034684746308585664 0.0035818718158857417 0 0.0034641966456285642 0.0035824488896947669 0 0.003467187518884412 0.0035800036492916578 0 0.0043338855452338901 0.0037426132009492599 0 0.0038653396979354453 0.0038398955701207803 0 0.0034594728077819124 0.0035831011659943862 0 0.003454315562792399 0.0035808864627227214 0 0.003467187518884412 0.0035800036492916578 0 0.0034641966456285642 0.0035824488896947669 0 0.0034594728077819124 0.0035831011659943862 0 0.003467187518884412 0.0035800036492916578 0 0.0034641966456285642 0.0035824488896947669 0 0.0034594728077819124 0.0035831011659943862 0 0.0034588561628382908 0.0035825463198051401 0 0.0034594728077819124 0.0035831011659943862 0 0.0034588561628382908 0.0035825463198051401 0 0.0034532698179011267 0.0035871970768646295 0 0.0034519642718360273 0.0035739240746348994 0 0.0034588561628382908 0.0035825463198051401 0 0.0034532698179011267 0.0035871970768646295 0 0.0045850782137866449 0.0036017204973336657 0 0.0046070594603411846 0.0035753978686294593 0 0.004588973703728105 0.0035787203007193106 0 0.0044129174063501789 0.0033903224378322139 0 0.004050989406308097 0.003604919303058902 0 0.003465065975250863 0.0035816485145511792 0 0.0034588561628382908 0.0035825463198051401 0 0.003465297881886036 0.0035826604395724211 0 0.0046070594603411846 0.0035753978686294593 0 0.0045913219192172611 0.0035576296488030665 0 0.004588973703728105 0.0035787203007193106 0 0.0034641966456285642 0.0035824488896947669 0 0.0034588561628382908 0.0035825463198051401 0 0.003465297881886036 0.0035826604395724211 0 0.0034429897318498481 0.0036079202512630769 0 0.0034542530256966835 0.0035788118777916431 0 0.0034532698179011267 0.0035871970768646295 0 0.0034429897318498481 0.0036079202512630769 0 0.0034542530256966835 0.0035788118777916431 0 0.003501241190912413 0.0035572596927185428 0 0.0034429897318498481 0.0036079202512630769 0 0.0034532698179011267 0.0035871970768646295 0 0.003454315562792399 0.0035808864627227214 0 0.0034594728077819124 0.0035831011659943862 0 0.0034532698179011267 0.0035871970768646295 0 0.003454315562792399 0.0035808864627227214 0 0.0034191734603584477 0.0035149398141635971 0 0.003494300161205964 0.0039677009479253088 0 0.0034429897318498481 0.0036079202512630769 0 0.0032831361499204839 0.0037463823369504583 0 0.0034442358093693753 0.0037440510442720504 0 0.003494300161205964 0.0039677009479253088 0 0.0034846071568037065 0.0040006174286963594 0 0.0034429897318498481 0.0036079202512630769 0 0.0034442358093693753 0.0037440510442720504 0 0.0035211860485210426 0.0036504598329325888 0 0.0036634941534188677 0.0039296149134576581 0 0.0035211860485210426 0.0036504598329325888 0 0.0036379179255423251 0.0035071270172931635 0 0.0034442358093693753 0.0037440510442720504 0 0.0036634941534188677 0.0039296149134576581 0 0.0035211860485210426 0.0036504598329325888 0 0.0034846071568037065 0.0040006174286963594 0 0.003696997950643318 0.0039374436690066449 0 0.0035211860485210426 0.0036504598329325888 0 0.0035373898730383328 0.0035394936087022105 0 0.0036379179255423251 0.0035071270172931635 0 0.0035373898730383328 0.0035394936087022105 0 0.0035146734216173607 0.0035247906292611162 0 0.0036379179255423251 0.0035071270172931635 0 0.0034429897318498481 0.0036079202512630769 0 0.0035211860485210426 0.0036504598329325888 0 0.0035373898730383328 0.0035394936087022105 0 0.0034429897318498481 0.0036079202512630769 0 0.0035373898730383328 0.0035394936087022105 0 0.003501241190912413 0.0035572596927185428 0 0.0035373898730383328 0.0035394936087022105 0 0.003501241190912413 0.0035572596927185428 0 0.0035843645455839097 0.0035135977683175032 0 0.0035373898730383328 0.0035394936087022105 0 0.0034955534321194567 0.0035618881934703526 0 0.0035843645455839097 0.0035135977683175032 0 0.0035373898730383328 0.0035394936087022105 0 0.0034955534321194567 0.0035618881934703526 0 0.0035146734216173607 0.0035247906292611162 0 0.0034955534321194567 0.0035618881934703526 0 0.0035843645455839097 0.0035135977683175032 0 0.0035023776059881235 0.0036803370373754128 0 0.0034955534321194567 0.0035618881934703526 0 0.0035023776059881235 0.0036803370373754128 0 0.0033211352576697022 0.0037067881302845708 0 0.0035843645455839097 0.0035135977683175032 0 0.0038277999503525425 0.0035941646546046539 0 0.003667565661133537 0.003764543231485791 0 0.0035843645455839097 0.0035135977683175032 0 0.003667565661133537 0.003764543231485791 0 0.0035023776059881235 0.0036803370373754128 0 0.0035843645455839097 0.0035135977683175032 0 0.0038277999503525425 0.0035941646546046539 0 0.003950994913649945 0.0033053777833598093 0 0.0038277999503525425 0.0035941646546046539 0 0.003950994913649945 0.0033053777833598093 0 0.0041608711648113529 0.0035272894638432306 0 0.0035958442153240454 0.0034933362375079873 0 0.0037268138102524665 0.0034251526001546949 0 0.003501241190912413 0.0035572596927185428 0 0.0035843645455839097 0.0035135977683175032 0 0.003464634439188638 0.0035385932085743384 0 0.0034542530256966835 0.0035788118777916431 0 0.003501241190912413 0.0035572596927185428 0 0.003464634439188638 0.0035385932085743384 0 0.0034519642718360273 0.0035739240746348994 0 0.0034542530256966835 0.0035788118777916431 0 0.003464634439188638 0.0035385932085743384 0 0.0038612444638884795 0.0033585491065585946 0 0.0037268138102524665 0.0034251526001546949 0 0.0034519642718360273 0.0035739240746348994 0 0.0034542530256966835 0.0035788118777916431 0 0.0034532698179011267 0.0035871970768646295 0 0.0045264025798233461 0.0034814252469290217 0 0.004356978009653012 0.0031424796569479957 0 0.0041608711648113529 0.0035272894638432306 0 0.004356978009653012 0.0031424796569479957 0 0.003950994913649945 0.0033053777833598093 0 0.0041608711648113529 0.0035272894638432306 0 0.0044604395930085035 0.0038842603262624858 0 0.0041608711648113529 0.0035272894638432306 0 0.0039647849212336187 0.0037852854824403912 0 0.0039647849212336187 0.0037852854824403912 0 0.0038361094974874023 0.0039452202570314414 0 0.003667565661133537 0.003764543231485791 0 0.0038277999503525425 0.0035941646546046539 0 0.0039647849212336187 0.0037852854824403912 0 0.003667565661133537 0.003764543231485791 0 0.0038277999503525425 0.0035941646546046539 0 0.0041608711648113529 0.0035272894638432306 0 0.0039647849212336187 0.0037852854824403912 0 0.0039647849212336187 0.0037852854824403912 0 0.0038361094974874023 0.0039452202570314414 0 0.004082454722271524 0.0041130691466431633 0 0.0038361094974874023 0.0039452202570314414 0 0.004082454722271524 0.0041130691466431633 0 0.0038077962500500336 0.0041050889069488179 0 0.0050094065107835813 0.0033758393472267485 0 0.0047846876387882898 0.0035747147175969876 0 0.0044604395930085035 0.0038842603262624858 0 0.0039647849212336187 0.0037852854824403912 0 0.004082454722271524 0.0041130691466431633 0 0.0055336924867594945 0.0028730968020031903 0 0.0055006711614196792 0.0028724715462577015 0 0.0055129804654517585 0.0028963977118986041 0 0.0047846876387882898 0.0035747147175969876 0 0.0044964783427167082 0.003033308425083044 0 0.0055006711614196792 0.0028724715462577015 0 0.0055129804654517585 0.0028963977118986041 0 0.0054341992672182742 0.0029081344901753033 0 0.004082454722271524 0.0041130691466431633 0 0.0037902461802850869 0.0042921561416225679 0 0.0038077962500500336 0.0041050889069488179 0 0.0053132487125362431 0.0024094314212815245 0 0.0044964783427167082 0.003033308425083044 0 0.0047401324647062901 0.0023139488297081565 0 0.0049450963961559184 0.002065908173078993 0 0.004632768051500335 0.0020606584643431685 0 0.0027549519890661175 0.0025457857473159314 0 0.0026900607301096335 0.0027348541883998232 0 0.0025340160075581456 0.002753942783079247 0 0.0026277752584487725 0.0028456474774849194 0 0.0027535972541097853 0.0028556025906020695 0 0.0026900607301096335 0.0027348541883998232 0 0.0032044983413551009 0.0031252406380511224 0 0.0026564438225781502 0.0029529830772847959 0 0.0026277752584487725 0.0028456474774849194 0 0.0026900607301096335 0.0027348541883998232 0 0.0025340160075581456 0.002753942783079247 0 0.0027535972541097853 0.0028556025906020695 0 0.002790421498230312 0.0027481576096794317 0 0.0026900607301096335 0.0027348541883998232 0 0.0027549519890661175 0.0025457857473159314 0 0.002790421498230312 0.0027481576096794317 0 0.0026900607301096335 0.0027348541883998232 0 0.0032044983413551009 0.0031252406380511224 0 0.0044964783427167082 0.003033308425083044 0 0.0047401324647062901 0.0023139488297081565 0 0.0045367113562831433 0.0021387175428268798 0 0.004632768051500335 0.0020606584643431685 0 0.0034724236372576747 0.0028209326092350781 0 0.0038304308185009494 0.0031442523459915225 0 0.0042018194037424378 0.0028335422551496697 0 0.0038073866856685747 0.00228202686500527 0 0.0044964783427167082 0.003033308425083044 0 0.0032044983413551009 0.0031252406380511224 0 0.0038073866856685747 0.00228202686500527 0 0.003576616783933667 0.0042760969211379524 0 0.0036810429014006826 0.0041728013583660463 0 0.0035695005408124688 0.0041029066715344495 0 0.003576616783933667 0.0042760969211379524 0 0.0037902461802850869 0.0042921561416225679 0 0.0036810429014006826 0.0041728013583660463 0 0.0037902461802850869 0.0042921561416225679 0 0.0036810429014006826 0.0041728013583660463 0 0.0038077962500500336 0.0041050889069488179 0 0.0036810429014006826 0.0041728013583660463 0 0.0038077962500500336 0.0041050889069488179 0 0.0036419227267498141 0.0039910600655731938 0 0.0036810429014006826 0.0041728013583660463 0 0.0035695005408124688 0.0041029066715344495 0 0.0036419227267498141 0.0039910600655731938 0 0.003576616783933667 0.0042760969211379524 0 0.0035695005408124688 0.0041029066715344495 0 0.0034046688434987548 0.004100124681927172 0 0.0026171939002629695 0.0028537987944401715 0 0.0027535972541097853 0.0028556025906020695 0 0.0028025438720350911 0.0030339350446305707 0 0.0032044983413551009 0.0031252406380511224 0 0.0031169064058263417 0.0035894128013136714 0 0.0035695005408124688 0.0041029066715344495 0 0.0034837786790602211 0.0040111963696812473 0 0.0034046688434987548 0.004100124681927172 0 0.0034837786790602211 0.0040111963696812473 0 0.0033838331632315907 0.003969442221883366 0 0.0034046688434987548 0.004100124681927172 0 0.0034530619957040703 0.0038606378301893679 0 0.0036419227267498141 0.0039910600655731938 0 0.003667565661133537 0.003764543231485791 0 0.0034837786790602211 0.0040111963696812473 0 0.0034530619957040703 0.0038606378301893679 0 0.0036419227267498141 0.0039910600655731938 0 0.0035695005408124688 0.0041029066715344495 0 0.0034837786790602211 0.0040111963696812473 0 0.0036419227267498141 0.0039910600655731938 0 0.0034837786790602211 0.0040111963696812473 0 0.0034530619957040703 0.0038606378301893679 0 0.0033838331632315907 0.003969442221883366 0 0.0038361094974874023 0.0039452202570314414 0 0.0036419227267498141 0.0039910600655731938 0 0.003667565661133537 0.003764543231485791 0 0.0038361094974874023 0.0039452202570314414 0 0.0038077962500500336 0.0041050889069488179 0 0.0036419227267498141 0.0039910600655731938 0 0.0034530619957040703 0.0038606378301893679 0 0.003667565661133537 0.003764543231485791 0 0.0035023776059881235 0.0036803370373754128 0 0.0034530619957040703 0.0038606378301893679 0 0.0035023776059881235 0.0036803370373754128 0 0.0033211352576697022 0.0037067881302845708 0 0.0033237572764157125 0.003810842734916082 0 0.0031246990568775728 0.0037222988418209434 0 0.0034530619957040703 0.0038606378301893679 0 0.0033211352576697022 0.0037067881302845708 0 0.0032593238637102281 0.0039400563610555769 0 0.0033211352576697022 0.0037067881302845708 0 0.0031210167289923815 0.0038698595313800405 0 0.003241886540047245 0.0039793393798723568 0 0.0031449945244180827 0.00374259042332058 0 0.003054496865655391 0.0037988758570900315 0 0.0030278846351255947 0.0036986120985947816 0 0.0033211352576697022 0.0037067881302845708 0 0.0031449945244180827 0.00374259042332058 0 0.0031210167289923815 0.0038698595313800405 0 0.0031449945244180827 0.00374259042332058 0 0.0031210167289923815 0.0038698595313800405 0 0.003054496865655391 0.0037988758570900315 0 0.0031210167289923815 0.0038698595313800405 0 0.0030412716844600983 0.0038484523393304839 0 0.003054496865655391 0.0037988758570900315 0 0.0031210167289923815 0.0038698595313800405 0 0.0031102363675544979 0.0038568325581684339 0 0.0030412716844600983 0.0038484523393304839 0 0.0031210167289923815 0.0038698595313800405 0 0.0031102363675544979 0.0038568325581684339 0 0.0029389433515427431 0.0038771183975734418 0 0.0031366534582553851 0.003867977955024663 0 0.0031246990568775728 0.0037222988418209434 0 0.0031102363675544979 0.0038568325581684339 0 0.0029389433515427431 0.0038771183975734418 0 0.0030810294442302094 0.0035540977646084239 0 0.0031102363675544979 0.0038568325581684339 0 0.0029934849653924537 0.0039160591720343229 0 0.0030412716844600983 0.0038484523393304839 0 0.0034530619957040703 0.0038606378301893679 0 0.0032593238637102281 0.0039400563610555769 0 0.0033838331632315907 0.003969442221883366 0 0.0032593238637102281 0.0039400563610555769 0 0.0033838331632315907 0.003969442221883366 0 0.0034046688434987548 0.004100124681927172 0 0.0031246990568775728 0.0037222988418209434 0 0.0031169064058263417 0.0035894128013136714 0 0.0029976883689661633 0.003216160569296174 0 0.0028880959455512673 0.0028971196274019456 0 0.0030511641670730194 0.0028073413315335902 0 0.0029976883689661633 0.003216160569296174 0 0.0028025438720350911 0.0030339350446305707 0 0.0028880959455512673 0.0028971196274019456 0 0.0027535972541097853 0.0028556025906020695 0 0.0028025438720350911 0.0030339350446305707 0 0.0028880959455512673 0.0028971196274019456 0 0.0031102363675544979 0.0038568325581684339 0 0.0030810294442302094 0.0035540977646084239 0 0.0033511038999707809 0.0032656719167425395 0 0.0031129544603762426 0.0038517194052933162 0 0.0031713963197153223 0.0036799822736929238 0 0.0031246990568775728 0.0037222988418209434 0 0.0029918320025932731 0.0029520319670675089 0 0.0029389433515427431 0.0038771183975734418 0 0.0030810294442302094 0.0035540977646084239 0 0.0029625133697760426 0.003193297331305486 0 0.0030810294442302094 0.0035540977646084239 0 0.0029625133697760426 0.003193297331305486 0 0.0033511038999707809 0.0032656719167425395 0 0.003263896070543388 0.0027901483284006128 0 0.0029625133697760426 0.003193297331305486 0 0.0033511038999707809 0.0032656719167425395 0 0.002949040678055371 0.0025572043628614271 0 0.0030511641670730194 0.0028073413315335902 0 0.0028883413258305865 0.0027111748895779254 0 0.0027549519890661175 0.0025457857473159314 0 0.002790421498230312 0.0027481576096794317 0 0.0028883413258305865 0.0027111748895779254 0 0.0027535972541097853 0.0028556025906020695 0 0.002790421498230312 0.0027481576096794317 0 0.0028880959455512673 0.0028971196274019456 0 0.002790421498230312 0.0027481576096794317 0 0.0028880959455512673 0.0028971196274019456 0 0.0028883413258305865 0.0027111748895779254 0 0.0028880959455512673 0.0028971196274019456 0 0.0030511641670730194 0.0028073413315335902 0 0.0028883413258305865 0.0027111748895779254 0 0.0027181362488317372 0.0042590946615479611 0 0.0028366670795712551 0.004187115490091986 0 0.0027450255166466433 0.0041017209688815563 0 0.0028366670795712551 0.004187115490091986 0 0.0028604394565510875 0.0040744768028874098 0 0.0027450255166466433 0.0041017209688815563 0 0.0027181362488317372 0.0042590946615479611 0 0.0027450255166466433 0.0041017209688815563 0 0.0026060499300634334 0.0041603223877202623 0 0.0028712147755087626 0.0043727753959284694 0 0.0028366670795712551 0.004187115490091986 0 0.0029862670755687781 0.0041271384330482351 0 0.0031955706341494231 0.0035602666227988211 0 0.0031713963197153223 0.0036799822736929238 0 0.0028366670795712551 0.004187115490091986 0 0.0029862670755687781 0.0041271384330482351 0 0.0028604394565510875 0.0040744768028874098 0 0.0029862670755687781 0.0041271384330482351 0 0.0028604394565510875 0.0040744768028874098 0 0.0029159379872111127 0.0039734407923718764 0 0.0029862670755687781 0.0041271384330482351 0 0.0029159379872111127 0.0039734407923718764 0 0.0029934849653924537 0.0039160591720343229 0 0.0031102363675544979 0.0038568325581684339 0 0.0029862670755687781 0.0041271384330482351 0 0.0029934849653924537 0.0039160591720343229 0 0.0028604394565510875 0.0040744768028874098 0 0.0029159379872111127 0.0039734407923718764 0 0.0027837156378974206 0.003978317011656976 0 0.0027837156378974206 0.003978317011656976 0 0.0027450255166466433 0.0041017209688815563 0 0.0025485557605969987 0.0040251411300182144 0 0.0028604394565510875 0.0040744768028874098 0 0.0027837156378974206 0.003978317011656976 0 0.0027450255166466433 0.0041017209688815563 0 0.0027837156378974206 0.003978317011656976 0 0.0026908546927902053 0.0038885055264868689 0 0.0029151103115733984 0.0038308788864657127 0 0.0026908546927902053 0.0038885055264868689 0 0.0029151103115733984 0.0038308788864657127 0 0.0027068162897113585 0.0037582773386145647 0 0.0029159379872111127 0.0039734407923718764 0 0.0027837156378974206 0.003978317011656976 0 0.0029151103115733984 0.0038308788864657127 0 0.0029159379872111127 0.0039734407923718764 0 0.0029934849653924537 0.0039160591720343229 0 0.0029151103115733984 0.0038308788864657127 0 0.0029934849653924537 0.0039160591720343229 0 0.0029151103115733984 0.0038308788864657127 0 0.0030412716844600983 0.0038484523393304839 0 0.0029151103115733984 0.0038308788864657127 0 0.003054496865655391 0.0037988758570900315 0 0.0030278846351255947 0.0036986120985947816 0 0.0029151103115733984 0.0038308788864657127 0 0.0028532032526294888 0.003698722759508305 0 0.0030278846351255947 0.0036986120985947816 0 0.0029151103115733984 0.0038308788864657127 0 0.0030412716844600983 0.0038484523393304839 0 0.003054496865655391 0.0037988758570900315 0 0.0029151103115733984 0.0038308788864657127 0 0.0027068162897113585 0.0037582773386145647 0 0.0028532032526294888 0.003698722759508305 0 0.0027068162897113585 0.0037582773386145647 0 0.0028532032526294888 0.003698722759508305 0 0.0027304013514065461 0.0035865069517941875 0 0.0028532032526294888 0.003698722759508305 0 0.0027304013514065461 0.0035865069517941875 0 0.0029079077470202932 0.0035767573715583981 0 0.0027870275223541444 0.0034565725218541109 0 0.0029079077470202932 0.0035767573715583981 0 0.0029414936973862975 0.0034027433449710159 0 0.0027304013514065461 0.0035865069517941875 0 0.0027870275223541444 0.0034565725218541109 0 0.0029079077470202932 0.0035767573715583981 0 0.0029079077470202932 0.0035767573715583981 0 0.0031218331164636604 0.0035451416312036969 0 0.0029414936973862975 0.0034027433449710159 0 0.0031218331164636604 0.0035451416312036969 0 0.0029414936973862975 0.0034027433449710159 0 0.0030965220274059985 0.0034191838049181722 0 0.0029079077470202932 0.0035767573715583981 0 0.0030278846351255947 0.0036986120985947816 0 0.0031218331164636604 0.0035451416312036969 0 0.0028532032526294888 0.003698722759508305 0 0.0029079077470202932 0.0035767573715583981 0 0.0030278846351255947 0.0036986120985947816 0 0.0033211352576697022 0.0037067881302845708 0 0.0032008653366961981 0.0036525960674934259 0 0.0033558166288191358 0.0035659849678417403 0 0.0031449945244180827 0.00374259042332058 0 0.0030278846351255947 0.0036986120985947816 0 0.0032008653366961981 0.0036525960674934259 0 0.0030278846351255947 0.0036986120985947816 0 0.0032008653366961981 0.0036525960674934259 0 0.0031218331164636604 0.0035451416312036969 0 0.0033211352576697022 0.0037067881302845708 0 0.0031449945244180827 0.00374259042332058 0 0.0032008653366961981 0.0036525960674934259 0 0.0034955534321194567 0.0035618881934703526 0 0.0033211352576697022 0.0037067881302845708 0 0.0033558166288191358 0.0035659849678417403 0 0.0034955534321194567 0.0035618881934703526 0 0.0033558166288191358 0.0035659849678417403 0 0.0035146734216173607 0.0035247906292611162 0 0.0033558166288191358 0.0035659849678417403 0 0.0035146734216173607 0.0035247906292611162 0 0.0034428709853243618 0.0034956795869796548 0 0.0032008653366961981 0.0036525960674934259 0 0.0033558166288191358 0.0035659849678417403 0 0.0031218331164636604 0.0035451416312036969 0 0.0033558166288191358 0.0035659849678417403 0 0.0031218331164636604 0.0035451416312036969 0 0.0032555588135483246 0.0034602408578281972 0 0.0033558166288191358 0.0035659849678417403 0 0.0032555588135483246 0.0034602408578281972 0 0.0034428709853243618 0.0034956795869796548 0 0.0031218331164636604 0.0035451416312036969 0 0.0032555588135483246 0.0034602408578281972 0 0.0030965220274059985 0.0034191838049181722 0 0.0032555588135483246 0.0034602408578281972 0 0.0030918069694410096 0.0032681574399501079 0 0.0030965220274059985 0.0034191838049181722 0 0.0032555588135483246 0.0034602408578281972 0 0.0033347179404378071 0.0033804023036364639 0 0.0034428709853243618 0.0034956795869796548 0 0.0032555588135483246 0.0034602408578281972 0 0.0033347179404378071 0.0033804023036364639 0 0.0030918069694410096 0.0032681574399501079 0 0.0035146734216173607 0.0035247906292611162 0 0.0034428709853243618 0.0034956795869796548 0 0.0036379179255423251 0.0035071270172931635 0 0.0033347179404378071 0.0033804023036364639 0 0.0034428709853243618 0.0034956795869796548 0 0.0036379179255423251 0.0035071270172931635 0 0.0036634941534188677 0.0039296149134576581 0 0.0036379179255423251 0.0035071270172931635 0 0.0041761853364205752 0.00383297950242408 0 0.0037423273268572775 0.0034656462444646614 0 0.0033517899448815029 0.0037001160135245511 0 0.0033347179404378071 0.0033804023036364639 0 0.0036379179255423251 0.0035071270172931635 0 0.0032416804914036485 0.0031007055312815375 0 0.0033517899448815029 0.0037001160135245511 0 0.0032422260562362652 0.0032533599298421858 0 0.0033347179404378071 0.0033804023036364639 0 0.0032416804914036485 0.0031007055312815375 0 0.0030918069694410096 0.0032681574399501079 0 0.0030918069694410096 0.0032681574399501079 0 0.0028915034663756643 0.0031742074365251 0 0.0030151801241402442 0.0030394243744847208 0 0.0033517899448815029 0.0037001160135245511 0 0.002994105882792236 0.0037730037313365174 0 0.0032001835933699488 0.0031496335875481406 0 0.0030918069694410096 0.0032681574399501079 0 0.0030151801241402442 0.0030394243744847208 0 0.0028915034663756643 0.0031742074365251 0 0.0028380075285232274 0.0029432069883701057 0 0.0027156228448262125 0.0031391439804110562 0 0.0028915034663756643 0.0031742074365251 0 0.0027377896259080429 0.0033016191294557521 0 0.0027156228448262125 0.0031391439804110562 0 0.0028915034663756643 0.0031742074365251 0 0.0027377896259080429 0.0033016191294557521 0 0.0029414936973862975 0.0034027433449710159 0 0.0027870275223541444 0.0034565725218541109 0 0.0027377896259080429 0.0033016191294557521 0 0.0029414936973862975 0.0034027433449710159 0 0.0030918069694410096 0.0032681574399501079 0 0.0028915034663756643 0.0031742074365251 0 0.0029414936973862975 0.0034027433449710159 0 0.0030918069694410096 0.0032681574399501079 0 0.0029414936973862975 0.0034027433449710159 0 0.0030965220274059985 0.0034191838049181722 0 0.0028112709173287041 0.0059482796836281132 0 0.002642935896106847 0.0058641251361064677 0 0.0028226065292011378 0.0057902654666319381 0 0.0028112709173287041 0.0059482796836281132 0 0.002642935896106847 0.0058641251361064677 0 0.0026064779983424038 0.0060073094852690573 0 0.002642935896106847 0.0058641251361064677 0 0.0026064779983424038 0.0060073094852690573 0 0.0023709239323818024 0.0058737234617293379 0 0.0028915034663756643 0.0031742074365251 0 0.0028380075285232274 0.0029432069883701057 0 0.0030151801241402442 0.0030394243744847208 0 0.0026296075431458941 0.0046049853146245901 0 0.002994105882792236 0.0037730037313365174 0 0.0030789057518339144 0.0045046093090182916 0 0.0030262824242366397 0.0045167483015434249 0 0.0030637322306492154 0.004535157226429682 0 0.0029683181611761989 0.0052661380323126197 0 0.0026296075431458941 0.0046049853146245901 0 0.0030789057518339144 0.0045046093090182916 0 0.0030637322306492154 0.004535157226429682 0 0.0031001759125086942 0.0045237889890527294 0 0.0030977717596368114 0.0045490138830524681 0 0.0031001759125086942 0.0045237889890527294 0 0.0031341754408331793 0.004517998544173946 0 0.0033517899448815029 0.0037001160135245511 0 0.0035245213583220271 0.0043790965575784364 0 0.0030977717596368114 0.0045490138830524681 0 0.0030637322306492154 0.004535157226429682 0 0.0031001759125086942 0.0045237889890527294 0 0.0031001759125086942 0.0045237889890527294 0 0.0031341754408331793 0.004517998544173946 0 0.0031101664596460848 0.0045109123425748207 0 0.0030789057518339144 0.0045046093090182916 0 0.0031001759125086942 0.0045237889890527294 0 0.0031101664596460848 0.0045109123425748207 0 0.0036634941534188677 0.0039296149134576581 0 0.0041761853364205752 0.00383297950242408 0 0.0038599539527811011 0.0042266391960033654 0 0.0030064212285965926 0.0052203672884705808 0 0.003516618018398874 0.0048787629421285133 0 0.0031341754408331793 0.004517998544173946 0 0.0031263190437858831 0.0044967244087377178 0 0.003172978827843208 0.0044900013265064811 0 0.0031341754408331793 0.004517998544173946 0 0.0031263190437858831 0.0044967244087377178 0 0.0031101664596460848 0.0045109123425748207 0 0.0028112709173287041 0.0059482796836281132 0 0.0030237384228893487 0.005883344767906906 0 0.0028226065292011378 0.0057902654666319381 0 0.0030789057518339144 0.0045046093090182916 0 0.0031263190437858831 0.0044967244087377178 0 0.0031101664596460848 0.0045109123425748207 0 0.0029683181611761989 0.0052661380323126197 0 0.0030064212285965926 0.0052203672884705808 0 0.0030237384228893487 0.005883344767906906 0 0.0030323717968700195 0.005723523695150905 0 0.0028226065292011378 0.0057902654666319381 0 0.0030323717968700195 0.005723523695150905 0 0.0028848512029584811 0.0056111709261843943 0 0.0028226065292011378 0.0057902654666319381 0 0.0030237384228893487 0.005883344767906906 0 0.0030323717968700195 0.005723523695150905 0 0.0032496231878849169 0.0058111966738764844 0 0.0030323717968700195 0.005723523695150905 0 0.0031601161511690301 0.0055753207785972847 0 0.0032496231878849169 0.0058111966738764844 0 0.0028848512029584811 0.0056111709261843943 0 0.002957699794376724 0.0053812423642881965 0 0.0031601161511690301 0.0055753207785972847 0 0.0030323717968700195 0.005723523695150905 0 0.0028848512029584811 0.0056111709261843943 0 0.0031601161511690301 0.0055753207785972847 0 0.0028848512029584811 0.0056111709261843943 0 0.0026245458210219807 0.0056972473533410534 0 0.0027034397544863065 0.0054742031833991582 0 0.002642935896106847 0.0058641251361064677 0 0.0028226065292011378 0.0057902654666319381 0 0.0026245458210219807 0.0056972473533410534 0 0.0028848512029584811 0.0056111709261843943 0 0.0028226065292011378 0.0057902654666319381 0 0.0026245458210219807 0.0056972473533410534 0 0.002642935896106847 0.0058641251361064677 0 0.0026245458210219807 0.0056972473533410534 0 0.0023709239323818024 0.0058737234617293379 0 0.0026245458210219807 0.0056972473533410534 0 0.0027034397544863065 0.0054742031833991582 0 0.0024898029487482988 0.0055064368969283328 0 0.0027034397544863065 0.0054742031833991582 0 0.0025021726170117529 0.0053290645765249178 0 0.0024898029487482988 0.0055064368969283328 0 0.0027034397544863065 0.0054742031833991582 0 0.0027023485826647279 0.0052546901135212109 0 0.002957699794376724 0.0053812423642881965 0 0.0027034397544863065 0.0054742031833991582 0 0.0027023485826647279 0.0052546901135212109 0 0.0025021726170117529 0.0053290645765249178 0 0.0025199269763295932 0.00516432169854175 0 0.0027023485826647279 0.0052546901135212109 0 0.0025021726170117529 0.0053290645765249178 0 0.0025199269763295932 0.00516432169854175 0 0.0027023485826647279 0.0052546901135212109 0 0.0027384768101281864 0.0049999700771281323 0 0.0027023485826647279 0.0052546901135212109 0 0.0027384768101281864 0.0049999700771281323 0 0.0028988212489324027 0.0051602911220009606 0 0.0025199269763295932 0.00516432169854175 0 0.0027384768101281864 0.0049999700771281323 0 0.002451699367625361 0.0049999804177500821 0 0.0027384768101281864 0.0049999700771281323 0 0.0030252536369386181 0.0049999635694081808 0 0.0028988212489324027 0.0051602911220009606 0 0.0030252536369386181 0.0049999635694081808 0 0.0028988212489324027 0.0051602911220009606 0 0.0031046096355893857 0.0051999328823428602 0 0.0028988212489324027 0.0051602911220009606 0 0.0031046096355893857 0.0051999328823428602 0 0.002957699794376724 0.0053812423642881965 0 0.0031046096355893857 0.0051999328823428602 0 0.002957699794376724 0.0053812423642881965 0 0.0032510305323260108 0.0053297407831136845 0 0.0027023485826647279 0.0052546901135212109 0 0.0028988212489324027 0.0051602911220009606 0 0.002957699794376724 0.0053812423642881965 0 0.0028848512029584811 0.0056111709261843943 0 0.0027034397544863065 0.0054742031833991582 0 0.002957699794376724 0.0053812423642881965 0 0.002957699794376724 0.0053812423642881965 0 0.0032510305323260108 0.0053297407831136845 0 0.0031601161511690301 0.0055753207785972847 0 0.0033864917385601039 0.005407363654343602 0 0.0032510305323260108 0.0053297407831136845 0 0.0031601161511690301 0.0055753207785972847 0 0.0033864917385601039 0.005407363654343602 0 0.0034918317767683601 0.0052876428156895085 0 0.0036019437759584093 0.0053012315944408776 0 0.0033864917385601039 0.005407363654343602 0 0.0032510305323260108 0.0053297407831136845 0 0.0034918317767683601 0.0052876428156895085 0 0.0032510305323260108 0.0053297407831136845 0 0.003374670315245873 0.0051927602509483674 0 0.0034918317767683601 0.0052876428156895085 0 0.0031046096355893857 0.0051999328823428602 0 0.0032510305323260108 0.0053297407831136845 0 0.003374670315245873 0.0051927602509483674 0 0.0031046096355893857 0.0051999328823428602 0 0.003374670315245873 0.0051927602509483674 0 0.0033120407853242098 0.0049999618963874849 0 0.003374670315245873 0.0051927602509483674 0 0.0033120407853242098 0.0049999618963874849 0 0.0034931127762119216 0.005122105079647569 0 0.0030252536369386181 0.0049999635694081808 0 0.0031046096355893857 0.0051999328823428602 0 0.0033120407853242098 0.0049999618963874849 0 0.0035987252786187358 0.0049999872740564763 0 0.0034931127762119216 0.005122105079647569 0 0.0036932755509660295 0.0051492152421385743 0 0.0035987252786187358 0.0049999872740564763 0 0.0036932755509660295 0.0051492152421385743 0 0.0038854662158063348 0.0049999581873816533 0 0.0033120407853242098 0.0049999618963874849 0 0.0035987252786187358 0.0049999872740564763 0 0.0034931127762119216 0.005122105079647569 0 0.003374670315245873 0.0051927602509483674 0 0.0034931127762119216 0.005122105079647569 0 0.0035676872580917307 0.0052281034838346689 0 0.0034931127762119216 0.005122105079647569 0 0.0035676872580917307 0.0052281034838346689 0 0.0036932755509660295 0.0051492152421385743 0 0.0035676872580917307 0.0052281034838346689 0 0.0036205616561102508 0.0052607143676234773 0 0.0036932755509660295 0.0051492152421385743 0 0.0035676872580917307 0.0052281034838346689 0 0.0035729760670181903 0.0052920801504405856 0 0.0036205616561102508 0.0052607143676234773 0 0.0035676872580917307 0.0052281034838346689 0 0.0034918317767683601 0.0052876428156895085 0 0.0035729760670181903 0.0052920801504405856 0 0.003374670315245873 0.0051927602509483674 0 0.0035676872580917307 0.0052281034838346689 0 0.0034918317767683601 0.0052876428156895085 0 0.0034918317767683601 0.0052876428156895085 0 0.0036019437759584093 0.0053012315944408776 0 0.0035729760670181903 0.0052920801504405856 0 0.0035729760670181903 0.0052920801504405856 0 0.0035051356354544832 0.0051986944328834151 0 0.0035412388054778727 0.0053364074530867587 0 0.0036019437759584093 0.0053012315944408776 0 0.0035729760670181903 0.0052920801504405856 0 0.0035051356354544832 0.0051986944328834151 0 0.0036019437759584093 0.0053012315944408776 0 0.0035051356354544832 0.0051986944328834151 0 0.0034897609336001904 0.0049486221456045264 0 0.0034897609336001904 0.0049486221456045264 0 0.0033972689714379489 0.0046257536730694923 0 0.0033394121613440136 0.0048790686563507041 0 0.0034897609336001904 0.0049486221456045264 0 0.0035225949391784182 0.0046549214760854369 0 0.0033972689714379489 0.0046257536730694923 0 0.0034434765826874486 0.0049400497790909395 0 0.0037328971116180622 0.0047502439852874362 0 0.0034897609336001904 0.0049486221456045264 0 0.0036026416444275627 0.0046281289562983977 0 0.0035225949391784182 0.0046549214760854369 0 0.0036026416444275627 0.0046281289562983977 0 0.0035225949391784182 0.0046549214760854369 0 0.0035635478643001959 0.004550296598572404 0 0.0036019437759584093 0.0053012315944408776 0 0.0034897609336001904 0.0049486221456045264 0 0.0037185916187796623 0.0049214300621417007 0 0.0036168690081603374 0.0052945545749262723 0 0.0036092484564817754 0.0053889700669626558 0 0.0033864917385601039 0.005407363654343602 0 0.0036019437759584093 0.0053012315944408776 0 0.0034204480389677825 0.0056177403187645603 0 0.0036019437759584093 0.0053012315944408776 0 0.0037185916187796623 0.0049214300621417007 0 0.0038365846498456375 0.005050536209684142 0 0.0033864917385601039 0.005407363654343602 0 0.0034204480389677825 0.0056177403187645603 0 0.0031601161511690301 0.0055753207785972847 0 0.0034204480389677825 0.0056177403187645603 0 0.0031601161511690301 0.0055753207785972847 0 0.0032496231878849169 0.0058111966738764844 0 0.0037185916187796623 0.0049214300621417007 0 0.0038365846498456375 0.005050536209684142 0 0.0040267104409827089 0.0048294657003375308 0 0.0036092484564817754 0.0053889700669626558 0 0.003516618018398874 0.0048787629421285133 0 0.0037328971116180622 0.0047502439852874362 0 0.003516618018398874 0.0048787629421285133 0 0.0036026416444275627 0.0046281289562983977 0 0.0036102333027960547 0.0044742352553922829 0 0.0037062496222804017 0.0044907893861175236 0 0.0036026416444275627 0.0046281289562983977 0 0.0036102333027960547 0.0044742352553922829 0 0.0035635478643001959 0.004550296598572404 0 0.0036102333027960547 0.0044742352553922829 0 0.0036314002456873922 0.0042930902249189301 0 0.0035668316835817501 0.0044043991567475089 0 0.0036102333027960547 0.0044742352553922829 0 0.0035635478643001959 0.004550296598572404 0 0.0035668316835817501 0.0044043991567475089 0 0.0038599539527811011 0.0042266391960033654 0 0.0037062496222804017 0.0044907893861175236 0 0.0036314002456873922 0.0042930902249189301 0 0.0035245213583220271 0.0043790965575784364 0 0.003516618018398874 0.0048787629421285133 0 0.0036102333027960547 0.0044742352553922829 0 0.0037062496222804017 0.0044907893861175236 0 0.0036314002456873922 0.0042930902249189301 0 0.0035621701612845577 0.0042461404049703496 0 0.0036634941534188677 0.0039296149134576581 0 0.0036314002456873922 0.0042930902249189301 0 0.0036634941534188677 0.0039296149134576581 0 0.0038599539527811011 0.0042266391960033654 0 0.0036314002456873922 0.0042930902249189301 0 0.0035621701612845577 0.0042461404049703496 0 0.0036314002456873922 0.0042930902249189301 0 0.0035668316835817501 0.0044043991567475089 0 0.0034214434400791061 0.0043262658097690809 0 0.0035621701612845577 0.0042461404049703496 0 0.0034956224782451855 0.0043820055272540751 0 0.0035621701612845577 0.0042461404049703496 0 0.0034956224782451855 0.0043820055272540751 0 0.0035668316835817501 0.0044043991567475089 0 0.0034214434400791061 0.0043262658097690809 0 0.0034956224782451855 0.0043820055272540751 0 0.0034263999913040472 0.004444138166651305 0 0.003494300161205964 0.0039677009479253088 0 0.0035746036464743558 0.0043791662079441388 0 0.0034214434400791061 0.0043262658097690809 0 0.0034263999913040472 0.004444138166651305 0 0.0033090550864870879 0.0044320524958135444 0 0.0034956224782451855 0.0043820055272540751 0 0.0034263999913040472 0.004444138166651305 0 0.0034930145063938305 0.0045165540071750139 0 0.0034263999913040472 0.004444138166651305 0 0.0033972689714379489 0.0046257536730694923 0 0.0033090550864870879 0.0044320524958135444 0 0.0034263999913040472 0.004444138166651305 0 0.0034930145063938305 0.0045165540071750139 0 0.0033972689714379489 0.0046257536730694923 0 0.0035225949391784182 0.0046549214760854369 0 0.0034930145063938305 0.0045165540071750139 0 0.0033972689714379489 0.0046257536730694923 0 0.0035225949391784182 0.0046549214760854369 0 0.0034930145063938305 0.0045165540071750139 0 0.0035635478643001959 0.004550296598572404 0 0.0034930145063938305 0.0045165540071750139 0 0.0035635478643001959 0.004550296598572404 0 0.0035668316835817501 0.0044043991567475089 0 0.0034956224782451855 0.0043820055272540751 0 0.0034930145063938305 0.0045165540071750139 0 0.0035668316835817501 0.0044043991567475089 0 0.0038739601612866677 0.0043569946915787659 0 0.0038038158371094624 0.0043500643165978311 0 0.0038413015990400854 0.0042990788666152462 0 0.003704119362671589 0.0044365618605686349 0 0.0038510530128321729 0.0043918701831827112 0 0.0038739601612866677 0.0043569946915787659 0 0.0038038158371094624 0.0043500643165978311 0 0.0038037011466141566 0.0044455075338784358 0 0.0033972689714379489 0.0046257536730694923 0 0.0031788007936920898 0.004581699955840385 0 0.0033394121613440136 0.0048790686563507041 0 0.0033972689714379489 0.0046257536730694923 0 0.0031788007936920898 0.004581699955840385 0 0.0033090550864870879 0.0044320524958135444 0 0.003704119362671589 0.0044365618605686349 0 0.0035746036464743558 0.0043791662079441388 0 0.0038546234717437618 0.0043148094260841091 0 0.00389543558196863 0.004277347123519069 0 0.003873690639091802 0.004250964292680212 0 0.0039298731460072631 0.0042429317192328427 0 0.003873690639091802 0.004250964292680212 0 0.0038537617043108681 0.0042445336854468113 0 0.0039298731460072631 0.0042429317192328427 0 0.00389543558196863 0.004277347123519069 0 0.003873690639091802 0.004250964292680212 0 0.003494300161205964 0.0039677009479253088 0 0.0038653396979354453 0.0038398955701207803 0 0.0038038158371094624 0.0043500643165978311 0 0.0038413015990400854 0.0042990788666152462 0 0.0038266766691674777 0.0042428102386578275 0 0.003704119362671589 0.0044365618605686349 0 0.0038988707332034485 0.0042146523673446679 0 0.0043653052306212607 0.0042682412060224481 0 0.0044877961592538658 0.0040164563885597415 0 0.0038739601612866677 0.0043569946915787659 0 0.003873690639091802 0.004250964292680212 0 0.0038413015990400854 0.0042990788666152462 0 0.003873690639091802 0.004250964292680212 0 0.0038537617043108681 0.0042445336854468113 0 0.0038413015990400854 0.0042990788666152462 0 0.0038537617043108681 0.0042445336854468113 0 0.0038413015990400854 0.0042990788666152462 0 0.0038266766691674777 0.0042428102386578275 0 0.0038653396979354453 0.0038398955701207803 0 0.0044877961592538658 0.0040164563885597415 0 0.0049617684551023994 0.003990928439049417 0 0.0048840162464025708 0.0040601503040618818 0 0.0048180958247506121 0.0039906465685122005 0 0.0049434629006408666 0.0041244308722683904 0 0.0049617684551023994 0.003990928439049417 0 0.0048840162464025708 0.0040601503040618818 0 0.0044877961592538658 0.0040164563885597415 0 0.0050166519520736053 0.003981763705590953 0 0.0047124272729723209 0.0039759943245734801 0 0.0048180958247506121 0.0039906465685122005 0 0.0047997845761527319 0.0040725097623913456 0 0.0047124272729723209 0.0039759943245734801 0 0.0047997845761527319 0.0040725097623913456 0 0.0047380113657543655 0.0041577532225084337 0 0.0048840162464025708 0.0040601503040618818 0 0.0048180958247506121 0.0039906465685122005 0 0.0047997845761527319 0.0040725097623913456 0 0.0047997845761527319 0.0040725097623913456 0 0.0047380113657543655 0.0041577532225084337 0 0.0048468420503485453 0.0041790080326279365 0 0.0048840162464025708 0.0040601503040618818 0 0.0047997845761527319 0.0040725097623913456 0 0.0048468420503485453 0.0041790080326279365 0 0.0049434629006408666 0.0041244308722683904 0 0.0048468420503485453 0.0041790080326279365 0 0.0049225180393084765 0.0042639439684751066 0 0.0049434629006408666 0.0041244308722683904 0 0.0048840162464025708 0.0040601503040618818 0 0.0048468420503485453 0.0041790080326279365 0 0.0043653052306212607 0.0042682412060224481 0 0.0043489455244471722 0.0043438966881478962 0 0.0048468420503485453 0.0041790080326279365 0 0.0049225180393084765 0.0042639439684751066 0 0.0047676395975262999 0.0043410387184920039 0 0.0051510708862499846 0.0041129665258290756 0 0.0052438701322536588 0.0043982288319324263 0 0.0047380113657543655 0.0041577532225084337 0 0.0048468420503485453 0.0041790080326279365 0 0.0047676395975262999 0.0043410387184920039 0 0.0037792899344614543 0.0045170894100568862 0 0.0037494212654260884 0.0047107089307388715 0 0.0038031931470142119 0.0046242219211365962 0 0.0052438701322536588 0.0043982288319324263 0 0.0044571578972657129 0.0047928665802669307 0 0.0049225180393084765 0.0042639439684751066 0 0.0047676395975262999 0.0043410387184920039 0 0.004899623560957668 0.0044037274137859565 0 0.0043489455244471722 0.0043438966881478962 0 0.0044571578972657129 0.0047928665802669307 0 0.0037494212654260884 0.0047107089307388715 0 0.0038031931470142119 0.0046242219211365962 0 0.003825826181640317 0.004745397857494134 0 0.0038031931470142119 0.0046242219211365962 0 0.0038643038944341343 0.0045405122705840821 0 0.003825826181640317 0.004745397857494134 0 0.0034805954945888637 0.0047040857427839977 0 0.003740173113762099 0.0051284486166941123 0 0.0031605211107480105 0.0048907985809792057 0 0.0033453964933552525 0.0050997148708875608 0 0.0031257162768550751 0.0052274394755060984 0 0.0038038158371094624 0.0043500643165978311 0 0.0037792899344614543 0.0045170894100568862 0 0.0038037011466141566 0.0044455075338784358 0 0.003704119362671589 0.0044365618605686349 0 0.0034805954945888637 0.0047040857427839977 0 0.0038990606070107886 0.0043573910360399769 0 0.0038643038944341343 0.0045405122705840821 0 0.0038037011466141566 0.0044455075338784358 0 0.0037792899344614543 0.0045170894100568862 0 0.0038643038944341343 0.0045405122705840821 0 0.0038037011466141566 0.0044455075338784358 0 0.0037792899344614543 0.0045170894100568862 0 0.0038031931470142119 0.0046242219211365962 0 0.0038643038944341343 0.0045405122705840821 0 0.0031788007936920898 0.004581699955840385 0 0.0031605211107480105 0.0048907985809792057 0 0.0033394121613440136 0.0048790686563507041 0 0.0035051356354544832 0.0051986944328834151 0 0.0033394121613440136 0.0048790686563507041 0 0.0033453964933552525 0.0050997148708875608 0 0.0035051356354544832 0.0051986944328834151 0 0.0034897609336001904 0.0049486221456045264 0 0.0033394121613440136 0.0048790686563507041 0 0.0031605211107480105 0.0048907985809792057 0 0.0033394121613440136 0.0048790686563507041 0 0.0033453964933552525 0.0050997148708875608 0 0.0035051356354544832 0.0051986944328834151 0 0.0033453964933552525 0.0050997148708875608 0 0.0035412388054778727 0.0053364074530867587 0 0.0038864707527809981 0.0055319223816769928 0 0.0037781605014485758 0.0053226466790852103 0 0.0039413062520441333 0.0052796355982034958 0 0.003740173113762099 0.0051284486166941123 0 0.0039181523961307752 0.0053956577776942813 0 0.0034821950865013248 0.0053576371475697517 0 0.003740173113762099 0.0051284486166941123 0 0.0035412388054778727 0.0053364074530867587 0 0.0038864707527809981 0.0055319223816769928 0 0.0037781605014485758 0.0053226466790852103 0 0.0033453964933552525 0.0050997148708875608 0 0.0035412388054778727 0.0053364074530867587 0 0.0031257162768550751 0.0052274394755060984 0 0.0035412388054778727 0.0053364074530867587 0 0.0037659938207835844 0.0052245449544894382 0 0.0037781605014485758 0.0053226466790852103 0 0.0037659938207835844 0.0052245449544894382 0 0.0039231734726442695 0.0052125616715637162 0 0.0039413062520441333 0.0052796355982034958 0 0.0037659938207835844 0.0052245449544894382 0 0.0037781605014485758 0.0053226466790852103 0 0.0039413062520441333 0.0052796355982034958 0 0.0035729760670181903 0.0052920801504405856 0 0.0035412388054778727 0.0053364074530867587 0 0.0036205616561102508 0.0052607143676234773 0 0.0035412388054778727 0.0053364074530867587 0 0.0037659938207835844 0.0052245449544894382 0 0.0036205616561102508 0.0052607143676234773 0 0.0037659938207835844 0.0052245449544894382 0 0.0036932755509660295 0.0051492152421385743 0 0.0039444101637605561 0.0051205308617566945 0 0.0037659938207835844 0.0052245449544894382 0 0.0036205616561102508 0.0052607143676234773 0 0.0036932755509660295 0.0051492152421385743 0 0.0037659938207835844 0.0052245449544894382 0 0.0039231734726442695 0.0052125616715637162 0 0.0039444101637605561 0.0051205308617566945 0 0.0038854662158063348 0.0049999581873816533 0 0.0041720991996758681 0.0049999589695372834 0 0.0040483516771593134 0.0050629010998107186 0 0.0039444101637605561 0.0051205308617566945 0 0.0038854662158063348 0.0049999581873816533 0 0.0040483516771593134 0.0050629010998107186 0 0.0036932755509660295 0.0051492152421385743 0 0.0039444101637605561 0.0051205308617566945 0 0.0038854662158063348 0.0049999581873816533 0 0.0042182507570574417 0.004999482482128414 0 0.0042864158000542685 0.0049872345153004942 0 0.0047608282098719141 0.0048866393227102681 0 0.0041726940809875797 0.0049998310935952441 0 0.0045181241828668259 0.0048689530470632488 0 0.0041720991996758681 0.0049999589695372834 0 0.0041587862297476292 0.0050419370173527449 0 0.0040483516771593134 0.0050629010998107186 0 0.004217105890179265 0.0049999925976376954 0 0.0045181241828668259 0.0048689530470632488 0 0.0042167281083411896 0.0049999990578616363 0 0.0041723220879638567 0.0050000000759022837 0 0.0042075574903992011 0.0050627540535235754 0 0.0039444101637605561 0.0051205308617566945 0 0.0040483516771593134 0.0050629010998107186 0 0.0040209157460650525 0.0052310623127307422 0 0.0039231734726442695 0.0052125616715637162 0 0.0039444101637605561 0.0051205308617566945 0 0.0040209157460650525 0.0052310623127307422 0 0.0052017104678055105 0.0045857443647382258 0 0.0052011971952703783 0.0045764315885935599 0 0.0051922513854617399 0.0045697147197108663 0 0.0041587862297476292 0.0050419370173527449 0 0.0040483516771593134 0.0050629010998107186 0 0.0040209157460650525 0.0052310623127307422 0 0.0045181241828668259 0.0048689530470632488 0 0.0046465389029819257 0.0049250489268709034 0 0.0052017104678055105 0.0045857443647382258 0 0.0052011971952703783 0.0045764315885935599 0 0.0052034443646556613 0.0045466020624192723 0 0.0042864158000542685 0.0049872345153004942 0 0.0046453606401515666 0.0049175230688347331 0 0.0047608282098719141 0.0048866393227102681 0 0.0052011971952703783 0.0045764315885935599 0 0.0052034443646556613 0.0045466020624192723 0 0.0052359878663569811 0.0045017187901433275 0 0.0045181241828668259 0.0048689530470632488 0 0.0049449419922223273 0.0047049023790171098 0 0.005203461425354986 0.0045630766384752294 0 0.0052071333542196667 0.0045521770075353475 0 0.0052034443646556613 0.0045466020624192723 0 0.0052359878663569811 0.0045017187901433275 0 0.0051895427037332376 0.0044641057512845089 0 0.0052011971952703783 0.0045764315885935599 0 0.0051863609074646365 0.0045677509627663924 0 0.0051922513854617399 0.0045697147197108663 0 0.0039687774588414732 0.0054157206316850261 0 0.0040209157460650525 0.0052310623127307422 0 0.0039413062520441333 0.0052796355982034958 0 0.0039231734726442695 0.0052125616715637162 0 0.0040209157460650525 0.0052310623127307422 0 0.0039413062520441333 0.0052796355982034958 0 0.0039687774588414732 0.0054157206316850261 0 0.0039153453635245783 0.0053913278083196538 0 0.0039413062520441333 0.0052796355982034958 0 0.0051803229120269811 0.0045686955448857808 0 0.0051863609074646365 0.0045677509627663924 0 0.0051922513854617399 0.0045697147197108663 0 0.0044571578972657129 0.0047928665802669307 0 0.0046465389029819257 0.0049250489268709034 0 0.0044571578972657129 0.0047928665802669307 0 0.003740173113762099 0.0051284486166941123 0 0.0052431100375476044 0.0043982483673564417 0 0.0052359878663569811 0.0045017187901433275 0 0.0051895427037332376 0.0044641057512845089 0 0.0051822953192434415 0.0045676449104526447 0 0.0051803229120269811 0.0045686955448857808 0 0.0051863609074646365 0.0045677509627663924 0 0.0052438701322536588 0.0043982288319324263 0 0.0052071333542196667 0.0045521770075353475 0 0.0050288550825005182 0.0045644295058538441 0 0.0047608282098719141 0.0048866393227102681 0 0.0049887947264135053 0.0045936509018939028 0 0.0042182507570574417 0.004999482482128414 0 0.0047608282098719141 0.0048866393227102681 0 0.0049995824665562431 0.0049997199729011517 0 0.0049995824665562431 0.0049997199729011517 0 0.0049887947264135053 0.0045936509018939028 0 0.0049997315172434853 0.0043367106235858103 0 0.004966470043825966 0.0046903559259869228 0 0.0050288550825005182 0.0045644295058538441 0 0.0047608282098719141 0.0048866393227102681 0 0.0046453606401515666 0.0049175230688347331 0 0.004966470043825966 0.0046903559259869228 0 0.0047608282098719141 0.0048866393227102681 0 0.0049449419922223273 0.0047049023790171098 0 0.0050664419218062031 0.0045604811134472957 0 0.0047608282098719141 0.0048866393227102681 0 0.0049995824665562431 0.0049997199729011517 0 0.0049887947264135053 0.0045936509018939028 0 0.0049997315172434853 0.0043367106235858103 0 0.0050940741422452257 0.0041253971033824279 0 0.004999928194782708 0.0038352341640885421 0 0.0050940741422452257 0.0041253971033824279 0 0.0050675031523663844 0.0043795545194730296 0 0.0051996229981943268 0.00426440612131388 0 0.0049997315172434853 0.0043367106235858103 0 0.0050940741422452257 0.0041253971033824279 0 0.0050675031523663844 0.0043795545194730296 0 0.0050288550825005182 0.0045644295058538441 0 0.0049887947264135053 0.0045936509018939028 0 0.0050675031523663844 0.0043795545194730296 0 0.0049887947264135053 0.0045936509018939028 0 0.0049997315172434853 0.0043367106235858103 0 0.0050675031523663844 0.0043795545194730296 0 0.0050288550825005182 0.0045644295058538441 0 0.0050675031523663844 0.0043795545194730296 0 0.0051701335186647209 0.0043649810792484945 0 0.004966470043825966 0.0046903559259869228 0 0.0050288550825005182 0.0045644295058538441 0 0.0051701335186647209 0.0043649810792484945 0 0.0050664419218062031 0.0045604811134472957 0 0.0051408627566291217 0.0043754894016556564 0 0.0051895427037332376 0.0044641057512845089 0 0.0051701335186647209 0.0043649810792484945 0 0.005204581319801292 0.0043686373228924401 0 0.0052431100375476044 0.0043982483673564417 0 0.0051895427037332376 0.0044641057512845089 0 0.005204581319801292 0.0043686373228924401 0 0.0052438701322536588 0.0043982288319324263 0 0.0053422462523401689 0.0043652011435730814 0 0.0055703207248239198 0.0040747411059322029 0 0.0056340754712220246 0.0044409156178084087 0 0.0054344422067819234 0.0043517443101196516 0 0.0055703207248239198 0.0040747411059322029 0 0.0054344422067819234 0.0043517443101196516 0 0.0053784050073726582 0.004131335258592648 0 0.0050940741422452257 0.0041253971033824279 0 0.0051996229981943268 0.00426440612131388 0 0.0052501276328919457 0.0040627715973359088 0 0.0054344422067819234 0.0043517443101196516 0 0.0051996229981943268 0.00426440612131388 0 0.0053784050073726582 0.004131335258592648 0 0.0050675031523663844 0.0043795545194730296 0 0.0051701335186647209 0.0043649810792484945 0 0.0051996229981943268 0.00426440612131388 0 0.0051701335186647209 0.0043649810792484945 0 0.005204581319801292 0.0043686373228924401 0 0.0051996229981943268 0.00426440612131388 0 0.0053422462523401689 0.0043652011435730814 0 0.0051939493296271639 0.0042768532260588519 0 0.0051996229981943268 0.00426440612131388 0 0.0052501276328919457 0.0040627715973359088 0 0.0053784050073726582 0.004131335258592648 0 0.0052501276328919457 0.0040627715973359088 0 0.0053784050073726582 0.004131335258592648 0 0.0053699115581421122 0.0039299812311999992 0 0.0052501276328919457 0.0040627715973359088 0 0.0053699115581421122 0.0039299812311999992 0 0.005204456399141761 0.0038815110984262236 0 0.0055703207248239198 0.0040747411059322029 0 0.0053784050073726582 0.004131335258592648 0 0.0053699115581421122 0.0039299812311999992 0 0.0050940367102272639 0.0038798798219694583 0 0.0051510708862499846 0.0041129665258290756 0 0.0055136686243665014 0.0037617830804956899 0 0.0055703207248239198 0.0040747411059322029 0 0.0053699115581421122 0.0039299812311999992 0 0.0053341324024393346 0.0036992313304735516 0 0.0055136686243665014 0.0037617830804956899 0 0.0053699115581421122 0.0039299812311999992 0 0.0053341324024393346 0.0036992313304735516 0 0.0053699115581421122 0.0039299812311999992 0 0.005204456399141761 0.0038815110984262236 0 0.0051606359917151269 0.0036339657628334833 0 0.005204456399141761 0.0038815110984262236 0 0.004999928194782708 0.0038352341640885421 0 0.0050940741422452257 0.0041253971033824279 0 0.0052501276328919457 0.0040627715973359088 0 0.005204456399141761 0.0038815110984262236 0 0.0050940741422452257 0.0041253971033824279 0 0.005204456399141761 0.0038815110984262236 0 0.004999928194782708 0.0038352341640885421 0 0.00056312216981632864 0.004397580076033844 0 0.00051524785323135681 0.0044657174331638547 0 0.00058069110470521166 0.0046350365373665778 0 0.00061585585435667634 0.0042668862867945197 0 0.00053524871442391358 0.0047903724283613735 0 0.00045994943489594757 0.0047859628451599259 0 0.00050182870908702375 0.004795653302344458 0 0.00047594620118486162 0.004859703176170539 0 0.00081923310426401186 0.0040049457699509253 0 0.00055727648316430034 0.0041474617083136628 0 0.00051524785323135681 0.0044657174331638547 0 0.00061585585435667634 0.0042668862867945197 0 0.00055581226771349139 0.0043897203663563721 0 0.00050182870908702375 0.004795653302344458 0 0.00047594620118486162 0.004859703176170539 0 0.00055061291792186842 0.0047945306723089828 0 0.00050182870908702375 0.004795653302344458 0 0.00055061291792186842 0.0047945306723089828 0 0.00051510936929525034 0.004733821597682179 0 0.00061585585435667634 0.0042668862867945197 0 0.00059568498027130431 0.004247150965933786 0 0.00061585585435667634 0.0042668862867945197 0 0.00070020496396606079 0.0036502529991330962 0 0.00073103164712218769 0.0037066390277112151 0 0.00067722654128667202 0.0037754948181770486 0 0.00076433411354004052 0.0037631982777170327 0 0.00045994943489594757 0.0047859628451599259 0 0.00050182870908702375 0.004795653302344458 0 0.00051510936929525034 0.004733821597682179 0 0.00066938365760339596 0.0036850380524161069 0 0.00059113637782568071 0.0037709077683902394 0 0.00063478130069793861 0.003638742750887141 0 0.00081923310426401186 0.0040049457699509253 0 0.00059113637782568071 0.0037709077683902394 0 0.00063478130069793861 0.003638742750887141 0 0.00066938365760339596 0.0036850380524161069 0 0.00075367123293385431 0.0036677214047156842 0 0.00076774432279672229 0.0035981311716653985 0 0.00066938365760339596 0.0036850380524161069 0 0.00075367123293385431 0.0036677214047156842 0 0.00063478130069793861 0.003638742750887141 0 0.00066938365760339596 0.0036850380524161069 0 0.00059113637782568071 0.0037709077683902394 0 0.00076774432279672229 0.0035981311716653985 0 0.00089289316205188912 0.0036354304076143206 0 0.00086101572134356205 0.0035819802230023161 0 0.00096752510369290637 0.0035571684259765915 0 0.00075367123293385431 0.0036677214047156842 0 0.00089289316205188912 0.0036354304076143206 0 0.00086101572134356205 0.0035819802230023161 0 0.00075367123293385431 0.0036677214047156842 0 0.00076774432279672229 0.0035981311716653985 0 0.00086101572134356205 0.0035819802230023161 0 0.00076774432279672229 0.0035981311716653985 0 0.00086101572134356205 0.0035819802230023161 0 0.0008621454283720191 0.0034941222963602398 0 0.00086101572134356205 0.0035819802230023161 0 0.00094024729185771363 0.0034898735375852429 0 0.00096752510369290637 0.0035571684259765915 0 0.00086101572134356205 0.0035819802230023161 0 0.00094024729185771363 0.0034898735375852429 0 0.0008621454283720191 0.0034941222963602398 0 0.0009138896307033528 0.0034173173883098049 0 0.0008621454283720191 0.0034941222963602398 0 0.00079869149033442023 0.0033604297433629453 0 0.00094024729185771363 0.0034898735375852429 0 0.0009138896307033528 0.0034173173883098049 0 0.0008621454283720191 0.0034941222963602398 0 0.00094024729185771363 0.0034898735375852429 0 0.0009138896307033528 0.0034173173883098049 0 0.00097573723322210142 0.0034229257062061919 0 0.00076774432279672229 0.0035981311716653985 0 0.0008621454283720191 0.0034941222963602398 0 0.00079869149033442023 0.0033604297433629453 0 0.0009138896307033528 0.0034173173883098049 0 0.00079869149033442023 0.0033604297433629453 0 0.00091347469223550227 0.0033515764359647307 0 0.00091347469223550227 0.0033515764359647307 0 0.00096600478580578157 0.0033246001071915929 0 0.00097165707349972498 0.003369572453326784 0 0.0009138896307033528 0.0034173173883098049 0 0.00091347469223550227 0.0033515764359647307 0 0.00097165707349972498 0.003369572453326784 0 0.00081923310426401186 0.0040049457699509253 0 0.00059113637782568071 0.0037709077683902394 0 0.00055727648316430034 0.0041474617083136628 0 0.00059113637782568071 0.0037709077683902394 0 0.00055727648316430034 0.0041474617083136628 0 0.00036007601878718196 0.0043400568942835718 0 0.00059113637782568071 0.0037709077683902394 0 5.4875325989390618e-05 0.0044096855828060031 0 0.00036007601878718196 0.0043400568942835718 0 0.00059113637782568071 0.0037709077683902394 0 0.00076774432279672229 0.0035981311716653985 0 0.00079869149033442023 0.0033604297433629453 0 0.00058914519656985676 0.0037701816865196944 0 0.00039726755298956124 0.003845523372919137 0 5.4875325989390618e-05 0.0044096855828060031 0 0.00036007601878718196 0.0043400568942835718 0 0.00028999863640815054 0.0046125582812358559 0 0.00055727648316430034 0.0041474617083136628 0 0.00036007601878718196 0.0043400568942835718 0 0.00051524785323135681 0.0044657174331638547 0 0.00036007601878718196 0.0043400568942835718 0 0.00051524785323135681 0.0044657174331638547 0 0.00028999863640815054 0.0046125582812358559 0 0.00051524785323135681 0.0044657174331638547 0 0.00028999863640815054 0.0046125582812358559 0 0.00042911675771964278 0.0047482676090079929 0 0.00028999863640815054 0.0046125582812358559 0 0.00010267127710196191 0.0047072617715119211 0 0.00024634915480871065 0.0048377372705773226 0 0.00028999863640815054 0.0046125582812358559 0 0.00024634915480871065 0.0048377372705773226 0 0.00042911675771964278 0.0047482676090079929 0 0.00039726755298956124 0.003845523372919137 0 0.0011197846120691046 0.0045418076861565822 0 5.4875325989390618e-05 0.0044096855828060031 0 0.00010267127710196191 0.0047072617715119211 0 -8.9441047513977209e-05 0.0047340102801298137 0 0.00079869149033442023 0.0033604297433629453 0 0.00091347469223550227 0.0033515764359647307 0 0.0010008274542049008 0.0031943136682716878 0 5.4875325989390618e-05 0.0044096855828060031 0 0.00028999863640815054 0.0046125582812358559 0 0.00010267127710196191 0.0047072617715119211 0 0.00010267127710196191 0.0047072617715119211 0 0.00010023775905284518 0.0048746643382754874 0 0.00024634915480871065 0.0048377372705773226 0 0.00010267127710196191 0.0047072617715119211 0 0.00010023775905284518 0.0048746643382754874 0 -8.9441047513977209e-05 0.0047340102801298137 0 0.00010023775905284518 0.0048746643382754874 0 3.5469625047944083e-05 0.0050409424006430384 0 0.00021252768856021517 0.0050149705057457913 0 0.00010023775905284518 0.0048746643382754874 0 -8.9441047513977209e-05 0.0047340102801298137 0 3.5469625047944083e-05 0.0050409424006430384 0 0.00010023775905284518 0.0048746643382754874 0 0.00024634915480871065 0.0048377372705773226 0 0.00021252768856021517 0.0050149705057457913 0 0.00024634915480871065 0.0048377372705773226 0 0.00037235755871804484 0.0049837155560302658 0 0.00042911675771964278 0.0047482676090079929 0 0.00024634915480871065 0.0048377372705773226 0 0.00037235755871804484 0.0049837155560302658 0 0.00021252768856021517 0.0050149705057457913 0 0.00037235755871804484 0.0049837155560302658 0 0.00042911675771964278 0.0047482676090079929 0 0.00051763051416586813 0.0049532010389144593 0 0.00037235755871804484 0.0049837155560302658 0 0.00051763051416586813 0.0049532010389144593 0 0.00041141753487990748 0.0051150973353525702 0 0.00042911675771964278 0.0047482676090079929 0 0.00058069110470521166 0.0046350365373665778 0 0.00051763051416586813 0.0049532010389144593 0 0.00051524785323135681 0.0044657174331638547 0 0.00042911675771964278 0.0047482676090079929 0 0.00058069110470521166 0.0046350365373665778 0 0.00053524871442391358 0.0047903724283613735 0 0.0005235823958887058 0.0048945019149517419 0 0.00047594620118486162 0.004859703176170539 0 0.00051763051416586813 0.0049532010389144593 0 0.0005911014057314632 0.0049003817839520366 0 0.00047594620118486162 0.004859703176170539 0 0.0005911014057314632 0.0049003817839520366 0 0.00055061291792186842 0.0047945306723089828 0 0.00051763051416586813 0.0049532010389144593 0 0.00056403194417468288 0.0049981685559795878 0 0.0005911014057314632 0.0049003817839520366 0 0.00051763051416586813 0.0049532010389144593 0 0.00056403194417468288 0.0049981685559795878 0 0.00046073860898473529 0.0052119796642043055 0 0.00046451242944269114 0.0052413727790049597 0 0.00045851725927123721 0.0052214785364845572 0 0.00056403194417468288 0.0049981685559795878 0 0.00069377014062129371 0.0049919133326757339 0 0.0005911014057314632 0.0049003817839520366 0 0.00056403194417468288 0.0049981685559795878 0 0.00069377014062129371 0.0049919133326757339 0 0.00046073860898473529 0.0052119796642043055 0 0.00025450743242324934 0.0054902265032615938 0 0.00010174045120956072 0.0054939583343773923 0 0.00022933433550942532 0.0053436176663781507 0 0.00070524361385032141 0.0049008401550189378 0 0.0005911014057314632 0.0049003817839520366 0 0.0006852755011453784 0.0048140430718154985 0 0.00046451242944269114 0.0052413727790049597 0 0.00042153867087414628 0.0052758724278329384 0 0.00069377014062129371 0.0049919133326757339 0 0.00070524361385032141 0.0049008401550189378 0 0.00076857302713088547 0.0048960718461672726 0 0.00069377014062129371 0.0049919133326757339 0 0.00070524361385032141 0.0049008401550189378 0 0.0005911014057314632 0.0049003817839520366 0 -0.00013237227448032582 0.0055352121056001869 0 -1.753135891249278e-05 0.0055472629053214305 0 -1.1471135894663572e-05 0.0053948484735366386 0 -0.00013237227448032582 0.0055352121056001869 0 -1.753135891249278e-05 0.0055472629053214305 0 -0.00012444076966000196 0.0056417882392012708 0 -1.753135891249278e-05 0.0055472629053214305 0 0.00010174045120956072 0.0054939583343773923 0 5.6400384727548026e-05 0.0056486531208094163 0 -1.753135891249278e-05 0.0055472629053214305 0 0.00010174045120956072 0.0054939583343773923 0 -1.1471135894663572e-05 0.0053948484735366386 0 0.00025450743242324934 0.0054902265032615938 0 0.00010174045120956072 0.0054939583343773923 0 5.6400384727548026e-05 0.0056486531208094163 0 0.00070524361385032141 0.0049008401550189378 0 0.00076857302713088547 0.0048960718461672726 0 0.00077304570435532849 0.0048367899239041452 0 -1.753135891249278e-05 0.0055472629053214305 0 5.6400384727548026e-05 0.0056486531208094163 0 -0.00012444076966000196 0.0056417882392012708 0 5.6400384727548026e-05 0.0056486531208094163 0 -0.00012444076966000196 0.0056417882392012708 0 -0.00015031849530519124 0.0057834727354709155 0 0.00076857302713088547 0.0048960718461672726 0 0.00077304570435532849 0.0048367899239041452 0 0.00082925856909170565 0.004843655382469076 0 0.00056097528594707398 0.004751885561717276 0 0.00055580336527123622 0.0047488245423398844 0 0.00054964640664407322 0.0047428057141422741 0 0.00074450124816144263 0.0047652684109977875 0 0.00028401649423545822 0.0052817065665590069 0 0.00042153867087414628 0.0052758724278329384 0 0.00028401649423545822 0.0052817065665590069 0 0.00056097528594707398 0.004751885561717276 0 0.00055922286640686146 0.0047668086303589144 0 0.00055951332861422923 0.0047543467178259155 0 0.00074450124816144263 0.0047652684109977875 0 0.00060118864962165801 0.0047930587304889707 0 0.00055963798062384383 0.0047501293359304836 0 0.00055951332861422923 0.0047543467178259155 0 0.00055637400999302626 0.0047411059182076425 0 0.00056097528594707398 0.004751885561717276 0 0.00055963798062384383 0.0047501293359304836 0 0.00055951332861422923 0.0047543467178259155 0 0.00055963798062384383 0.0047501293359304836 0 0.00055580336527123622 0.0047488245423398844 0 0.00055736082434284704 0.004752100971918252 0 0.00056097528594707398 0.004751885561717276 0 0.00055963798062384383 0.0047501293359304836 0 0.00055580336527123622 0.0047488245423398844 0 0.00055580336527123622 0.0047488245423398844 0 0.00055736082434284704 0.004752100971918252 0 0.00054764404046997244 0.0047472555882640639 0 0.00055580336527123622 0.0047488245423398844 0 0.00054964640664407322 0.0047428057141422741 0 0.00054764404046997244 0.0047472555882640639 0 0.00055061291792186842 0.0047945306723089828 0 0.00055922286640686146 0.0047668086303589144 0 0.00055488884368883138 0.0047555923899949377 0 0.00056057605185109798 0.0047929894082439127 0 0.00060118864962165801 0.0047930587304889707 0 0.0005911014057314632 0.0049003817839520366 0 0.00055061291792186842 0.0047945306723089828 0 0.0006852755011453784 0.0048140430718154985 0 0.00070524361385032141 0.0049008401550189378 0 0.00077304570435532849 0.0048367899239041452 0 0.0006852755011453784 0.0048140430718154985 0 0.00055951332861422923 0.0047543467178259155 0 0.00055488884368883138 0.0047555923899949377 0 0.00055637400999302626 0.0047411059182076425 0 0.00055922286640686146 0.0047668086303589144 0 0.00055951332861422923 0.0047543467178259155 0 0.00055488884368883138 0.0047555923899949377 0 0.00055061291792186842 0.0047945306723089828 0 0.00055488884368883138 0.0047555923899949377 0 0.00051510936929525034 0.004733821597682179 0 0.00055488884368883138 0.0047555923899949377 0 0.00054493538165206518 0.0047331499092770936 0 0.00051510936929525034 0.004733821597682179 0 0.00054493538165206518 0.0047331499092770936 0 0.00053623654485372512 0.0047184693516482603 0 0.00051510936929525034 0.004733821597682179 0 0.00054493538165206518 0.0047331499092770936 0 0.00055637400999302626 0.0047411059182076425 0 0.00054841021681948233 0.0047221421013823829 0 0.00055488884368883138 0.0047555923899949377 0 0.00054493538165206518 0.0047331499092770936 0 0.00055637400999302626 0.0047411059182076425 0 0.00055637400999302626 0.0047411059182076425 0 0.00054841021681948233 0.0047221421013823829 0 0.00055574719659429541 0.0047283138238075808 0 0.00054841021681948233 0.0047221421013823829 0 0.00055574719659429541 0.0047283138238075808 0 0.00055208019754639519 0.0047160843510480593 0 0.00054493538165206518 0.0047331499092770936 0 0.00054841021681948233 0.0047221421013823829 0 0.00053623654485372512 0.0047184693516482603 0 0.00055963798062384383 0.0047501293359304836 0 0.00055736082434284704 0.004752100971918252 0 0.00055856674397775259 0.0047426235633875602 0 0.00056006069190256489 0.0047401669531517447 0 0.00055736082434284704 0.004752100971918252 0 0.00055856674397775259 0.0047426235633875602 0 0.00056006069190256489 0.0047401669531517447 0 0.00055856674397775259 0.0047426235633875602 0 0.00055927321613646907 0.0047326533651023553 0 0.00055963798062384383 0.0047501293359304836 0 0.00055637400999302626 0.0047411059182076425 0 0.00055856674397775259 0.0047426235633875602 0 0.00055637400999302626 0.0047411059182076425 0 0.00055856674397775259 0.0047426235633875602 0 0.00055574719659429541 0.0047283138238075808 0 0.00055574719659429541 0.0047283138238075808 0 0.00055587667894435176 0.0047206180313253679 0 0.00055208019754639519 0.0047160843510480593 0 0.00055574719659429541 0.0047283138238075808 0 0.00055852179908595352 0.004722471127240134 0 0.00055927321613646907 0.0047326533651023553 0 0.00055574719659429541 0.0047283138238075808 0 0.00055852179908595352 0.004722471127240134 0 0.00055587667894435176 0.0047206180313253679 0 0.00055856674397775259 0.0047426235633875602 0 0.00055574719659429541 0.0047283138238075808 0 0.00055927321613646907 0.0047326533651023553 0 0.00055852179908595352 0.004722471127240134 0 0.00056268879354260445 0.0047266162507615846 0 0.00056915994548075864 0.0047212175012297476 0 0.00055927321613646907 0.0047326533651023553 0 0.00056268879354260445 0.0047266162507615846 0 0.00056408743404872189 0.0047298254810694594 0 0.00056006069190256489 0.0047401669531517447 0 0.00055927321613646907 0.0047326533651023553 0 0.00056408743404872189 0.0047298254810694594 0 0.00055852179908595352 0.004722471127240134 0 0.00055927321613646907 0.0047326533651023553 0 0.00056268879354260445 0.0047266162507615846 0 0.00056268879354260445 0.0047266162507615846 0 0.00056408743404872189 0.0047298254810694594 0 0.00056915994548075864 0.0047212175012297476 0 0.00056006069190256489 0.0047401669531517447 0 0.00056408743404872189 0.0047298254810694594 0 0.00057350754757018625 0.0047259904977490011 0 0.00053390131912538555 0.0042302430448033692 0 0.00042578943729093424 0.0041339354349177616 0 0.00036181276550977757 0.003286593558272675 0 0.00042578943729093424 0.0041339354349177616 0 0.00035419326238531502 0.0037739826303229904 0 0.00052208374888630703 0.0036802848758327881 0 0.00066500017696542431 0.003874458111928757 0 0.00055852179908595352 0.004722471127240134 0 0.00055520430635060179 0.0047127518682384449 0 0.00056915994548075864 0.0047212175012297476 0 0.0002369730299581249 0.0030175137342999046 0 0.00047559617733529484 0.0030436481492765277 0 0.00042786959062477786 0.0032921598756317483 0 0.00055852179908595352 0.004722471127240134 0 0.00055559178224463314 0.0047144724686606276 0 0.00055520430635060179 0.0047127518682384449 0 0.00055852179908595352 0.004722471127240134 0 0.00055559178224463314 0.0047144724686606276 0 0.00055587667894435176 0.0047206180313253679 0 0.00055559178224463314 0.0047144724686606276 0 0.00055563273318475414 0.0047125859670890851 0 0.00055208019754639519 0.0047160843510480593 0 0.00055559178224463314 0.0047144724686606276 0 0.00055587667894435176 0.0047206180313253679 0 0.00055208019754639519 0.0047160843510480593 0 0.00054683960100306603 0.004307536679466515 0 0.00053390131912538555 0.0042302430448033692 0 0.00037885736159976252 0.0034854666581405893 0 0.00029357414056503059 0.0034778216274087806 0 0.00035419326238531502 0.0037739826303229904 0 0.00081876247490824945 0.0033829083787714335 0 0.00053390131912538555 0.0042302430448033692 0 0.00037885736159976252 0.0034854666581405893 0 0.00035419326238531502 0.0037739826303229904 0 0.00052208374888630703 0.0036802848758327881 0 0.00011428392312155485 0.0027511747842923957 0 8.0046004422030097e-05 0.0027465998843830969 0 0.0002369730299581249 0.0030175137342999046 0 0.00025676126339127471 0.0030478283222382697 0 0.00036181276550977757 0.003286593558272675 0 0.00062527735254583371 0.0040384812200818321 0 0.00061965577638743361 0.0040125498975534003 0 0.00063580504866629227 0.0040271825643544241 0 0.00023170000298236489 0.0027797911440125959 0 0.00011428392312155485 0.0027511747842923957 0 0.0002369730299581249 0.0030175137342999046 0 0.0002369730299581249 0.0030175137342999046 0 0.00047559617733529484 0.0030436481492765277 0 0.00040592825848466532 0.0027559910388855169 0 0.00023170000298236489 0.0027797911440125959 0 0.0002369730299581249 0.0030175137342999046 0 0.00040592825848466532 0.0027559910388855169 0 0.00060609761842365267 0.0038667227473427588 0 0.00053242955124727304 0.0039720639527783047 0 0.00062938642117429673 0.0039354770310796533 0 0.00055881485168387363 0.0043247900639373019 0 0.00056898191623623714 0.004178930670136514 0 0.00053242955124727304 0.0039720639527783047 0 0.00062316539443267669 0.0039998486373565819 0 0.00062938642117429673 0.0039354770310796533 0 0.00054841021681948233 0.0047221421013823829 0 0.00053623654485372512 0.0047184693516482603 0 0.00054521308648594873 0.004704444711025671 0 0.00053390131912538555 0.0042302430448033692 0 0.00056898191623623714 0.004178930670136514 0 0.00054841021681948233 0.0047221421013823829 0 0.00055208019754639519 0.0047160843510480593 0 0.00054521308648594873 0.004704444711025671 0 0.00055563273318475414 0.0047125859670890851 0 0.00055208019754639519 0.0047160843510480593 0 0.00054521308648594873 0.004704444711025671 0 0.00064261565794222059 0.0040151570815665149 0 0.00063580504866629227 0.0040271825643544241 0 0.00065158753111555585 0.0040323415894575974 0 0.00062527735254583371 0.0040384812200818321 0 0.00063580504866629227 0.0040271825643544241 0 0.00065158753111555585 0.0040323415894575974 0 0.00056898191623623714 0.004178930670136514 0 0.00065475848878867172 0.0040216091233495187 0 0.00061965577638743361 0.0040125498975534003 0 0.00064096463423664763 0.004019599166969914 0 0.00063580504866629227 0.0040271825643544241 0 0.00064261565794222059 0.0040151570815665149 0 0.00065158753111555585 0.0040323415894575974 0 0.00067546246069776405 0.0040228265215524577 0 0.00056898191623623714 0.004178930670136514 0 0.00064645339808041906 0.0040024065495610252 0 0.0006658171530659079 0.0040532429568416913 0 0.00065158753111555585 0.0040323415894575974 0 0.00067546246069776405 0.0040228265215524577 0 0.00064645339808041906 0.0040024065495610252 0 0.00071747954867103756 0.0040326061079731254 0 0.00062316539443267669 0.0039998486373565819 0 0.00072164723642491476 0.0040329108320170393 0 0.00068366653320358012 0.0039668985958401844 0 0.00070053270117460104 0.0040459194003251387 0 0.0006658171530659079 0.0040532429568416913 0 0.00067546246069776405 0.0040228265215524577 0 0.00070053270117460104 0.0040459194003251387 0 0.00067546246069776405 0.0040228265215524577 0 0.00072164723642491476 0.0040329108320170393 0 0.00072164723642491476 0.0040329108320170393 0 0.00074891486425529281 0.0039713417770594677 0 0.00080460621532137968 0.0040400362822115852 0 0.00072164723642491476 0.0040329108320170393 0 0.00074891486425529281 0.0039713417770594677 0 0.00068366653320358012 0.0039668985958401844 0 0.00074891486425529281 0.0039713417770594677 0 0.00069508599628264364 0.0039057671051744209 0 0.00077266072834630101 0.0038984038834343386 0 0.00074891486425529281 0.0039713417770594677 0 0.00069508599628264364 0.0039057671051744209 0 0.00068366653320358012 0.0039668985958401844 0 0.00060609761842365267 0.0038667227473427588 0 0.00069508599628264364 0.0039057671051744209 0 0.00062938642117429673 0.0039354770310796533 0 0.00062316539443267669 0.0039998486373565819 0 0.00062938642117429673 0.0039354770310796533 0 0.00068366653320358012 0.0039668985958401844 0 0.00069508599628264364 0.0039057671051744209 0 0.00062938642117429673 0.0039354770310796533 0 0.00068366653320358012 0.0039668985958401844 0 0.00060609761842365267 0.0038667227473427588 0 0.00069508599628264364 0.0039057671051744209 0 0.00072672866218851924 0.0038278411893038697 0 0.00069508599628264364 0.0039057671051744209 0 0.00072672866218851924 0.0038278411893038697 0 0.00077266072834630101 0.0038984038834343386 0 0.00072672866218851924 0.0038278411893038697 0 0.00067722654128667202 0.0037754948181770486 0 0.00076433411354004052 0.0037631982777170327 0 0.00060609761842365267 0.0038667227473427588 0 0.00072672866218851924 0.0038278411893038697 0 0.00067722654128667202 0.0037754948181770486 0 0.00055881485168387363 0.0043247900639373019 0 0.00059568498027130431 0.004247150965933786 0 0.00075367123293385431 0.0036677214047156842 0 0.00087541091626211899 0.0037218034224231716 0 0.00080079803651595348 0.0038135256855590838 0 0.00087541091626211899 0.0037218034224231716 0 0.00080079803651595348 0.0038135256855590838 0 0.00090316885290826559 0.0037911916691763968 0 0.00087541091626211899 0.0037218034224231716 0 0.00090316885290826559 0.0037911916691763968 0 0.0010092471164749499 0.0037317997768478708 0 0.00089289316205188912 0.0036354304076143206 0 0.00087541091626211899 0.0037218034224231716 0 0.0010060911633229279 0.0036363729890012469 0 0.00075367123293385431 0.0036677214047156842 0 0.00089289316205188912 0.0036354304076143206 0 0.00087541091626211899 0.0037218034224231716 0 0.00072672866218851924 0.0038278411893038697 0 0.00076433411354004052 0.0037631982777170327 0 0.00080079803651595348 0.0038135256855590838 0 0.00075367123293385431 0.0036677214047156842 0 0.00063478130069793861 0.003638742750887141 0 0.00080079803651595348 0.0038135256855590838 0 0.00070020496396606079 0.0036502529991330962 0 0.00078859465478264227 0.0038191586003697461 0 0.00080079803651595348 0.0038135256855590838 0 0.00086499681061463535 0.003922718469539105 0 0.00077266072834630101 0.0038984038834343386 0 0.00072672866218851924 0.0038278411893038697 0 0.00080079803651595348 0.0038135256855590838 0 0.00077266072834630101 0.0038984038834343386 0 0.00080079803651595348 0.0038135256855590838 0 0.00091748466010010683 0.003863279077916061 0 0.00086499681061463535 0.003922718469539105 0 0.00080079803651595348 0.0038135256855590838 0 0.00090316885290826559 0.0037911916691763968 0 0.00091748466010010683 0.003863279077916061 0 0.00090316885290826559 0.0037911916691763968 0 0.00091748466010010683 0.003863279077916061 0 0.001045761620079742 0.0038375420527136232 0 0.00091748466010010683 0.003863279077916061 0 0.00086499681061463535 0.003922718469539105 0 0.00095251974248939156 0.0039511892417094978 0 0.00091748466010010683 0.003863279077916061 0 0.00095251974248939156 0.0039511892417094978 0 0.0010096248493533431 0.0039056697613561145 0 0.00086499681061463535 0.003922718469539105 0 0.00082502855465995349 0.0039760972433254124 0 0.00091181398269476717 0.0040075976544846469 0 0.00086499681061463535 0.003922718469539105 0 0.00095251974248939156 0.0039511892417094978 0 0.00091181398269476717 0.0040075976544846469 0 0.00086499681061463535 0.003922718469539105 0 0.00077266072834630101 0.0038984038834343386 0 0.00082502855465995349 0.0039760972433254124 0 0.00074891486425529281 0.0039713417770594677 0 0.00077266072834630101 0.0038984038834343386 0 0.00082502855465995349 0.0039760972433254124 0 0.00074891486425529281 0.0039713417770594677 0 0.00082502855465995349 0.0039760972433254124 0 0.00080460621532137968 0.0040400362822115852 0 0.00082502855465995349 0.0039760972433254124 0 0.00085984905272940275 0.0040245463542708292 0 0.00091181398269476717 0.0040075976544846469 0 0.00082502855465995349 0.0039760972433254124 0 0.00085984905272940275 0.0040245463542708292 0 0.00080460621532137968 0.0040400362822115852 0 0.00090103575063028504 0.0040750052165931944 0 0.00085984905272940275 0.0040245463542708292 0 0.00080460621532137968 0.0040400362822115852 0 0.00091181398269476717 0.0040075976544846469 0 0.00094335518682800911 0.0040261399119406131 0 0.00097969941723217361 0.0039956985107892596 0 0.00095251974248939156 0.0039511892417094978 0 0.00091181398269476717 0.0040075976544846469 0 0.00097969941723217361 0.0039956985107892596 0 0.00090103575063028504 0.0040750052165931944 0 0.00091181398269476717 0.0040075976544846469 0 0.00094335518682800911 0.0040261399119406131 0 0.00090103575063028504 0.0040750052165931944 0 0.00085984905272940275 0.0040245463542708292 0 0.00091181398269476717 0.0040075976544846469 0 0.00090103575063028504 0.0040750052165931944 0 0.00094335518682800911 0.0040261399119406131 0 0.00098041222161755932 0.0040290261329061364 0 0.00094335518682800911 0.0040261399119406131 0 0.00098041222161755932 0.0040290261329061364 0 0.00097969941723217361 0.0039956985107892596 0 0.00090103575063028504 0.0040750052165931944 0 0.00098041222161755932 0.0040290261329061364 0 0.0010641464267192337 0.0040090919109314928 0 0.0010393304958525688 0.0039164028896773798 0 0.0010325694306452823 0.0039854684960651662 0 0.001141683012448878 0.003693187187967112 0 0.0010768472271907236 0.003868697745685525 0 0.0010641464267192337 0.0040090919109314928 0 0.0010220977993154604 0.0040154421110392058 0 0.00098041222161755932 0.0040290261329061364 0 0.0010641464267192337 0.0040090919109314928 0 0.0010505721069333795 0.0037886430891796693 0 0.0010604890955629752 0.0039432148583037141 0 0.0010414179054623596 0.0040056669120860982 0 0.0010604890955629752 0.0039432148583037141 0 0.0010641464267192337 0.0040090919109314928 0 0.0010414179054623596 0.0040056669120860982 0 0.0010768472271907236 0.003868697745685525 0 0.0010604890955629752 0.0039432148583037141 0 0.0010641464267192337 0.0040090919109314928 0 0.0010220977993154604 0.0040154421110392058 0 0.0010641464267192337 0.0040090919109314928 0 0.0010491153304262887 0.0040061406294642742 0 0.0010641464267192337 0.0040090919109314928 0 0.0010690575664895174 0.0039998038034569777 0 0.0010491153304262887 0.0040061406294642742 0 0.0010641464267192337 0.0040090919109314928 0 0.0010690575664895174 0.0039998038034569777 0 0.0011006766620175893 0.0040058881259446106 0 0.0010690575664895174 0.0039998038034569777 0 0.0011155144860890689 0.0039820644833804576 0 0.0011006766620175893 0.0040058881259446106 0 0.0010220977993154604 0.0040154421110392058 0 0.0010491153304262887 0.0040061406294642742 0 0.0010354272988798434 0.0039930351676638418 0 0.0010690575664895174 0.0039998038034569777 0 0.0010491153304262887 0.0040061406294642742 0 0.0010354272988798434 0.0039930351676638418 0 0.0010354272988798434 0.0039930351676638418 0 0.0010230135615462374 0.0039577350902880231 0 0.0010713489796075177 0.0039724291770826658 0 0.0010690575664895174 0.0039998038034569777 0 0.0010354272988798434 0.0039930351676638418 0 0.0010713489796075177 0.0039724291770826658 0 0.0010690575664895174 0.0039998038034569777 0 0.0010713489796075177 0.0039724291770826658 0 0.0011155144860890689 0.0039820644833804576 0 0.0010220977993154604 0.0040154421110392058 0 0.00098041222161755932 0.0040290261329061364 0 0.00097969941723217361 0.0039956985107892596 0 0.0010220977993154604 0.0040154421110392058 0 0.0010354272988798434 0.0039930351676638418 0 0.00097969941723217361 0.0039956985107892596 0 0.0010354272988798434 0.0039930351676638418 0 0.00097969941723217361 0.0039956985107892596 0 0.0010230135615462374 0.0039577350902880231 0 0.00095251974248939156 0.0039511892417094978 0 0.00097969941723217361 0.0039956985107892596 0 0.0010230135615462374 0.0039577350902880231 0 0.00095251974248939156 0.0039511892417094978 0 0.0010230135615462374 0.0039577350902880231 0 0.0010096248493533431 0.0039056697613561145 0 0.0010230135615462374 0.0039577350902880231 0 0.0010713489796075177 0.0039724291770826658 0 0.0010963651303990828 0.0039372965833375127 0 0.0010230135615462374 0.0039577350902880231 0 0.0010963651303990828 0.0039372965833375127 0 0.0010096248493533431 0.0039056697613561145 0 0.0010713489796075177 0.0039724291770826658 0 0.0010963651303990828 0.0039372965833375127 0 0.0011155144860890689 0.0039820644833804576 0 0.0010963651303990828 0.0039372965833375127 0 0.0011926845978843812 0.0038798938781260733 0 0.001045761620079742 0.0038375420527136232 0 0.0010963651303990828 0.0039372965833375127 0 0.0010096248493533431 0.0039056697613561145 0 0.001045761620079742 0.0038375420527136232 0 0.0012924364362713651 0.0039180789392925051 0 0.0011926845978843812 0.0038798938781260733 0 0.001314088293663769 0.0038307095004174508 0 0.0012924364362713651 0.0039180789392925051 0 0.0011926845978843812 0.0038798938781260733 0 0.0012069318097197637 0.0039712761644994611 0 0.0010963651303990828 0.0039372965833375127 0 0.0012069318097197637 0.0039712761644994611 0 0.0011155144860890689 0.0039820644833804576 0 0.0010963651303990828 0.0039372965833375127 0 0.0011926845978843812 0.0038798938781260733 0 0.0012069318097197637 0.0039712761644994611 0 0.0012924364362713651 0.0039180789392925051 0 0.0012069318097197637 0.0039712761644994611 0 0.0013480799311320131 0.0039900981041825542 0 0.0012069318097197637 0.0039712761644994611 0 0.001304163345465221 0.004031682873997953 0 0.0013480799311320131 0.0039900981041825542 0 0.0012069318097197637 0.0039712761644994611 0 0.001211463924247044 0.0040211195945700287 0 0.001304163345465221 0.004031682873997953 0 0.001211463924247044 0.0040211195945700287 0 0.001304163345465221 0.004031682873997953 0 0.0012844565799093892 0.0040785176793842306 0 0.0011155144860890689 0.0039820644833804576 0 0.001152638448101677 0.003999653742051773 0 0.0011006766620175893 0.0040058881259446106 0 0.0012069318097197637 0.0039712761644994611 0 0.001211463924247044 0.0040211195945700287 0 0.001152638448101677 0.003999653742051773 0 0.0012069318097197637 0.0039712761644994611 0 0.0011155144860890689 0.0039820644833804576 0 0.001152638448101677 0.003999653742051773 0 0.001211463924247044 0.0040211195945700287 0 0.001152638448101677 0.003999653742051773 0 0.0011366538653799782 0.0040183643455165693 0 0.001152638448101677 0.003999653742051773 0 0.0011006766620175893 0.0040058881259446106 0 0.0011366538653799782 0.0040183643455165693 0 0.0010641464267192337 0.0040090919109314928 0 0.0010904389182499669 0.0040138701835919421 0 0.0010414179054623596 0.0040056669120860982 0 0.0010641464267192337 0.0040090919109314928 0 0.0011006766620175893 0.0040058881259446106 0 0.0010904389182499669 0.0040138701835919421 0 0.0010904389182499669 0.0040138701835919421 0 0.001125272693895941 0.0040293715872431728 0 0.0011366538653799782 0.0040183643455165693 0 0.0011006766620175893 0.0040058881259446106 0 0.0010904389182499669 0.0040138701835919421 0 0.0011366538653799782 0.0040183643455165693 0 0.0010904389182499669 0.0040138701835919421 0 0.001125272693895941 0.0040293715872431728 0 0.0010414179054623596 0.0040056669120860982 0 0.001211463924247044 0.0040211195945700287 0 0.0011366538653799782 0.0040183643455165693 0 0.0011955077146710541 0.0040465998011509612 0 0.001125272693895941 0.0040293715872431728 0 0.0011366538653799782 0.0040183643455165693 0 0.0011955077146710541 0.0040465998011509612 0 0.001125272693895941 0.0040293715872431728 0 0.0011955077146710541 0.0040465998011509612 0 0.0011666158384719696 0.0040747077309385149 0 0.001125272693895941 0.0040293715872431728 0 0.0011666158384719696 0.0040747077309385149 0 0.0010414179054623596 0.0040056669120860982 0 0.001304163345465221 0.004031682873997953 0 0.0012844565799093892 0.0040785176793842306 0 0.0013993513532545919 0.0041054883831884628 0 0.001211463924247044 0.0040211195945700287 0 0.0011955077146710541 0.0040465998011509612 0 0.0012844565799093892 0.0040785176793842306 0 0.0012604795391549508 0.0041366252279342458 0 0.0011955077146710541 0.0040465998011509612 0 0.0012844565799093892 0.0040785176793842306 0 0.0012604795391549508 0.0041366252279342458 0 0.0011955077146710541 0.0040465998011509612 0 0.0011666158384719696 0.0040747077309385149 0 0.0013716335052822975 0.0041731209352916529 0 0.0012604795391549508 0.0041366252279342458 0 0.0012844565799093892 0.0040785176793842306 0 0.0013716335052822975 0.0041731209352916529 0 0.0012844565799093892 0.0040785176793842306 0 0.0013993513532545919 0.0041054883831884628 0 0.0013993513532545919 0.0041054883831884628 0 0.0015352380042353568 0.0041248916821019716 0 0.0014296762373888774 0.0040527155696832226 0 0.0013716335052822975 0.0041731209352916529 0 0.0013993513532545919 0.0041054883831884628 0 0.0014715914719024576 0.0041871667372798188 0 0.0015827215997578868 0.0042569456882220252 0 0.0015352380042353568 0.0041248916821019716 0 0.0014715914719024576 0.0041871667372798188 0 0.0013993513532545919 0.0041054883831884628 0 0.0015352380042353568 0.0041248916821019716 0 0.0014715914719024576 0.0041871667372798188 0 0.0015352380042353568 0.0041248916821019716 0 0.0016536225351728836 0.0040561514359947429 0 0.0014962398565330102 0.0040124044333213421 0 0.0015352380042353568 0.0041248916821019716 0 0.0014296762373888774 0.0040527155696832226 0 0.0014962398565330102 0.0040124044333213421 0 0.0014296762373888774 0.0040527155696832226 0 0.0013480799311320131 0.0039900981041825542 0 0.0014962398565330102 0.0040124044333213421 0 0.001304163345465221 0.004031682873997953 0 0.0013993513532545919 0.0041054883831884628 0 0.0014296762373888774 0.0040527155696832226 0 0.001304163345465221 0.004031682873997953 0 0.0014296762373888774 0.0040527155696832226 0 0.0013480799311320131 0.0039900981041825542 0 0.0016922049520656434 0.0041854519384008342 0 0.0018443626013163112 0.0042325171569778169 0 0.0018147323508935595 0.004119441775474967 0 0.0015827215997578868 0.0042569456882220252 0 0.0015352380042353568 0.0041248916821019716 0 0.0016922049520656434 0.0041854519384008342 0 0.0015352380042353568 0.0041248916821019716 0 0.0016922049520656434 0.0041854519384008342 0 0.0016536225351728836 0.0040561514359947429 0 0.0016922049520656434 0.0041854519384008342 0 0.0016536225351728836 0.0040561514359947429 0 0.0018147323508935595 0.004119441775474967 0 0.0016536225351728836 0.0040561514359947429 0 0.0017949706186820252 0.0039696137694544571 0 0.0018147323508935595 0.004119441775474967 0 0.0016536225351728836 0.0040561514359947429 0 0.0015803925358358797 0.00393439390490737 0 0.0014962398565330102 0.0040124044333213421 0 0.0016536225351728836 0.0040561514359947429 0 0.0015803925358358797 0.00393439390490737 0 0.0017949706186820252 0.0039696137694544571 0 0.0015803925358358797 0.00393439390490737 0 0.0017949706186820252 0.0039696137694544571 0 0.0016739099443964958 0.0038449406769068949 0 0.0013480799311320131 0.0039900981041825542 0 0.0014962398565330102 0.0040124044333213421 0 0.0014105600156479651 0.0039201176493808996 0 0.0012924364362713651 0.0039180789392925051 0 0.0013480799311320131 0.0039900981041825542 0 0.0014105600156479651 0.0039201176493808996 0 0.0015803925358358797 0.00393439390490737 0 0.0014962398565330102 0.0040124044333213421 0 0.0014105600156479651 0.0039201176493808996 0 0.0015803925358358797 0.00393439390490737 0 0.0014105600156479651 0.0039201176493808996 0 0.0014853071845258687 0.0038096050150994731 0 0.0012924364362713651 0.0039180789392925051 0 0.0014105600156479651 0.0039201176493808996 0 0.001314088293663769 0.0038307095004174508 0 0.0014105600156479651 0.0039201176493808996 0 0.0014853071845258687 0.0038096050150994731 0 0.001314088293663769 0.0038307095004174508 0 0.0014853071845258687 0.0038096050150994731 0 0.0013438954713928585 0.003664478586879581 0 0.001314088293663769 0.0038307095004174508 0 0.0014853071845258687 0.0038096050150994731 0 0.0016219750136080612 0.0036840706820308977 0 0.0013438954713928585 0.003664478586879581 0 0.0016739099443964958 0.0038449406769068949 0 0.0016219750136080612 0.0036840706820308977 0 0.0018963515109417758 0.0038197267469040506 0 0.0017949706186820252 0.0039696137694544571 0 0.0016739099443964958 0.0038449406769068949 0 0.0018963515109417758 0.0038197267469040506 0 0.0015803925358358797 0.00393439390490737 0 0.0014853071845258687 0.0038096050150994731 0 0.0016739099443964958 0.0038449406769068949 0 0.0014853071845258687 0.0038096050150994731 0 0.0016739099443964958 0.0038449406769068949 0 0.0016219750136080612 0.0036840706820308977 0 0.0016219750136080612 0.0036840706820308977 0 0.0018721316189965944 0.0035347649813666253 0 0.0015349875235881943 0.0034490987141092633 0 0.0016219750136080612 0.0036840706820308977 0 0.0013438954713928585 0.003664478586879581 0 0.0015349875235881943 0.0034490987141092633 0 0.0013438954713928585 0.003664478586879581 0 0.0011270895298318602 0.0036390136772680519 0 0.0012391309380601083 0.0035202175173607336 0 0.0013438954713928585 0.003664478586879581 0 0.0011270895298318602 0.0036390136772680519 0 0.0011678085166454209 0.0037647534259292893 0 0.0011270895298318602 0.0036390136772680519 0 0.0010060911633229279 0.0036363729890012469 0 0.0010092471164749499 0.0037317997768478708 0 0.00087541091626211899 0.0037218034224231716 0 0.0010060911633229279 0.0036363729890012469 0 0.0010092471164749499 0.0037317997768478708 0 0.0011270895298318602 0.0036390136772680519 0 0.0010092471164749499 0.0037317997768478708 0 0.0011678085166454209 0.0037647534259292893 0 0.0010092471164749499 0.0037317997768478708 0 0.001045761620079742 0.0038375420527136232 0 0.0011678085166454209 0.0037647534259292893 0 0.00090316885290826559 0.0037911916691763968 0 0.0010092471164749499 0.0037317997768478708 0 0.001045761620079742 0.0038375420527136232 0 0.00091748466010010683 0.003863279077916061 0 0.0010096248493533431 0.0039056697613561145 0 0.001045761620079742 0.0038375420527136232 0 0.0013438954713928585 0.003664478586879581 0 0.001314088293663769 0.0038307095004174508 0 0.0011678085166454209 0.0037647534259292893 0 0.0011926845978843812 0.0038798938781260733 0 0.001045761620079742 0.0038375420527136232 0 0.0011678085166454209 0.0037647534259292893 0 0.0011926845978843812 0.0038798938781260733 0 0.001314088293663769 0.0038307095004174508 0 0.0011678085166454209 0.0037647534259292893 0 0.0027450255166466433 0.0041017209688815563 0 0.0025485557605969987 0.0040251411300182144 0 0.0026060499300634334 0.0041603223877202623 0 0.0027837156378974206 0.003978317011656976 0 0.0026908546927902053 0.0038885055264868689 0 0.0025485557605969987 0.0040251411300182144 0 0.0025370053980700398 0.0043012573732455033 0 0.0027181362488317372 0.0042590946615479611 0 0.0026060499300634334 0.0041603223877202623 0 0.0025370053980700398 0.0043012573732455033 0 0.0026060499300634334 0.0041603223877202623 0 0.0024726035716203065 0.0041682138413809827 0 0.0025485557605969987 0.0040251411300182144 0 0.0026060499300634334 0.0041603223877202623 0 0.0024726035716203065 0.0041682138413809827 0 0.0023405901023809323 0.0042717070113226195 0 0.0023242327732681967 0.0041108032051951487 0 0.0021279837015135985 0.0042061063317743227 0 0.0025485557605969987 0.0040251411300182144 0 0.0024726035716203065 0.0041682138413809827 0 0.0023242327732681967 0.0041108032051951487 0 0.0023405901023809323 0.0042717070113226195 0 0.0025370053980700398 0.0043012573732455033 0 0.0024726035716203065 0.0041682138413809827 0 0.0023405901023809323 0.0042717070113226195 0 0.0024726035716203065 0.0041682138413809827 0 0.0023242327732681967 0.0041108032051951487 0 0.0023242327732681967 0.0041108032051951487 0 0.0023563979814516483 0.0039588759915921519 0 0.0021580837037248773 0.0040522117779020293 0 0.0025485557605969987 0.0040251411300182144 0 0.0023242327732681967 0.0041108032051951487 0 0.0023563979814516483 0.0039588759915921519 0 0.0025485557605969987 0.0040251411300182144 0 0.0023563979814516483 0.0039588759915921519 0 0.0025199827184921304 0.0038454767775687911 0 0.0023563979814516483 0.0039588759915921519 0 0.0021401123992331283 0.0039135212610530096 0 0.0021580837037248773 0.0040522117779020293 0 0.0021401123992331283 0.0039135212610530096 0 0.0021580837037248773 0.0040522117779020293 0 0.001964992174325724 0.0039582614260434794 0 0.0023242327732681967 0.0041108032051951487 0 0.0021580837037248773 0.0040522117779020293 0 0.0021279837015135985 0.0042061063317743227 0 0.0021580837037248773 0.0040522117779020293 0 0.0021279837015135985 0.0042061063317743227 0 0.0019897535920862532 0.0040753007291510039 0 0.0021279837015135985 0.0042061063317743227 0 0.0019897535920862532 0.0040753007291510039 0 0.0019443110589256426 0.0041712141602512649 0 0.0019910883928224575 0.0042602965978413131 0 0.0021279837015135985 0.0042061063317743227 0 0.0019443110589256426 0.0041712141602512649 0 0.0019443110589256426 0.0041712141602512649 0 0.0018443626013163112 0.0042325171569778169 0 0.0018147323508935595 0.004119441775474967 0 0.0019910883928224575 0.0042602965978413131 0 0.0019443110589256426 0.0041712141602512649 0 0.0018443626013163112 0.0042325171569778169 0 0.0019897535920862532 0.0040753007291510039 0 0.0019443110589256426 0.0041712141602512649 0 0.0018147323508935595 0.004119441775474967 0 0.0017949706186820252 0.0039696137694544571 0 0.0019897535920862532 0.0040753007291510039 0 0.001964992174325724 0.0039582614260434794 0 0.0017949706186820252 0.0039696137694544571 0 0.0019897535920862532 0.0040753007291510039 0 0.0018147323508935595 0.004119441775474967 0 0.0021580837037248773 0.0040522117779020293 0 0.0019897535920862532 0.0040753007291510039 0 0.001964992174325724 0.0039582614260434794 0 0.0017949706186820252 0.0039696137694544571 0 0.001964992174325724 0.0039582614260434794 0 0.0018963515109417758 0.0038197267469040506 0 0.0021401123992331283 0.0039135212610530096 0 0.001964992174325724 0.0039582614260434794 0 0.0018963515109417758 0.0038197267469040506 0 0.0018963515109417758 0.0038197267469040506 0 0.0018721316189965944 0.0035347649813666253 0 0.0022665225735571865 0.0037382091225587398 0 0.0016219750136080612 0.0036840706820308977 0 0.0018963515109417758 0.0038197267469040506 0 0.0018721316189965944 0.0035347649813666253 0 0.0020089408967117494 0.0036153681925835805 0 0.0022473245527099492 0.0037283394073028605 0 0.0021387944951265069 0.003682734507977267 0 0.0022665225735571865 0.0037382091225587398 0 0.0023237846679190809 0.0035995221293870371 0 0.0021401123992331283 0.0039135212610530096 0 0.0018963515109417758 0.0038197267469040506 0 0.0022665225735571865 0.0037382091225587398 0 0.0023563979814516483 0.0039588759915921519 0 0.0021401123992331283 0.0039135212610530096 0 0.0022665225735571865 0.0037382091225587398 0 0.0023563979814516483 0.0039588759915921519 0 0.0022665225735571865 0.0037382091225587398 0 0.0025199827184921304 0.0038454767775687911 0 0.0022665225735571865 0.0037382091225587398 0 0.002525385030605014 0.0037040255843673793 0 0.0023237846679190809 0.0035995221293870371 0 0.0022665225735571865 0.0037382091225587398 0 0.002525385030605014 0.0037040255843673793 0 0.0025199827184921304 0.0038454767775687911 0 0.0027068162897113585 0.0037582773386145647 0 0.0027304013514065461 0.0035865069517941875 0 0.002525385030605014 0.0037040255843673793 0 0.0027068162897113585 0.0037582773386145647 0 0.002525385030605014 0.0037040255843673793 0 0.0025199827184921304 0.0038454767775687911 0 0.0026908546927902053 0.0038885055264868689 0 0.0025485557605969987 0.0040251411300182144 0 0.0025199827184921304 0.0038454767775687911 0 0.0026908546927902053 0.0038885055264868689 0 0.0027068162897113585 0.0037582773386145647 0 0.0025199827184921304 0.0038454767775687911 0 0.0027304013514065461 0.0035865069517941875 0 0.0026260635996006921 0.003433831557225586 0 0.0025313445110990438 0.0035653268290573412 0 0.0027304013514065461 0.0035865069517941875 0 0.0027870275223541444 0.0034565725218541109 0 0.0026260635996006921 0.003433831557225586 0 0.0027304013514065461 0.0035865069517941875 0 0.002525385030605014 0.0037040255843673793 0 0.0025313445110990438 0.0035653268290573412 0 0.0025313445110990438 0.0035653268290573412 0 0.0024406949697820209 0.0034371019410143209 0 0.0023237846679190809 0.0035995221293870371 0 0.002525385030605014 0.0037040255843673793 0 0.0025313445110990438 0.0035653268290573412 0 0.0023237846679190809 0.0035995221293870371 0 0.0026260635996006921 0.003433831557225586 0 0.0025313445110990438 0.0035653268290573412 0 0.0024406949697820209 0.0034371019410143209 0 0.0024406949697820209 0.0034371019410143209 0 0.0022365428599412985 0.0034499362582622746 0 0.0023237846679190809 0.0035995221293870371 0 0.0024406949697820209 0.0034371019410143209 0 0.0022365428599412985 0.0034499362582622746 0 0.0023056872160404068 0.0032935651165970021 0 0.0022365428599412985 0.0034499362582622746 0 0.0023237846679190809 0.0035995221293870371 0 0.002143258123545834 0.0035574394103447802 0 0.0021387944951265069 0.003682734507977267 0 0.0023237846679190809 0.0035995221293870371 0 0.002143258123545834 0.0035574394103447802 0 0.0022365428599412985 0.0034499362582622746 0 0.0021407048419635048 0.0033327184265054344 0 0.0020569172559535632 0.0034497750063367514 0 0.0022365428599412985 0.0034499362582622746 0 0.002143258123545834 0.0035574394103447802 0 0.0020569172559535632 0.0034497750063367514 0 0.0021407048419635048 0.0033327184265054344 0 0.002144430585546067 0.0031858189929527291 0 0.0020083576820979863 0.0032818496044464255 0 0.0021407048419635048 0.0033327184265054344 0 0.002144430585546067 0.0031858189929527291 0 0.0023056872160404068 0.0032935651165970021 0 0.00227317931827118 0.0045540103755007987 0 0.0021504481452009156 0.0046122238370547497 0 0.0021534357649816288 0.0046516657683291643 0 0.0020739485513253911 0.0039978702328764193 0 0.0020380814945224843 0.0048037261164234849 0 0.0020739485513253911 0.0039978702328764193 0 0.0022854195910543655 0.00384875634520706 0 0.002144430585546067 0.0031858189929527291 0 0.0023539866130644206 0.0031083230336832997 0 0.0023056872160404068 0.0032935651165970021 0 0.0022365428599412985 0.0034499362582622746 0 0.0021407048419635048 0.0033327184265054344 0 0.0023056872160404068 0.0032935651165970021 0 0.0024406949697820209 0.0034371019410143209 0 0.0023056872160404068 0.0032935651165970021 0 0.0025374551955393869 0.0032388407358739831 0 0.0026260635996006921 0.003433831557225586 0 0.0024406949697820209 0.0034371019410143209 0 0.0025374551955393869 0.0032388407358739831 0 0.0023539866130644206 0.0031083230336832997 0 0.0023056872160404068 0.0032935651165970021 0 0.0025374551955393869 0.0032388407358739831 0 0.0023539866130644206 0.0031083230336832997 0 0.0025374551955393869 0.0032388407358739831 0 0.0025841424914423384 0.0030272065966303885 0 0.0027377896259080429 0.0033016191294557521 0 0.0025374551955393869 0.0032388407358739831 0 0.0027156228448262125 0.0031391439804110562 0 0.0025374551955393869 0.0032388407358739831 0 0.0027156228448262125 0.0031391439804110562 0 0.0025841424914423384 0.0030272065966303885 0 0.0027377896259080429 0.0033016191294557521 0 0.0026260635996006921 0.003433831557225586 0 0.0025374551955393869 0.0032388407358739831 0 0.0027870275223541444 0.0034565725218541109 0 0.0027377896259080429 0.0033016191294557521 0 0.0026260635996006921 0.003433831557225586 0 0.0015291687173200914 0.0034528586839204793 0 0.0012833147052968257 0.0034585521561071482 0 0.0017834594263752301 0.0035119877990180803 0 0.0017268715428726815 0.0034231948014590572 0 0.0016266460400797384 0.003434325544300172 0 0.0017834594263752301 0.0035119877990180803 0 0.0018076366602221504 0.0034200724002609387 0 0.0017268715428726815 0.0034231948014590572 0 0.0017268715428726815 0.0034231948014590572 0 0.0016266460400797384 0.003434325544300172 0 0.0016224399942153783 0.0033997365880180999 0 0.0012578976950082461 0.003403750314570297 0 0.0010132281253686175 0.0033450359674732713 0 0.0011276906667086635 0.0034372702472983637 0 0.00096600478580578157 0.0033246001071915929 0 0.0010152456256559859 0.0033507456667934113 0 0.0010083087206673445 0.0032970444341521199 0 0.00096600478580578157 0.0033246001071915929 0 0.0010124604534084839 0.0033448973391593155 0 0.00097165707349972498 0.003369572453326784 0 0.0011277051683697922 0.0033840873523144676 0 0.0012833147052968257 0.0034585521561071482 0 0.0012833147052968257 0.0034585521561071482 0 0.0015511901478140158 0.0038132892046998271 0 0.0010124604534084839 0.0033448973391593155 0 0.0010184767249114006 0.0033782087824081046 0 0.00097165707349972498 0.003369572453326784 0 0.0012833147052968257 0.0034585521561071482 0 0.0012499441879482486 0.0034178866272277812 0 0.0010184767249114006 0.0033782087824081046 0 0.00097165707349972498 0.003369572453326784 0 0.00097573723322210142 0.0034229257062061919 0 0.0010184767249114006 0.0033782087824081046 0 0.00097573723322210142 0.0034229257062061919 0 0.00102943491163755 0.0034609764906061487 0 0.0009138896307033528 0.0034173173883098049 0 0.00097165707349972498 0.003369572453326784 0 0.00097573723322210142 0.0034229257062061919 0 0.00094024729185771363 0.0034898735375852429 0 0.00097573723322210142 0.0034229257062061919 0 0.00102943491163755 0.0034609764906061487 0 0.0010184767249114006 0.0033782087824081046 0 0.00102943491163755 0.0034609764906061487 0 0.0011276906667086635 0.0034372702472983637 0 0.0010132281253686175 0.0033450359674732713 0 0.0010184767249114006 0.0033782087824081046 0 0.0011276906667086635 0.0034372702472983637 0 0.00102943491163755 0.0034609764906061487 0 0.0011276906667086635 0.0034372702472983637 0 0.0010709190567591751 0.0035315389172998111 0 0.00102943491163755 0.0034609764906061487 0 0.0010709190567591751 0.0035315389172998111 0 0.00096752510369290637 0.0035571684259765915 0 0.00094024729185771363 0.0034898735375852429 0 0.00102943491163755 0.0034609764906061487 0 0.00096752510369290637 0.0035571684259765915 0 0.0010060911633229279 0.0036363729890012469 0 0.0010709190567591751 0.0035315389172998111 0 0.00096752510369290637 0.0035571684259765915 0 0.00089289316205188912 0.0036354304076143206 0 0.0010060911633229279 0.0036363729890012469 0 0.00096752510369290637 0.0035571684259765915 0 0.0011270895298318602 0.0036390136772680519 0 0.0010060911633229279 0.0036363729890012469 0 0.0010709190567591751 0.0035315389172998111 0 0.0011270895298318602 0.0036390136772680519 0 0.0010709190567591751 0.0035315389172998111 0 0.0012391309380601083 0.0035202175173607336 0 0.0011276906667086635 0.0034372702472983637 0 0.0010709190567591751 0.0035315389172998111 0 0.0012391309380601083 0.0035202175173607336 0 0.0012578976950082461 0.003403750314570297 0 0.0011276906667086635 0.0034372702472983637 0 0.0012391309380601083 0.0035202175173607336 0 0.0013438954713928585 0.003664478586879581 0 0.0012391309380601083 0.0035202175173607336 0 0.0015349875235881943 0.0034490987141092633 0 0.0012578976950082461 0.003403750314570297 0 0.0012391309380601083 0.0035202175173607336 0 0.0015349875235881943 0.0034490987141092633 0 0.0017834594263752301 0.0035119877990180803 0 0.0019526364612177576 0.0036004957301354443 0 0.0019169777510852099 0.0034642611846273418 0 0.0015291687173200914 0.0034528586839204793 0 0.001747948738020775 0.003527040733657769 0 0.0021387944951265069 0.003682734507977267 0 0.002143258123545834 0.0035574394103447802 0 0.0019526364612177576 0.0036004957301354443 0 0.0020089408967117494 0.0036153681925835805 0 0.001747948738020775 0.003527040733657769 0 0.002143258123545834 0.0035574394103447802 0 0.0019526364612177576 0.0036004957301354443 0 0.0020569172559535632 0.0034497750063367514 0 0.0019526364612177576 0.0036004957301354443 0 0.0020569172559535632 0.0034497750063367514 0 0.0019169777510852099 0.0034642611846273418 0 0.0020569172559535632 0.0034497750063367514 0 0.0019169777510852099 0.0034642611846273418 0 0.0019833374518410133 0.0033892808332984894 0 0.0020569172559535632 0.0034497750063367514 0 0.002050112793981687 0.0033613754125343476 0 0.0019833374518410133 0.0033892808332984894 0 0.0017834594263752301 0.0035119877990180803 0 0.0018076366602221504 0.0034200724002609387 0 0.0019169777510852099 0.0034642611846273418 0 0.0019169777510852099 0.0034642611846273418 0 0.0018749719751876661 0.0033856264722318288 0 0.0019833374518410133 0.0033892808332984894 0 0.0018076366602221504 0.0034200724002609387 0 0.0019169777510852099 0.0034642611846273418 0 0.0018749719751876661 0.0033856264722318288 0 0.0018753049082206705 0.0040660383313778159 0 0.0018565768710219106 0.0040822558909202455 0 0.0018749719751876661 0.0033856264722318288 0 0.0019189188135664151 0.0033326555419984907 0 0.0017913393949893213 0.0033506537176006255 0 0.0018076366602221504 0.0034200724002609387 0 0.0018749719751876661 0.0033856264722318288 0 0.0017913393949893213 0.0033506537176006255 0 0.0018653840186372069 0.0033900474162631496 0 0.0020312699696841039 0.003269127481253878 0 0.002050112793981687 0.0033613754125343476 0 0.0019833374518410133 0.0033892808332984894 0 0.0020083576820979863 0.0032818496044464255 0 0.0021407048419635048 0.0033327184265054344 0 0.0020569172559535632 0.0034497750063367514 0 0.002050112793981687 0.0033613754125343476 0 0.0021407048419635048 0.0033327184265054344 0 0.002050112793981687 0.0033613754125343476 0 0.0020083576820979863 0.0032818496044464255 0 0.0018749719751876661 0.0033856264722318288 0 0.0019833374518410133 0.0033892808332984894 0 0.0020083576820979863 0.0032818496044464255 0 0.0018749719751876661 0.0033856264722318288 0 0.0019189188135664151 0.0033326555419984907 0 0.0019418951137392805 0.0033462790623830659 0 0.0020739485513253911 0.0039978702328764193 0 0.0018753049082206705 0.0040660383313778159 0 0.001991904781054835 0.0033352668499581086 0 0.0019189188135664151 0.0033326555419984907 0 0.0019418951137392805 0.0033462790623830659 0 0.0019295393212884265 0.0047831134116216303 0 0.0018910905226156446 0.0047800185121937349 0 0.0019034088952641893 0.0047569911775891182 0 0.0018910905226156446 0.0047800185121937349 0 0.0018773680396259654 0.0047639040998953006 0 0.0019034088952641893 0.0047569911775891182 0 0.0020739485513253911 0.0039978702328764193 0 0.0020312699696841039 0.003269127481253878 0 0.0018910905226156446 0.0047800185121937349 0 0.0018773680396259654 0.0047639040998953006 0 0.0018630334772341793 0.0047773396819979861 0 0.0018773680396259654 0.0047639040998953006 0 0.0018582183223778287 0.0047615988364529318 0 0.0018630334772341793 0.0047773396819979861 0 0.0017268715428726815 0.0034231948014590572 0 0.0017913393949893213 0.0033506537176006255 0 0.0016224399942153783 0.0033997365880180999 0 0.0018582183223778287 0.0047615988364529318 0 0.0018630334772341793 0.0047773396819979861 0 0.0018376901686893783 0.0047703381900841089 0 0.0018076366602221504 0.0034200724002609387 0 0.0017268715428726815 0.0034231948014590572 0 0.0017913393949893213 0.0033506537176006255 0 0.0018630334772341793 0.0047773396819979861 0 0.0018382258056469424 0.0047758705588764683 0 0.0018376901686893783 0.0047703381900841089 0 0.0018565768710219106 0.0040822558909202455 0 0.0015511901478140158 0.0038132892046998271 0 0.0015511901478140158 0.0038132892046998271 0 0.0011197846120691046 0.0045418076861565822 0 0.00091347469223550227 0.0033515764359647307 0 0.00096600478580578157 0.0033246001071915929 0 0.0010008274542049008 0.0031943136682716878 0 0.00096600478580578157 0.0033246001071915929 0 0.0010083087206673445 0.0032970444341521199 0 0.0010008274542049008 0.0031943136682716878 0 0.0018620049600293854 0.0048469487883216148 0 0.0011197846120691046 0.0045418076861565822 0 0.0017142745907257318 0.0049002688961409064 0 0.0016299967630202129 0.0049745625070532718 0 0.0016218552381588465 0.0048694823608239415 0 0.0011197846120691046 0.0045418076861565822 0 0.00079949988855449036 0.0050068037668554695 0 0.0017142745907257318 0.0049002688961409064 0 0.0016218552381588465 0.0048694823608239415 0 0.0016974945046050556 0.0047997732959567559 0 0.0016218552381588465 0.0048694823608239415 0 0.0016974945046050556 0.0047997732959567559 0 0.0016145394080499336 0.0047623717447241292 0 0.0016974945046050556 0.0047997732959567559 0 0.0016822461264940952 0.004729984083492178 0 0.0016145394080499336 0.0047623717447241292 0 0.0016974945046050556 0.0047997732959567559 0 0.0016822461264940952 0.004729984083492178 0 0.0017530997246304227 0.0047017795107986366 0 0.0016974945046050556 0.0047997732959567559 0 0.001799201553712222 0.0048206872400697529 0 0.0017530997246304227 0.0047017795107986366 0 0.0018620049600293854 0.0048469487883216148 0 0.0018273323669623746 0.0047841775841417052 0 0.0017142745907257318 0.0049002688961409064 0 0.0016974945046050556 0.0047997732959567559 0 0.001799201553712222 0.0048206872400697529 0 0.0018773680396259654 0.0047639040998953006 0 0.0018772785698034369 0.0047467417298973809 0 0.0019034088952641893 0.0047569911775891182 0 0.0018773680396259654 0.0047639040998953006 0 0.0018582183223778287 0.0047615988364529318 0 0.0018772785698034369 0.0047467417298973809 0 0.0019034088952641893 0.0047569911775891182 0 0.0018878260939304491 0.0047265169446082684 0 0.0019339638606555734 0.0047377333313389555 0 0.0018772785698034369 0.0047467417298973809 0 0.0019034088952641893 0.0047569911775891182 0 0.0018878260939304491 0.0047265169446082684 0 0.0018273323669623746 0.0047841775841417052 0 0.0018888457096547541 0.004728926547943494 0 0.001799201553712222 0.0048206872400697529 0 0.0018878260939304491 0.0047265169446082684 0 0.0017530997246304227 0.0047017795107986366 0 0.0018878260939304491 0.0047265169446082684 0 0.0018358857175079289 0.0046653363085167347 0 0.0017530997246304227 0.0047017795107986366 0 0.0018878260939304491 0.0047265169446082684 0 0.001909065193168178 0.0046397415142622406 0 0.0018358857175079289 0.0046653363085167347 0 0.001909065193168178 0.0046397415142622406 0 0.0018358857175079289 0.0046653363085167347 0 0.0018029259081486953 0.0045757204268600709 0 0.0018358857175079289 0.0046653363085167347 0 0.0017580044309327492 0.0046375683408875898 0 0.0018029259081486953 0.0045757204268600709 0 0.0018358857175079289 0.0046653363085167347 0 0.0017580044309327492 0.0046375683408875898 0 0.0017530997246304227 0.0047017795107986366 0 0.0017580044309327492 0.0046375683408875898 0 0.0016839671217249942 0.0046519672714970713 0 0.0017530997246304227 0.0047017795107986366 0 0.0017580044309327492 0.0046375683408875898 0 0.0016839671217249942 0.0046519672714970713 0 0.001714695099256014 0.0045925353370551937 0 0.0016839671217249942 0.0046519672714970713 0 0.0016329534085996425 0.004628309490830677 0 0.001714695099256014 0.0045925353370551937 0 0.0016454115317498647 0.0046607447233055314 0 0.0016329534085996425 0.004628309490830677 0 0.001619063717801264 0.0046580179402111888 0 0.0016454115317498647 0.0046607447233055314 0 0.0016839671217249942 0.0046519672714970713 0 0.0016329534085996425 0.004628309490830677 0 0.0016454115317498647 0.0046607447233055314 0 0.0016839671217249942 0.0046519672714970713 0 0.001669589491662387 0.0046901892014336588 0 0.0016266246948140276 0.0046885639653991996 0 0.0016822461264940952 0.004729984083492178 0 0.0016145394080499336 0.0047623717447241292 0 0.001669589491662387 0.0046901892014336588 0 0.0016266246948140276 0.0046885639653991996 0 0.0016822461264940952 0.004729984083492178 0 0.0016454115317498647 0.0046607447233055314 0 0.001669589491662387 0.0046901892014336588 0 0.0016266246948140276 0.0046885639653991996 0 0.001669589491662387 0.0046901892014336588 0 0.0016822461264940952 0.004729984083492178 0 0.0017530997246304227 0.0047017795107986366 0 0.0016839671217249942 0.0046519672714970713 0 0.001669589491662387 0.0046901892014336588 0 0.0017530997246304227 0.0047017795107986366 0 0.0026296075431458941 0.0046049853146245901 0 0.0021771253627721919 0.0054016414006127699 0 0.0020186063375446906 0.0047013947474555413 0 0.00205128736999984 0.0047181200301214732 0 0.0020504487074196383 0.004719927990847258 0 0.0020186063375446906 0.0047013947474555413 0 0.00205128736999984 0.0047181200301214732 0 0.0020520445932552559 0.0046672494465708966 0 0.0028380075285232274 0.0029432069883701057 0 0.0027156228448262125 0.0031391439804110562 0 0.0025841424914423384 0.0030272065966303885 0 0.0026296075431458941 0.0046049853146245901 0 0.0023038367392505775 0.0037829113853725732 0 0.00205128736999984 0.0047181200301214732 0 0.0020520445932552559 0.0046672494465708966 0 0.0021534357649816288 0.0046516657683291643 0 0.0021504481452009156 0.0046122238370547497 0 0.0020520445932552559 0.0046672494465708966 0 0.0021534357649816288 0.0046516657683291643 0 0.00205128736999984 0.0047181200301214732 0 0.002004201553659499 0.0047403549242373113 0 0.0019868577261458837 0.0047708189279381278 0 0.0022854195910543655 0.00384875634520706 0 0.0023038367392505775 0.0037829113853725732 0 0.0020721503147858363 0.0046904418285054449 0 0.0020380814945224843 0.0048037261164234849 0 0.00205128736999984 0.0047181200301214732 0 0.002004201553659499 0.0047403549242373113 0 0.002005424776161903 0.0047270860153316345 0 0.0020504487074196383 0.004719927990847258 0 0.002005424776161903 0.0047270860153316345 0 0.0019817639322803854 0.0046856746285267358 0 0.00205128736999984 0.0047181200301214732 0 0.0020504487074196383 0.004719927990847258 0 0.002005424776161903 0.0047270860153316345 0 0.002005424776161903 0.0047270860153316345 0 0.001965309089300532 0.0047200844862088477 0 0.0019817639322803854 0.0046856746285267358 0 0.001965309089300532 0.0047200844862088477 0 0.0019717633362172724 0.004744159422718261 0 0.0019339638606555734 0.0047377333313389555 0 0.002004201553659499 0.0047403549242373113 0 0.002005424776161903 0.0047270860153316345 0 0.0019717633362172724 0.004744159422718261 0 0.002005424776161903 0.0047270860153316345 0 0.001965309089300532 0.0047200844862088477 0 0.0019717633362172724 0.004744159422718261 0 0.002004201553659499 0.0047403549242373113 0 0.0019868577261458837 0.0047708189279381278 0 0.0019717633362172724 0.004744159422718261 0 0.0019868577261458837 0.0047708189279381278 0 0.0019717633362172724 0.004744159422718261 0 0.0019431624833823771 0.0047589291527026234 0 0.0019295393212884265 0.0047831134116216303 0 0.0019034088952641893 0.0047569911775891182 0 0.0019431624833823771 0.0047589291527026234 0 0.0019034088952641893 0.0047569911775891182 0 0.0019431624833823771 0.0047589291527026234 0 0.0019339638606555734 0.0047377333313389555 0 0.0019295393212884265 0.0047831134116216303 0 0.0019868577261458837 0.0047708189279381278 0 0.0019431624833823771 0.0047589291527026234 0 0.0019717633362172724 0.004744159422718261 0 0.0019431624833823771 0.0047589291527026234 0 0.0019339638606555734 0.0047377333313389555 0 0.0018878260939304491 0.0047265169446082684 0 0.0019339638606555734 0.0047377333313389555 0 0.0019358219975548804 0.0047048798555240391 0 0.001965309089300532 0.0047200844862088477 0 0.0019339638606555734 0.0047377333313389555 0 0.0019358219975548804 0.0047048798555240391 0 0.0018878260939304491 0.0047265169446082684 0 0.001909065193168178 0.0046397415142622406 0 0.0019358219975548804 0.0047048798555240391 0 0.001909065193168178 0.0046397415142622406 0 0.0019358219975548804 0.0047048798555240391 0 0.0019817639322803854 0.0046856746285267358 0 0.0019276769303190268 0.0056105559240368016 0 0.0020886762477788671 0.0055852015848365886 0 0.0019048819081062716 0.0054548442998855178 0 0.0019312270621918797 0.0051241680814569333 0 0.0020617281441978395 0.0051979132555928682 0 0.0019276769303190268 0.0056105559240368016 0 0.0020886762477788671 0.0055852015848365886 0 0.0021408841387020906 0.0057414823143491405 0 0.0020886762477788671 0.0055852015848365886 0 0.0021408841387020906 0.0057414823143491405 0 0.0022695099513617392 0.0055584800630997374 0 0.001965309089300532 0.0047200844862088477 0 0.0019358219975548804 0.0047048798555240391 0 0.0019817639322803854 0.0046856746285267358 0 0.0021771253627721919 0.0054016414006127699 0 0.0020617281441978395 0.0051979132555928682 0 0.0023709239323818024 0.0058737234617293379 0 0.0021408841387020906 0.0057414823143491405 0 0.0024166939865468331 0.0056710515609229677 0 0.0021408841387020906 0.0057414823143491405 0 0.0022695099513617392 0.0055584800630997374 0 0.0024166939865468331 0.0056710515609229677 0 0.0026245458210219807 0.0056972473533410534 0 0.0024166939865468331 0.0056710515609229677 0 0.0024898029487482988 0.0055064368969283328 0 0.0022695099513617392 0.0055584800630997374 0 0.0024166939865468331 0.0056710515609229677 0 0.0024898029487482988 0.0055064368969283328 0 0.0026245458210219807 0.0056972473533410534 0 0.0023709239323818024 0.0058737234617293379 0 0.0024166939865468331 0.0056710515609229677 0 0.0025021726170117529 0.0053290645765249178 0 0.0024898029487482988 0.0055064368969283328 0 0.0023020939848027305 0.0053801517310754533 0 0.0025021726170117529 0.0053290645765249178 0 0.0023020939848027305 0.0053801517310754533 0 0.0023370639938713016 0.0051929341955331155 0 0.0022695099513617392 0.0055584800630997374 0 0.0024898029487482988 0.0055064368969283328 0 0.0023020939848027305 0.0053801517310754533 0 0.0022695099513617392 0.0055584800630997374 0 0.0023020939848027305 0.0053801517310754533 0 0.0020828189174077628 0.0054326557075795798 0 0.0023020939848027305 0.0053801517310754533 0 0.0020828189174077628 0.0054326557075795798 0 0.0021347453074711496 0.0052559640976570484 0 0.0020886762477788671 0.0055852015848365886 0 0.0022695099513617392 0.0055584800630997374 0 0.0020828189174077628 0.0054326557075795798 0 0.0020886762477788671 0.0055852015848365886 0 0.0020828189174077628 0.0054326557075795798 0 0.0019048819081062716 0.0054548442998855178 0 0.0020710937557459866 0.005431593929563998 0 0.001871298254748721 0.0055014977886871479 0 0.0020828189174077628 0.0054326557075795798 0 0.001911641946566806 0.0052706110294633447 0 0.0018571583043057245 0.0054867464579848556 0 0.0020828189174077628 0.0054326557075795798 0 0.001911641946566806 0.0052706110294633447 0 0.0021347453074711496 0.0052559640976570484 0 0.001911641946566806 0.0052706110294633447 0 0.0020170956481514999 0.0051245543168228092 0 0.0021347453074711496 0.0052559640976570484 0 0.0018781583410689704 0.0049999852812432849 0 0.0020170956481514999 0.0051245543168228092 0 0.0021649315743379298 0.0049999857987205291 0 0.001911641946566806 0.0052706110294633447 0 0.0018781583410689704 0.0049999852812432849 0 0.0020170956481514999 0.0051245543168228092 0 0.0020170956481514999 0.0051245543168228092 0 0.0021649315743379298 0.0049999857987205291 0 0.0021347453074711496 0.0052559640976570484 0 0.0021649315743379298 0.0049999857987205291 0 0.0021347453074711496 0.0052559640976570484 0 0.0023370639938713016 0.0051929341955331155 0 0.0023020939848027305 0.0053801517310754533 0 0.0021347453074711496 0.0052559640976570484 0 0.0023370639938713016 0.0051929341955331155 0 0.0021649315743379298 0.0049999857987205291 0 0.0023370639938713016 0.0051929341955331155 0 0.002451699367625361 0.0049999804177500821 0 0.0025199269763295932 0.00516432169854175 0 0.0023370639938713016 0.0051929341955331155 0 0.002451699367625361 0.0049999804177500821 0 0.0025199269763295932 0.00516432169854175 0 0.0025021726170117529 0.0053290645765249178 0 0.0023370639938713016 0.0051929341955331155 0 0.0014456058384883412 0.0054095039564671689 0 0.0013705496463368994 0.0052369453910784671 0 0.0012565905704315413 0.0052950732825691165 0 0.0015902895515597178 0.0046722601036715099 0 0.0016225404578703269 0.0046643266662916511 0 0.0016326784094818458 0.004701349277128529 0 0.0015064010718675348 0.0050344228263690611 0 0.0014135442222224465 0.0050507018869192207 0 0.0016321520952620012 0.004626600387220718 0 0.001663619873344826 0.0046044619819593192 0 0.0016082065588183408 0.0046522161624402746 0 0.0016329534085996425 0.004628309490830677 0 0.0015888843044274516 0.0046415098078074635 0 0.0015902895515597178 0.0046722601036715099 0 0.0016225404578703269 0.0046643266662916511 0 0.0016082065588183408 0.0046522161624402746 0 0.0016225404578703269 0.0046643266662916511 0 0.0016082065588183408 0.0046522161624402746 0 0.0016329534085996425 0.004628309490830677 0 0.0015902895515597178 0.0046722601036715099 0 0.0015888843044274516 0.0046415098078074635 0 0.0015554093662299212 0.0046522814535260287 0 0.0015064010718675348 0.0050344228263690611 0 0.0016893026296898048 0.0050673015785371546 0 0.0017580044309327492 0.0046375683408875898 0 0.001714695099256014 0.0045925353370551937 0 0.0018029259081486953 0.0045757204268600709 0 0.001663619873344826 0.0046044619819593192 0 0.0016893026296898048 0.0050673015785371546 0 0.0015902895515597178 0.0046722601036715099 0 0.0016082065588183408 0.0046522161624402746 0 0.0015888843044274516 0.0046415098078074635 0 0.0019312270621918797 0.0051241680814569333 0 0.0016893026296898048 0.0050673015785371546 0 0.0016410719673007363 0.0055253253870229608 0 0.0018571583043057245 0.0054867464579848556 0 0.0017120706803793134 0.0053862907392597387 0 0.0016893026296898048 0.0050673015785371546 0 0.001871298254748721 0.0055014977886871479 0 0.0019276769303190268 0.0056105559240368016 0 0.0017210893311427795 0.0054808678080409939 0 0.0019048819081062716 0.0054548442998855178 0 0.001911641946566806 0.0052706110294633447 0 0.0018571583043057245 0.0054867464579848556 0 0.0017120706803793134 0.0053862907392597387 0 0.0014456058384883412 0.0054095039564671689 0 0.0017120706803793134 0.0053862907392597387 0 0.0016770641043433365 0.0052134935282062683 0 0.0014456058384883412 0.0054095039564671689 0 0.0016410719673007363 0.0055253253870229608 0 0.0017120706803793134 0.0053862907392597387 0 0.001911641946566806 0.0052706110294633447 0 0.0018781583410689704 0.0049999852812432849 0 0.0016770641043433365 0.0052134935282062683 0 0.001911641946566806 0.0052706110294633447 0 0.0017120706803793134 0.0053862907392597387 0 0.0016770641043433365 0.0052134935282062683 0 0.0016770641043433365 0.0052134935282062683 0 0.0015913749023541419 0.0049999922233226485 0 0.0014948274051481861 0.0051952180412030311 0 0.0018781583410689704 0.0049999852812432849 0 0.0016770641043433365 0.0052134935282062683 0 0.0015913749023541419 0.0049999922233226485 0 0.0015913749023541419 0.0049999922233226485 0 0.0014948274051481861 0.0051952180412030311 0 0.001407518057159578 0.005110876187151803 0 0.0015913749023541419 0.0049999922233226485 0 0.001407518057159578 0.005110876187151803 0 0.0013046272894137278 0.0049999937406662465 0 0.0014456058384883412 0.0054095039564671689 0 0.0016770641043433365 0.0052134935282062683 0 0.0014948274051481861 0.0051952180412030311 0 0.0014456058384883412 0.0054095039564671689 0 0.0014948274051481861 0.0051952180412030311 0 0.0013705496463368994 0.0052369453910784671 0 0.0014948274051481861 0.0051952180412030311 0 0.0013705496463368994 0.0052369453910784671 0 0.001407518057159578 0.005110876187151803 0 0.0013705496463368994 0.0052369453910784671 0 0.0012839878498053189 0.0051476399506984946 0 0.0012565905704315413 0.0052950732825691165 0 0.0012650219583956507 0.0051546651149184915 0 0.0014135442222224465 0.0050507018869192207 0 0.0013705496463368994 0.0052369453910784671 0 0.0012839878498053189 0.0051476399506984946 0 0.001407518057159578 0.005110876187151803 0 0.0012471081086140893 0.0051023661568212874 0 0.0013045077009940422 0.0049999956409699517 0 0.0012043297965967674 0.0050636797656152203 0 0.0012839878498053189 0.0051476399506984946 0 0.001407518057159578 0.005110876187151803 0 0.0013046272894137278 0.0049999937406662465 0 0.0012650219583956507 0.0051546651149184915 0 0.0013045916584175177 0.0050000057094374342 0 0.0012043297965967674 0.0050636797656152203 0 0.0011136185781274001 0.0050697088004290356 0 0.001182637716778445 0.0051091404057678289 0 0.0011926086951126408 0.0049999935487526851 0 0.0012043297965967674 0.0050636797656152203 0 0.0011136185781274001 0.0050697088004290356 0 0.0013045077009940422 0.0049999956409699517 0 0.0011926086951126408 0.0049999935487526851 0 0.0012043297965967674 0.0050636797656152203 0 0.0012471081086140893 0.0051023661568212874 0 0.0012043297965967674 0.0050636797656152203 0 0.001182637716778445 0.0051091404057678289 0 0.0011924710871653672 0.0050000399359890705 0 0.0011047520001356303 0.0050681200510862643 0 0.0011925245795517071 0.0049999998630408122 0 0.00097906360376837477 0.0049999992986990826 0 0.0010394037555628425 0.0051009709222184351 0 0.00097906360376837477 0.0049999992986990826 0 0.0010394037555628425 0.0051009709222184351 0 0.00092397563942831461 0.0050903332462101823 0 0.0011047520001356303 0.0050681200510862643 0 0.00075151408415131276 0.0051687231315444655 0 0.0010394037555628425 0.0051009709222184351 0 0.00092397563942831461 0.0050903332462101823 0 0.0008860088385801865 0.005201864488052604 0 0.0011142170735326477 0.005154697536571301 0 0.0010427562177431416 0.0051209174597359065 0 0.001115491073037255 0.0052254892736295407 0 0.0011136185781274001 0.0050697088004290356 0 0.0011142170735326477 0.005154697536571301 0 0.0011557008890030725 0.0051408341560765618 0 0.0011136185781274001 0.0050697088004290356 0 0.0011142170735326477 0.005154697536571301 0 0.0010427562177431416 0.0051209174597359065 0 0.0011142170735326477 0.005154697536571301 0 0.0011557008890030725 0.0051408341560765618 0 0.0011515610231863224 0.0051797674063657206 0 0.0011557008890030725 0.0051408341560765618 0 0.0011939207541666961 0.0051628971673334505 0 0.0011515610231863224 0.0051797674063657206 0 0.0011557008890030725 0.0051408341560765618 0 0.0011939207541666961 0.0051628971673334505 0 0.001182637716778445 0.0051091404057678289 0 0.0012471081086140893 0.0051023661568212874 0 0.0011939207541666961 0.0051628971673334505 0 0.0012183220728032565 0.005177325730171576 0 0.0013203839193009794 0.0050525960436608452 0 0.0014135442222224465 0.0050507018869192207 0 0.0012471081086140893 0.0051023661568212874 0 0.0011939207541666961 0.0051628971673334505 0 0.001182637716778445 0.0051091404057678289 0 0.0011136185781274001 0.0050697088004290356 0 0.0011557008890030725 0.0051408341560765618 0 0.001182637716778445 0.0051091404057678289 0 0.00076559259911031458 0.0049999999893113479 0 0.00065615155064856407 0.0051408677014324099 0 0.00050953498533862164 0.0049999988477806767 0 0.00076559259911031458 0.0049999999893113479 0 0.00065615155064856407 0.0051408677014324099 0 0.0008804646963611369 0.0051999903693319945 0 0.0007657246257057194 0.0050001347762173584 0 0.00075151408415131276 0.0051687231315444655 0 0.00097906360376837477 0.0049999992986990826 0 0.00076560487438982446 0.0049999996135584417 0 0.00092397563942831461 0.0050903332462101823 0 0.00076560487438982446 0.0049999996135584417 0 0.00092397563942831461 0.0050903332462101823 0 0.0008860088385801865 0.005201864488052604 0 0.00032512268099536032 0.0052539501194894438 0 0.00032678258368941903 0.0052517485854912619 0 0.00032477001918313094 0.0052512564050799532 0 0.00075151408415131276 0.0051687231315444655 0 0.0004690311517758366 0.0052372612922759344 0 0.00065615155064856407 0.0051408677014324099 0 0.0008804646963611369 0.0051999903693319945 0 0.00073091484044316573 0.0052987740926917571 0 0.00065615155064856407 0.0051408677014324099 0 0.00073091484044316573 0.0052987740926917571 0 0.00048875636370235515 0.0052003707329610427 0 0.0003244134427191464 0.0052473112042394953 0 0.00032205173023309167 0.0052498755495472152 0 0.0003179485101371062 0.0052378234558672675 0 0.0004690311517758366 0.0052372612922759344 0 0.000323208078007126 0.0052256798540412644 0 0.00032479964546491287 0.0052475176392059947 0 0.0003244134427191464 0.0052473112042394953 0 0.0003179485101371062 0.0052378234558672675 0 0.00032479964546491287 0.0052475176392059947 0 0.0003244134427191464 0.0052473112042394953 0 0.00032477001918313094 0.0052512564050799532 0 0.0004690311517758366 0.0052372612922759344 0 0.0003606080108733581 0.0052186888480931946 0 0.00032477001918313094 0.0052512564050799532 0 0.00032187412903233179 0.0052525325332586437 0 0.00031541478837188001 0.0052574181203452188 0 0.00032512268099536032 0.0052539501194894438 0 0.00032477001918313094 0.0052512564050799532 0 0.00031541478837188001 0.0052574181203452188 0 0.0003244134427191464 0.0052473112042394953 0 0.00032477001918313094 0.0052512564050799532 0 0.00032187412903233179 0.0052525325332586437 0 0.00031728732564178315 0.0052536955575552971 0 0.00032187412903233179 0.0052525325332586437 0 0.00031541478837188001 0.0052574181203452188 0 0.00031728732564178315 0.0052536955575552971 0 0.00032187412903233179 0.0052525325332586437 0 0.00032576627389525528 0.0052511093240015282 0 0.0003244134427191464 0.0052473112042394953 0 0.00032187412903233179 0.0052525325332586437 0 0.00032576627389525528 0.0052511093240015282 0 0.0003244134427191464 0.0052473112042394953 0 0.00032576627389525528 0.0052511093240015282 0 0.00032205173023309167 0.0052498755495472152 0 0.0014135442222224465 0.0050507018869192207 0 0.0012506118556390182 0.0049555648249297929 0 0.0011700576999408253 0.0052070074012504136 0 0.0012092050072976357 0.0051733302602069873 0 0.001176935647609176 0.0052618618765305752 0 0.0016225404578703269 0.0046643266662916511 0 0.0016326784094818458 0.004701349277128529 0 0.0016363186010063351 0.0046329728743296173 0 0.0011700576999408253 0.0052070074012504136 0 0.001115491073037255 0.0052254892736295407 0 0.001176935647609176 0.0052618618765305752 0 0.0011700576999408253 0.0052070074012504136 0 0.0011515610231863224 0.0051797674063657206 0 0.001115491073037255 0.0052254892736295407 0 0.0011939207541666961 0.0051628971673334505 0 0.0011700576999408253 0.0052070074012504136 0 0.0012092050072976357 0.0051733302602069873 0 0.0011939207541666961 0.0051628971673334505 0 0.0011700576999408253 0.0052070074012504136 0 0.0011515610231863224 0.0051797674063657206 0 0.00075151408415131276 0.0051687231315444655 0 0.00070465825866055493 0.0052526025418778155 0 0.0011142170735326477 0.005154697536571301 0 0.0011515610231863224 0.0051797674063657206 0 0.001115491073037255 0.0052254892736295407 0 0.00031541478837188001 0.0052574181203452188 0 0.00029061407572082243 0.0052579090435206201 0 0.00030292055551517605 0.0052553528692334019 0 0.00031728732564178315 0.0052536955575552971 0 0.00031541478837188001 0.0052574181203452188 0 0.00030292055551517605 0.0052553528692334019 0 0.001115491073037255 0.0052254892736295407 0 0.001176935647609176 0.0052618618765305752 0 0.0011777837508913454 0.005274782104049097 0 0.001115491073037255 0.0052254892736295407 0 0.0011777837508913454 0.005274782104049097 0 0.0011696365763023827 0.0053089534506171347 0 0.0012092050072976357 0.0051733302602069873 0 0.001176935647609176 0.0052618618765305752 0 0.0011771524897288394 0.0052753928297878897 0 0.00070465825866055493 0.0052526025418778155 0 0.00074490568446354197 0.005220986068826994 0 0.0016225404578703269 0.0046643266662916511 0 0.0016329534085996425 0.004628309490830677 0 0.0016363186010063351 0.0046329728743296173 0 0.0012506995470245065 0.0050733279241873116 0 0.0012506118556390182 0.0049555648249297929 0 0.0012506118556390182 0.0049555648249297929 0 0.001117843190563686 0.004934610727634535 0 0.0016329534085996425 0.004628309490830677 0 0.0016363186010063351 0.0046329728743296173 0 0.001619063717801264 0.0046580179402111888 0 0.0012506118556390182 0.0049555648249297929 0 0.00074490568446354197 0.005220986068826994 0 0.001112934376724966 0.0050175924461873071 0 0.0011113384242225077 0.0050189817993656575 0 0.0011111488927004641 0.0050196369069460444 0 0.0016454115317498647 0.0046607447233055314 0 0.0016266246948140276 0.0046885639653991996 0 0.001619063717801264 0.0046580179402111888 0 0.00074490568446354197 0.005220986068826994 0 0.001117843190563686 0.004934610727634535 0 0.0013722702152022313 0.004828113903530609 0 0.001117843190563686 0.004934610727634535 0 0.00029061407572082243 0.0052579090435206201 0 0.00023574033280791647 0.0052341441564371675 0 0.00028499294462358885 0.0052497779672951855 0 0.001117843190563686 0.004934610727634535 0 0.0008568341126185318 0.0049843895018239779 0 0.00074490568446354197 0.005220986068826994 0 0.00012341892884563238 0.0052998306610949793 0 0.00018600105024711727 0.0053606287692986908 0 0.00023574033280791647 0.0052341441564371675 0 0.00014343753437781202 0.0052093345814943851 0 0.0016266246948140276 0.0046885639653991996 0 0.0016073706373461497 0.0046571779364259908 0 0.0016145394080499336 0.0047623717447241292 0 0.00021217795452367283 0.0054005427653643339 0 0.00018600105024711727 0.0053606287692986908 0 0.00023574033280791647 0.0052341441564371675 0 0.0002866139950516747 0.0052366418383491854 0 0.00031177677222608385 0.0052468617352432051 0 0.00032221960429006189 0.0052189175707177413 0 0.00023574033280791647 0.0052341441564371675 0 0.0002866139950516747 0.0052366418383491854 0 0.00028499294462358885 0.0052497779672951855 0 0.0002866139950516747 0.0052366418383491854 0 0.00028499294462358885 0.0052497779672951855 0 0.00031177677222608385 0.0052468617352432051 0 0.00031728732564178315 0.0052536955575552971 0 0.00031177677222608385 0.0052468617352432051 0 0.00030292055551517605 0.0052553528692334019 0 0.00028499294462358885 0.0052497779672951855 0 0.00031177677222608385 0.0052468617352432051 0 0.00030292055551517605 0.0052553528692334019 0 0.00029061407572082243 0.0052579090435206201 0 0.00028499294462358885 0.0052497779672951855 0 0.00030292055551517605 0.0052553528692334019 0 0.00031728732564178315 0.0052536955575552971 0 0.00031177677222608385 0.0052468617352432051 0 0.00033020900762654169 0.0052424133887204296 0 0.00031728732564178315 0.0052536955575552971 0 0.00032576627389525528 0.0052511093240015282 0 0.00033020900762654169 0.0052424133887204296 0 0.00032576627389525528 0.0052511093240015282 0 0.00034801458002132313 0.0052253780623236238 0 0.00032205173023309167 0.0052498755495472152 0 0.00032576627389525528 0.0052511093240015282 0 0.00033020900762654169 0.0052424133887204296 0 0.00034801458002132313 0.0052253780623236238 0 0.00034801458002132313 0.0052253780623236238 0 0.00034836342341329734 0.0052295172587591594 0 0.00037791687836241384 0.0052261061290649882 0 0.00034801458002132313 0.0052253780623236238 0 0.00037791687836241384 0.0052261061290649882 0 0.00030732509885679493 0.0052336661622369544 0 0.00033020900762654169 0.0052424133887204296 0 0.00034801458002132313 0.0052253780623236238 0 0.00034836342341329734 0.0052295172587591594 0 0.00031177677222608385 0.0052468617352432051 0 0.00034836342341329734 0.0052295172587591594 0 0.00032221960429006189 0.0052189175707177413 0 0.00031177677222608385 0.0052468617352432051 0 0.00033020900762654169 0.0052424133887204296 0 0.00034836342341329734 0.0052295172587591594 0 0.00032221960429006189 0.0052189175707177413 0 0.00037525245036042502 0.0051953966925143051 0 0.00032184242285532332 0.0051386533726845117 0 0.00034836342341329734 0.0052295172587591594 0 0.00032221960429006189 0.0052189175707177413 0 0.00037525245036042502 0.0051953966925143051 0 0.00034836342341329734 0.0052295172587591594 0 0.00037525245036042502 0.0051953966925143051 0 0.00037791687836241384 0.0052261061290649882 0 0.00037791687836241384 0.0052261061290649882 0 0.00046073860898473529 0.0052119796642043055 0 0.00034791224144355268 0.0052538219194474163 0 0.00037525245036042502 0.0051953966925143051 0 0.00037791687836241384 0.0052261061290649882 0 0.00046073860898473529 0.0052119796642043055 0 0.00051763051416586813 0.0049532010389144593 0 0.00046073860898473529 0.0052119796642043055 0 0.00041141753487990748 0.0051150973353525702 0 0.00037525245036042502 0.0051953966925143051 0 0.00046073860898473529 0.0052119796642043055 0 0.00041141753487990748 0.0051150973353525702 0 0.00037235755871804484 0.0049837155560302658 0 0.00041141753487990748 0.0051150973353525702 0 0.00032184242285532332 0.0051386533726845117 0 0.00037525245036042502 0.0051953966925143051 0 0.00041141753487990748 0.0051150973353525702 0 0.00032184242285532332 0.0051386533726845117 0 0.00032184242285532332 0.0051386533726845117 0 0.00021252768856021517 0.0050149705057457913 0 0.00020598343484188309 0.0051379657505405711 0 0.00037235755871804484 0.0049837155560302658 0 0.00032184242285532332 0.0051386533726845117 0 0.00021252768856021517 0.0050149705057457913 0 3.5469625047944083e-05 0.0050409424006430384 0 0.00020598343484188309 0.0051379657505405711 0 0.00014343753437781202 0.0052093345814943851 0 0.00079949988855449036 0.0050068037668554695 0 0.0008568341126185318 0.0049843895018239779 0 3.5469625047944083e-05 0.0050409424006430384 0 0.00021252768856021517 0.0050149705057457913 0 0.00020598343484188309 0.0051379657505405711 0 0.00023574033280791647 0.0052341441564371675 0 0.00020598343484188309 0.0051379657505405711 0 0.00014343753437781202 0.0052093345814943851 0 0.00023574033280791647 0.0052341441564371675 0 0.0002866139950516747 0.0052366418383491854 0 0.00027074338581563865 0.0051911011526479768 0 0.00032221960429006189 0.0052189175707177413 0 0.00032184242285532332 0.0051386533726845117 0 0.00027074338581563865 0.0051911011526479768 0 0.00032184242285532332 0.0051386533726845117 0 0.00020598343484188309 0.0051379657505405711 0 0.00027074338581563865 0.0051911011526479768 0 0.00023574033280791647 0.0052341441564371675 0 0.00020598343484188309 0.0051379657505405711 0 0.00027074338581563865 0.0051911011526479768 0 0.0002866139950516747 0.0052366418383491854 0 0.00032221960429006189 0.0052189175707177413 0 0.00027074338581563865 0.0051911011526479768 0 2.8361018712563439e-05 0.005357313877698942 0 0.00014691105021053923 0.0052551023274103265 0 -6.0302883764239382e-05 0.0052782833373708178 0 -0.0001593462175474086 0.0054125289224942847 0 -6.0302883764239382e-05 0.0052782833373708178 0 -0.00023807905097232004 0.0053420118040567724 0 2.8361018712563439e-05 0.005357313877698942 0 -0.0001593462175474086 0.0054125289224942847 0 -6.0302883764239382e-05 0.0052782833373708178 0 2.8361018712563439e-05 0.005357313877698942 0 -0.0001593462175474086 0.0054125289224942847 0 -5.0330100514908748e-05 0.0055149806078885703 0 -0.0001593462175474086 0.0054125289224942847 0 -5.0330100514908748e-05 0.0055149806078885703 0 -0.00030623476461027219 0.0055691993536480409 0 2.8361018712563439e-05 0.005357313877698942 0 -5.0330100514908748e-05 0.0055149806078885703 0 0.00022933433550942532 0.0053436176663781507 0 -3.0123510035934046e-05 0.0054498763426934242 0 0.00021188564703015589 0.0053571344071251664 0 0.00010174045120956072 0.0054939583343773923 0 -1.1471135894663572e-05 0.0053948484735366386 0 0.00022933433550942532 0.0053436176663781507 0 0.00025450743242324934 0.0054902265032615938 0 0.00022933433550942532 0.0053436176663781507 0 0.00034791224144355268 0.0052538219194474163 0 0.00025450743242324934 0.0054902265032615938 0 0.00046073860898473529 0.0052119796642043055 0 0.00034791224144355268 0.0052538219194474163 0 0.00022933433550942532 0.0053436176663781507 0 0.00030732509885679493 0.0052336661622369544 0 0.00034791224144355268 0.0052538219194474163 0 0.00037791687836241384 0.0052261061290649882 0 0.00030732509885679493 0.0052336661622369544 0 0.00034791224144355268 0.0052538219194474163 0 0.00022933433550942532 0.0053436176663781507 0 0.00030732509885679493 0.0052336661622369544 0 0.00014691105021053923 0.0052551023274103265 0 2.8361018712563439e-05 0.005357313877698942 0 0.00022933433550942532 0.0053436176663781507 0 0.00014691105021053923 0.0052551023274103265 0 0.00014691105021053923 0.0052551023274103265 0 0.00025851711474290137 0.005129870589667824 0 6.9783564161177633e-05 0.0051770369109786218 0 0.00030732509885679493 0.0052336661622369544 0 0.00014691105021053923 0.0052551023274103265 0 0.00025851711474290137 0.005129870589667824 0 0.00034801458002132313 0.0052253780623236238 0 0.00030732509885679493 0.0052336661622369544 0 0.00025851711474290137 0.005129870589667824 0 0.0003369767817759214 0.0052221871739403106 0 0.00027091806004576473 0.0052036535987919135 0 0.00034801458002132313 0.0052253780623236238 0 0.00029800178696322733 0.0052789135301631223 0 0.00032205173023309167 0.0052498755495472152 0 0.00027091806004576473 0.0052036535987919135 0 0.0001329923999715306 0.005159607605088299 0 0.00025851711474290137 0.005129870589667824 0 6.9783564161177633e-05 0.0051770369109786218 0 6.865642527738388e-05 0.0050448867778052119 0 6.9783564161177633e-05 0.0051770369109786218 0 -9.8975024319360023e-05 0.0051632031897648565 0 6.865642527738388e-05 0.0050448867778052119 0 6.9783564161177633e-05 0.0051770369109786218 0 -6.0302883764239382e-05 0.0052782833373708178 0 -9.8975024319360023e-05 0.0051632031897648565 0 0.00014691105021053923 0.0052551023274103265 0 6.9783564161177633e-05 0.0051770369109786218 0 -6.0302883764239382e-05 0.0052782833373708178 0 -6.0302883764239382e-05 0.0052782833373708178 0 -9.8975024319360023e-05 0.0051632031897648565 0 -0.00021753553006482326 0.0052399084583906524 0 -6.0302883764239382e-05 0.0052782833373708178 0 -0.00021753553006482326 0.0052399084583906524 0 -0.00023807905097232004 0.0053420118040567724 0 -9.8975024319360023e-05 0.0051632031897648565 0 -0.00018932503297958692 0.0051212774778601027 0 -0.00021012486454952204 0.0051696172069308228 0 -9.8975024319360023e-05 0.0051632031897648565 0 -0.00021753553006482326 0.0052399084583906524 0 -0.00021012486454952204 0.0051696172069308228 0 -0.0001325253447753401 0.0051039130339679819 0 -8.6985041158427789e-05 0.0051807092723985511 0 -9.8975024319360023e-05 0.0051632031897648565 0 -0.00016665736216670642 0.0049536496740476017 0 6.865642527738388e-05 0.0050448867778052119 0 7.4182278340865116e-05 0.0052670779344248311 0 0.00019239337226515264 0.0052885822351578741 0 0.00014608405199827845 0.0052344786858199398 0 -8.6985041158427789e-05 0.0051807092723985511 0 0.0001329923999715306 0.005159607605088299 0 0.00019239337226515264 0.0052885822351578741 0 0.00014608405199827845 0.0052344786858199398 0 0.00021889150214274552 0.0052387748715325925 0 0.00014608405199827845 0.0052344786858199398 0 0.00015612823378328072 0.0051688509773261896 0 0.00021889150214274552 0.0052387748715325925 0 0.00014608405199827845 0.0052344786858199398 0 0.00015612823378328072 0.0051688509773261896 0 8.9769508731729446e-05 0.0051844259647473656 0 -8.6985041158427789e-05 0.0051807092723985511 0 -7.2735450304752688e-05 0.0051557115270855092 0 7.4182278340865116e-05 0.0052670779344248311 0 0.00014608405199827845 0.0052344786858199398 0 8.9769508731729446e-05 0.0051844259647473656 0 7.4182278340865116e-05 0.0052670779344248311 0 8.9769508731729446e-05 0.0051844259647473656 0 4.3947022249690676e-06 0.0051509090279230514 0 0.00029800178696322733 0.0052789135301631223 0 0.00032205173023309167 0.0052498755495472152 0 0.00028492401189694067 0.0052350506343843426 0 0.00032205173023309167 0.0052498755495472152 0 0.00028492401189694067 0.0052350506343843426 0 0.0003179485101371062 0.0052378234558672675 0 0.00029800178696322733 0.0052789135301631223 0 0.00028492401189694067 0.0052350506343843426 0 0.00021889150214274552 0.0052387748715325925 0 0.00029800178696322733 0.0052789135301631223 0 0.00019239337226515264 0.0052885822351578741 0 0.00021889150214274552 0.0052387748715325925 0 0.00015612823378328072 0.0051688509773261896 0 0.00021889150214274552 0.0052387748715325925 0 0.00024627173337525733 0.0051686228139173731 0 0.00028492401189694067 0.0052350506343843426 0 0.00021889150214274552 0.0052387748715325925 0 0.00024627173337525733 0.0051686228139173731 0 0.00028492401189694067 0.0052350506343843426 0 0.00024627173337525733 0.0051686228139173731 0 0.00034867779643606113 0.0051962445018881439 0 0.00029465703885185081 0.0052339474449930113 0 0.000323208078007126 0.0052256798540412644 0 0.0004690311517758366 0.0052372612922759344 0 0.00041253618593592055 0.0051544181966054177 0 0.00024627173337525733 0.0051686228139173731 0 0.00034867779643606113 0.0051962445018881439 0 0.00029479314160802908 0.0051041779835716942 0 0.00041367448224509352 0.0051541313934518242 0 0.00034867779643606113 0.0051962445018881439 0 0.00029479314160802908 0.0051041779835716942 0 0.00024627173337525733 0.0051686228139173731 0 0.00029479314160802908 0.0051041779835716942 0 0.00016447898573452956 0.0050516556185473604 0 0.00041253618593592055 0.0051544181966054177 0 0.000199484912594081 0.0050757701733282999 0 0.00050953498533862164 0.0049999988477806767 0 0.00024325664732142088 0.0051006415722334459 0 0.00025346161370409754 0.0049999993319195879 0 0.00048875636370235515 0.0052003707329610427 0 0.00050953498533862164 0.0049999988477806767 0 0.00024325664732142088 0.0051006415722334459 0 0.00065615155064856407 0.0051408677014324099 0 0.00048875636370235515 0.0052003707329610427 0 0.00050953498533862164 0.0049999988477806767 0 0.00015612823378328072 0.0051688509773261896 0 8.9769508731729446e-05 0.0051844259647473656 0 6.8849169517422754e-05 0.0050897575648893613 0 8.9769508731729446e-05 0.0051844259647473656 0 6.8849169517422754e-05 0.0050897575648893613 0 4.3947022249690676e-06 0.0051509090279230514 0 0.00015612823378328072 0.0051688509773261896 0 0.00024627173337525733 0.0051686228139173731 0 0.00016447898573452956 0.0050516556185473604 0 0.00015612823378328072 0.0051688509773261896 0 6.8849169517422754e-05 0.0050897575648893613 0 0.00016447898573452956 0.0050516556185473604 0 0.00024325664732142088 0.0051006415722334459 0 0.00025346161370409754 0.0049999993319195879 0 -2.608515462902005e-06 0.0049999998787272817 0 6.8849169517422754e-05 0.0050897575648893613 0 0.00016447898573452956 0.0050516556185473604 0 -2.701752965364439e-06 0.0049999444847451495 0 6.8849169517422754e-05 0.0050897575648893613 0 -2.701752965364439e-06 0.0049999444847451495 0 4.3947022249690676e-06 0.0051509090279230514 0 0.000199484912594081 0.0050757701733282999 0 -2.5600087840865614e-06 0.0050000161213705624 0 -0.00011824333023874718 0.0049999406892029096 0 -0.00017190549084358981 0.0051299223674175932 0 -0.00027783470148208756 0.0050969594957419673 0 -0.00011782381095173448 0.005000018063113015 0 -2.701752965364439e-06 0.0049999444847451495 0 4.3947022249690676e-06 0.0051509090279230514 0 -0.00011798162567766161 0.0049999599403110885 0 -7.2735450304752688e-05 0.0051557115270855092 0 -0.00017190549084358981 0.0051299223674175932 0 -0.00027783470148208756 0.0050969594957419673 0 -0.00026171855289265167 0.0051485823469564597 0 -0.00027783470148208756 0.0050969594957419673 0 -0.00026171855289265167 0.0051485823469564597 0 -0.00037046890289582494 0.0051738417339760789 0 -0.00011824333023874718 0.0049999406892029096 0 -0.00027783470148208756 0.0050969594957419673 0 -0.00040830657441436654 0.0049999408510805581 0 -0.00027783470148208756 0.0050969594957419673 0 -0.00040830657441436654 0.0049999408510805581 0 -0.00051186401877265433 0.0051199934890116391 0 -0.00040830657441436654 0.0049999408510805581 0 -0.00051186401877265433 0.0051199934890116391 0 -0.0006986730868978429 0.0049999404832814206 0 -0.00027783470148208756 0.0050969594957419673 0 -0.00051186401877265433 0.0051199934890116391 0 -0.00037046890289582494 0.0051738417339760789 0 -0.00051186401877265433 0.0051199934890116391 0 -0.00050490082441677928 0.0051832601834791792 0 -0.00037046890289582494 0.0051738417339760789 0 -0.00050490082441677928 0.0051832601834791792 0 -0.00039249165536096213 0.0051931594876593549 0 -0.00037046890289582494 0.0051738417339760789 0 -0.00051186401877265433 0.0051199934890116391 0 -0.00050490082441677928 0.0051832601834791792 0 -0.00065073753735263643 0.0051985482198201203 0 -0.00050490082441677928 0.0051832601834791792 0 -0.00053537508400777658 0.0052408767221898888 0 -0.00065073753735263643 0.0051985482198201203 0 -0.00053537508400777658 0.0052408767221898888 0 -0.00065073753735263643 0.0051985482198201203 0 -0.00069105160632911933 0.0052556380009778835 0 -0.00050490082441677928 0.0051832601834791792 0 -0.00053537508400777658 0.0052408767221898888 0 -0.00039249165536096213 0.0051931594876593549 0 -0.00039249165536096213 0.0051931594876593549 0 -0.00029786947329990597 0.0051279375856045665 0 -0.00030827946244017367 0.0052080142674187828 0 -0.00029786947329990597 0.0051279375856045665 0 -0.00021012486454952204 0.0051696172069308228 0 -0.00030827946244017367 0.0052080142674187828 0 -8.6985041158427789e-05 0.0051807092723985511 0 -0.0002699385911464611 0.0051863257877105481 0 -0.00018932503297958692 0.0051212774778601027 0 -0.00029786947329990597 0.0051279375856045665 0 -0.00021012486454952204 0.0051696172069308228 0 -0.00012326487517224619 0.0052888897559190831 0 -0.00017190549084358981 0.0051299223674175932 0 -0.00022725749478471453 0.0052469346785642794 0 -0.00017190549084358981 0.0051299223674175932 0 -0.00026171855289265167 0.0051485823469564597 0 -0.00022725749478471453 0.0052469346785642794 0 -0.00039249165536096213 0.0051931594876593549 0 -0.00029786947329990597 0.0051279375856045665 0 -0.00037046890289582494 0.0051738417339760789 0 -0.0002699385911464611 0.0051863257877105481 0 -0.0003480000216968539 0.0051735162541847951 0 -0.00026171855289265167 0.0051485823469564597 0 -0.00022725749478471453 0.0052469346785642794 0 -0.00037046890289582494 0.0051738417339760789 0 -0.0011408158353222503 0.0051087045792513174 0 -0.00098278494268266088 0.0051824848759904878 0 -0.0011281193779067175 0.0052300705308642942 0 -0.0011408158353222503 0.0051087045792513174 0 -0.0011281193779067175 0.0052300705308642942 0 -0.0012809870689093265 0.0051917009588452597 0 -0.0011408158353222503 0.0051087045792513174 0 -0.00098896498433493469 0.004999956587029509 0 -0.0012793266345945227 0.0049999556599734114 0 -0.0011408158353222503 0.0051087045792513174 0 -0.00098896498433493469 0.004999956587029509 0 -0.00098278494268266088 0.0051824848759904878 0 -0.00098896498433493469 0.004999956587029509 0 -0.00098278494268266088 0.0051824848759904878 0 -0.00077304900172592761 0.0051333681245563983 0 -0.00098896498433493469 0.004999956587029509 0 -0.00077304900172592761 0.0051333681245563983 0 -0.0006986730868978429 0.0049999404832814206 0 -0.00051186401877265433 0.0051199934890116391 0 -0.00077304900172592761 0.0051333681245563983 0 -0.0006986730868978429 0.0049999404832814206 0 -0.00051186401877265433 0.0051199934890116391 0 -0.00077304900172592761 0.0051333681245563983 0 -0.00065073753735263643 0.0051985482198201203 0 -0.00077304900172592761 0.0051333681245563983 0 -0.00065073753735263643 0.0051985482198201203 0 -0.00082959801423566231 0.0052490058035417671 0 -0.00065073753735263643 0.0051985482198201203 0 -0.00069105160632911933 0.0052556380009778835 0 -0.00082959801423566231 0.0052490058035417671 0 -0.00069105160632911933 0.0052556380009778835 0 -0.00082959801423566231 0.0052490058035417671 0 -0.00079081731600009748 0.0052801820486743523 0 -0.00082959801423566231 0.0052490058035417671 0 -0.00099642151895364952 0.0053387503696957096 0 -0.00079081731600009748 0.0052801820486743523 0 -0.00098278494268266088 0.0051824848759904878 0 -0.00077304900172592761 0.0051333681245563983 0 -0.00082959801423566231 0.0052490058035417671 0 -0.00098278494268266088 0.0051824848759904878 0 -0.00082959801423566231 0.0052490058035417671 0 -0.00099642151895364952 0.0053387503696957096 0 -0.0010735327988728206 0.0050194403038103684 0 -0.0013200679501512468 0.0049068100660569621 0 -0.0012454547606458842 0.0050539105386537084 0 -0.0010175033416164312 0.0052075256611269103 0 -0.0013516858358545917 0.0049451881694742563 0 -0.00099642151895364952 0.0053387503696957096 0 -0.0011281193779067175 0.0052300705308642942 0 -0.0012495235732408448 0.0052925268969968861 0 -0.00098278494268266088 0.0051824848759904878 0 -0.00099642151895364952 0.0053387503696957096 0 -0.0011281193779067175 0.0052300705308642942 0 -0.00098024478749676324 0.0052464651893728755 0 -0.00098720819627846966 0.0053386032546251082 0 -0.0012742874105083537 0.0051418850235799242 0 -0.0013549916748813464 0.0050307854248935503 0 -0.0014458225222863808 0.0049828869330676923 0 -0.0012742874105083537 0.0051418850235799242 0 -0.0011790006037324442 0.0051561286690889928 0 -0.0012848288543957143 0.0051560268826487425 0 -0.00098720819627846966 0.0053386032546251082 0 -0.00099669978708674558 0.0054482395534872202 0 -0.0012742874105083537 0.0051418850235799242 0 -0.0010735327988728206 0.0050194403038103684 0 -0.0012742874105083537 0.0051418850235799242 0 -0.0012454547606458842 0.0050539105386537084 0 -0.0010735327988728206 0.0050194403038103684 0 -0.00098024478749676324 0.0052464651893728755 0 -0.0012742874105083537 0.0051418850235799242 0 -0.0010175033416164312 0.0052075256611269103 0 -0.00082355747901205695 0.005261822389779537 0 -0.0010735327988728206 0.0050194403038103684 0 -0.00098024478749676324 0.0052464651893728755 0 -0.00079081731600009748 0.0052801820486743523 0 -0.00098024478749676324 0.0052464651893728755 0 -0.00098720819627846966 0.0053386032546251082 0 -0.00086677941127438925 0.0053829531863937375 0 -0.00098024478749676324 0.0052464651893728755 0 -0.00079081731600009748 0.0052801820486743523 0 -0.00086677941127438925 0.0053829531863937375 0 -0.00079081731600009748 0.0052801820486743523 0 -0.00073807353247341172 0.0053769098206076791 0 -0.00086677941127438925 0.0053829531863937375 0 -0.00069105160632911933 0.0052556380009778835 0 -0.00079081731600009748 0.0052801820486743523 0 -0.00063018842393426861 0.0053047495670377693 0 -0.00079081731600009748 0.0052801820486743523 0 -0.00073807353247341172 0.0053769098206076791 0 -0.00063018842393426861 0.0053047495670377693 0 -0.00073807353247341172 0.0053769098206076791 0 -0.00063018842393426861 0.0053047495670377693 0 -0.00062417996506118536 0.0053946105437575383 0 -0.00073807353247341172 0.0053769098206076791 0 -0.0007120697266284581 0.0054492047763789438 0 -0.00062417996506118536 0.0053946105437575383 0 -0.00073807353247341172 0.0053769098206076791 0 -0.0007120697266284581 0.0054492047763789438 0 -0.00081699631904409546 0.0054279972366695697 0 -0.0007120697266284581 0.0054492047763789438 0 -0.00069229263143769234 0.0055208094652454045 0 -0.00061907619794713804 0.0054813085428044453 0 -0.0007120697266284581 0.0054492047763789438 0 -0.00069229263143769234 0.0055208094652454045 0 -0.00079612752392090654 0.005500922276345804 0 -0.0007120697266284581 0.0054492047763789438 0 -0.00079612752392090654 0.005500922276345804 0 -0.00081699631904409546 0.0054279972366695697 0 -0.00091095370532583229 0.0054282852742425546 0 -0.0009742885026952239 0.0053807876726375227 0 -0.00079612752392090654 0.005500922276345804 0 -0.00089341084254604517 0.0054529356378747373 0 -0.00078586906896069763 0.0055957211616496231 0 -0.00079612752392090654 0.005500922276345804 0 -0.00089341084254604517 0.0054529356378747373 0 -0.00081699631904409546 0.0054279972366695697 0 -0.00089341084254604517 0.0054529356378747373 0 -0.00087312533707756149 0.0054298489875406267 0 -0.00081699631904409546 0.0054279972366695697 0 -0.00089341084254604517 0.0054529356378747373 0 -0.00087312533707756149 0.0054298489875406267 0 -0.0008915652775949945 0.0054378146629453323 0 -0.00087312533707756149 0.0054298489875406267 0 -0.00081699631904409546 0.0054279972366695697 0 -0.00086677941127438925 0.0053829531863937375 0 -0.00073807353247341172 0.0053769098206076791 0 -0.00081699631904409546 0.0054279972366695697 0 -0.00086677941127438925 0.0053829531863937375 0 -0.00098720819627846966 0.0053386032546251082 0 -0.00086677941127438925 0.0053829531863937375 0 -0.00092814330498666058 0.0054142845431772195 0 -0.00087312533707756149 0.0054298489875406267 0 -0.00086677941127438925 0.0053829531863937375 0 -0.00092814330498666058 0.0054142845431772195 0 -0.00098720819627846966 0.0053386032546251082 0 -0.00092814330498666058 0.0054142845431772195 0 -0.00099669978708674558 0.0054482395534872202 0 -0.0009573126979039062 0.0054556094603054215 0 -0.0008915652775949945 0.0054378146629453323 0 -0.00099669978708674558 0.0054482395534872202 0 -0.00092814330498666058 0.0054142845431772195 0 -0.0008915652775949945 0.0054378146629453323 0 -0.00099669978708674558 0.0054482395534872202 0 -0.00087312533707756149 0.0054298489875406267 0 -0.00092814330498666058 0.0054142845431772195 0 -0.0008915652775949945 0.0054378146629453323 0 -0.0009573126979039062 0.0054556094603054215 0 -0.0008915652775949945 0.0054378146629453323 0 -0.00079683540595450924 0.0053087020451034733 0 -0.0011572107894080223 0.0049964408059021068 0 -0.00093098693051496973 0.0049209926712401814 0 -0.0010893448910179839 0.0044831415580237908 0 -0.0010915323153514571 0.0045310017991633091 0 -0.0010479942860124609 0.0045550981676078118 0 -0.00089341084254604517 0.0054529356378747373 0 -0.0008915652775949945 0.0054378146629453323 0 -0.00079683540595450924 0.0053087020451034733 0 -0.0011572107894080223 0.0049964408059021068 0 -0.0012746139568279346 0.0046688072461097147 0 -0.0010893448910179839 0.0044831415580237908 0 -0.0011161699258080021 0.0045164992073102516 0 -0.001158921915524157 0.004504224556111075 0 -0.0010893448910179839 0.0044831415580237908 0 -0.0010915323153514571 0.0045310017991633091 0 -0.0011161699258080021 0.0045164992073102516 0 -0.0011103210412048304 0.0045350264349156176 0 -0.0010915323153514571 0.0045310017991633091 0 -0.0011161699258080021 0.0045164992073102516 0 -0.0011103210412048304 0.0045350264349156176 0 -0.0011161699258080021 0.0045164992073102516 0 -0.0011377220948960861 0.0045202788930761573 0 -0.0011103210412048304 0.0045350264349156176 0 -0.0011419146336256645 0.0045374837588321205 0 -0.0011377220948960861 0.0045202788930761573 0 -0.0014503764858065503 0.0049589955842806099 0 -0.0013905176039624499 0.0049621628573981065 0 -0.001357080470568412 0.0049091932255593239 0 -0.0014503764858065503 0.0049589955842806099 0 -0.0013905176039624499 0.0049621628573981065 0 -0.0014458225222863808 0.0049828869330676923 0 -0.0011572107894080223 0.0049964408059021068 0 -0.0011790006037324442 0.0051561286690889928 0 -0.0013549916748813464 0.0050307854248935503 0 -0.0013905176039624499 0.0049621628573981065 0 -0.0013502607326006351 0.0049883595731315174 0 -0.0013549916748813464 0.0050307854248935503 0 -0.0013905176039624499 0.0049621628573981065 0 -0.0014458225222863808 0.0049828869330676923 0 -0.00034632689119486464 0.0053174439543843561 0 -0.00041259650475254189 0.0052536914491917502 0 -0.00049861123761161348 0.0053293629299824971 0 -0.00034632689119486464 0.0053174439543843561 0 -0.00021753553006482326 0.0052399084583906524 0 -0.00030827946244017367 0.0052080142674187828 0 -0.00034632689119486464 0.0053174439543843561 0 -0.00021753553006482326 0.0052399084583906524 0 -0.00023807905097232004 0.0053420118040567724 0 -0.00021753553006482326 0.0052399084583906524 0 -0.00021012486454952204 0.0051696172069308228 0 -0.00030827946244017367 0.0052080142674187828 0 -0.00039249165536096213 0.0051931594876593549 0 -0.00030827946244017367 0.0052080142674187828 0 -0.00041259650475254189 0.0052536914491917502 0 -0.00034632689119486464 0.0053174439543843561 0 -0.00030827946244017367 0.0052080142674187828 0 -0.00041259650475254189 0.0052536914491917502 0 -0.00053537508400777658 0.0052408767221898888 0 -0.00041259650475254189 0.0052536914491917502 0 -0.00049861123761161348 0.0053293629299824971 0 -0.00053537508400777658 0.0052408767221898888 0 -0.00039249165536096213 0.0051931594876593549 0 -0.00041259650475254189 0.0052536914491917502 0 -0.00053537508400777658 0.0052408767221898888 0 -0.00063018842393426861 0.0053047495670377693 0 -0.00049861123761161348 0.0053293629299824971 0 -0.00053537508400777658 0.0052408767221898888 0 -0.00069105160632911933 0.0052556380009778835 0 -0.00063018842393426861 0.0053047495670377693 0 -0.00063018842393426861 0.0053047495670377693 0 -0.00049861123761161348 0.0053293629299824971 0 -0.00062417996506118536 0.0053946105437575383 0 -0.00049861123761161348 0.0053293629299824971 0 -0.00053433721565777274 0.0054483822645909506 0 -0.00042841400069514257 0.0054383376313655585 0 -0.00049861123761161348 0.0053293629299824971 0 -0.00053433721565777274 0.0054483822645909506 0 -0.00062417996506118536 0.0053946105437575383 0 -0.0007120697266284581 0.0054492047763789438 0 -0.00062417996506118536 0.0053946105437575383 0 -0.00061907619794713804 0.0054813085428044453 0 -0.00053433721565777274 0.0054483822645909506 0 -0.00062417996506118536 0.0053946105437575383 0 -0.00061907619794713804 0.0054813085428044453 0 -0.00053433721565777274 0.0054483822645909506 0 -0.00061907619794713804 0.0054813085428044453 0 -0.00056687943227999506 0.0055418389752896844 0 -0.00061907619794713804 0.0054813085428044453 0 -0.00056687943227999506 0.0055418389752896844 0 -0.00063665961509700645 0.0055612133917832653 0 -0.00069229263143769234 0.0055208094652454045 0 -0.00061907619794713804 0.0054813085428044453 0 -0.00063665961509700645 0.0055612133917832653 0 -0.00053433721565777274 0.0054483822645909506 0 -0.00056687943227999506 0.0055418389752896844 0 -0.00046613334246380181 0.0055141711612597842 0 -0.00053433721565777274 0.0054483822645909506 0 -0.00046613334246380181 0.0055141711612597842 0 -0.00042841400069514257 0.0054383376313655585 0 -0.00042841400069514257 0.0054383376313655585 0 -0.00030132035618000042 0.0054211470990249934 0 -0.00030623476461027219 0.0055691993536480409 0 -0.00046613334246380181 0.0055141711612597842 0 -0.00042841400069514257 0.0054383376313655585 0 -0.00030623476461027219 0.0055691993536480409 0 -0.00034632689119486464 0.0053174439543843561 0 -0.00042841400069514257 0.0054383376313655585 0 -0.00030132035618000042 0.0054211470990249934 0 -0.00034632689119486464 0.0053174439543843561 0 -0.00049861123761161348 0.0053293629299824971 0 -0.00042841400069514257 0.0054383376313655585 0 -0.0001593462175474086 0.0054125289224942847 0 -0.00030132035618000042 0.0054211470990249934 0 -0.00023807905097232004 0.0053420118040567724 0 -0.00034632689119486464 0.0053174439543843561 0 -0.00030132035618000042 0.0054211470990249934 0 -0.00023807905097232004 0.0053420118040567724 0 -3.0123510035934046e-05 0.0054498763426934242 0 -0.00028293443644750735 0.005520960944995241 0 -0.0001593462175474086 0.0054125289224942847 0 -0.00030132035618000042 0.0054211470990249934 0 -0.00030623476461027219 0.0055691993536480409 0 -0.00013237227448032582 0.0055352121056001869 0 -1.1471135894663572e-05 0.0053948484735366386 0 -0.00026139719223927768 0.0054712864661883021 0 -0.00013237227448032582 0.0055352121056001869 0 -0.00026139719223927768 0.0054712864661883021 0 -0.00024454365910403828 0.0056170271050732037 0 -0.00046613334246380181 0.0055141711612597842 0 -0.00030623476461027219 0.0055691993536480409 0 -0.00049691653134317445 0.0055771998413414476 0 -0.00026139719223927768 0.0054712864661883021 0 -0.00040646526874719518 0.0056243992732695315 0 -0.00049691653134317445 0.0055771998413414476 0 -0.00028293443644750735 0.005520960944995241 0 -0.0004827851431561452 0.0055723234264786559 0 -0.00026139719223927768 0.0054712864661883021 0 -0.00024454365910403828 0.0056170271050732037 0 -0.00040646526874719518 0.0056243992732695315 0 -0.00030601487430038297 0.0056983558528807829 0 -0.00024454365910403828 0.0056170271050732037 0 -0.00040646526874719518 0.0056243992732695315 0 -0.00030601487430038297 0.0056983558528807829 0 -0.00038912871432297694 0.0057014882249020096 0 -0.00040646526874719518 0.0056243992732695315 0 -0.00030601487430038297 0.0056983558528807829 0 -0.00038912871432297694 0.0057014882249020096 0 -0.00035447551297233121 0.0057435399104146818 0 -0.00012444076966000196 0.0056417882392012708 0 -0.00022335185339828257 0.0057025673931963708 0 -0.00015031849530519124 0.0057834727354709155 0 -0.00012444076966000196 0.0056417882392012708 0 -0.00024454365910403828 0.0056170271050732037 0 -0.00022335185339828257 0.0057025673931963708 0 -0.00013237227448032582 0.0055352121056001869 0 -0.00012444076966000196 0.0056417882392012708 0 -0.00024454365910403828 0.0056170271050732037 0 -0.00030601487430038297 0.0056983558528807829 0 -0.00024454365910403828 0.0056170271050732037 0 -0.00022335185339828257 0.0057025673931963708 0 0.00054964640664407322 0.0047428057141422741 0 0.00053210072257326118 0.0047432151215092587 0 0.00054764404046997244 0.0047472555882640639 0 0.00028401649423545822 0.0052817065665590069 0 0.00012185626872904103 0.0052938831018523825 0 -0.00017071389938288115 0.0057639014316098582 0 -0.0002849674177969076 0.0057683162804768387 0 -0.00027737369008203728 0.0058333720966428412 0 0.00028401649423545822 0.0052817065665590069 0 -0.00039551038323394248 0.0057300129160732394 0 -0.00030601487430038297 0.0056983558528807829 0 -0.00022335185339828257 0.0057025673931963708 0 -0.0002849674177969076 0.0057683162804768387 0 -0.00022335185339828257 0.0057025673931963708 0 -0.00015031849530519124 0.0057834727354709155 0 -0.0002849674177969076 0.0057683162804768387 0 -0.00030601487430038297 0.0056983558528807829 0 -0.0002849674177969076 0.0057683162804768387 0 -0.00035447551297233121 0.0057435399104146818 0 -0.00035447551297233121 0.0057435399104146818 0 -0.00037131984636660142 0.005806249750742328 0 -0.00041645168754141451 0.0057411319210406656 0 -0.00038912871432297694 0.0057014882249020096 0 -0.00035447551297233121 0.0057435399104146818 0 -0.00041645168754141451 0.0057411319210406656 0 -0.0002849674177969076 0.0057683162804768387 0 -0.00035447551297233121 0.0057435399104146818 0 -0.00037131984636660142 0.005806249750742328 0 -0.0002849674177969076 0.0057683162804768387 0 -0.00037131984636660142 0.005806249750742328 0 -0.00027737369008203728 0.0058333720966428412 0 0.00012185626872904103 0.0052938831018523825 0 -0.00026051327108635392 0.0048793733529424099 0 0.00053210072257326118 0.0047432151215092587 0 0.00050900015592866409 0.0047512709340554685 0 0.00053340246028608387 0.0047520725577644652 0 -0.00037131984636660142 0.005806249750742328 0 -0.00027737369008203728 0.0058333720966428412 0 -0.00037800535984857081 0.005892482592678632 0 0.00055736082434284704 0.004752100971918252 0 0.00053340246028608387 0.0047520725577644652 0 0.00054764404046997244 0.0047472555882640639 0 0.00053210072257326118 0.0047432151215092587 0 0.00053340246028608387 0.0047520725577644652 0 0.00054764404046997244 0.0047472555882640639 0 -0.00063480280090486387 0.0045545895566007468 0 -0.00069372457723181449 0.0044629528999409526 0 -0.0007344646191869066 0.0045289384216693649 0 -0.00063480280090486387 0.0045545895566007468 0 -0.0007344646191869066 0.0045289384216693649 0 -0.00071499674597418821 0.0045801284560540671 0 -0.00062873047277927426 0.0045611055282041135 0 -0.000673937305839298 0.0044862511033202605 0 -0.00037131984636660142 0.005806249750742328 0 -0.00037800535984857081 0.005892482592678632 0 -0.00047077004763082498 0.0057778623679050362 0 -0.00059997166346482359 0.0045665649911167056 0 -0.00061643495923802279 0.0045630770278059507 0 -0.0006300192137351678 0.0045657848708835665 0 -0.00026051327108635392 0.0048793733529424099 0 -0.00056228936261427801 0.0051732688337313435 0 -0.00063480280090486387 0.0045545895566007468 0 -0.00061643495923802279 0.0045630770278059507 0 -0.00060327930700079964 0.0045869275176561126 0 -0.00059997166346482359 0.0045665649911167056 0 -0.00061643495923802279 0.0045630770278059507 0 -0.00060327930700079964 0.0045869275176561126 0 -0.00026051327108635392 0.0048793733529424099 0 -0.00053789462989233417 0.0046835118614134332 0 -0.00063480280090486387 0.0045545895566007468 0 -0.00061643495923802279 0.0045630770278059507 0 -0.0006300192137351678 0.0045657848708835665 0 -0.00037131984636660142 0.005806249750742328 0 -0.00047077004763082498 0.0057778623679050362 0 -0.00041645168754141451 0.0057411319210406656 0 -0.00047077004763082498 0.0057778623679050362 0 -0.00041645168754141451 0.0057411319210406656 0 -0.00046078201079061647 0.0056856569029140793 0 -0.00056228936261427801 0.0051732688337313435 0 -0.0006576620356479729 0.005431327958505705 0 -0.0006300192137351678 0.0045657848708835665 0 -0.00061117302522131778 0.0045693791640287135 0 -0.00061223443338746103 0.0046115273936840236 0 -0.00063480280090486387 0.0045545895566007468 0 -0.0006300192137351678 0.0045657848708835665 0 -0.00061117302522131778 0.0045693791640287135 0 -0.000673937305839298 0.0044862511033202605 0 -0.00080963680590103587 0.0048436052061625297 0 -0.0006576620356479729 0.005431327958505705 0 -0.00080963680590103587 0.0048436052061625297 0 -0.00047077004763082498 0.0057778623679050362 0 -0.00055040879208604959 0.0056688591644213906 0 -0.00046078201079061647 0.0056856569029140793 0 -0.00061117302522131778 0.0045693791640287135 0 -0.00061223443338746103 0.0046115273936840236 0 -0.00059128744880194127 0.0046050476568138517 0 -0.0006576620356479729 0.005431327958505705 0 -0.00069832003812812489 0.0056314656714537047 0 -0.00061095617408296317 0.0057134281699183949 0 -0.00040646526874719518 0.0056243992732695315 0 -0.00049691653134317445 0.0055771998413414476 0 -0.0006576620356479729 0.005431327958505705 0 -0.00039954814681003272 0.005691043483309499 0 -0.00055040879208604959 0.0056688591644213906 0 -0.00046078201079061647 0.0056856569029140793 0 -0.00040646526874719518 0.0056243992732695315 0 -0.00038912871432297694 0.0057014882249020096 0 -0.00041645168754141451 0.0057411319210406656 0 -0.00046078201079061647 0.0056856569029140793 0 -0.00038912871432297694 0.0057014882249020096 0 -0.00046078201079061647 0.0056856569029140793 0 -0.00040646526874719518 0.0056243992732695315 0 -0.00056687943227999506 0.0055418389752896844 0 -0.00046613334246380181 0.0055141711612597842 0 -0.00049691653134317445 0.0055771998413414476 0 -0.00061095617408296317 0.0057134281699183949 0 -0.00049691653134317445 0.0055771998413414476 0 -0.00059949321946738837 0.0056062489802423737 0 -0.00061095617408296317 0.0057134281699183949 0 -0.00059949321946738837 0.0056062489802423737 0 -0.00069463428060079853 0.0056135084827698229 0 -0.00056687943227999506 0.0055418389752896844 0 -0.00049691653134317445 0.0055771998413414476 0 -0.00059949321946738837 0.0056062489802423737 0 -0.00056687943227999506 0.0055418389752896844 0 -0.00059949321946738837 0.0056062489802423737 0 -0.00063665961509700645 0.0055612133917832653 0 -0.00059949321946738837 0.0056062489802423737 0 -0.00063665961509700645 0.0055612133917832653 0 -0.00069463428060079853 0.0056135084827698229 0 -0.00073733485664158934 0.0055973465451096428 0 -0.00078586906896069763 0.0055957211616496231 0 -0.00073172852474928966 0.0056587179044904077 0 -0.00069229263143769234 0.0055208094652454045 0 -0.00063665961509700645 0.0055612133917832653 0 -0.00069463428060079853 0.0056135084827698229 0 -0.00079612752392090654 0.005500922276345804 0 -0.00073733485664158934 0.0055973465451096428 0 -0.00078586906896069763 0.0055957211616496231 0 -0.00079577999495964054 0.0055011043022392108 0 -0.00069832003812812489 0.0056314656714537047 0 -0.00069229263143769234 0.0055208094652454045 0 -0.00079612752392090654 0.005500922276345804 0 -0.00069463428060079853 0.0056135084827698229 0 -0.0011764145769911831 0.0050871101841163426 0 -0.0010797758303245618 0.0046998359490398219 0 -0.00079683540595450924 0.0053087020451034733 0 -0.00089341084254604517 0.0054529356378747373 0 -0.0011764145769911831 0.0050871101841163426 0 -0.00079683540595450924 0.0053087020451034733 0 -0.0010716983378651962 0.0047054661963909089 0 -0.00093098693051496973 0.0049209926712401814 0 -0.0010797758303245618 0.0046998359490398219 0 -0.0010479942860124609 0.0045550981676078118 0 -0.0010617951804204207 0.0046378598722962286 0 -0.0010797758303245618 0.0046998359490398219 0 -0.0013192007608283922 0.0046806244320079541 0 -0.001024074973766578 0.0046310670046034799 0 -0.00080963680590103587 0.0048436052061625297 0 -0.0010005319637209327 0.0044988786902233954 0 -0.0010797758303245618 0.0046998359490398219 0 -0.0010617951804204207 0.0046378598722962286 0 -0.001024074973766578 0.0046310670046034799 0 -0.0011764145769911831 0.0050871101841163426 0 -0.0010797758303245618 0.0046998359490398219 0 -0.0013192007608283922 0.0046806244320079541 0 -0.0009742885026952239 0.0053807876726375227 0 -0.00080963680590103587 0.0048436052061625297 0 -0.00069809356413219397 0.0056470155541657498 0 -0.00073733485664158934 0.0055973465451096428 0 -0.00073172852474928966 0.0056587179044904077 0 -0.0011189874454164983 0.0045570651336951078 0 -0.0011063677853198216 0.0045882134849364589 0 -0.0011439832362259901 0.004566535830764675 0 -0.0011103210412048304 0.0045350264349156176 0 -0.0011189874454164983 0.0045570651336951078 0 -0.0011419146336256645 0.0045374837588321205 0 -0.0011189874454164983 0.0045570651336951078 0 -0.0011419146336256645 0.0045374837588321205 0 -0.0011439832362259901 0.004566535830764675 0 -0.0011103210412048304 0.0045350264349156176 0 -0.0011189874454164983 0.0045570651336951078 0 -0.0010907135432267163 0.00456684247200294 0 -0.0011103210412048304 0.0045350264349156176 0 -0.0010915323153514571 0.0045310017991633091 0 -0.0010907135432267163 0.00456684247200294 0 -0.0011189874454164983 0.0045570651336951078 0 -0.0010907135432267163 0.00456684247200294 0 -0.0011063677853198216 0.0045882134849364589 0 -0.0010479942860124609 0.0045550981676078118 0 -0.0010617951804204207 0.0046378598722962286 0 -0.0010779590299162553 0.0046073333362074585 0 -0.0010907135432267163 0.00456684247200294 0 -0.0010479942860124609 0.0045550981676078118 0 -0.0010779590299162553 0.0046073333362074585 0 -0.0010907135432267163 0.00456684247200294 0 -0.0010779590299162553 0.0046073333362074585 0 -0.0011063677853198216 0.0045882134849364589 0 -0.0010915323153514571 0.0045310017991633091 0 -0.0010907135432267163 0.00456684247200294 0 -0.0010479942860124609 0.0045550981676078118 0 -0.0010617951804204207 0.0046378598722962286 0 -0.0010809162442837594 0.0046199689600163948 0 -0.001024074973766578 0.0046310670046034799 0 -0.0010809162442837594 0.0046199689600163948 0 -0.0010779590299162553 0.0046073333362074585 0 -0.0011063677853198216 0.0045882134849364589 0 -0.0010617951804204207 0.0046378598722962286 0 -0.0010809162442837594 0.0046199689600163948 0 -0.0010779590299162553 0.0046073333362074585 0 -0.0010809162442837594 0.0046199689600163948 0 -0.0011063677853198216 0.0045882134849364589 0 -0.0011293486455279051 0.004606467139842061 0 -0.0011063677853198216 0.0045882134849364589 0 -0.0011293486455279051 0.004606467139842061 0 -0.0011439832362259901 0.004566535830764675 0 -0.0010809162442837594 0.0046199689600163948 0 -0.0011293486455279051 0.004606467139842061 0 -0.0011119759817753052 0.0046479133233633769 0 -0.0011293486455279051 0.004606467139842061 0 -0.0011119759817753052 0.0046479133233633769 0 -0.0011427524188660722 0.0046256098168660021 0 -0.0010809162442837594 0.0046199689600163948 0 -0.0011119759817753052 0.0046479133233633769 0 -0.001024074973766578 0.0046310670046034799 0 -0.0010302138472942266 0.0044888689830289855 0 -0.00093898462541171148 0.0045183988942248936 0 -0.00088841590840071634 0.0044282803184974157 0 -0.001058767223835451 0.0045709602867343036 0 -0.0010005319637209327 0.0044988786902233954 0 -0.0010302138472942266 0.0044888689830289855 0 -0.00093898462541171148 0.0045183988942248936 0 -0.00099180712915849676 0.0045752353761892009 0 -0.00093898462541171148 0.0045183988942248936 0 -0.00087439168849762195 0.004514627988536803 0 -0.00090923973930029064 0.0045785451430516728 0 -0.00093898462541171148 0.0045183988942248936 0 -0.00099180712915849676 0.0045752353761892009 0 -0.00090923973930029064 0.0045785451430516728 0 -0.0010302138472942266 0.0044888689830289855 0 -0.00099180712915849676 0.0045752353761892009 0 -0.0010783342030490359 0.0045765073013495769 0 -0.00099180712915849676 0.0045752353761892009 0 -0.0010783342030490359 0.0045765073013495769 0 -0.0010435163806504881 0.0046027770007583506 0 -0.0010783342030490359 0.0045765073013495769 0 -0.0010435163806504881 0.0046027770007583506 0 -0.0010946613557870567 0.0046097976123364798 0 -0.0007473059700169476 0.0043827008658620607 0 -0.00080430505747137852 0.0044433535009740987 0 -0.00088841590840071634 0.0044282803184974157 0 -0.00075717372135582586 0.0044762385933954834 0 -0.00075070955772518658 0.0044412886826051571 0 -0.00080430505747137852 0.0044433535009740987 0 -0.00075717372135582586 0.0044762385933954834 0 -0.00080430505747137852 0.0044433535009740987 0 -0.00080886566481128477 0.004508850834813039 0 -0.00069372457723181449 0.0044629528999409526 0 -0.00075717372135582586 0.0044762385933954834 0 -0.0007344646191869066 0.0045289384216693649 0 -0.00069372457723181449 0.0044629528999409526 0 -0.00075717372135582586 0.0044762385933954834 0 -0.00075070955772518658 0.0044412886826051571 0 -0.0007473059700169476 0.0043827008658620607 0 -0.00075070955772518658 0.0044412886826051571 0 -0.00080430505747137852 0.0044433535009740987 0 -0.00069372457723181449 0.0044629528999409526 0 -0.0007473059700169476 0.0043827008658620607 0 -0.00075070955772518658 0.0044412886826051571 0 -0.00080430505747137852 0.0044433535009740987 0 -0.00088841590840071634 0.0044282803184974157 0 -0.00084387599021836554 0.0044737907442885987 0 -0.00093898462541171148 0.0045183988942248936 0 -0.00088841590840071634 0.0044282803184974157 0 -0.00087439168849762195 0.004514627988536803 0 -0.00088841590840071634 0.0044282803184974157 0 -0.00084387599021836554 0.0044737907442885987 0 -0.00087439168849762195 0.004514627988536803 0 -0.00080430505747137852 0.0044433535009740987 0 -0.00084387599021836554 0.0044737907442885987 0 -0.00080886566481128477 0.004508850834813039 0 -0.00084387599021836554 0.0044737907442885987 0 -0.00087439168849762195 0.004514627988536803 0 -0.00080886566481128477 0.004508850834813039 0 -0.00087439168849762195 0.004514627988536803 0 -0.00084229525928419466 0.004558630029194129 0 -0.00080886566481128477 0.004508850834813039 0 -0.00087439168849762195 0.004514627988536803 0 -0.00084229525928419466 0.004558630029194129 0 -0.00090923973930029064 0.0045785451430516728 0 -0.00084229525928419466 0.004558630029194129 0 -0.00078117713120217096 0.0045742778284048307 0 -0.00080886566481128477 0.004508850834813039 0 -0.00078117713120217096 0.0045742778284048307 0 -0.00080886566481128477 0.004508850834813039 0 -0.0007344646191869066 0.0045289384216693649 0 -0.00075717372135582586 0.0044762385933954834 0 -0.00080886566481128477 0.004508850834813039 0 -0.0007344646191869066 0.0045289384216693649 0 -0.00078117713120217096 0.0045742778284048307 0 -0.0007344646191869066 0.0045289384216693649 0 -0.00071499674597418821 0.0045801284560540671 0 -0.00078117713120217096 0.0045742778284048307 0 -0.00075395765116164075 0.0046279851346999233 0 -0.00071499674597418821 0.0045801284560540671 0 -0.00075395765116164075 0.0046279851346999233 0 -0.00083857517019891924 0.0046136988462298079 0 -0.00079597074507289163 0.0046791970679509994 0 -0.00078117713120217096 0.0045742778284048307 0 -0.00075395765116164075 0.0046279851346999233 0 -0.00083857517019891924 0.0046136988462298079 0 -0.00084229525928419466 0.004558630029194129 0 -0.00078117713120217096 0.0045742778284048307 0 -0.00083857517019891924 0.0046136988462298079 0 -0.00084229525928419466 0.004558630029194129 0 -0.00083857517019891924 0.0046136988462298079 0 -0.00090923973930029064 0.0045785451430516728 0 -0.0009029318824242521 0.0046170271174369908 0 -0.00083857517019891924 0.0046136988462298079 0 -0.00090923973930029064 0.0045785451430516728 0 -0.0009029318824242521 0.0046170271174369908 0 -0.00083857517019891924 0.0046136988462298079 0 -0.00090451435029238075 0.004653245082744996 0 -0.00083857517019891924 0.0046136988462298079 0 -0.00085701143984655661 0.0046757520133844646 0 -0.00090451435029238075 0.004653245082744996 0 -0.00083857517019891924 0.0046136988462298079 0 -0.00085701143984655661 0.0046757520133844646 0 -0.00079597074507289163 0.0046791970679509994 0 -0.00085701143984655661 0.0046757520133844646 0 -0.00090451435029238075 0.004653245082744996 0 -0.00090483189588938561 0.0046884079082900173 0 -0.00085701143984655661 0.0046757520133844646 0 -0.00086680517409834968 0.0047334077882250558 0 -0.00090483189588938561 0.0046884079082900173 0 -0.00085701143984655661 0.0046757520133844646 0 -0.00086680517409834968 0.0047334077882250558 0 -0.00079597074507289163 0.0046791970679509994 0 -0.00086680517409834968 0.0047334077882250558 0 -0.00079597074507289163 0.0046791970679509994 0 -0.0007487412572029121 0.0047564898870745805 0 -0.00071413901719147852 0.0046848674299527103 0 -0.00079597074507289163 0.0046791970679509994 0 -0.0007487412572029121 0.0047564898870745805 0 -0.00075395765116164075 0.0046279851346999233 0 -0.00071413901719147852 0.0046848674299527103 0 -0.00079597074507289163 0.0046791970679509994 0 -0.0010449349773221008 0.0046333138769988728 0 -0.0010593159014345996 0.0046521731519248554 0 -0.0010856486754999774 0.0046367018511068109 0 -0.0010449349773221008 0.0046333138769988728 0 -0.0010435163806504881 0.0046027770007583506 0 -0.0010946613557870567 0.0046097976123364798 0 -0.00099180712915849676 0.0045752353761892009 0 -0.0010435163806504881 0.0046027770007583506 0 -0.0010000465253179847 0.0046184741770916157 0 -0.0010449349773221008 0.0046333138769988728 0 -0.0010435163806504881 0.0046027770007583506 0 -0.0010000465253179847 0.0046184741770916157 0 -0.0010449349773221008 0.0046333138769988728 0 -0.0010139914322508411 0.0046468331271535606 0 -0.0010300906131314866 0.0046655426679281416 0 -0.0010449349773221008 0.0046333138769988728 0 -0.0010000465253179847 0.0046184741770916157 0 -0.0010139914322508411 0.0046468331271535606 0 -0.0010000465253179847 0.0046184741770916157 0 -0.0010139914322508411 0.0046468331271535606 0 -0.00096165880372815489 0.0046529941508328633 0 -0.0010000465253179847 0.0046184741770916157 0 -0.0009482772149365013 0.0046139690985836602 0 -0.00096165880372815489 0.0046529941508328633 0 -0.00099180712915849676 0.0045752353761892009 0 -0.0010000465253179847 0.0046184741770916157 0 -0.0009482772149365013 0.0046139690985836602 0 -0.0009029318824242521 0.0046170271174369908 0 -0.00090923973930029064 0.0045785451430516728 0 -0.0009482772149365013 0.0046139690985836602 0 -0.00099180712915849676 0.0045752353761892009 0 -0.00090923973930029064 0.0045785451430516728 0 -0.0009482772149365013 0.0046139690985836602 0 -0.0009029318824242521 0.0046170271174369908 0 -0.00090451435029238075 0.004653245082744996 0 -0.0009482772149365013 0.0046139690985836602 0 -0.00090451435029238075 0.004653245082744996 0 -0.0009482772149365013 0.0046139690985836602 0 -0.00096165880372815489 0.0046529941508328633 0 -0.00081703723706402201 0.0046912405879390951 0 -0.00097176449843456192 0.0046876055553914118 0 -0.00094655044209513556 0.004706886870038212 0 -0.00088502320108324031 0.0047165906158777027 0 -0.00094019074145411342 0.0046924855144416236 0 -0.00086680517409834968 0.0047334077882250558 0 -0.00090483189588938561 0.0046884079082900173 0 -0.00097176449843456192 0.0046876055553914118 0 -0.00090451435029238075 0.004653245082744996 0 -0.00094073906731554485 0.0046727998019624722 0 -0.00096165880372815489 0.0046529941508328633 0 -0.00090451435029238075 0.004653245082744996 0 -0.00090483189588938561 0.0046884079082900173 0 -0.00094073906731554485 0.0046727998019624722 0 -0.00090483189588938561 0.0046884079082900173 0 -0.00094073906731554485 0.0046727998019624722 0 -0.00097176449843456192 0.0046876055553914118 0 -0.00097176449843456192 0.0046876055553914118 0 -0.00094655044209513556 0.004706886870038212 0 -0.00097871008464987721 0.004708943635166443 0 -0.00097176449843456192 0.0046876055553914118 0 -0.0010038453690211816 0.0046891133731914586 0 -0.00097871008464987721 0.004708943635166443 0 -0.00097176449843456192 0.0046876055553914118 0 -0.00099286613354852902 0.0046677887676119011 0 -0.0010038453690211816 0.0046891133731914586 0 -0.0010139914322508411 0.0046468331271535606 0 -0.00096165880372815489 0.0046529941508328633 0 -0.00099286613354852902 0.0046677887676119011 0 -0.00097176449843456192 0.0046876055553914118 0 -0.00096804690265647384 0.0046711319632561791 0 -0.00099286613354852902 0.0046677887676119011 0 -0.00094073906731554485 0.0046727998019624722 0 -0.00097176449843456192 0.0046876055553914118 0 -0.00096804690265647384 0.0046711319632561791 0 -0.00094073906731554485 0.0046727998019624722 0 -0.00096804690265647384 0.0046711319632561791 0 -0.00096165880372815489 0.0046529941508328633 0 -0.00096804690265647384 0.0046711319632561791 0 -0.00096165880372815489 0.0046529941508328633 0 -0.00099286613354852902 0.0046677887676119011 0 -0.0010139914322508411 0.0046468331271535606 0 -0.00099286613354852902 0.0046677887676119011 0 -0.0010300906131314866 0.0046655426679281416 0 -0.00099286613354852902 0.0046677887676119011 0 -0.0010038453690211816 0.0046891133731914586 0 -0.0010300906131314866 0.0046655426679281416 0 -0.0010038453690211816 0.0046891133731914586 0 -0.0010391369985358122 0.0046878374852771859 0 -0.0010090035633951628 0.0047208989570643109 0 -0.0010038453690211816 0.0046891133731914586 0 -0.0010391369985358122 0.0046878374852771859 0 -0.0010300906131314866 0.0046655426679281416 0 -0.0010391369985358122 0.0046878374852771859 0 -0.0010557592621839996 0.0047092713356805174 0 -0.0010749558424661856 0.0046697060178749099 0 -0.0010391369985358122 0.0046878374852771859 0 -0.0010300906131314866 0.0046655426679281416 0 -0.0010749558424661856 0.0046697060178749099 0 -0.0010449349773221008 0.0046333138769988728 0 -0.0010593159014345996 0.0046521731519248554 0 -0.0010300906131314866 0.0046655426679281416 0 -0.0010593159014345996 0.0046521731519248554 0 -0.0010300906131314866 0.0046655426679281416 0 -0.0010749558424661856 0.0046697060178749099 0 -0.0010351779275179381 0.0047454300962195724 0 -0.0010371350451328389 0.0047827965383944798 0 -0.0010813097551476353 0.0047404772875508051 0 -0.0010351779275179381 0.0047454300962195724 0 -0.0010557592621839996 0.0047092713356805174 0 -0.0010813097551476353 0.0047404772875508051 0 -0.0010351779275179381 0.0047454300962195724 0 -0.0010557592621839996 0.0047092713356805174 0 -0.0010090035633951628 0.0047208989570643109 0 -0.0010391369985358122 0.0046878374852771859 0 -0.0010557592621839996 0.0047092713356805174 0 -0.0010090035633951628 0.0047208989570643109 0 -0.0010038453690211816 0.0046891133731914586 0 -0.0010090035633951628 0.0047208989570643109 0 -0.00097871008464987721 0.004708943635166443 0 -0.0010351779275179381 0.0047454300962195724 0 -0.0010090035633951628 0.0047208989570643109 0 -0.00099374452404933557 0.0047724503626511419 0 3.7589481515826769e-06 0.0025349803257737435 0 -2.289537006846016e-05 0.0025329624621923141 0 2.7525856445193381e-05 0.0025165690946538687 0 -0.00094582349540778591 0.0047375803633133611 0 -0.00097011178513072775 0.0047532496250750188 0 -0.00090402418207958168 0.0047340042891458392 0 -0.00061728110832116965 0.0040896623433886239 0 -0.00030873729581821997 0.0036359397980023781 0 -0.0011069231887118234 0.0047523505761347049 0 -0.00061728110832116965 0.0040896623433886239 0 -0.0010090035633951628 0.0047208989570643109 0 -0.00094582349540778591 0.0047375803633133611 0 -0.00099374452404933557 0.0047724503626511419 0 -0.0010090035633951628 0.0047208989570643109 0 -0.00094582349540778591 0.0047375803633133611 0 -0.00097871008464987721 0.004708943635166443 0 -0.00094655044209513556 0.004706886870038212 0 -0.00094582349540778591 0.0047375803633133611 0 -0.00097871008464987721 0.004708943635166443 0 -0.00094655044209513556 0.004706886870038212 0 -0.00094582349540778591 0.0047375803633133611 0 -0.00090402418207958168 0.0047340042891458392 0 -0.00089444594618556805 0.0047672164726433371 0 -0.00030873729581821997 0.0036359397980023781 0 3.7589481515826769e-06 0.0025349803257737435 0 1.6931506057883401e-05 0.0025454828094496193 0 1.9298160487498701e-05 0.0025332386791493294 0 3.7589481515826769e-06 0.0025349803257737435 0 1.6931506057883401e-05 0.0025454828094496193 0 -8.3228204069472986e-06 0.0025483528841847387 0 3.7589481515826769e-06 0.0025349803257737435 0 -8.3228204069472986e-06 0.0025483528841847387 0 -2.289537006846016e-05 0.0025329624621923141 0 -0.00061728110832116965 0.0040896623433886239 0 -0.0005808823338015835 0.0037734489029390647 0 -0.00098655968138972711 0.0047660758623416155 0 -0.0010371350451328389 0.0047827965383944798 0 -0.0010877704227182843 0.0048430364005557294 0 -2.289537006846016e-05 0.0025329624621923141 0 -3.079035037585975e-05 0.0025550298804995243 0 -6.3758491171117892e-05 0.0025557659234122132 0 -8.3228204069472986e-06 0.0025483528841847387 0 -2.289537006846016e-05 0.0025329624621923141 0 -3.079035037585975e-05 0.0025550298804995243 0 -0.00061728110832116965 0.0040896623433886239 0 -0.0011452360648193157 0.0046092256261869415 0 -0.0010351779275179381 0.0047454300962195724 0 -0.00099374452404933557 0.0047724503626511419 0 -0.0010371350451328389 0.0047827965383944798 0 -0.00037701657333668898 0.0043182005487495791 0 -0.00030873729581821997 0.0036359397980023781 0 0.00024814851700389034 0.0027757365957801644 0 0.00029790128854377936 0.0027931348999758548 0 0.00025206683922225404 0.0027415522743916435 0 0.00024814851700389034 0.0027757365957801644 0 0.00024306250953488011 0.0027917122103969759 0 0.00029790128854377936 0.0027931348999758548 0 0.00024306250953488011 0.0027917122103969759 0 0.00024088665680931421 0.0028081540474852694 0 0.00029790128854377936 0.0027931348999758548 0 -0.00088502320108324031 0.0047165906158777027 0 -0.00037701657333668898 0.0043182005487495791 0 0.00024814851700389034 0.0027757365957801644 0 0.00020862029083280729 0.0027522649519281729 0 0.00021715395465205639 0.0027782704122236994 0 0.00024814851700389034 0.0027757365957801644 0 0.00023601526565879751 0.0027880309345082142 0 0.00021715395465205639 0.0027782704122236994 0 0.00023601526565879751 0.0027880309345082142 0 0.00023545529061742837 0.0028072194425667338 0 0.00021715395465205639 0.0027782704122236994 0 0.00024814851700389034 0.0027757365957801644 0 0.00023601526565879751 0.0027880309345082142 0 0.00024306250953488011 0.0027917122103969759 0 0.00024306250953488011 0.0027917122103969759 0 0.00023545529061742837 0.0028072194425667338 0 0.00024088665680931421 0.0028081540474852694 0 0.00023601526565879751 0.0027880309345082142 0 0.00024306250953488011 0.0027917122103969759 0 0.00023545529061742837 0.0028072194425667338 0 -0.00026832666724455111 0.0042175256441283676 0 -0.00037701657333668898 0.0043182005487495791 0 -0.00081703723706402201 0.0046912405879390951 0 -0.00064483095589463666 0.0047220704486887902 0 -0.00082145147036979406 0.0047782796409606577 0 -0.00081703723706402201 0.0046912405879390951 0 -0.00094655044209513556 0.004706886870038212 0 -0.00082145147036979406 0.0047782796409606577 0 2.7525856445193381e-05 0.0025165690946538687 0 3.5667066460012585e-05 0.002537098839465781 0 6.769082075374761e-05 0.002534140190216673 0 -0.00030873729581821997 0.0036359397980023781 0 0.00016477899323525272 0.0025663149577049597 0 3.7589481515826769e-06 0.0025349803257737435 0 2.7525856445193381e-05 0.0025165690946538687 0 1.9298160487498701e-05 0.0025332386791493294 0 1.6931506057883401e-05 0.0025454828094496193 0 3.5667066460012585e-05 0.002537098839465781 0 1.9298160487498701e-05 0.0025332386791493294 0 2.7525856445193381e-05 0.0025165690946538687 0 3.5667066460012585e-05 0.002537098839465781 0 1.9298160487498701e-05 0.0025332386791493294 0 1.6931506057883401e-05 0.0025454828094496193 0 3.5667066460012585e-05 0.002537098839465781 0 4.3241343382497351e-05 0.0025576400416921765 0 3.5667066460012585e-05 0.002537098839465781 0 6.769082075374761e-05 0.002534140190216673 0 4.3241343382497351e-05 0.0025576400416921765 0 0.00024814851700389034 0.0027757365957801644 0 0.00025206683922225404 0.0027415522743916435 0 0.00020862029083280729 0.0027522649519281729 0 0.00016477899323525272 0.0025663149577049597 0 0.00015591936038482278 0.0026269146850267863 0 0.00025206683922225404 0.0027415522743916435 0 0.00020862029083280729 0.0027522649519281729 0 0.00020217691464118883 0.0026798680038134094 0 0.00018197287214871154 0.0027217629189148565 0 0.00020862029083280729 0.0027522649519281729 0 0.00020217691464118883 0.0026798680038134094 0 0.00018197287214871154 0.0027217629189148565 0 0.0001621031201513072 0.0026990336228520217 0 0.00020217691464118883 0.0026798680038134094 0 0.00018197287214871154 0.0027217629189148565 0 0.00020862029083280729 0.0027522649519281729 0 0.00015481851086187042 0.0027553000025884577 0 0.00020862029083280729 0.0027522649519281729 0 0.00021715395465205639 0.0027782704122236994 0 0.00015481851086187042 0.0027553000025884577 0 -0.00037701657333668898 0.0043182005487495791 0 -0.00059415536681958661 0.0046600700441025685 0 0.00023545529061742837 0.0028072194425667338 0 0.00021715395465205639 0.0027782704122236994 0 0.00015481851086187042 0.0027553000025884577 0 -0.00030190228868175444 0.0045239400112438207 0 -0.00043619791567352999 0.00450419460159736 0 -0.0004816032001582546 0.0044561811473918383 0 -0.00026832666724455111 0.0042175256441283676 0 -0.00016450494211317282 0.0035771904346663685 0 -0.00035233888700129262 0.0045522843218749305 0 -0.00047698655109209784 0.0045270621291119764 0 -0.00044928844992028533 0.0045919691777605064 0 -0.00035233888700129262 0.0045522843218749305 0 -0.00033948809331981275 0.0045549483356018888 0 -0.00044928844992028533 0.0045919691777605064 0 -0.00026832666724455111 0.0042175256441283676 0 -0.00045850448884026366 0.0045224371931611189 0 -0.00045850448884026366 0.0045224371931611189 0 -0.00058103002009728176 0.0044848482085222217 0 -0.00043619791567352999 0.00450419460159736 0 -0.0004816032001582546 0.0044561811473918383 0 -0.00058937522239215444 0.0044834215822796087 0 -0.00047698655109209784 0.0045270621291119764 0 -0.00053691997166565978 0.0045599237419267523 0 -0.00058937522239215444 0.0044834215822796087 0 -0.00053691997166565978 0.0045599237419267523 0 -0.00058937522239215444 0.0044834215822796087 0 -0.0005802904025031144 0.004567172211380267 0 -0.00047698655109209784 0.0045270621291119764 0 -0.00053691997166565978 0.0045599237419267523 0 -0.00044928844992028533 0.0045919691777605064 0 0.00018197287214871154 0.0027217629189148565 0 0.00015481851086187042 0.0027553000025884577 0 0.0001621031201513072 0.0026990336228520217 0 0.00015481851086187042 0.0027553000025884577 0 0.0001621031201513072 0.0026990336228520217 0 0.0001232726807073606 0.0026853323258616744 0 -0.0004816032001582546 0.0044561811473918383 0 -0.00066095852404312997 0.0043734795155140225 0 -0.00058937522239215444 0.0044834215822796087 0 0.00015481851086187042 0.0027553000025884577 0 0.0001232726807073606 0.0026853323258616744 0 5.9030220516280423e-05 0.0026996812101891896 0 -0.00016450494211317282 0.0035771904346663685 0 -8.969742795068668e-05 0.0031880131435670115 0 0.00065283560224365864 0.0028756224632836965 0 0.00047559617733529484 0.0030436481492765277 0 0.00040592825848466532 0.0027559910388855169 0 -8.969742795068668e-05 0.0031880131435670115 0 0.0003239403105432839 0.0027079061039060191 0 0.00047559617733529484 0.0030436481492765277 0 0.00042786959062477786 0.0032921598756317483 0 0.00050843115163694416 0.0033187479939818282 0 -8.969742795068668e-05 0.0031880131435670115 0 4.5501227319740861e-05 0.0042906083776344276 0 0.00065283560224365864 0.0028756224632836965 0 0.00047559617733529484 0.0030436481492765277 0 0.00050843115163694416 0.0033187479939818282 0 -0.00066095852404312997 0.0043734795155140225 0 -0.00063253746073628405 0.0045370718695393062 0 -0.00072225289660575248 0.0045821263504170788 0 -0.00066095852404312997 0.0043734795155140225 0 -0.00058937522239215444 0.0044834215822796087 0 -0.00063253746073628405 0.0045370718695393062 0 -0.00062460956476871176 0.0045764725986615039 0 -0.00063253746073628405 0.0045370718695393062 0 -0.00072225289660575248 0.0045821263504170788 0 -0.00058937522239215444 0.0044834215822796087 0 -0.00063253746073628405 0.0045370718695393062 0 -0.0005802904025031144 0.004567172211380267 0 -0.00062460956476871176 0.0045764725986615039 0 -0.00063253746073628405 0.0045370718695393062 0 -0.0005802904025031144 0.004567172211380267 0 -0.00062460956476871176 0.0045764725986615039 0 -0.00057623085492368008 0.0046249887359184868 0 -0.00072225289660575248 0.0045821263504170788 0 -0.00062460956476871176 0.0045764725986615039 0 -0.0005802904025031144 0.004567172211380267 0 -0.00057623085492368008 0.0046249887359184868 0 -0.00050839417620757957 0.0047381597324243994 0 -0.00041491969321651748 0.0047275528696418181 0 -0.00033987153440314852 0.0047901531803297192 0 -0.00063580956346174415 0.0046872195436499344 0 4.5501227319740861e-05 0.0042906083776344276 0 -0.00050839417620757957 0.0047381597324243994 0 -0.00046412992577653695 0.0046982425319023009 0 -0.00041491969321651748 0.0047275528696418181 0 -0.00046412992577653695 0.0046982425319023009 0 -0.00041491969321651748 0.0047275528696418181 0 -0.00042985510750995887 0.0046426377648873755 0 -0.00050839417620757957 0.0047381597324243994 0 -0.00046412992577653695 0.0046982425319023009 0 -0.00049992430917227253 0.0046704975284451739 0 -0.00050839417620757957 0.0047381597324243994 0 -0.00049992430917227253 0.0046704975284451739 0 -0.00056819678757791812 0.0046568115699015533 0 0.00056408743404872189 0.0047298254810694594 0 0.00056915994548075864 0.0047212175012297476 0 0.00057350754757018625 0.0047259904977490011 0 0.00042578943729093424 0.0041339354349177616 0 0.00030137566004706409 0.0045763803582895349 0 0.00042578943729093424 0.0041339354349177616 0 4.5501227319740861e-05 0.0042906083776344276 0 0.0002946607056409809 0.0042297943478132689 0 0.00031270086700431075 0.0042551490039662177 0 0.00031831916254898009 0.004237987519515163 0 0.00030137566004706409 0.0045763803582895349 0 4.5501227319740861e-05 0.0042906083776344276 0 -0.00041491969321651748 0.0047275528696418181 0 -0.00032989390797963467 0.0047604654207920967 0 -0.00033987153440314852 0.0047901531803297192 0 0.00030137566004706409 0.0045763803582895349 0 5.0363272234451682e-05 0.0047045071290363581 0 -0.00041491969321651748 0.0047275528696418181 0 -0.00032989390797963467 0.0047604654207920967 0 -0.00042985510750995887 0.0046426377648873755 0 0.00060583008410997063 0.0048067131358540925 0 0.00030137566004706409 0.0045763803582895349 0 0.00056006069190256489 0.0047401669531517447 0 0.00055736082434284704 0.004752100971918252 0 0.00057350754757018625 0.0047259904977490011 0 0.00055736082434284704 0.004752100971918252 0 0.00054133729996008587 0.0047868910280332352 0 0.00052570762565459024 0.0047670498861744504 0 0.00055736082434284704 0.004752100971918252 0 0.00053340246028608387 0.0047520725577644652 0 0.00052570762565459024 0.0047670498861744504 0 0.00050900015592866409 0.0047512709340554685 0 0.00053340246028608387 0.0047520725577644652 0 0.00052570762565459024 0.0047670498861744504 0 -0.00049992430917227253 0.0046704975284451739 0 -0.00052495420651273508 0.0046180630147486731 0 -0.00042985510750995887 0.0046426377648873755 0 -0.00046412992577653695 0.0046982425319023009 0 -0.00049992430917227253 0.0046704975284451739 0 -0.00042985510750995887 0.0046426377648873755 0 -0.0005224581540892553 0.0045310590330153661 0 -0.00052495420651273508 0.0046180630147486731 0 -0.00042985510750995887 0.0046426377648873755 0 -0.00026051327108635392 0.0048793733529424099 0 5.0363272234451682e-05 0.0047045071290363581 0 -0.0005224581540892553 0.0045310590330153661 0 -0.00052495420651273508 0.0046180630147486731 0 -0.00060327930700079964 0.0045869275176561126 0 -0.00049992430917227253 0.0046704975284451739 0 -0.00052495420651273508 0.0046180630147486731 0 -0.00056819678757791812 0.0046568115699015533 0 -0.00052495420651273508 0.0046180630147486731 0 -0.00056819678757791812 0.0046568115699015533 0 -0.00060327930700079964 0.0045869275176561126 0 -0.00056819678757791812 0.0046568115699015533 0 -0.00062231460116271857 0.0046328806771779637 0 -0.00064812381837144625 0.0046787791173740515 0 -0.00056819678757791812 0.0046568115699015533 0 -0.00062231460116271857 0.0046328806771779637 0 -0.00060327930700079964 0.0045869275176561126 0 -0.00062231460116271857 0.0046328806771779637 0 -0.00060327930700079964 0.0045869275176561126 0 -0.00066668162811545984 0.0046084415228904285 0 -0.00063480280090486387 0.0045545895566007468 0 -0.00066668162811545984 0.0046084415228904285 0 -0.00071499674597418821 0.0045801284560540671 0 -0.00075395765116164075 0.0046279851346999233 0 -0.00066668162811545984 0.0046084415228904285 0 -0.00071499674597418821 0.0045801284560540671 0 -0.00063480280090486387 0.0045545895566007468 0 -0.00060327930700079964 0.0045869275176561126 0 -0.00066668162811545984 0.0046084415228904285 0 -0.00075395765116164075 0.0046279851346999233 0 -0.00066668162811545984 0.0046084415228904285 0 -0.00064812381837144625 0.0046787791173740515 0 -0.00074656163790654667 0.0046284179682966548 0 -0.00061425394015711572 0.0046622301638686746 0 -0.00062231460116271857 0.0046328806771779637 0 -0.00066668162811545984 0.0046084415228904285 0 -0.00064812381837144625 0.0046787791173740515 0 -0.00071413901719147852 0.0046848674299527103 0 -0.0007487412572029121 0.0047564898870745805 0 -0.00064067283948437297 0.0047079619500385835 0 -0.00075395765116164075 0.0046279851346999233 0 -0.00071413901719147852 0.0046848674299527103 0 -0.00061489135463767058 0.0046379108934710344 0 -0.00071413901719147852 0.0046848674299527103 0 -0.00061489135463767058 0.0046379108934710344 0 -0.00064067283948437297 0.0047079619500385835 0 -0.00063580956346174415 0.0046872195436499344 0 -0.00061425394015711572 0.0046622301638686746 0 -0.00057623085492368008 0.0046249887359184868 0 -0.00061489135463767058 0.0046379108934710344 0 -0.00057699934289943478 0.0046311932718875763 0 -0.00059415536681958661 0.0046600700441025685 0 -0.00056086643011194306 0.0046358898465380868 0 -0.00050839417620757957 0.0047381597324243994 0 -0.00056819678757791812 0.0046568115699015533 0 -0.00064812381837144625 0.0046787791173740515 0 -0.00053691997166565978 0.0045599237419267523 0 -0.00044928844992028533 0.0045919691777605064 0 -0.00057699934289943478 0.0046311932718875763 0 -0.00061489135463767058 0.0046379108934710344 0 -0.00064067283948437297 0.0047079619500385835 0 -0.00057699934289943478 0.0046311932718875763 0 -0.00053691997166565978 0.0045599237419267523 0 -0.0005802904025031144 0.004567172211380267 0 -0.00057699934289943478 0.0046311932718875763 0 -0.0005802904025031144 0.004567172211380267 0 -0.00057623085492368008 0.0046249887359184868 0 -0.00057699934289943478 0.0046311932718875763 0 -0.0017028503476895255 0.0047306935671725921 0 -0.0013789758597157707 0.0046219349175536262 0 -0.0016111406545443335 0.0045773416014679045 0 -0.0016562423059580359 0.004681505528274189 0 -0.0015323400533550143 0.0046905931466462445 0 -0.0016111406545443335 0.0045773416014679045 0 -0.001458996999992976 0.0045826970632846268 0 -0.0015323400533550143 0.0046905931466462445 0 -0.001458996999992976 0.0045826970632846268 0 -0.0014225029734600267 0.004667884029698143 0 -0.0015323400533550143 0.0046905931466462445 0 -0.0016997451199155455 0.004804120082201979 0 -0.0017863769383900975 0.00478021531927452 0 -0.0017421600974745145 0.0047532556348308472 0 -0.0018276260041228118 0.0048446271523231261 0 -0.0016997451199155455 0.004804120082201979 0 -0.0017863769383900975 0.00478021531927452 0 -0.0014764729902626802 0.0046724026755917761 0 -0.0013576438790042329 0.0046722569542411788 0 -0.0013193319005366082 0.0046103565908457876 0 -0.0017028503476895255 0.0047306935671725921 0 -0.0015131193104701256 0.0047102330570547336 0 -0.0018276260041228118 0.0048446271523231261 0 -0.0017863769383900975 0.00478021531927452 0 -0.0018641974988200338 0.0047882878489072331 0 -0.0018276260041228118 0.0048446271523231261 0 -0.0018641974988200338 0.0047882878489072331 0 -0.0019297340813605585 0.0048212591187712294 0 -0.0018641974988200338 0.0047882878489072331 0 -0.0019165280636370249 0.0047906255961904102 0 -0.0018845122866475216 0.0047554261724916365 0 -0.0018641974988200338 0.0047882878489072331 0 -0.0019165280636370249 0.0047906255961904102 0 -0.0019297340813605585 0.0048212591187712294 0 -0.0019381463527227327 0.0047766503833601183 0 -0.0019165280636370249 0.0047906255961904102 0 -0.0019518568568268064 0.0048028947898210812 0 -0.0019381463527227327 0.0047766503833601183 0 -0.0019518568568268064 0.0048028947898210812 0 -0.0019802681470091439 0.0047726082307166561 0 -0.0019381463527227327 0.0047766503833601183 0 -0.0019165280636370249 0.0047906255961904102 0 -0.0018845122866475216 0.0047554261724916365 0 -0.0019165280636370249 0.0047906255961904102 0 -0.0019518568568268064 0.0048028947898210812 0 -0.0019297340813605585 0.0048212591187712294 0 -0.0019479532052415053 0.0048118670307343726 0 -0.001935676998057724 0.0048191793811289234 0 -0.0019399277938167111 0.004776583656860363 0 -0.0019518568568268064 0.0048028947898210812 0 -0.0019479532052415053 0.0048118670307343726 0 -0.0019297340813605585 0.0048212591187712294 0 -0.0019479532052415053 0.0048118670307343726 0 -0.0019297340813605585 0.0048212591187712294 0 -0.001935676998057724 0.0048191793811289234 0 -0.0016111406545443335 0.0045773416014679045 0 -0.0017793451199839842 0.004653222874939065 0 -0.0016562423059580359 0.004681505528274189 0 -0.0019255509453864937 0.004818593794437223 0 -0.0019297340813605585 0.0048212591187712294 0 -0.001935676998057724 0.0048191793811289234 0 -0.0017028503476895255 0.0047306935671725921 0 -0.0018673827720058454 0.0047359503504431624 0 -0.0017028503476895255 0.0047306935671725921 0 -0.0019929071619761958 0.0048399600309707901 0 -0.0016562423059580359 0.004681505528274189 0 -0.0017366146363009319 0.0047336291975892449 0 -0.0016266359204349554 0.004750525338008898 0 -0.0017793451199839842 0.004653222874939065 0 -0.0016562423059580359 0.004681505528274189 0 -0.0017366146363009319 0.0047336291975892449 0 -0.0017793451199839842 0.004653222874939065 0 -0.0017366146363009319 0.0047336291975892449 0 -0.0018438623064029639 0.0047852977635371814 0 -0.0017793451199839842 0.004653222874939065 0 -0.0018438623064029639 0.0047852977635371814 0 -0.0019399277938167111 0.004776583656860363 0 -0.0018673827720058454 0.0047359503504431624 0 -0.0019250581532237103 0.0047699525352635627 0 -0.0018438623064029639 0.0047852977635371814 0 -0.0019435984064832478 0.0048313964803096297 0 -0.0017773777901230442 0.0048895063102429078 0 -0.0017583891176040031 0.0033905860658379125 0 -0.0017587632784750173 0.0034860556090474046 0 -0.0017366146363009319 0.0047336291975892449 0 -0.0018438623064029639 0.0047852977635371814 0 -0.0017773777901230442 0.0048895063102429078 0 -0.0017366146363009319 0.0047336291975892449 0 -0.0016266359204349554 0.004750525338008898 0 -0.0017773777901230442 0.0048895063102429078 0 -0.0015489819753083066 0.0048255401862344364 0 -0.0016266359204349554 0.004750525338008898 0 -0.0017773777901230442 0.0048895063102429078 0 -0.0016562423059580359 0.004681505528274189 0 -0.0016266359204349554 0.004750525338008898 0 -0.0015323400533550143 0.0046905931466462445 0 -0.0015489819753083066 0.0048255401862344364 0 -0.0016266359204349554 0.004750525338008898 0 -0.0015323400533550143 0.0046905931466462445 0 -0.0015489819753083066 0.0048255401862344364 0 -0.0015323400533550143 0.0046905931466462445 0 -0.0014380121199672191 0.0047628854095973531 0 -0.0014225029734600267 0.004667884029698143 0 -0.0015323400533550143 0.0046905931466462445 0 -0.0014380121199672191 0.0047628854095973531 0 -0.0015489819753083066 0.0048255401862344364 0 -0.001430106561977517 0.0048547882380678611 0 -0.0015763653358123689 0.0049252857116383365 0 -0.0015489819753083066 0.0048255401862344364 0 -0.0014380121199672191 0.0047628854095973531 0 -0.001430106561977517 0.0048547882380678611 0 -0.001430106561977517 0.0048547882380678611 0 -0.0013491775447629993 0.0047991448618860313 0 -0.0012963057972263203 0.0048719394638057521 0 -0.0014380121199672191 0.0047628854095973531 0 -0.001430106561977517 0.0048547882380678611 0 -0.0013491775447629993 0.0047991448618860313 0 -0.0013491775447629993 0.0047991448618860313 0 -0.0012857553488276729 0.0048154305977538038 0 -0.0012963057972263203 0.0048719394638057521 0 -0.0012857553488276729 0.0048154305977538038 0 -0.0012374837522452782 0.0048260311771971612 0 -0.0012963057972263203 0.0048719394638057521 0 -0.0012374837522452782 0.0048260311771971612 0 -0.0012613497058503124 0.0047642790406084564 0 -0.0011933200497952125 0.004777985957880408 0 -0.0012857553488276729 0.0048154305977538038 0 -0.0012374837522452782 0.0048260311771971612 0 -0.0012613497058503124 0.0047642790406084564 0 -0.0013491775447629993 0.0047991448618860313 0 -0.0012857553488276729 0.0048154305977538038 0 -0.0012613497058503124 0.0047642790406084564 0 -0.0012613497058503124 0.0047642790406084564 0 -0.0013462061893761337 0.0047069310600354073 0 -0.0012566273236596754 0.0046847630622426977 0 -0.0012613497058503124 0.0047642790406084564 0 -0.0011889916894883927 0.0047125098836777197 0 -0.0012566273236596754 0.0046847630622426977 0 -0.0012613497058503124 0.0047642790406084564 0 -0.0011933200497952125 0.004777985957880408 0 -0.0011889916894883927 0.0047125098836777197 0 -0.0013491775447629993 0.0047991448618860313 0 -0.0012613497058503124 0.0047642790406084564 0 -0.0013462061893761337 0.0047069310600354073 0 -0.0014380121199672191 0.0047628854095973531 0 -0.0013491775447629993 0.0047991448618860313 0 -0.0013462061893761337 0.0047069310600354073 0 -0.0014225029734600267 0.004667884029698143 0 -0.0014380121199672191 0.0047628854095973531 0 -0.0013462061893761337 0.0047069310600354073 0 -0.0010371350451328389 0.0047827965383944798 0 -0.0010930952690887921 0.0047869417763992369 0 -0.0010813097551476353 0.0047404772875508051 0 -0.0010371350451328389 0.0047827965383944798 0 -0.0010930952690887921 0.0047869417763992369 0 -0.0010877704227182843 0.0048430364005557294 0 -0.0010930952690887921 0.0047869417763992369 0 -0.0011339368666063369 0.0048082426968779502 0 -0.0010877704227182843 0.0048430364005557294 0 -0.0011339368666063369 0.0048082426968779502 0 -0.0010877704227182843 0.0048430364005557294 0 -0.0011494610812297144 0.0048513029355371478 0 -0.0010930952690887921 0.0047869417763992369 0 -0.0011339368666063369 0.0048082426968779502 0 -0.0011404842085307632 0.0047559187167681228 0 -0.0011339368666063369 0.0048082426968779502 0 -0.0011933200497952125 0.004777985957880408 0 -0.0011404842085307632 0.0047559187167681228 0 -0.0011339368666063369 0.0048082426968779502 0 -0.0011834773952004414 0.0048297702165109035 0 -0.0011494610812297144 0.0048513029355371478 0 -0.0011339368666063369 0.0048082426968779502 0 -0.0011834773952004414 0.0048297702165109035 0 -0.0011933200497952125 0.004777985957880408 0 -0.0012374837522452782 0.0048260311771971612 0 -0.0011834773952004414 0.0048297702165109035 0 -0.0012113590218829186 0.0048510427940390366 0 -0.0012374837522452782 0.0048260311771971612 0 -0.0011834773952004414 0.0048297702165109035 0 -0.0011933200497952125 0.004777985957880408 0 -0.0011933200497952125 0.004777985957880408 0 -0.0011889916894883927 0.0047125098836777197 0 -0.0011404842085307632 0.0047559187167681228 0 -0.0011889916894883927 0.0047125098836777197 0 -0.0011404842085307632 0.0047559187167681228 0 -0.0011220983447057385 0.0047149331539776216 0 -0.0011889916894883927 0.0047125098836777197 0 -0.0011220983447057385 0.0047149331539776216 0 -0.0011385955000818018 0.0046714009840259762 0 -0.0010930952690887921 0.0047869417763992369 0 -0.0011404842085307632 0.0047559187167681228 0 -0.0010813097551476353 0.0047404772875508051 0 -0.0011404842085307632 0.0047559187167681228 0 -0.0011220983447057385 0.0047149331539776216 0 -0.0010813097551476353 0.0047404772875508051 0 -0.0011220983447057385 0.0047149331539776216 0 -0.0010813097551476353 0.0047404772875508051 0 -0.0010951594161168216 0.0046919112328935239 0 -0.0010557592621839996 0.0047092713356805174 0 -0.0010813097551476353 0.0047404772875508051 0 -0.0010951594161168216 0.0046919112328935239 0 -0.0010593159014345996 0.0046521731519248554 0 -0.0010749558424661856 0.0046697060178749099 0 -0.0010856486754999774 0.0046367018511068109 0 -0.0010749558424661856 0.0046697060178749099 0 -0.0010951594161168216 0.0046919112328935239 0 -0.0011055534320631786 0.0046532638920598092 0 -0.0010749558424661856 0.0046697060178749099 0 -0.0011055534320631786 0.0046532638920598092 0 -0.0010856486754999774 0.0046367018511068109 0 -0.0010557592621839996 0.0047092713356805174 0 -0.0010749558424661856 0.0046697060178749099 0 -0.0010951594161168216 0.0046919112328935239 0 -0.0010951594161168216 0.0046919112328935239 0 -0.0011055534320631786 0.0046532638920598092 0 -0.0011385955000818018 0.0046714009840259762 0 -0.0011220983447057385 0.0047149331539776216 0 -0.0010951594161168216 0.0046919112328935239 0 -0.0011385955000818018 0.0046714009840259762 0 -0.0011055534320631786 0.0046532638920598092 0 -0.0011385955000818018 0.0046714009840259762 0 -0.0011350783489169761 0.0046347275434552243 0 -0.0011889916894883927 0.0047125098836777197 0 -0.0011385955000818018 0.0046714009840259762 0 -0.001188500246990904 0.0046387381993387581 0 -0.0011385955000818018 0.0046714009840259762 0 -0.001188500246990904 0.0046387381993387581 0 -0.0011350783489169761 0.0046347275434552243 0 -0.001188500246990904 0.0046387381993387581 0 -0.0011603440652284489 0.0046141600368446263 0 -0.0011919602055412563 0.0046158114276100195 0 -0.0011603440652284489 0.0046141600368446263 0 -0.0011919602055412563 0.0046158114276100195 0 -0.0011603427039888542 0.0045929169867553552 0 -0.0011603440652284489 0.0046141600368446263 0 -0.0011330827179100544 0.0046102804506801525 0 -0.0011507574973760922 0.004599049029090369 0 -0.0011603440652284489 0.0046141600368446263 0 -0.0011350783489169761 0.0046347275434552243 0 -0.0011330827179100544 0.0046102804506801525 0 -0.001188500246990904 0.0046387381993387581 0 -0.0011603440652284489 0.0046141600368446263 0 -0.0011350783489169761 0.0046347275434552243 0 -0.0011123282815145247 0.0046259750339762958 0 -0.0011350783489169761 0.0046347275434552243 0 -0.0011330827179100544 0.0046102804506801525 0 -0.0011055534320631786 0.0046532638920598092 0 -0.0011123282815145247 0.0046259750339762958 0 -0.0011350783489169761 0.0046347275434552243 0 -0.0011330827179100544 0.0046102804506801525 0 -0.0010946613557870567 0.0046097976123364798 0 -0.0011265217333943382 0.004599674276991636 0 -0.0011123282815145247 0.0046259750339762958 0 -0.0011330827179100544 0.0046102804506801525 0 -0.0010946613557870567 0.0046097976123364798 0 -0.0010449349773221008 0.0046333138769988728 0 -0.0010946613557870567 0.0046097976123364798 0 -0.0010856486754999774 0.0046367018511068109 0 -0.0011055534320631786 0.0046532638920598092 0 -0.0011123282815145247 0.0046259750339762958 0 -0.0010856486754999774 0.0046367018511068109 0 -0.0011123282815145247 0.0046259750339762958 0 -0.0010946613557870567 0.0046097976123364798 0 -0.0010856486754999774 0.0046367018511068109 0 -0.0013462061893761337 0.0047069310600354073 0 -0.0013168770199671151 0.0046005073598756642 0 -0.0012566273236596754 0.0046847630622426977 0 -0.001458996999992976 0.0045826970632846268 0 -0.0014225029734600267 0.004667884029698143 0 -0.0013168770199671151 0.0046005073598756642 0 -0.0014225029734600267 0.004667884029698143 0 -0.0013462061893761337 0.0047069310600354073 0 -0.0013168770199671151 0.0046005073598756642 0 -0.0013789758597157707 0.0046219349175536262 0 -0.0012946656249549938 0.004631169259620504 0 -0.0011889916894883927 0.0047125098836777197 0 -0.001188500246990904 0.0046387381993387581 0 -0.0012566273236596754 0.0046847630622426977 0 -0.001188500246990904 0.0046387381993387581 0 -0.0013168770199671151 0.0046005073598756642 0 -0.0012566273236596754 0.0046847630622426977 0 -0.0011986751583870838 0.0046359516439290456 0 -0.0012946656249549938 0.004631169259620504 0 -0.0012554468013152489 0.0046591177245195667 0 -0.0011919602055412563 0.0046158114276100195 0 -0.0012021391459140036 0.0045737081176569641 0 -0.001188500246990904 0.0046387381993387581 0 -0.0012554468013152489 0.0046591177245195667 0 -0.0011919602055412563 0.0046158114276100195 0 -0.0013193319005366082 0.0046103565908457876 0 -0.0012554468013152489 0.0046591177245195667 0 -0.0012021391459140036 0.0045737081176569641 0 -0.0015131193104701256 0.0047102330570547336 0 -0.0013099195723471914 0.004668186807545778 0 -0.0013576438790042329 0.0046722569542411788 0 -0.0013193319005366082 0.0046103565908457876 0 -0.0012554468013152489 0.0046591177245195667 0 -0.001571901893719093 0.004746063197259026 0 -0.0013099195723471914 0.004668186807545778 0 -0.0016997451199155455 0.004804120082201979 0 -0.0016804665100974394 0.0047187846818485301 0 -0.0015468918234219173 0.004741322932618061 0 -0.0014236578262283351 0.0047618286722408256 0 -0.0012594826389326441 0.0047519836234729256 0 -0.0012907950398177192 0.0046899024740645768 0 -0.0013099195723471914 0.004668186807545778 0 -0.001164495246898573 0.0046323923427287056 0 -0.0011919602055412563 0.0046158114276100195 0 -0.0012021391459140036 0.0045737081176569641 0 -0.0011603427039888542 0.0045929169867553552 0 -0.0012594826389326441 0.0047519836234729256 0 -0.0012907950398177192 0.0046899024740645768 0 -0.0012323988288808238 0.0046928617571155868 0 -0.0012907950398177192 0.0046899024740645768 0 -0.0012723574246316293 0.0046311517530322945 0 -0.0013520092999202283 0.0046569397034432782 0 -0.0012907950398177192 0.0046899024740645768 0 -0.0012723574246316293 0.0046311517530322945 0 -0.0012259825936186276 0.0046518136477956273 0 -0.0012907950398177192 0.0046899024740645768 0 -0.0012323988288808238 0.0046928617571155868 0 -0.0012259825936186276 0.0046518136477956273 0 -0.0012723574246316293 0.0046311517530322945 0 -0.0012259825936186276 0.0046518136477956273 0 -0.0012177375162641673 0.0046166909627215124 0 -0.0012723574246316293 0.0046311517530322945 0 -0.0012177375162641673 0.0046166909627215124 0 -0.0012482819009278293 0.0045846450319503781 0 -0.0012723574246316293 0.0046311517530322945 0 -0.0013520092999202283 0.0046569397034432782 0 -0.00132052759286341 0.0045849458373962287 0 -0.0014236578262283351 0.0047618286722408256 0 -0.0014433565871012544 0.0046193808744973775 0 -0.0013520092999202283 0.0046569397034432782 0 -0.0014433565871012544 0.0046193808744973775 0 -0.0013520092999202283 0.0046569397034432782 0 -0.00132052759286341 0.0045849458373962287 0 -0.0014236578262283351 0.0047618286722408256 0 -0.0012907950398177192 0.0046899024740645768 0 -0.0013520092999202283 0.0046569397034432782 0 -0.0010302138472942266 0.0044888689830289855 0 -0.0010783342030490359 0.0045765073013495769 0 -0.0011548412318745031 0.0046092641616368663 0 -0.0010783342030490359 0.0045765073013495769 0 -0.0010946613557870567 0.0046097976123364798 0 -0.0011265217333943382 0.004599674276991636 0 -0.0010783342030490359 0.0045765073013495769 0 -0.0011265217333943382 0.004599674276991636 0 -0.0011548412318745031 0.0046092641616368663 0 -0.0011330827179100544 0.0046102804506801525 0 -0.0011265217333943382 0.004599674276991636 0 -0.0011507574973760922 0.004599049029090369 0 -0.0011265217333943382 0.004599674276991636 0 -0.0011548412318745031 0.0046092641616368663 0 -0.0011507574973760922 0.004599049029090369 0 -0.0012594826389326441 0.0047519836234729256 0 -0.0011559083572275685 0.0046201958485980448 0 -0.0012323988288808238 0.0046928617571155868 0 -0.0013099195723471914 0.004668186807545778 0 -0.0011299420039868194 0.0046220631053541543 0 -0.0011560328651823389 0.0045896013746681884 0 -0.0011559083572275685 0.0046201958485980448 0 -0.0011603427039888542 0.0045929169867553552 0 -0.0011548412318745031 0.0046092641616368663 0 -0.0011559083572275685 0.0046201958485980448 0 -0.0011507574973760922 0.004599049029090369 0 -0.0011603440652284489 0.0046141600368446263 0 -0.0011507574973760922 0.004599049029090369 0 -0.0011603427039888542 0.0045929169867553552 0 -0.0011559083572275685 0.0046201958485980448 0 -0.0011507574973760922 0.004599049029090369 0 -0.0011603427039888542 0.0045929169867553552 0 -0.0011559083572275685 0.0046201958485980448 0 -0.0012323988288808238 0.0046928617571155868 0 -0.0011982614556268901 0.0046486342955918969 0 -0.0012259825936186276 0.0046518136477956273 0 -0.0012177375162641673 0.0046166909627215124 0 -0.0011846562809532807 0.0046314661385695836 0 -0.0012259825936186276 0.0046518136477956273 0 -0.0011982614556268901 0.0046486342955918969 0 -0.0011846562809532807 0.0046314661385695836 0 -0.0012323988288808238 0.0046928617571155868 0 -0.0012259825936186276 0.0046518136477956273 0 -0.0011982614556268901 0.0046486342955918969 0 -0.0012177375162641673 0.0046166909627215124 0 -0.0011809071323848875 0.0046093046515214339 0 -0.0012067307845033603 0.0045914328913504521 0 -0.0012177375162641673 0.0046166909627215124 0 -0.0011809071323848875 0.0046093046515214339 0 -0.0011846562809532807 0.0046314661385695836 0 -0.0011809071323848875 0.0046093046515214339 0 -0.0011846562809532807 0.0046314661385695836 0 -0.001160064754589014 0.0046246324499567282 0 -0.0011559083572275685 0.0046201958485980448 0 -0.0011982614556268901 0.0046486342955918969 0 -0.0011846562809532807 0.0046314661385695836 0 -0.0011559083572275685 0.0046201958485980448 0 -0.0011846562809532807 0.0046314661385695836 0 -0.001160064754589014 0.0046246324499567282 0 -0.0011119759817753052 0.0046479133233633769 0 -0.0011548412318745031 0.0046092641616368663 0 -0.0011427524188660722 0.0046256098168660021 0 -0.001058767223835451 0.0045709602867343036 0 -0.0011473155119058926 0.0046028189354347685 0 -0.0011548412318745031 0.0046092641616368663 0 -0.0011559083572275685 0.0046201958485980448 0 -0.001160064754589014 0.0046246324499567282 0 -0.0011548412318745031 0.0046092641616368663 0 -0.001160064754589014 0.0046246324499567282 0 -0.0011427524188660722 0.0046256098168660021 0 -0.001160064754589014 0.0046246324499567282 0 -0.0011427524188660722 0.0046256098168660021 0 -0.0011563872685063192 0.0046072827916457627 0 -0.0011809071323848875 0.0046093046515214339 0 -0.001160064754589014 0.0046246324499567282 0 -0.0011563872685063192 0.0046072827916457627 0 -0.0011293486455279051 0.004606467139842061 0 -0.0011427524188660722 0.0046256098168660021 0 -0.0011563872685063192 0.0046072827916457627 0 -0.0011293486455279051 0.004606467139842061 0 -0.0011566576667544229 0.0045833320502180709 0 -0.0011439832362259901 0.004566535830764675 0 -0.0011293486455279051 0.004606467139842061 0 -0.0011563872685063192 0.0046072827916457627 0 -0.0011566576667544229 0.0045833320502180709 0 -0.0011809071323848875 0.0046093046515214339 0 -0.0011563872685063192 0.0046072827916457627 0 -0.0011808436721744791 0.0045853530828048579 0 -0.0011563872685063192 0.0046072827916457627 0 -0.0011566576667544229 0.0045833320502180709 0 -0.0011808436721744791 0.0045853530828048579 0 -0.0011566576667544229 0.0045833320502180709 0 -0.0011808436721744791 0.0045853530828048579 0 -0.0011793685114364209 0.0045595120726171752 0 -0.0011566576667544229 0.0045833320502180709 0 -0.0011793685114364209 0.0045595120726171752 0 -0.0011439832362259901 0.004566535830764675 0 -0.0011808436721744791 0.0045853530828048579 0 -0.0012144709093096871 0.0045615234123583676 0 -0.0011793685114364209 0.0045595120726171752 0 -0.0011808436721744791 0.0045853530828048579 0 -0.0012067307845033603 0.0045914328913504521 0 -0.0012144709093096871 0.0045615234123583676 0 -0.0011809071323848875 0.0046093046515214339 0 -0.0011808436721744791 0.0045853530828048579 0 -0.0012067307845033603 0.0045914328913504521 0 -0.0012177375162641673 0.0046166909627215124 0 -0.0012067307845033603 0.0045914328913504521 0 -0.0012482819009278293 0.0045846450319503781 0 -0.0012067307845033603 0.0045914328913504521 0 -0.0012144709093096871 0.0045615234123583676 0 -0.0012482819009278293 0.0045846450319503781 0 -0.001236873724395167 0.004493129916385446 0 -0.0011781619273820668 0.0045337163965603229 0 -0.0011692499701677983 0.004518953770303113 0 -0.0012122802348134838 0.0045334268917981693 0 -0.001236873724395167 0.004493129916385446 0 -0.0011781619273820668 0.0045337163965603229 0 -0.0012122802348134838 0.0045334268917981693 0 -0.001236873724395167 0.004493129916385446 0 -0.0012658849797965159 0.004535893734754084 0 -0.0012144709093096871 0.0045615234123583676 0 -0.0012122802348134838 0.0045334268917981693 0 -0.0012658849797965159 0.004535893734754084 0 -0.0012144709093096871 0.0045615234123583676 0 -0.0012122802348134838 0.0045334268917981693 0 -0.0011793685114364209 0.0045595120726171752 0 -0.0012122802348134838 0.0045334268917981693 0 -0.0011793685114364209 0.0045595120726171752 0 -0.0011781619273820668 0.0045337163965603229 0 -0.0011793685114364209 0.0045595120726171752 0 -0.0011781619273820668 0.0045337163965603229 0 -0.0011439832362259901 0.004566535830764675 0 -0.0011781619273820668 0.0045337163965603229 0 -0.0011419146336256645 0.0045374837588321205 0 -0.0011692499701677983 0.004518953770303113 0 -0.0011781619273820668 0.0045337163965603229 0 -0.0011419146336256645 0.0045374837588321205 0 -0.0011439832362259901 0.004566535830764675 0 -0.0014433565871012544 0.0046193808744973775 0 -0.00132052759286341 0.0045849458373962287 0 -0.0013759031651765492 0.0044861968568392337 0 -0.00132052759286341 0.0045849458373962287 0 -0.0012658849797965159 0.004535893734754084 0 -0.0013759031651765492 0.0044861968568392337 0 -0.0012723574246316293 0.0046311517530322945 0 -0.00132052759286341 0.0045849458373962287 0 -0.0012482819009278293 0.0045846450319503781 0 -0.00132052759286341 0.0045849458373962287 0 -0.0012482819009278293 0.0045846450319503781 0 -0.0012658849797965159 0.004535893734754084 0 -0.0012144709093096871 0.0045615234123583676 0 -0.0012482819009278293 0.0045846450319503781 0 -0.0012658849797965159 0.004535893734754084 0 -0.001236873724395167 0.004493129916385446 0 -0.0012658849797965159 0.004535893734754084 0 -0.0013759031651765492 0.0044861968568392337 0 -0.0015361609163113039 0.0048623680728766168 0 -0.0016688492166337693 0.0048096275793063263 0 -0.0016581208577975016 0.0047464236454270023 0 -0.0013815103228216172 0.0046800413667907855 0 -0.001521564736001147 0.0046490425849427643 0 -0.0016688492166337693 0.0048096275793063263 0 -0.0017852509007644998 0.0047810040583429825 0 -0.0017960146242754181 0.0046914301208840102 0 -0.0017852509007644998 0.0047810040583429825 0 -0.0018593383007359831 0.004721435949244521 0 -0.0017960146242754181 0.0046914301208840102 0 -0.0016812821090102978 0.0046526436275182584 0 -0.0018540533866171303 0.0046852929445362467 0 -0.0017852509007644998 0.0047810040583429825 0 -0.0018900617003656023 0.0047560005645591198 0 -0.0018593383007359831 0.004721435949244521 0 -0.001521564736001147 0.0046490425849427643 0 -0.0016812821090102978 0.0046526436275182584 0 -0.0014433565871012544 0.0046193808744973775 0 -0.0013759031651765492 0.0044861968568392337 0 -0.0015799815664692392 0.0045226005761014971 0 -0.0014236578262283351 0.0047618286722408256 0 -0.0014433565871012544 0.0046193808744973775 0 -0.0016310352166049988 0.0047563965494437687 0 -0.0014433565871012544 0.0046193808744973775 0 -0.0015799815664692392 0.0045226005761014971 0 -0.0016310352166049988 0.0047563965494437687 0 -0.0015799815664692392 0.0045226005761014971 0 -0.0016310352166049988 0.0047563965494437687 0 -0.0018279665060510523 0.0046120211555649238 0 -0.0017863769383900975 0.00478021531927452 0 -0.0017971677077083718 0.0047130461751907207 0 -0.0017421600974745145 0.0047532556348308472 0 -0.0017863769383900975 0.00478021531927452 0 -0.0018641974988200338 0.0047882878489072331 0 -0.0017971677077083718 0.0047130461751907207 0 -0.001571901893719093 0.004746063197259026 0 -0.0017121009184863239 0.0047326339391917651 0 -0.0016804665100974394 0.0047187846818485301 0 -0.0017971677077083718 0.0047130461751907207 0 -0.0017421600974745145 0.0047532556348308472 0 -0.0016997451199155455 0.004804120082201979 0 -0.0016804665100974394 0.0047187846818485301 0 -0.0017421600974745145 0.0047532556348308472 0 -0.0019293997554296221 0.0047483108888836277 0 -0.0019802681470091439 0.0047726082307166561 0 -0.0019720839976581639 0.0047278209833840814 0 -0.0019293997554296221 0.0047483108888836277 0 -0.0018845122866475216 0.0047554261724916365 0 -0.0018711804552563906 0.0047137970842268326 0 -0.0019381463527227327 0.0047766503833601183 0 -0.0019293997554296221 0.0047483108888836277 0 -0.0019802681470091439 0.0047726082307166561 0 -0.0019381463527227327 0.0047766503833601183 0 -0.0019293997554296221 0.0047483108888836277 0 -0.0018845122866475216 0.0047554261724916365 0 -0.0017971677077083718 0.0047130461751907207 0 -0.0018845122866475216 0.0047554261724916365 0 -0.0018711804552563906 0.0047137970842268326 0 -0.0018641974988200338 0.0047882878489072331 0 -0.0017971677077083718 0.0047130461751907207 0 -0.0018845122866475216 0.0047554261724916365 0 -0.0016310352166049988 0.0047563965494437687 0 -0.0018711804552563906 0.0047137970842268326 0 -0.0018279665060510523 0.0046120211555649238 0 -0.0017121009184863239 0.0047326339391917651 0 -0.0018610258604184423 0.0047143837358870604 0 -0.0018900617003656023 0.0047560005645591198 0 -0.0019509912873734068 0.0047011627232749296 0 -0.0019720839976581639 0.0047278209833840814 0 -0.0018711804552563906 0.0047137970842268326 0 -0.0018279665060510523 0.0046120211555649238 0 -0.0019720839976581639 0.0047278209833840814 0 -0.0019293997554296221 0.0047483108888836277 0 -0.0018711804552563906 0.0047137970842268326 0 -0.0019720839976581639 0.0047278209833840814 0 -0.0018540533866171303 0.0046852929445362467 0 -0.0019607886822758367 0.0047231440865491961 0 -0.0018900617003656023 0.0047560005645591198 0 -0.0019509912873734068 0.0047011627232749296 0 -0.0018593383007359831 0.004721435949244521 0 -0.0018593383007359831 0.004721435949244521 0 -0.0019133647215043505 0.0046559591313162499 0 -0.0017960146242754181 0.0046914301208840102 0 -0.0019509912873734068 0.0047011627232749296 0 -0.0018593383007359831 0.004721435949244521 0 -0.0019133647215043505 0.0046559591313162499 0 -0.0019132623290691055 0.0047057446813071127 0 -0.0020294062483357973 0.0046682278286887344 0 -0.0019509912873734068 0.0047011627232749296 0 -0.0019133647215043505 0.0046559591313162499 0 -0.0020168180452008956 0.0046326304707799224 0 -0.0019123681290055647 0.0047579694203557198 0 -0.0018603048788027074 0.0047319005664345362 0 -0.002008222402560874 0.0046625034569100429 0 -0.0018603048788027074 0.0047319005664345362 0 -0.0019591346830406036 0.004585814764199822 0 -0.002008222402560874 0.0046625034569100429 0 -0.0018603452292606331 0.004726762703290751 0 -0.0018797088844407419 0.0046990129885569019 0 -0.0019132623290691055 0.0047057446813071127 0 -0.001826928508907774 0.0047388668885158473 0 -0.0019123681290055647 0.0047579694203557198 0 -0.0018603048788027074 0.0047319005664345362 0 -0.0018542926925252698 0.0047809421822377967 0 -0.0016688492166337693 0.0048096275793063263 0 -0.0017960146242754181 0.0046914301208840102 0 -0.0016581208577975016 0.0047464236454270023 0 -0.0018542926925252698 0.0047809421822377967 0 -0.0018464553405799534 0.0048046210031415662 0 -0.0018293610150828248 0.00484838556758878 0 -0.001826928508907774 0.0047388668885158473 0 -0.0017384421589999287 0.004798017593780542 0 -0.0018542926925252698 0.0047809421822377967 0 -0.0018464553405799534 0.0048046210031415662 0 -0.0018556727492034649 0.0047926893594938064 0 -0.0018464553405799534 0.0048046210031415662 0 -0.0018556727492034649 0.0047926893594938064 0 -0.0018477520727828579 0.0048037935781196431 0 -0.0018603048788027074 0.0047319005664345362 0 -0.0018556727492034649 0.0047926893594938064 0 -0.0018555086346142217 0.004813859082826979 0 -0.0018603048788027074 0.0047319005664345362 0 -0.0018542926925252698 0.0047809421822377967 0 -0.0018556727492034649 0.0047926893594938064 0 -0.0018555086346142217 0.004813859082826979 0 -0.0018556618766099771 0.0048407847595916664 0 -0.0018500401858988999 0.0048670267087871167 0 -0.0018555086346142217 0.004813859082826979 0 -0.0018500401858988999 0.0048670267087871167 0 -0.0018319957487241412 0.0048365044812110347 0 -0.0018556727492034649 0.0047926893594938064 0 -0.0018555086346142217 0.004813859082826979 0 -0.0018556618766099771 0.0048407847595916664 0 -0.0018556727492034649 0.0047926893594938064 0 -0.0018556618766099771 0.0048407847595916664 0 -0.0018477520727828579 0.0048037935781196431 0 -0.0018556618766099771 0.0048407847595916664 0 -0.0018500401858988999 0.0048670267087871167 0 -0.0018641041336748862 0.0049148379337756428 0 -0.0018139178879527096 0.0048783842212857306 0 -0.0017865712961447591 0.0048148572742378369 0 -0.0018319957487241412 0.0048365044812110347 0 -0.0018500401858988999 0.0048670267087871167 0 -0.0018139178879527096 0.0048783842212857306 0 -0.0018319957487241412 0.0048365044812110347 0 -0.0018500401858988999 0.0048670267087871167 0 -0.0018139178879527096 0.0048783842212857306 0 -0.0018549396314294819 0.0049278126565682166 0 -0.0018139178879527096 0.0048783842212857306 0 -0.0017865712961447591 0.0048148572742378369 0 -0.0017561278411828748 0.0048636310130970011 0 -0.0018603048788027074 0.0047319005664345362 0 -0.0017865712961447591 0.0048148572742378369 0 -0.0018319957487241412 0.0048365044812110347 0 -0.0018603048788027074 0.0047319005664345362 0 -0.0018555086346142217 0.004813859082826979 0 -0.0018319957487241412 0.0048365044812110347 0 -0.0013612668153407416 0.004938426019363556 0 -0.0014197752517793167 0.0048733012009107932 0 -0.0012826653870590913 0.0050433165315248328 0 -0.0013502607326006351 0.0049883595731315174 0 -0.0013612668153407416 0.004938426019363556 0 -0.0012826653870590913 0.0050433165315248328 0 -0.0013905176039624499 0.0049621628573981065 0 -0.001365955400259893 0.0049458504301574877 0 -0.001357080470568412 0.0049091932255593239 0 -0.0013502607326006351 0.0049883595731315174 0 -0.0013612668153407416 0.004938426019363556 0 -0.001365955400259893 0.0049458504301574877 0 -0.0013905176039624499 0.0049621628573981065 0 -0.0013502607326006351 0.0049883595731315174 0 -0.001365955400259893 0.0049458504301574877 0 -0.0013612668153407416 0.004938426019363556 0 -0.001365955400259893 0.0049458504301574877 0 -0.001357080470568412 0.0049091932255593239 0 -0.0011161699258080021 0.0045164992073102516 0 -0.001158921915524157 0.004504224556111075 0 -0.0011377220948960861 0.0045202788930761573 0 -0.001158921915524157 0.004504224556111075 0 -0.0011377220948960861 0.0045202788930761573 0 -0.0011692499701677983 0.004518953770303113 0 -0.0011419146336256645 0.0045374837588321205 0 -0.0011377220948960861 0.0045202788930761573 0 -0.0011692499701677983 0.004518953770303113 0 -0.0013612668153407416 0.004938426019363556 0 -0.001357080470568412 0.0049091932255593239 0 -0.0014197752517793167 0.0048733012009107932 0 -0.001236873724395167 0.004493129916385446 0 -0.001158921915524157 0.004504224556111075 0 -0.0011692499701677983 0.004518953770303113 0 -0.0014197752517793167 0.0048733012009107932 0 -0.0015066431439793955 0.0048356726463962179 0 -0.0015266427569385424 0.00475993195566877 0 -0.0015361609163113039 0.0048623680728766168 0 -0.001357080470568412 0.0049091932255593239 0 -0.0014197752517793167 0.0048733012009107932 0 -0.0013815103228216172 0.0046800413667907855 0 -0.0012746139568279346 0.0046688072461097147 0 -0.0015361609163113039 0.0048623680728766168 0 -0.0014197752517793167 0.0048733012009107932 0 -0.0015066431439793955 0.0048356726463962179 0 -0.0014095402342584769 0.0048801787157378039 0 -0.0013817791427953739 0.0048644869327882315 0 -0.0014197752517793167 0.0048733012009107932 0 -0.0015266427569385424 0.00475993195566877 0 -0.0014609627375500795 0.0046457248207062733 0 -0.0015266427569385424 0.00475993195566877 0 -0.0015991750097452213 0.0046819797756914566 0 -0.0014609627375500795 0.0046457248207062733 0 -0.0015066431439793955 0.0048356726463962179 0 -0.0015266427569385424 0.00475993195566877 0 -0.0016542552975787879 0.0047851278670658203 0 -0.0015991750097452213 0.0046819797756914566 0 -0.0017810906011644803 0.0047869066482906977 0 -0.0016697975828467338 0.0045736266577561299 0 -0.0015991750097452213 0.0046819797756914566 0 -0.0016542552975787879 0.0047851278670658203 0 -0.0017810906011644803 0.0047869066482906977 0 -0.0015266427569385424 0.00475993195566877 0 -0.0015991750097452213 0.0046819797756914566 0 -0.0016542552975787879 0.0047851278670658203 0 -0.0015361609163113039 0.0048623680728766168 0 -0.0015066431439793955 0.0048356726463962179 0 -0.0016581208577975016 0.0047464236454270023 0 -0.0015066431439793955 0.0048356726463962179 0 -0.0016542552975787879 0.0047851278670658203 0 -0.0018293610150828248 0.00484838556758878 0 -0.0015253014805849219 0.0048263753436280357 0 -0.0017384421589999287 0.004798017593780542 0 -0.0016542552975787879 0.0047851278670658203 0 -0.0018293610150828248 0.00484838556758878 0 -0.0017810906011644803 0.0047869066482906977 0 -0.0018464553405799534 0.0048046210031415662 0 -0.0018293610150828248 0.00484838556758878 0 -0.0017810906011644803 0.0047869066482906977 0 -0.0018464553405799534 0.0048046210031415662 0 -0.0017810906011644803 0.0047869066482906977 0 -0.0018477520727828579 0.0048037935781196431 0 -0.0018556618766099771 0.0048407847595916664 0 -0.0018477520727828579 0.0048037935781196431 0 -0.0018874953079281093 0.0048375996355948248 0 -0.0017810906011644803 0.0047869066482906977 0 -0.0018477520727828579 0.0048037935781196431 0 -0.0018874953079281093 0.0048375996355948248 0 -0.0018556618766099771 0.0048407847595916664 0 -0.0018874953079281093 0.0048375996355948248 0 -0.0018641041336748862 0.0049148379337756428 0 -0.0018874953079281093 0.0048375996355948248 0 -0.0018992734075368169 0.0049400769657315319 0 -0.0018641041336748862 0.0049148379337756428 0 -0.0016697975828467338 0.0045736266577561299 0 -0.0015528552033831869 0.0045798623754283469 0 -0.0015693114898517894 0.004515117413963458 0 -0.0016697975828467338 0.0045736266577561299 0 -0.0015693114898517894 0.004515117413963458 0 -0.0016139877504507769 0.004456764341529534 0 -0.0017773479220089335 0.004725601954444267 0 -0.001759636675835725 0.0046476561114146119 0 -0.0017836689305580479 0.0047860262979746385 0 -0.0017773479220089335 0.004725601954444267 0 -0.0015991750097452213 0.0046819797756914566 0 -0.0016697975828467338 0.0045736266577561299 0 -0.0015528552033831869 0.0045798623754283469 0 -0.0015991750097452213 0.0046819797756914566 0 -0.0015528552033831869 0.0045798623754283469 0 -0.0014609627375500795 0.0046457248207062733 0 -0.0015528552033831869 0.0045798623754283469 0 -0.0014845426967953614 0.00451139887309182 0 -0.0014609627375500795 0.0046457248207062733 0 -0.0015693114898517894 0.004515117413963458 0 -0.0014845426967953614 0.00451139887309182 0 -0.0015360369471488328 0.004462226219466822 0 -0.0015528552033831869 0.0045798623754283469 0 -0.0015693114898517894 0.004515117413963458 0 -0.0014845426967953614 0.00451139887309182 0 -0.0013024402872929075 0.0051094459976095017 0 -0.0012742874105083537 0.0051418850235799242 0 -0.0013092426459552007 0.005071893305633359 0 -0.0013024402872929075 0.0051094459976095017 0 -0.0012742874105083537 0.0051418850235799242 0 -0.0012454547606458842 0.0050539105386537084 0 -0.0013024402872929075 0.0051094459976095017 0 -0.0012826653870590913 0.0050433165315248328 0 -0.0013092426459552007 0.005071893305633359 0 -0.0013549916748813464 0.0050307854248935503 0 -0.0012742874105083537 0.0051418850235799242 0 -0.0013092426459552007 0.005071893305633359 0 -0.001393543069375214 0.0047463764278607764 0 -0.0013817791427953739 0.0048644869327882315 0 -0.0013502607326006351 0.0049883595731315174 0 -0.0012826653870590913 0.0050433165315248328 0 -0.0013092426459552007 0.005071893305633359 0 -0.0013549916748813464 0.0050307854248935503 0 -0.0013502607326006351 0.0049883595731315174 0 -0.0013092426459552007 0.005071893305633359 0 -0.0013516858358545917 0.0049451881694742563 0 -0.0012895845142391067 0.0053315442107924006 0 -0.0013158230970151841 0.005379951006006703 0 -0.0014191898519967782 0.0052194635676051926 0 -0.0012809870689093265 0.0051917009588452597 0 -0.0011281193779067175 0.0052300705308642942 0 -0.0012495235732408448 0.0052925268969968861 0 -0.0012809870689093265 0.0051917009588452597 0 -0.0013024402872929075 0.0051094459976095017 0 -0.0013200679501512468 0.0049068100660569621 0 -0.0012454547606458842 0.0050539105386537084 0 -0.0014845426967953614 0.00451139887309182 0 -0.0014881992133500884 0.0044181778526611402 0 -0.0015360369471488328 0.004462226219466822 0 -0.001393543069375214 0.0047463764278607764 0 -0.0013516858358545917 0.0049451881694742563 0 -0.0015360369471488328 0.004462226219466822 0 -0.0015534161392753694 0.0044238757927432988 0 -0.0016139877504507769 0.004456764341529534 0 -0.0015693114898517894 0.004515117413963458 0 -0.0015360369471488328 0.004462226219466822 0 -0.0016139877504507769 0.004456764341529534 0 -0.0014881992133500884 0.0044181778526611402 0 -0.0015360369471488328 0.004462226219466822 0 -0.0015534161392753694 0.0044238757927432988 0 -0.0014881992133500884 0.0044181778526611402 0 -0.0015534161392753694 0.0044238757927432988 0 -0.0015913807655580326 0.0043635808192267651 0 -0.0013516858358545917 0.0049451881694742563 0 -0.0016464418887888424 0.0049258073393832428 0 -0.0013158230970151841 0.005379951006006703 0 -0.0015671800105610712 0.0052280415479373189 0 -0.0014191898519967782 0.0052194635676051926 0 -0.001759636675835725 0.0046476561114146119 0 -0.0016464418887888424 0.0049258073393832428 0 -0.0015534161392753694 0.0044238757927432988 0 -0.0016139877504507769 0.004456764341529534 0 -0.0015913807655580326 0.0043635808192267651 0 -0.0018617467671344181 0.004991853428942798 0 -0.0018992734075368169 0.0049400769657315319 0 -0.0018394487772079708 0.005039175128010066 0 -0.0018371737447448744 0.0050249442510154826 0 -0.0018617467671344181 0.004991853428942798 0 -0.0018394487772079708 0.005039175128010066 0 -0.0018992734075368169 0.0049400769657315319 0 -0.0018629972154456727 0.0049855253465355739 0 -0.0018641041336748862 0.0049148379337756428 0 -0.0018617467671344181 0.004991853428942798 0 -0.0018992734075368169 0.0049400769657315319 0 -0.0018629972154456727 0.0049855253465355739 0 -0.0018371737447448744 0.0050249442510154826 0 -0.0018617467671344181 0.004991853428942798 0 -0.0018629972154456727 0.0049855253465355739 0 -0.0018371737447448744 0.0050249442510154826 0 -0.0018629972154456727 0.0049855253465355739 0 -0.0018586558121990535 0.0050283322334797624 0 -0.0018371737447448744 0.0050249442510154826 0 -0.0018586558121990535 0.0050283322334797624 0 -0.0018171782149774838 0.0050417958669745312 0 -0.0018586558121990535 0.0050283322334797624 0 -0.0018171782149774838 0.0050417958669745312 0 -0.0018032081789776074 0.0050398830945284148 0 -0.0018586558121990535 0.0050283322334797624 0 -0.0018032081789776074 0.0050398830945284148 0 -0.0018860067243332379 0.0050300530755438052 0 -0.0018104861165057905 0.0049998716042086644 0 -0.0018032081789776074 0.0050398830945284148 0 -0.0018860067243332379 0.0050300530755438052 0 -0.0018104861165057905 0.0049998716042086644 0 -0.0018032081789776074 0.0050398830945284148 0 -0.0015699663295932697 0.0049999925114845257 0 -0.0018032081789776074 0.0050398830945284148 0 -0.0015699663295932697 0.0049999925114845257 0 -0.0017669596958523569 0.0050439073017813961 0 -0.0015698228139389861 0.0050003433168778564 0 -0.0016464418887888424 0.0049258073393832428 0 -0.0015696264574764271 0.0049999564379113719 0 -0.0015671800105610712 0.0052280415479373189 0 -0.0014919737979730955 0.0051415619899274519 0 -0.0015699663295932697 0.0049999925114845257 0 -0.0017669596958523569 0.0050439073017813961 0 -0.0018132927988605725 0.0050623050117895307 0 -0.0018171782149774838 0.0050417958669745312 0 -0.0017669596958523569 0.0050439073017813961 0 -0.0018156182660409319 0.0050528336285090829 0 -0.0018171782149774838 0.0050417958669745312 0 -0.0018032081789776074 0.0050398830945284148 0 -0.0017669596958523569 0.0050439073017813961 0 -0.0018371737447448744 0.0050249442510154826 0 -0.0018171782149774838 0.0050417958669745312 0 -0.0018156182660409319 0.0050528336285090829 0 -0.0018371737447448744 0.0050249442510154826 0 -0.0018156182660409319 0.0050528336285090829 0 -0.0018394487772079708 0.005039175128010066 0 -0.0017669596958523569 0.0050439073017813961 0 -0.0018156182660409319 0.0050528336285090829 0 -0.0018132927988605725 0.0050623050117895307 0 -0.0016835926157299185 0.0049295253948621357 0 -0.0016464418887888424 0.0049258073393832428 0 -0.0015671800105610712 0.0052280415479373189 0 -0.0014191898519967782 0.0052194635676051926 0 -0.0014919737979730955 0.0051415619899274519 0 -0.0014191898519967782 0.0052194635676051926 0 -0.0014111454824917704 0.0051197359147605471 0 -0.0014919737979730955 0.0051415619899274519 0 -0.0014191898519967782 0.0052194635676051926 0 -0.0014111454824917704 0.0051197359147605471 0 -0.0012809870689093265 0.0051917009588452597 0 -0.0015696264574764271 0.0049999564379113719 0 -0.0014111454824917704 0.0051197359147605471 0 -0.0014919737979730955 0.0051415619899274519 0 -0.0015696264574764271 0.0049999564379113719 0 -0.0014111454824917704 0.0051197359147605471 0 -0.0012793266345945227 0.0049999556599734114 0 -0.0011408158353222503 0.0051087045792513174 0 -0.0012793266345945227 0.0049999556599734114 0 -0.0012809870689093265 0.0051917009588452597 0 -0.0014111454824917704 0.0051197359147605471 0 -0.0012793266345945227 0.0049999556599734114 0 -0.0012809870689093265 0.0051917009588452597 0 -0.0018168503161604878 0.0049397546272991902 0 -0.0018549396314294819 0.0049278126565682166 0 -0.0018752251554537663 0.0049796596537554343 0 -0.0018168503161604878 0.0049397546272991902 0 -0.0017824936717448169 0.0049567154006067531 0 -0.0017710861051419089 0.0049122672701564542 0 -0.0018139178879527096 0.0048783842212857306 0 -0.0018168503161604878 0.0049397546272991902 0 -0.0017710861051419089 0.0049122672701564542 0 -0.0018139178879527096 0.0048783842212857306 0 -0.0018168503161604878 0.0049397546272991902 0 -0.0018549396314294819 0.0049278126565682166 0 -0.0018500401858988999 0.0048670267087871167 0 -0.0018549396314294819 0.0049278126565682166 0 -0.0018641041336748862 0.0049148379337756428 0 -0.0018549396314294819 0.0049278126565682166 0 -0.0018641041336748862 0.0049148379337756428 0 -0.0018818549805217212 0.0049801533016087945 0 -0.0018629972154456727 0.0049855253465355739 0 -0.0018586558121990535 0.0050283322334797624 0 -0.0018818549805217212 0.0049801533016087945 0 -0.0018629972154456727 0.0049855253465355739 0 -0.0018641041336748862 0.0049148379337756428 0 -0.0018818549805217212 0.0049801533016087945 0 -0.0018549396314294819 0.0049278126565682166 0 -0.0018818549805217212 0.0049801533016087945 0 -0.0018752251554537663 0.0049796596537554343 0 -0.0018818549805217212 0.0049801533016087945 0 -0.0019323376867346799 0.0050132451814183521 0 -0.0018752251554537663 0.0049796596537554343 0 -0.0019323376867346799 0.0050132451814183521 0 -0.0019031446630989868 0.0050234849833384644 0 -0.0018752251554537663 0.0049796596537554343 0 -0.0018586558121990535 0.0050283322334797624 0 -0.0018818549805217212 0.0049801533016087945 0 -0.0019323376867346799 0.0050132451814183521 0 -0.0018586558121990535 0.0050283322334797624 0 -0.0019323376867346799 0.0050132451814183521 0 -0.0018860067243332379 0.0050300530755438052 0 -0.0019323376867346799 0.0050132451814183521 0 -0.0018860067243332379 0.0050300530755438052 0 -0.0020504094464224702 0.0050000820595670487 0 -0.0018104861165057905 0.0049998716042086644 0 -0.0018860067243332379 0.0050300530755438052 0 -0.0020504094464224702 0.0050000820595670487 0 -0.0020509580989029738 0.0050000007916928459 0 -0.0022657414004011445 0.004999996903022743 0 -0.0022372820990543916 0.0050763638301462299 0 -0.0020509421408113873 0.0050000137666572865 0 -0.0020725181796328106 0.0050458460997811734 0 -0.0019323376867346799 0.0050132451814183521 0 -0.0020504094464224702 0.0050000820595670487 0 -0.0019031446630989868 0.0050234849833384644 0 -0.0020725181796328106 0.0050458460997811734 0 -0.0021008275173066363 0.0050773356153798127 0 -0.0022657414004011445 0.004999996903022743 0 -0.0022372820990543916 0.0050763638301462299 0 -0.0024220462612868248 0.0051475757180276102 0 -0.0019031446630989868 0.0050234849833384644 0 -0.0018752251554537663 0.0049796596537554343 0 -0.0018251634655237089 0.0050108071606433068 0 -0.0018168503161604878 0.0049397546272991902 0 -0.0018752251554537663 0.0049796596537554343 0 -0.0018251634655237089 0.0050108071606433068 0 -0.0018168503161604878 0.0049397546272991902 0 -0.0018251634655237089 0.0050108071606433068 0 -0.0017824936717448169 0.0049567154006067531 0 -0.0022657414004011445 0.004999996903022743 0 -0.0024220462612868248 0.0051475757180276102 0 -0.0024804818860256835 0.0049999985447251932 0 -0.0024808284330645608 0.0050004442649310239 0 -0.0023382813854795526 0.0050014989910340379 0 -0.0024220462612868248 0.0051475757180276102 0 -0.0024804818860256835 0.0049999985447251932 0 -0.0025899308052074062 0.0052164267677476291 0 -0.0024805211064717831 0.004999995332465334 0 -0.002731140154892822 0.0049999927128916632 0 -0.0026169733579395737 0.0052165660159132626 0 -0.002731140154892822 0.0049999927128916632 0 -0.0028059743381885498 0.0051688246197001235 0 -0.0028908193000963906 0.0051072479155700986 0 -0.002731140154892822 0.0049999927128916632 0 -0.0028059743381885498 0.0051688246197001235 0 -0.0026169733579395737 0.0052165660159132626 0 -0.0023382813854795526 0.0050014989910340379 0 -0.0024792921481170999 0.0049191254645540809 0 -0.0028059743381885498 0.0051688246197001235 0 -0.0026169733579395737 0.0052165660159132626 0 -0.0028582533717375091 0.0052960524469365233 0 -0.0018251634655237089 0.0050108071606433068 0 -0.0017656541877903429 0.0049900493278711155 0 -0.0017824936717448169 0.0049567154006067531 0 -0.0021008275173066363 0.0050773356153798127 0 -0.0023382813854795526 0.0050014989910340379 0 -0.0017824936717448169 0.0049567154006067531 0 -0.0017392904344469082 0.0049442205871586013 0 -0.0017710861051419089 0.0049122672701564542 0 -0.0017656541877903429 0.0049900493278711155 0 -0.0017824936717448169 0.0049567154006067531 0 -0.0017392904344469082 0.0049442205871586013 0 -0.0023382813854795526 0.0050014989910340379 0 -0.0019283159465906463 0.004684596424470543 0 -0.0021997386268384918 0.0045652766820962467 0 -0.0021838578378431121 0.0045329258757283598 0 -0.0021606006708145887 0.0045339513848445395 0 -0.0021838578378431121 0.0045329258757283598 0 -0.0021614114347491067 0.0045169752911706409 0 -0.0021606006708145887 0.0045339513848445395 0 -0.0019283159465906463 0.004684596424470543 0 -0.0020309534184669554 0.00466695442507756 0 -0.0017392904344469082 0.0049442205871586013 0 -0.0017177016557041766 0.004903033668791675 0 -0.0017710861051419089 0.0049122672701564542 0 -0.0021838578378431121 0.0045329258757283598 0 -0.0021664253533568044 0.0045125278832323975 0 -0.0021614114347491067 0.0045169752911706409 0 -0.0020309534184669554 0.00466695442507756 0 -0.0021087966038165428 0.0045908924377189263 0 -0.0017177016557041766 0.004903033668791675 0 -0.0017710861051419089 0.0049122672701564542 0 -0.0017561278411828748 0.0048636310130970011 0 -0.0021615370814445515 0.0045173813450218002 0 -0.0021599272328119605 0.0045226912010625691 0 -0.0021676371912936233 0.0045160745309794819 0 -0.0021615370814445515 0.0045173813450218002 0 -0.0021677007264609364 0.004517218925262443 0 -0.0021676371912936233 0.0045160745309794819 0 -0.0021677007264609364 0.004517218925262443 0 -0.0021676371912936233 0.0045160745309794819 0 -0.0021738586367995795 0.0045185243557003167 0 -0.0021677007264609364 0.004517218925262443 0 -0.0021738586367995795 0.0045185243557003167 0 -0.0021688496142904553 0.0045200692395032703 0 -0.0021615370814445515 0.0045173813450218002 0 -0.0021677007264609364 0.004517218925262443 0 -0.0021576361917648684 0.0045144776798259267 0 -0.0021677007264609364 0.004517218925262443 0 -0.0021576361917648684 0.0045144776798259267 0 -0.0021688496142904553 0.0045200692395032703 0 -0.0021576361917648684 0.0045144776798259267 0 -0.0021528894749063858 0.0045145493695476551 0 -0.0021572833944124162 0.0045162668664149004 0 -0.0021576361917648684 0.0045144776798259267 0 -0.0021528894749063858 0.0045145493695476551 0 -0.0021371134784872541 0.0045134002263551038 0 -0.0021605807808204483 0.0045153697734455177 0 -0.0021528894749063858 0.0045145493695476551 0 -0.0021371134784872541 0.0045134002263551038 0 -0.0020309534184669554 0.00466695442507756 0 -0.0021021859576937731 0.0045017949303537445 0 -0.0021614114347491067 0.0045169752911706409 0 -0.0021572833944124162 0.0045162668664149004 0 -0.0021599272328119605 0.0045226912010625691 0 -0.0021528894749063858 0.0045145493695476551 0 -0.0021614114347491067 0.0045169752911706409 0 -0.0021572833944124162 0.0045162668664149004 0 -0.0021605807808204483 0.0045153697734455177 0 -0.0021528894749063858 0.0045145493695476551 0 -0.0021614114347491067 0.0045169752911706409 0 -0.0021615370814445515 0.0045173813450218002 0 -0.0021576361917648684 0.0045144776798259267 0 -0.0021572833944124162 0.0045162668664149004 0 -0.0021615370814445515 0.0045173813450218002 0 -0.0021572833944124162 0.0045162668664149004 0 -0.0021599272328119605 0.0045226912010625691 0 -0.0021614114347491067 0.0045169752911706409 0 -0.0021599272328119605 0.0045226912010625691 0 -0.0021606006708145887 0.0045339513848445395 0 -0.0021599272328119605 0.0045226912010625691 0 -0.0021606006708145887 0.0045339513848445395 0 -0.0021676371912936233 0.0045160745309794819 0 -0.003274093239347521 0.0046588285957127528 0 -0.0033503399366852146 0.0049126041076713849 0 -0.0032605499251389231 0.004763099404291698 0 -0.0024792921481170999 0.0049191254645540809 0 -0.0028445980668673708 0.0047685500086110102 0 -0.0028582533717375091 0.0052960524469365233 0 -0.0030626638172469617 0.0053689061614485938 0 -0.0029252477067102773 0.0052069314635849896 0 -0.0030626638172469617 0.0053689061614485938 0 -0.003000183573113662 0.0051472098508985112 0 -0.0029252477067102773 0.0052069314635849896 0 -0.0028445980668673708 0.0047685500086110102 0 -0.0032999019474094699 0.0049917955367634256 0 -0.0032999019474094699 0.0049917955367634256 0 -0.0034428350595488476 0.0047255374771585012 0 -0.003000183573113662 0.0051472098508985112 0 -0.0029252477067102773 0.0052069314635849896 0 -0.0029760428624593829 0.0051252381703185664 0 -0.0028059743381885498 0.0051688246197001235 0 -0.0028582533717375091 0.0052960524469365233 0 -0.0029252477067102773 0.0052069314635849896 0 -0.0029252477067102773 0.0052069314635849896 0 -0.0028908193000963906 0.0051072479155700986 0 -0.0029760428624593829 0.0051252381703185664 0 -0.0028059743381885498 0.0051688246197001235 0 -0.0029252477067102773 0.0052069314635849896 0 -0.0028908193000963906 0.0051072479155700986 0 -0.002731140154892822 0.0049999927128916632 0 -0.0029521504305545778 0.0050375726157256369 0 -0.0029817222095200229 0.0049999926729174431 0 -0.002731140154892822 0.0049999927128916632 0 -0.0028908193000963906 0.0051072479155700986 0 -0.0029521504305545778 0.0050375726157256369 0 -0.0028908193000963906 0.0051072479155700986 0 -0.0029526471335838008 0.0050991326573822495 0 -0.0029760428624593829 0.0051252381703185664 0 -0.0028908193000963906 0.0051072479155700986 0 -0.0029526471335838008 0.0050991326573822495 0 -0.0029521504305545778 0.0050375726157256369 0 -0.0035596249985976286 0.0045962799616834698 0 -0.0035511790012886352 0.0045836893254980419 0 -0.0037005441045953246 0.0045908197201912403 0 -0.003018569766207891 0.0051363829536140411 0 -0.0029817677714483112 0.0049999984467648676 0 -0.0031999483969367341 0.0049999985567081252 0 -0.0030247579395049429 0.0050256014698601796 0 -0.0031937178677142694 0.0049627366908193103 0 -0.0029526471335838008 0.0050991326573822495 0 -0.0029521504305545778 0.0050375726157256369 0 -0.0029903340688620206 0.0051266502245622229 0 -0.003000183573113662 0.0051472098508985112 0 -0.0029893209387702553 0.0051266639374571658 0 -0.0029760428624593829 0.0051252381703185664 0 -0.0032999019474094699 0.0049917955367634256 0 -0.0031937178677142694 0.0049627366908193103 0 -0.0031937178677142694 0.0049627366908193103 0 -0.0031686710549192606 0.0049669459646531937 0 -0.0029526471335838008 0.0050991326573822495 0 -0.0029903340688620206 0.0051266502245622229 0 -0.0029760428624593829 0.0051252381703185664 0 -0.0029521504305545778 0.0050375726157256369 0 -0.0030133271710030629 0.0051346107256273052 0 -0.0029817222095200229 0.0049999926729174431 0 -0.0031937178677142694 0.0049627366908193103 0 -0.0029818404714567277 0.0050001060183546379 0 -0.0031937178677142694 0.0049627366908193103 0 -0.0035286283980043389 0.004852164599135649 0 -0.003018569766207891 0.0051363829536140411 0 -0.0031999483969367341 0.0049999985567081252 0 -0.003307933668377081 0.0051532982148533059 0 -0.0031999483969367341 0.0049999985567081252 0 -0.003418132400235834 0.0049999988936766972 0 -0.003307933668377081 0.0051532982148533059 0 -0.0037005441045953246 0.0045908197201912403 0 -0.0037492667203654776 0.004650010389183161 0 -0.0038313185185657262 0.0046034275123822688 0 -0.0037005441045953246 0.0045908197201912403 0 -0.0037492667203654776 0.004650010389183161 0 -0.0036922314858104689 0.004677616711817799 0 -0.0037005441045953246 0.0045908197201912403 0 -0.0036139782871332212 0.0046755405413049667 0 -0.0036922314858104689 0.004677616711817799 0 -0.0035596249985976286 0.0045962799616834698 0 -0.0037005441045953246 0.0045908197201912403 0 -0.0036139782871332212 0.0046755405413049667 0 -0.0036362402947826525 0.0050002614442396648 0 -0.0036849165308036488 0.0049363783760446424 0 -0.0036363309609018543 0.0049999956266856107 0 -0.0037254494079696477 0.0050696270156170564 0 -0.0035946865605270915 0.0051634379441300952 0 -0.0036363309609018543 0.0049999956266856107 0 -0.0037254494079696477 0.0050696270156170564 0 -0.0038292787335536152 0.0049999966465765558 0 -0.0037254494079696477 0.0050696270156170564 0 -0.0035946865605270915 0.0051634379441300952 0 -0.0037086208390106246 0.0051705001376485156 0 -0.003418132400235834 0.0049999988936766972 0 -0.0036363108640802104 0.0049999976271699522 0 -0.0035886468576717678 0.0051693993636720802 0 -0.003418132400235834 0.0049999988936766972 0 -0.003307933668377081 0.0051532982148533059 0 -0.0035886468576717678 0.0051693993636720802 0 -0.0037492667203654776 0.004650010389183161 0 -0.0038168956313368108 0.004652334477221542 0 -0.0038313185185657262 0.0046034275123822688 0 -0.0035286283980043389 0.004852164599135649 0 -0.0036849165308036488 0.0049363783760446424 0 -0.003876274819316166 0.004633520490643691 0 -0.0036849165308036488 0.0049363783760446424 0 -0.0038403110789616995 0.004761833305052708 0 -0.0038289461148873693 0.0048031985644441562 0 -0.0037866667746766247 0.0048008962222741607 0 -0.003876274819316166 0.004633520490643691 0 -0.0038873882767702806 0.0048148557297229208 0 -0.0036849165308036488 0.0049363783760446424 0 -0.0038873882767702806 0.0048148557297229208 0 -0.0039116243313226809 0.0045870609395113971 0 -0.0040331067811196688 0.0046032288624246378 0 -0.0040387236730113438 0.0045011171246872594 0 -0.0040331067811196688 0.0046032288624246378 0 -0.0040387236730113438 0.0045011171246872594 0 -0.0041398158232816484 0.0045074814820851546 0 -0.0039773931091135065 0.0046937334993460327 0 -0.0039501730640919188 0.0047830305224720359 0 -0.0041356305482924492 0.0047365656364642119 0 -0.0040331067811196688 0.0046032288624246378 0 -0.0039773931091135065 0.0046937334993460327 0 -0.0041356305482924492 0.0047365656364642119 0 -0.0039116243313226809 0.0045870609395113971 0 -0.0040331067811196688 0.0046032288624246378 0 -0.0039773931091135065 0.0046937334993460327 0 -0.003876274819316166 0.004633520490643691 0 -0.0037292060294631052 0.0047142595699873925 0 -0.0039116243313226809 0.0045870609395113971 0 -0.0039773931091135065 0.0046937334993460327 0 -0.0038626184240588878 0.0047503233828300262 0 -0.0039068451491720219 0.0045909156015099825 0 -0.0038626184240588878 0.0047503233828300262 0 -0.0037267495075149768 0.0047220845072007481 0 -0.003876274819316166 0.004633520490643691 0 -0.0038737153937505055 0.0047188450356049332 0 -0.0040226138461554291 0.004442784665009053 0 -0.0041473790496571053 0.0045126682403412461 0 -0.0039501730640919188 0.0047830305224720359 0 -0.0038023008087136267 0.0048326561279983648 0 -0.0039700655164459971 0.0049004058387498673 0 -0.0038626184240588878 0.0047503233828300262 0 -0.0039501730640919188 0.0047830305224720359 0 -0.0038023008087136267 0.0048326561279983648 0 -0.0039773931091135065 0.0046937334993460327 0 -0.0038626184240588878 0.0047503233828300262 0 -0.0039501730640919188 0.0047830305224720359 0 -0.0039501730640919188 0.0047830305224720359 0 -0.0039700655164459971 0.0049004058387498673 0 -0.0041356305482924492 0.0047365656364642119 0 -0.003274093239347521 0.0046588285957127528 0 -0.0032605499251389231 0.004763099404291698 0 -0.0031726262624050369 0.0046136926457459558 0 -0.0034428350595488476 0.0047255374771585012 0 -0.0035098028297925591 0.0044397325444177592 0 -0.0036139782871332212 0.0046755405413049667 0 -0.0036922314858104689 0.004677616711817799 0 -0.0036622440026720924 0.004762578771642623 0 -0.0036922314858104689 0.004677616711817799 0 -0.0037267495075149768 0.0047220845072007481 0 -0.0036622440026720924 0.004762578771642623 0 -0.0037492667203654776 0.004650010389183161 0 -0.0038168956313368108 0.004652334477221542 0 -0.0037267495075149768 0.0047220845072007481 0 -0.0037492667203654776 0.004650010389183161 0 -0.0036922314858104689 0.004677616711817799 0 -0.0037267495075149768 0.0047220845072007481 0 -0.0040226138461554291 0.004442784665009053 0 -0.0035098028297925591 0.0044397325444177592 0 -0.0035098028297925591 0.0044397325444177592 0 -0.0035825942218686265 0.0042872502376266391 0 -0.0041445804418474112 0.0040364527072066971 0 -0.0039031359493660722 0.0039437935051669509 0 -0.0040362086610842935 0.0041441738747422917 0 -0.0037267495075149768 0.0047220845072007481 0 -0.0038023008087136267 0.0048326561279983648 0 -0.0036622440026720924 0.004762578771642623 0 -0.0038626184240588878 0.0047503233828300262 0 -0.0037267495075149768 0.0047220845072007481 0 -0.0038023008087136267 0.0048326561279983648 0 -0.0030899846791150338 0.0044217718304981725 0 -0.0030759991124428123 0.0044378896163814142 0 -0.0031108284498130444 0.0044486191936297945 0 -0.0028445980668673708 0.0047685500086110102 0 -0.0035098028297925591 0.0044397325444177592 0 -0.0030680430603903593 0.0044155529525799096 0 -0.0030899846791150338 0.0044217718304981725 0 -0.0030759991124428123 0.0044378896163814142 0 -0.0028445980668673708 0.0047685500086110102 0 -0.0026119951812673611 0.0044332455660312398 0 -0.0030759991124428123 0.0044378896163814142 0 -0.0030836134926683946 0.0044636843625825004 0 -0.0031108284498130444 0.0044486191936297945 0 -0.0021738586367995795 0.0045185243557003167 0 -0.0021783844099277226 0.0045237048771524391 0 -0.0021688496142904553 0.0045200692395032703 0 -0.0026119951812673611 0.0044332455660312398 0 -0.0025337979415672113 0.0044843840979258507 0 -0.0035825942218686265 0.0042872502376266391 0 -0.0033907779687713576 0.004326507479117587 0 -0.0030836134926683946 0.0044636843625825004 0 -0.0031108284498130444 0.0044486191936297945 0 -0.0031334791477469802 0.0044797864263949293 0 -0.0040362086610842935 0.0041441738747422917 0 -0.0042169649384802685 0.0041927168676527083 0 -0.0041676214101532211 0.004345628168005689 0 -0.0041445804418474112 0.0040364527072066971 0 -0.0040362086610842935 0.0041441738747422917 0 -0.0042169649384802685 0.0041927168676527083 0 -0.0027445596901629343 0.004395876254003183 0 -0.002845160664957198 0.0043645062662094431 0 -0.0028194952556888941 0.0044312406631794614 0 -0.0025337979415672113 0.0044843840979258507 0 -0.0033907779687713576 0.004326507479117587 0 -0.0027199532561332025 0.0043189650961485268 0 -0.0027445596901629343 0.004395876254003183 0 -0.002845160664957198 0.0043645062662094431 0 -0.0022252982355571958 0.0045349441798255745 0 -0.002239106160213515 0.0045749414320730422 0 -0.0021876146078542557 0.004552324851916722 0 -0.0025337979415672113 0.0044843840979258507 0 -0.0024902963349589598 0.0044875561807102048 0 -0.0043859537230585138 0.0041349599789441164 0 -0.0044830414505881181 0.0043117041211716955 0 -0.0046015005226255094 0.0042355068114497702 0 -0.0041473790496571053 0.0045126682403412461 0 -0.004504018647722932 0.0045441218996432435 0 -0.0043859537230585138 0.0041349599789441164 0 -0.0043461610674917035 0.0042831121682619456 0 -0.0044830414505881181 0.0043117041211716955 0 -0.0041445804418474112 0.0040364527072066971 0 -0.0043859537230585138 0.0041349599789441164 0 -0.0042169649384802685 0.0041927168676527083 0 -0.0043859537230585138 0.0041349599789441164 0 -0.0042169649384802685 0.0041927168676527083 0 -0.0043461610674917035 0.0042831121682619456 0 -0.0042169649384802685 0.0041927168676527083 0 -0.0041676214101532211 0.004345628168005689 0 -0.0043461610674917035 0.0042831121682619456 0 -0.0041676214101532211 0.004345628168005689 0 -0.0043461610674917035 0.0042831121682619456 0 -0.0044589694145574657 0.004435657591011161 0 -0.0033907779687713576 0.004326507479117587 0 -0.0040182973160652145 0.0042517375203900273 0 -0.0032084166891052689 0.0039963044692196822 0 -0.0034701861652355389 0.0040874558235597805 0 -0.0033033220391083772 0.0041483192530725561 0 -0.002845160664957198 0.0043645062662094431 0 -0.002888871841452765 0.0044341997634183639 0 -0.0028194952556888941 0.0044312406631794614 0 -0.0033907779687713576 0.004326507479117587 0 -0.0030772752837713874 0.0042534068255463166 0 -0.0043461610674917035 0.0042831121682619456 0 -0.0044589694145574657 0.004435657591011161 0 -0.0044830414505881181 0.0043117041211716955 0 -0.0044589694145574657 0.004435657591011161 0 -0.0044830414505881181 0.0043117041211716955 0 -0.0045960547794641361 0.0044421221933371811 0 -0.0035579028483569476 0.0042213967348795813 0 -0.0034311681156645834 0.0041992780728897471 0 -0.0034991462237209327 0.0043482818481954105 0 -0.0035579028483569476 0.0042213967348795813 0 -0.0034991462237209327 0.0043482818481954105 0 -0.0035647995905050485 0.0043130310952748455 0 -0.0034701861652355389 0.0040874558235597805 0 -0.0035579028483569476 0.0042213967348795813 0 -0.0034311681156645834 0.0041992780728897471 0 -0.0034701861652355389 0.0040874558235597805 0 -0.0034311681156645834 0.0041992780728897471 0 -0.0033033220391083772 0.0041483192530725561 0 -0.0034311681156645834 0.0041992780728897471 0 -0.003400949621685443 0.0043234568414945475 0 -0.0034991462237209327 0.0043482818481954105 0 -0.0034311681156645834 0.0041992780728897471 0 -0.0033033220391083772 0.0041483192530725561 0 -0.003400949621685443 0.0043234568414945475 0 -0.0030772752837713874 0.0042534068255463166 0 -0.0031186878238527488 0.0044008056849644192 0 -0.002888871841452765 0.0044341997634183639 0 -0.0028507428057941912 0.0044891087061008127 0 -0.0029345376841330068 0.0045052060142265491 0 -0.002888871841452765 0.0044341997634183639 0 -0.0028507428057941912 0.0044891087061008127 0 -0.0028194952556888941 0.0044312406631794614 0 -0.0025065902911286784 0.0044593216947333252 0 -0.0026484046141933759 0.0045557126741249017 0 -0.0023505592424135132 0.0044771759858605337 0 -0.0025155374773268 0.0044531873205184711 0 -0.0023505592424135132 0.0044771759858605337 0 -0.0024070745363027036 0.0044919794036013651 0 -0.0025500503697133861 0.0045005205588299077 0 -0.0023918124225207273 0.0044776175439411713 0 -0.0024997719681789411 0.004282229027185119 0 -0.0025198165050349811 0.0044038569348255098 0 -0.0026347355959518968 0.0044169901285436748 0 -0.0024997719681789411 0.004282229027185119 0 -0.0025198165050349811 0.0044038569348255098 0 -0.0024184742100846648 0.004374676840094658 0 -0.0025198165050349811 0.0044038569348255098 0 -0.0025773536147127431 0.0044589020643890781 0 -0.0026347355959518968 0.0044169901285436748 0 -0.0025198165050349811 0.0044038569348255098 0 -0.0025065902911286784 0.0044593216947333252 0 -0.0024184742100846648 0.004374676840094658 0 -0.0025065902911286784 0.0044593216947333252 0 -0.0025773536147127431 0.0044589020643890781 0 -0.0026484046141933759 0.0045557126741249017 0 -0.0025198165050349811 0.0044038569348255098 0 -0.0025065902911286784 0.0044593216947333252 0 -0.0025773536147127431 0.0044589020643890781 0 -0.0025773536147127431 0.0044589020643890781 0 -0.0026484046141933759 0.0045557126741249017 0 -0.0026347355959518968 0.0044169901285436748 0 -0.0026484046141933759 0.0045557126741249017 0 -0.0026347355959518968 0.0044169901285436748 0 -0.002759696133489089 0.0043349782255160795 0 -0.0024997719681789411 0.004282229027185119 0 -0.0026347355959518968 0.0044169901285436748 0 -0.002759696133489089 0.0043349782255160795 0 -0.0026485678007724814 0.0043827610697101628 0 -0.0031186878238527488 0.0044008056849644192 0 -0.0034318809136574045 0.0043388516607723955 0 -0.0034991462237209327 0.0043482818481954105 0 -0.003576812492481784 0.0044639950851405224 0 -0.0031186878238527488 0.0044008056849644192 0 -0.0029555664810919724 0.0044463943179258924 0 -0.0034991462237209327 0.0043482818481954105 0 -0.0035629459865741801 0.0043925274386521478 0 -0.003576812492481784 0.0044639950851405224 0 -0.0026484046141933759 0.0045557126741249017 0 -0.002759696133489089 0.0043349782255160795 0 -0.0029441854005483447 0.0046313113992893394 0 -0.0031186878238527488 0.0044008056849644192 0 -0.0034235474222811591 0.0044108053860648522 0 -0.0034991462237209327 0.0043482818481954105 0 -0.0035647995905050485 0.0043130310952748455 0 -0.0035629459865741801 0.0043925274386521478 0 -0.0022867313850360319 0.0045004992905276721 0 -0.0022660827616586441 0.0045324038794257344 0 -0.0021847896517355452 0.0045331777702997062 0 -0.002239106160213515 0.0045749414320730422 0 -0.0022525492802743046 0.004614578356805797 0 -0.002175848357880053 0.004599791567739174 0 -0.0023894661960560271 0.0044945892562639781 0 -0.0021553584642202694 0.0045747673909383862 0 -0.0027445596901629343 0.004395876254003183 0 -0.0028194952556888941 0.0044312406631794614 0 -0.0027680020278481226 0.0044729679749203272 0 -0.0024902963349589598 0.0044875561807102048 0 -0.0023894661960560271 0.0044945892562639781 0 -0.0024997719681789411 0.004282229027185119 0 -0.0022456496157868045 0.00423192367323145 0 -0.0024184742100846648 0.004374676840094658 0 -0.0026485678007724814 0.0043827610697101628 0 -0.0023894661960560271 0.0044945892562639781 0 -0.0028507428057941912 0.0044891087061008127 0 -0.0028194952556888941 0.0044312406631794614 0 -0.0027680020278481226 0.0044729679749203272 0 -0.0022867313850360319 0.0045004992905276721 0 -0.0023302604693674822 0.0045105254497204315 0 -0.0022660827616586441 0.0045324038794257344 0 -0.0022456496157868045 0.00423192367323145 0 -0.0023505592424135132 0.0044771759858605337 0 -0.0023302604693674822 0.0045105254497204315 0 -0.0023894661960560271 0.0044945892562639781 0 -0.0023025405084283498 0.0044485526967584345 0 -0.0022456496157868045 0.00423192367323145 0 -0.0024184742100846648 0.004374676840094658 0 -0.0023505592424135132 0.0044771759858605337 0 -0.0025065902911286784 0.0044593216947333252 0 -0.0024184742100846648 0.004374676840094658 0 -0.0023505592424135132 0.0044771759858605337 0 -0.0023302604693674822 0.0045105254497204315 0 -0.0023624122479130091 0.0045052996440746304 0 -0.0023508064272110339 0.0045279129870271625 0 -0.0023505592424135132 0.0044771759858605337 0 -0.0023302604693674822 0.0045105254497204315 0 -0.0023636284635516779 0.0044952223412515063 0 -0.0023302604693674822 0.0045105254497204315 0 -0.0023624122479130091 0.0045052996440746304 0 -0.0023636284635516779 0.0044952223412515063 0 -0.0023624122479130091 0.0045052996440746304 0 -0.0023636284635516779 0.0044952223412515063 0 -0.0024070745363027036 0.0044919794036013651 0 -0.0023505592424135132 0.0044771759858605337 0 -0.0023636284635516779 0.0044952223412515063 0 -0.0024070745363027036 0.0044919794036013651 0 -0.0023302604693674822 0.0045105254497204315 0 -0.0022660827616586441 0.0045324038794257344 0 -0.0023072272071545143 0.0045415016696486003 0 -0.0022660827616586441 0.0045324038794257344 0 -0.0022705236308881113 0.0045631131758455358 0 -0.0023072272071545143 0.0045415016696486003 0 -0.0022660827616586441 0.0045324038794257344 0 -0.0022043608583832918 0.0045747842838969443 0 -0.0022705236308881113 0.0045631131758455358 0 -0.0022043608583832918 0.0045747842838969443 0 -0.0021847896517355452 0.0045331777702997062 0 -0.0021141945805726618 0.004616110579421768 0 -0.0022660827616586441 0.0045324038794257344 0 -0.0022043608583832918 0.0045747842838969443 0 -0.0021847896517355452 0.0045331777702997062 0 -0.0021847896517355452 0.0045331777702997062 0 -0.0021141945805726618 0.004616110579421768 0 -0.0020927220101629889 0.0045824051766463481 0 -0.0021553584642202694 0.0045747673909383862 0 -0.0021118148952887976 0.0045774842553821596 0 -0.0022043608583832918 0.0045747842838969443 0 -0.0021141945805726618 0.004616110579421768 0 -0.002135394535941687 0.0046329017379338963 0 -0.0019591346830406036 0.004585814764199822 0 -0.002008222402560874 0.0046625034569100429 0 -0.0020927220101629889 0.0045824051766463481 0 -0.0021141945805726618 0.004616110579421768 0 -0.002008222402560874 0.0046625034569100429 0 -0.0020454160113451089 0.0047056796942911644 0 -0.0019123681290055647 0.0047579694203557198 0 -0.002008222402560874 0.0046625034569100429 0 -0.0020454160113451089 0.0047056796942911644 0 -0.0021141945805726618 0.004616110579421768 0 -0.002008222402560874 0.0046625034569100429 0 -0.0020927220101629889 0.0045824051766463481 0 -0.0019591346830406036 0.004585814764199822 0 -0.0020927220101629889 0.0045824051766463481 0 -0.0020394642597636446 0.004518647487541127 0 -0.0018797088844407419 0.0046990129885569019 0 -0.0018772154417355694 0.004700303232843114 0 -0.0018139178879527096 0.0048783842212857306 0 -0.0017710861051419089 0.0049122672701564542 0 -0.0017561278411828748 0.0048636310130970011 0 -0.0020927220101629889 0.0045824051766463481 0 -0.0020394642597636446 0.004518647487541127 0 -0.0021371134784872541 0.0045134002263551038 0 -0.0021104904784281248 0.0044667086018725967 0 -0.0020394642597636446 0.004518647487541127 0 -0.0021371134784872541 0.0045134002263551038 0 -0.0020309534184669554 0.00466695442507756 0 -0.0018772154417355694 0.004700303232843114 0 -0.0021371134784872541 0.0045134002263551038 0 -0.0021688496142904553 0.0045200692395032703 0 -0.0021507911806325883 0.0045545030643858357 0 -0.0021576361917648684 0.0045144776798259267 0 -0.0021371134784872541 0.0045134002263551038 0 -0.0021688496142904553 0.0045200692395032703 0 -0.0022252982355571958 0.0045349441798255745 0 -0.0021688496142904553 0.0045200692395032703 0 -0.0021876146078542557 0.004552324851916722 0 -0.0025337979415672113 0.0044843840979258507 0 -0.0020621847956314543 0.0044969261400876611 0 -0.0021688496142904553 0.0045200692395032703 0 -0.0021876146078542557 0.004552324851916722 0 -0.0021507911806325883 0.0045545030643858357 0 -0.002239106160213515 0.0045749414320730422 0 -0.002175848357880053 0.004599791567739174 0 -0.0021876146078542557 0.004552324851916722 0 -0.002175848357880053 0.004599791567739174 0 -0.0021876146078542557 0.004552324851916722 0 -0.0021507911806325883 0.0045545030643858357 0 -0.002175848357880053 0.004599791567739174 0 -0.0020927220101629889 0.0045824051766463481 0 -0.0021507911806325883 0.0045545030643858357 0 -0.0020927220101629889 0.0045824051766463481 0 -0.0021371134784872541 0.0045134002263551038 0 -0.0021507911806325883 0.0045545030643858357 0 -0.0048976979191808906 0.0047917307697352331 0 -0.0049996281489198434 0.0049997953027792769 0 -0.0049995907375227477 0.004327170675072111 0 -0.0049466580320984633 0.0045753042318806645 0 -0.0048976979191808906 0.0047917307697352331 0 -0.0049995907375227477 0.004327170675072111 0 -0.0048976979191808906 0.0047917307697352331 0 -0.0049996281489198434 0.0049997953027792769 0 -0.0045619145504722045 0.0049996170814989417 0 -0.0045619145504722045 0.0049996170814989417 0 -0.004804801580658935 0.0048322318813367564 0 -0.0044427997058081687 0.0050418851150573476 0 -0.0048976979191808906 0.0047917307697352331 0 -0.0045619145504722045 0.0049996170814989417 0 -0.004804801580658935 0.0048322318813367564 0 -0.0047704329019272063 0.0048438773209680906 0 -0.0046851406555010857 0.0048928820941700688 0 -0.004804801580658935 0.0048322318813367564 0 -0.0049039834922278303 0.004642409468779439 0 -0.0049745309934363232 0.0046562364848026123 0 -0.004804801580658935 0.0048322318813367564 0 -0.0049745309934363232 0.0046562364848026123 0 -0.0049641380545834479 0.0047777898705841466 0 -0.0049466580320984633 0.0045753042318806645 0 -0.0048976979191808906 0.0047917307697352331 0 -0.004804801580658935 0.0048322318813367564 0 -0.0049466580320984633 0.0045753042318806645 0 -0.004804801580658935 0.0048322318813367564 0 -0.0049039834922278303 0.004642409468779439 0 -0.0049466580320984633 0.0045753042318806645 0 -0.0049039834922278303 0.004642409468779439 0 -0.0049457042485899086 0.0045329364038223683 0 -0.0049039834922278303 0.004642409468779439 0 -0.0049745309934363232 0.0046562364848026123 0 -0.0049633565140537175 0.0045496795404383105 0 -0.0049039834922278303 0.004642409468779439 0 -0.0049633565140537175 0.0045496795404383105 0 -0.0049457042485899086 0.0045329364038223683 0 -0.0049016860633114417 0.0046418382725691631 0 -0.0048538893950617066 0.0045216742455027395 0 -0.0050034325647759876 0.0046856437945663135 0 -0.0050216818198353637 0.0046843264928623594 0 -0.0050254836963409006 0.0045742759795843113 0 -0.0049745309934363232 0.0046562364848026123 0 -0.0050034325647759876 0.0046856437945663135 0 -0.0050254836963409006 0.0045742759795843113 0 -0.0050034325647759876 0.0046856437945663135 0 -0.0049894752921189741 0.0047271738098314696 0 -0.0049909941111820162 0.0047092329995522542 0 -0.0050034325647759876 0.0046856437945663135 0 -0.0049641380545834479 0.0047777898705841466 0 -0.0049894752921189741 0.0047271738098314696 0 -0.0049745309934363232 0.0046562364848026123 0 -0.0050034325647759876 0.0046856437945663135 0 -0.0049641380545834479 0.0047777898705841466 0 -0.0045619145504722045 0.0049996170814989417 0 -0.0041553345449410464 0.005082388347313972 0 -0.0039623922252422185 0.0049999673202034845 0 -0.0045619145504722045 0.0049996170814989417 0 -0.0044427997058081687 0.0050418851150573476 0 -0.0041553345449410464 0.005082388347313972 0 -0.0049885609644447432 0.004715072386361009 0 -0.0049894752921189741 0.0047271738098314696 0 -0.0049693064232081549 0.004721853986344433 0 -0.0049641380545834479 0.0047777898705841466 0 -0.0049885609644447432 0.004715072386361009 0 -0.0049894752921189741 0.0047271738098314696 0 -0.0046851406555010857 0.0048928820941700688 0 -0.004589382644000781 0.004892861706409673 0 -0.004979493773024703 0.0047194904213049569 0 -0.0049679311733143378 0.0047160918214449194 0 -0.0049909941111820162 0.0047092329995522542 0 -0.0049894752921189741 0.0047271738098314696 0 -0.004979493773024703 0.0047194904213049569 0 -0.0049693064232081549 0.004721853986344433 0 -0.0049885609644447432 0.004715072386361009 0 -0.0049693064232081549 0.004721853986344433 0 -0.0048932072566310733 0.0046942457693019274 0 -0.0049693064232081549 0.004721853986344433 0 -0.0048932072566310733 0.0046942457693019274 0 -0.004841827054907398 0.0047219328515011273 0 -0.0049679311733143378 0.0047160918214449194 0 -0.0049693064232081549 0.004721853986344433 0 -0.0049682731740748774 0.0047423931612482926 0 -0.004979493773024703 0.0047194904213049569 0 -0.0049679311733143378 0.0047160918214449194 0 -0.0049693064232081549 0.004721853986344433 0 -0.0051123560298322454 0.0047397709242602984 0 -0.0045276409629337565 0.0046650010989731676 0 -0.0049894752921189741 0.0047271738098314696 0 -0.004979493773024703 0.0047194904213049569 0 -0.0049909941111820162 0.0047092329995522542 0 -0.0049679311733143378 0.0047160918214449194 0 -0.0049467767121202152 0.0047123227017343543 0 -0.0049909941111820162 0.0047092329995522542 0 -0.004589382644000781 0.004892861706409673 0 -0.0042204670251591754 0.0049312007054641716 0 -0.0041553345449410464 0.005082388347313972 0 -0.0039623922252422185 0.0049999673202034845 0 -0.0038805475739266413 0.0050583994296292938 0 -0.0049885609644447432 0.004715072386361009 0 -0.0048932072566310733 0.0046942457693019274 0 -0.0048677656478715399 0.0046508216678869466 0 -0.0039621787795852343 0.0050001294939664353 0 -0.0042204670251591754 0.0049312007054641716 0 -0.0037254494079696477 0.0050696270156170564 0 -0.0038292787335536152 0.0049999966465765558 0 -0.0038282531678830375 0.0050454653084866198 0 -0.0037254494079696477 0.0050696270156170564 0 -0.0038282531678830375 0.0050454653084866198 0 -0.0038267406600850295 0.0050902657643422172 0 -0.0038297017387858992 0.0049999647242672763 0 -0.0040424081783343203 0.0049295035550169231 0 -0.0039622822091305143 0.005000000192796247 0 -0.0038292938232502237 0.0049999988388960553 0 -0.0038700867869022877 0.0050645781709796299 0 -0.0038292938232502237 0.0049999988388960553 0 -0.0038700867869022877 0.0050645781709796299 0 -0.0038297439148138905 0.0050470951392904426 0 -0.0042204670251591754 0.0049312007054641716 0 -0.0040424081783343203 0.0049295035550169231 0 -0.0041188416373711869 0.0049352878364424899 0 -0.0041364604610244155 0.0049429982228056096 0 -0.0041371762562131334 0.0049222069786646651 0 -0.0040424081783343203 0.0049295035550169231 0 -0.0041888173083939346 0.0048591254739300416 0 -0.0048932072566310733 0.0046942457693019274 0 -0.0048422365623898593 0.0046678547788688634 0 -0.004841827054907398 0.0047219328515011273 0 -0.0042204670251591754 0.0049312007054641716 0 -0.0041888173083939346 0.0048591254739300416 0 -0.0048932072566310733 0.0046942457693019274 0 -0.0048677656478715399 0.0046508216678869466 0 -0.0048422365623898593 0.0046678547788688634 0 -0.0037254494079696477 0.0050696270156170564 0 -0.0037086208390106246 0.0051705001376485156 0 -0.0038267406600850295 0.0050902657643422172 0 -0.0041888173083939346 0.0048591254739300416 0 -0.0045276409629337565 0.0046650010989731676 0 -0.0040762966130133641 0.0048031529200717321 0 -0.0042534291859027207 0.0046802785043029566 0 -0.0042513791340930383 0.0048135732620628669 0 -0.0038873882767702806 0.0048148557297229208 0 -0.0041888173083939346 0.0048591254739300416 0 -0.0038873882767702806 0.0048148557297229208 0 -0.0045276409629337565 0.0046650010989731676 0 -0.0049679311733143378 0.0047160918214449194 0 -0.0049682731740748774 0.0047423931612482926 0 -0.0049467767121202152 0.0047123227017343543 0 -0.0049467767121202152 0.0047123227017343543 0 -0.004923863777809085 0.0046414233965920001 0 -0.0047831001213620526 0.0046151253187794779 0 -0.0049682731740748774 0.0047423931612482926 0 -0.0049467767121202152 0.0047123227017343543 0 -0.004923863777809085 0.0046414233965920001 0 -0.0040331067811196688 0.0046032288624246378 0 -0.0041398158232816484 0.0045074814820851546 0 -0.0041356305482924492 0.0047365656364642119 0 -0.0045276409629337565 0.0046650010989731676 0 -0.0045344654246681449 0.0047166012611355949 0 -0.0049387496648504942 0.0047024262304326643 0 -0.0049016860633114417 0.0046418382725691631 0 -0.0049467767121202152 0.0047123227017343543 0 -0.0049909941111820162 0.0047092329995522542 0 -0.0050216818198353637 0.0046843264928623594 0 -0.0050034325647759876 0.0046856437945663135 0 -0.0049909941111820162 0.0047092329995522542 0 -0.0050216818198353637 0.0046843264928623594 0 -0.0047831001213620526 0.0046151253187794779 0 -0.0047957109378393981 0.0045128431044885288 0 -0.0046854869577574679 0.0044650724183014105 0 -0.004923863777809085 0.0046414233965920001 0 -0.0047831001213620526 0.0046151253187794779 0 -0.0047957109378393981 0.0045128431044885288 0 -0.0039700655164459971 0.0049004058387498673 0 -0.0041356305482924492 0.0047365656364642119 0 -0.0041335139997059553 0.004964337385371693 0 -0.0045344654246681449 0.0047166012611355949 0 -0.004504018647722932 0.0045441218996432435 0 -0.004923863777809085 0.0046414233965920001 0 -0.0048911202880262423 0.0044463075781819668 0 -0.0047957109378393981 0.0045128431044885288 0 -0.0047957109378393981 0.0045128431044885288 0 -0.0047260994265449921 0.0044093368075973525 0 -0.0046854869577574679 0.0044650724183014105 0 -0.004504018647722932 0.0045441218996432435 0 -0.0048011988644014493 0.0044084184897887025 0 -0.0048911202880262423 0.0044463075781819668 0 -0.0047957109378393981 0.0045128431044885288 0 -0.0047260994265449921 0.0044093368075973525 0 -0.0046261557673861371 0.0043434622104342657 0 -0.0047260994265449921 0.0044093368075973525 0 -0.004681423758129662 0.00442329185212128 0 -0.0047260994265449921 0.0044093368075973525 0 -0.004681423758129662 0.00442329185212128 0 -0.0047031725296275955 0.0044247045002629559 0 -0.0046261557673861371 0.0043434622104342657 0 -0.004681423758129662 0.00442329185212128 0 -0.0045960547794641361 0.0044421221933371811 0 -0.0044830414505881181 0.0043117041211716955 0 -0.0046015005226255094 0.0042355068114497702 0 -0.0045960547794641361 0.0044421221933371811 0 -0.004504018647722932 0.0045441218996432435 0 -0.0046151419363737343 0.0043340148310796814 0 -0.0044589694145574657 0.004435657591011161 0 -0.0045960547794641361 0.0044421221933371811 0 -0.004681301440338956 0.0044653997081773545 0 -0.0034701861652355389 0.0040874558235597805 0 -0.0035579028483569476 0.0042213967348795813 0 -0.0037765421458229101 0.0041555211218965863 0 -0.0035579028483569476 0.0042213967348795813 0 -0.0037765421458229101 0.0041555211218965863 0 -0.003650695807514591 0.0042872445275724553 0 -0.0040182973160652145 0.0042517375203900273 0 -0.0042167554130548221 0.0043076342663907821 0 -0.004681423758129662 0.00442329185212128 0 -0.0045960547794641361 0.0044421221933371811 0 -0.004681301440338956 0.0044653997081773545 0 -0.0037765421458229101 0.0041555211218965863 0 -0.003650695807514591 0.0042872445275724553 0 -0.0037833312219943175 0.0043104021967832204 0 -0.0035579028483569476 0.0042213967348795813 0 -0.003650695807514591 0.0042872445275724553 0 -0.0035647995905050485 0.0043130310952748455 0 -0.003650695807514591 0.0042872445275724553 0 -0.0035647995905050485 0.0043130310952748455 0 -0.0035629459865741801 0.0043925274386521478 0 -0.003650695807514591 0.0042872445275724553 0 -0.0035629459865741801 0.0043925274386521478 0 -0.0037029689500399131 0.0043955505586258086 0 -0.003650695807514591 0.0042872445275724553 0 -0.0037833312219943175 0.0043104021967832204 0 -0.0037029689500399131 0.0043955505586258086 0 -0.0037833312219943175 0.0043104021967832204 0 -0.0037029689500399131 0.0043955505586258086 0 -0.0038578694219346546 0.0043961946962509067 0 -0.0037029689500399131 0.0043955505586258086 0 -0.0035660851257940814 0.0044704040183918096 0 -0.003825006701639815 0.0044539441853275871 0 -0.0035629459865741801 0.0043925274386521478 0 -0.0035660851257940814 0.0044704040183918096 0 -0.003576812492481784 0.0044639950851405224 0 -0.0035629459865741801 0.0043925274386521478 0 -0.0037029689500399131 0.0043955505586258086 0 -0.0035660851257940814 0.0044704040183918096 0 -0.0035660851257940814 0.0044704040183918096 0 -0.003825006701639815 0.0044539441853275871 0 -0.0040292394425836134 0.0046217996033547648 0 -0.003825006701639815 0.0044539441853275871 0 -0.003976569684357693 0.0043814135568744405 0 -0.0040292394425836134 0.0046217996033547648 0 -0.0037029689500399131 0.0043955505586258086 0 -0.003825006701639815 0.0044539441853275871 0 -0.0038578694219346546 0.0043961946962509067 0 -0.003825006701639815 0.0044539441853275871 0 -0.0038578694219346546 0.0043961946962509067 0 -0.003976569684357693 0.0043814135568744405 0 -0.0037833312219943175 0.0043104021967832204 0 -0.0038578694219346546 0.0043961946962509067 0 -0.003976569684357693 0.0043814135568744405 0 -0.0037765421458229101 0.0041555211218965863 0 -0.0037833312219943175 0.0043104021967832204 0 -0.003976569684357693 0.0043814135568744405 0 -0.004681423758129662 0.00442329185212128 0 -0.004681301440338956 0.0044653997081773545 0 -0.0047031725296275955 0.0044247045002629559 0 -0.0037765421458229101 0.0041555211218965863 0 -0.003976569684357693 0.0043814135568744405 0 -0.0042100097330470231 0.0042633621556773292 0 -0.0042167554130548221 0.0043076342663907821 0 -0.004455105747734907 0.0043511369470978414 0 -0.004681301440338956 0.0044653997081773545 0 -0.0047031725296275955 0.0044247045002629559 0 -0.0046926345409764739 0.0044179687379396291 0 -0.0047031725296275955 0.0044247045002629559 0 -0.0046926345409764739 0.0044179687379396291 0 -0.0046768560193673437 0.0044171709870130093 0 -0.0047031725296275955 0.0044247045002629559 0 -0.0046768560193673437 0.0044171709870130093 0 -0.0046746075375688843 0.0044223559577916197 0 -0.003976569684357693 0.0043814135568744405 0 -0.0042913000100097218 0.0045191437379853601 0 -0.0040292394425836134 0.0046217996033547648 0 -0.003976569684357693 0.0043814135568744405 0 -0.0042100097330470231 0.0042633621556773292 0 -0.0042913000100097218 0.0045191437379853601 0 -0.0042100097330470231 0.0042633621556773292 0 -0.0042913000100097218 0.0045191437379853601 0 -0.0044637276130980903 0.0045102369373883795 0 -0.0042100097330470231 0.0042633621556773292 0 -0.0046585677422377372 0.0044488204519382984 0 -0.0044637276130980903 0.0045102369373883795 0 -0.004455105747734907 0.0043511369470978414 0 -0.0046473859202335582 0.0044370462803435375 0 -0.0046926345409764739 0.0044179687379396291 0 -0.0046585677422377372 0.0044488204519382984 0 -0.0046768560193673437 0.0044171709870130093 0 -0.0046585677422377372 0.0044488204519382984 0 -0.0047168368363021398 0.0045931090488900012 0 -0.0045945706875082093 0.0045622579471682346 0 -0.0046585677422377372 0.0044488204519382984 0 -0.0044637276130980903 0.0045102369373883795 0 -0.0045945706875082093 0.0045622579471682346 0 -0.0046585677422377372 0.0044488204519382984 0 -0.0046768560193673437 0.0044171709870130093 0 -0.0047092995688748458 0.0043957273425208289 0 -0.0046768560193673437 0.0044171709870130093 0 -0.0046746075375688843 0.0044223559577916197 0 -0.0047092995688748458 0.0043957273425208289 0 -0.0048255863483272002 0.0044538904496630501 0 -0.0048262673834190226 0.004456112210543435 0 -0.0048255863483272002 0.0044538904496630501 0 -0.0048538893950617066 0.0045216742455027395 0 -0.0047260994265449921 0.0044093368075973525 0 -0.0047031725296275955 0.0044247045002629559 0 -0.0046746075375688843 0.0044223559577916197 0 -0.0047260994265449921 0.0044093368075973525 0 -0.0046746075375688843 0.0044223559577916197 0 -0.0046854869577574679 0.0044650724183014105 0 -0.0049760477401657212 0.0044811797519992607 0 -0.0050254836963409006 0.0045742759795843113 0 -0.0049633565140537175 0.0045496795404383105 0 -0.0049745309934363232 0.0046562364848026123 0 -0.0050254836963409006 0.0045742759795843113 0 -0.0049633565140537175 0.0045496795404383105 0 -0.0051364305185131812 0.0040612574457779054 0 -0.0049995907375227477 0.004327170675072111 0 -0.0051231644706099819 0.0037001849855912827 0 -0.0049995907375227477 0.004327170675072111 0 -0.005000096851389209 0.0034970078185176221 0 -0.0051231644706099819 0.0037001849855912827 0 -0.0049633565140537175 0.0045496795404383105 0 -0.0049457042485899086 0.0045329364038223683 0 -0.0049516010092489982 0.0044773116560589288 0 -0.0049457042485899086 0.0045329364038223683 0 -0.0049797782376921739 0.0044433704078476188 0 -0.0049516010092489982 0.0044773116560589288 0 -0.0049466580320984633 0.0045753042318806645 0 -0.0049457042485899086 0.0045329364038223683 0 -0.0049797782376921739 0.0044433704078476188 0 -0.0049831549548726289 0.0044252581969641616 0 -0.0049516010092489982 0.0044773116560589288 0 -0.0049546323777852775 0.0044681766491111007 0 -0.0049797782376921739 0.0044433704078476188 0 -0.0049831549548726289 0.0044252581969641616 0 -0.0049516010092489982 0.0044773116560589288 0 -0.0049831549548726289 0.0044252581969641616 0 -0.0049546323777852775 0.0044681766491111007 0 -0.0049867774128420691 0.0044583822997863844 0 -0.0049760477401657212 0.0044811797519992607 0 -0.0049633565140537175 0.0045496795404383105 0 -0.0049516010092489982 0.0044773116560589288 0 -0.0049760477401657212 0.0044811797519992607 0 -0.0049516010092489982 0.0044773116560589288 0 -0.0049489883590778747 0.0044768382765155261 0 -0.0049516010092489982 0.0044773116560589288 0 -0.0049489883590778747 0.0044768382765155261 0 -0.0049546323777852775 0.0044681766491111007 0 -0.0049478085713299293 0.0044865941959237434 0 -0.0049291623576212806 0.0044909885282669662 0 -0.0049552654889480699 0.0045147766295749433 0 -0.0049760477401657212 0.0044811797519992607 0 -0.0049489883590778747 0.0044768382765155261 0 -0.0049291623576212806 0.0044909885282669662 0 -0.0049489883590778747 0.0044768382765155261 0 -0.0049478085713299293 0.0044865941959237434 0 -0.0049546323777852775 0.0044681766491111007 0 -0.0049489883590778747 0.0044768382765155261 0 -0.0049478085713299293 0.0044865941959237434 0 -0.0049291623576212806 0.0044909885282669662 0 -0.0049291623576212806 0.0044909885282669662 0 -0.0049400153884523882 0.0045417109154485972 0 -0.0049552654889480699 0.0045147766295749433 0 -0.0047092995688748458 0.0043957273425208289 0 -0.0047168368363021398 0.0045931090488900012 0 -0.0048212188168837364 0.0046213293224425071 0 -0.0046585677422377372 0.0044488204519382984 0 -0.0047092995688748458 0.0043957273425208289 0 -0.0047168368363021398 0.0045931090488900012 0 -0.0048262673834190226 0.004456112210543435 0 -0.0049125271086753082 0.004595499662651238 0 -0.0049291623576212806 0.0044909885282669662 0 -0.0049400153884523882 0.0045417109154485972 0 -0.0049144886421178162 0.0046035817578000873 0 -0.0047092995688748458 0.0043957273425208289 0 -0.0049144886421178162 0.0046035817578000873 0 -0.0048212188168837364 0.0046213293224425071 0 -0.0049801078996120586 0.0045597816199996399 0 -0.0049400153884523882 0.0045417109154485972 0 -0.0049144886421178162 0.0046035817578000873 0 -0.0049801078996120586 0.0045597816199996399 0 -0.0049400153884523882 0.0045417109154485972 0 -0.0049552654889480699 0.0045147766295749433 0 -0.0049801078996120586 0.0045597816199996399 0 -0.0049552654889480699 0.0045147766295749433 0 -0.0049932543618902009 0.0045129860650270099 0 -0.0049552654889480699 0.0045147766295749433 0 -0.0049932543618902009 0.0045129860650270099 0 -0.0049720305240352368 0.0044858157881163072 0 -0.0049932543618902009 0.0045129860650270099 0 -0.0049720305240352368 0.0044858157881163072 0 -0.0050165843340420685 0.0044829803228001444 0 -0.0049478085713299293 0.0044865941959237434 0 -0.0049552654889480699 0.0045147766295749433 0 -0.0049720305240352368 0.0044858157881163072 0 -0.0049478085713299293 0.0044865941959237434 0 -0.0049720305240352368 0.0044858157881163072 0 -0.0049546323777852775 0.0044681766491111007 0 -0.0049720305240352368 0.0044858157881163072 0 -0.0049867774128420691 0.0044583822997863844 0 -0.0050165843340420685 0.0044829803228001444 0 -0.0049720305240352368 0.0044858157881163072 0 -0.0049546323777852775 0.0044681766491111007 0 -0.0049867774128420691 0.0044583822997863844 0 -0.0049867774128420691 0.0044583822997863844 0 -0.0050165843340420685 0.0044829803228001444 0 -0.0050176388028089552 0.0044329398345683913 0 -0.0051364305185131812 0.0040612574457779054 0 -0.005165396329088922 0.0038683159733460329 0 -0.0051231644706099819 0.0037001849855912827 0 -0.0050641475319212264 0.0044751313838988036 0 -0.0050165843340420685 0.0044829803228001444 0 -0.0050551510088692525 0.0045789207348729327 0 -0.0050641475319212264 0.0044751313838988036 0 -0.0050165843340420685 0.0044829803228001444 0 -0.0050176388028089552 0.0044329398345683913 0 -0.0050985964367060823 0.0042452339385107996 0 -0.0050684321496754217 0.0043293484225080652 0 -0.0050467783569318105 0.0045523371780611501 0 -0.0050684321496754217 0.0043293484225080652 0 -0.0049932543618902009 0.0045129860650270099 0 -0.0050165843340420685 0.0044829803228001444 0 -0.0050417184289875926 0.0045303730767276562 0 -0.0049801078996120586 0.0045597816199996399 0 -0.0049932543618902009 0.0045129860650270099 0 -0.0050417184289875926 0.0045303730767276562 0 -0.0051364305185131812 0.0040612574457779054 0 -0.0050729756054778237 0.0042977652543719578 0 -0.0049995907375227477 0.004327170675072111 0 -0.0050641475319212264 0.0044751313838988036 0 -0.0050176388028089552 0.0044329398345683913 0 -0.0050729756054778237 0.0042977652543719578 0 -0.0050985964367060823 0.0042452339385107996 0 -0.0050814198767359991 0.0042973946905847625 0 -0.0049831549548726289 0.0044252581969641616 0 -0.0049867774128420691 0.0044583822997863844 0 -0.0050176388028089552 0.0044329398345683913 0 -0.0049831549548726289 0.0044252581969641616 0 -0.0050176388028089552 0.0044329398345683913 0 -0.0050729756054778237 0.0042977652543719578 0 -0.0049797782376921739 0.0044433704078476188 0 -0.0049831549548726289 0.0044252581969641616 0 -0.0050729756054778237 0.0042977652543719578 0 -0.0049466580320984633 0.0045753042318806645 0 -0.0050729756054778237 0.0042977652543719578 0 -0.0049995907375227477 0.004327170675072111 0 -0.0049466580320984633 0.0045753042318806645 0 -0.0049797782376921739 0.0044433704078476188 0 -0.0050729756054778237 0.0042977652543719578 0 -0.0049999671821303014 0.0032713776848174178 0 -0.0052162118947110701 0.0032599988600735875 0 -0.0051163996414814155 0.0031024350837930417 0 -0.003205135735422613 0.0044892366150292269 0 -0.003235154610113697 0.004368501393881963 0 -0.0031334799846552855 0.0044338961066622698 0 -0.0052162118947110701 0.0032599988600735875 0 -0.0051118079037423894 0.0033659716696274999 0 -0.0052023920922672521 0.0035468275190118264 0 -0.0041655594708649634 0.0038413317208674629 0 -0.004578222118882278 0.0040451963138845755 0 -0.0050000000788897837 0.0032713724944920578 0 -0.0049999988277535891 0.0034971347301628319 0 -0.0050936033145591595 0.0035186908766241679 0 -0.0049999671821303014 0.0032713776848174178 0 -0.0052162118947110701 0.0032599988600735875 0 -0.0051118079037423894 0.0033659716696274999 0 -0.0049999671821303014 0.0032713776848174178 0 -0.0051118079037423894 0.0033659716696274999 0 -0.0050798265315287845 0.0035163701587690365 0 -0.005000022468192168 0.0032712998668305449 0 -0.0050204547143974116 0.0036188950606793296 0 -0.005000096851389209 0.0034970078185176221 0 -0.0050841552764530167 0.0035275931498675592 0 -0.0051231644706099819 0.0037001849855912827 0 -0.0051118079037423894 0.0033659716696274999 0 -0.0050798265315287845 0.0035163701587690365 0 -0.0052023920922672521 0.0035468275190118264 0 -0.0050000313089499692 0.0034972266654944443 0 -0.0050204547143974116 0.0036188950606793296 0 -0.0050204547143974116 0.0036188950606793296 0 -0.0049831456960169138 0.0038171310669226593 0 -0.0049595372852951833 0.0042404426919490845 0 -0.0048724608174142009 0.0040141440210769794 0 -0.0049726166287725956 0.003831386168902729 0 -0.0050684321496754217 0.0043293484225080652 0 -0.004578222118882278 0.0040451963138845755 0 -0.0049801078996120586 0.0045597816199996399 0 -0.0050417184289875926 0.0045303730767276562 0 -0.0050474036039297385 0.0046940113892452503 0 -0.0050684321496754217 0.0043293484225080652 0 -0.0049831456960169138 0.0038171310669226593 0 -0.0047870994977001974 0.0037882351729753875 0 -0.0048724608174142009 0.0040141440210769794 0 -0.0049726166287725956 0.003831386168902729 0 -0.0050204547143974116 0.0036188950606793296 0 -0.004578222118882278 0.0040451963138845755 0 -0.003235154610113697 0.004368501393881963 0 -0.0031286694637727166 0.0043449267146490854 0 -0.0031334799846552855 0.0044338961066622698 0 -0.004578222118882278 0.0040451963138845755 0 -0.003912061625135483 0.0045650981115208959 0 -0.0049801078996120586 0.0045597816199996399 0 -0.0050474036039297385 0.0046940113892452503 0 -0.0049144886421178162 0.0046035817578000873 0 -0.0050474036039297385 0.0046940113892452503 0 -0.0049144886421178162 0.0046035817578000873 0 -0.0048712348655010757 0.0046889276180475175 0 -0.0049144886421178162 0.0046035817578000873 0 -0.0048212188168837364 0.0046213293224425071 0 -0.0048712348655010757 0.0046889276180475175 0 -0.0047168368363021398 0.0045931090488900012 0 -0.0048712348655010757 0.0046889276180475175 0 -0.0045205454983552737 0.0046915707794083208 0 -0.003912061625135483 0.0045650981115208959 0 -0.0037888448818787757 0.0045219343019894144 0 -0.0031286694637727166 0.0043449267146490854 0 -0.0030696593221048556 0.0043654645805449414 0 -0.0030179778325881146 0.0043614610591290424 0 -0.0047168368363021398 0.0045931090488900012 0 -0.0048212188168837364 0.0046213293224425071 0 -0.0048712348655010757 0.0046889276180475175 0 -0.0031286694637727166 0.0043449267146490854 0 -0.0031004660220000906 0.0043922173284034159 0 -0.0031334799846552855 0.0044338961066622698 0 -0.0030696593221048556 0.0043654645805449414 0 -0.0031004660220000906 0.0043922173284034159 0 -0.0030683392501150261 0.004382888091688718 0 -0.0031286694637727166 0.0043449267146490854 0 -0.0030696593221048556 0.0043654645805449414 0 -0.0031004660220000906 0.0043922173284034159 0 -0.0031004660220000906 0.0043922173284034159 0 -0.0030683392501150261 0.004382888091688718 0 -0.0030753428185758915 0.0044248783099611602 0 -0.0030753428185758915 0.0044248783099611602 0 -0.0031334799846552855 0.0044338961066622698 0 -0.0030762381499765744 0.0044914824737093623 0 -0.0031004660220000906 0.0043922173284034159 0 -0.0030753428185758915 0.0044248783099611602 0 -0.0031334799846552855 0.0044338961066622698 0 -0.003205135735422613 0.0044892366150292269 0 -0.0031334799846552855 0.0044338961066622698 0 -0.0031277499649989306 0.0045452443230161637 0 -0.0030762381499765744 0.0044914824737093623 0 -0.0030718859699804006 0.0045591773878422151 0 -0.0031277499649989306 0.0045452443230161637 0 -0.0031334799846552855 0.0044338961066622698 0 -0.0030762381499765744 0.0044914824737093623 0 -0.0031277499649989306 0.0045452443230161637 0 -0.0030762381499765744 0.0044914824737093623 0 -0.0030229009355340498 0.0045302042654577525 0 -0.0030073568823321024 0.0044481110832683309 0 -0.0030762381499765744 0.0044914824737093623 0 -0.0030229009355340498 0.0045302042654577525 0 -0.0030718859699804006 0.0045591773878422151 0 -0.0030229009355340498 0.0045302042654577525 0 -0.0029316649989939475 0.0045394437170872435 0 -0.0030113904995671872 0.0045910612676271691 0 -0.0030229009355340498 0.0045302042654577525 0 -0.0029316649989939475 0.0045394437170872435 0 -0.0030073568823321024 0.0044481110832683309 0 -0.0029316649989939475 0.0045394437170872435 0 -0.0029217431271279688 0.0044500438134409681 0 -0.0030073568823321024 0.0044481110832683309 0 -0.0029217431271279688 0.0044500438134409681 0 -0.0030073568823321024 0.0044481110832683309 0 -0.002969770106359548 0.0043773849985646223 0 -0.0030753428185758915 0.0044248783099611602 0 -0.0030762381499765744 0.0044914824737093623 0 -0.0030073568823321024 0.0044481110832683309 0 -0.0030753428185758915 0.0044248783099611602 0 -0.0030073568823321024 0.0044481110832683309 0 -0.0030356990824937807 0.0043842876562437769 0 -0.0030683392501150261 0.004382888091688718 0 -0.0030753428185758915 0.0044248783099611602 0 -0.0030356990824937807 0.0043842876562437769 0 -0.0030356990824937807 0.0043842876562437769 0 -0.0030451379933433866 0.0043576662104551139 0 -0.0030453783157800593 0.0043199552237737351 0 -0.0030696593221048556 0.0043654645805449414 0 -0.0030683392501150261 0.004382888091688718 0 -0.0030451379933433866 0.0043576662104551139 0 -0.0030683392501150261 0.004382888091688718 0 -0.0030356990824937807 0.0043842876562437769 0 -0.0030451379933433866 0.0043576662104551139 0 -0.0030696593221048556 0.0043654645805449414 0 -0.0030451379933433866 0.0043576662104551139 0 -0.0030179778325881146 0.0043614610591290424 0 -0.0030451379933433866 0.0043576662104551139 0 -0.0030179778325881146 0.0043614610591290424 0 -0.0030453783157800593 0.0043199552237737351 0 -0.0044637276130980903 0.0045102369373883795 0 -0.0045205454983552737 0.0046915707794083208 0 -0.0045945706875082093 0.0045622579471682346 0 -0.0042913000100097218 0.0045191437379853601 0 -0.0044637276130980903 0.0045102369373883795 0 -0.0045205454983552737 0.0046915707794083208 0 -0.0047168368363021398 0.0045931090488900012 0 -0.0045205454983552737 0.0046915707794083208 0 -0.0045945706875082093 0.0045622579471682346 0 -0.0030384092807918131 0.0043164452588998438 0 -0.0031274934462648747 0.0043092059944471045 0 -0.0037888448818787757 0.0045219343019894144 0 -0.0036496099842076505 0.0045267966126262514 0 -0.0030453783157800593 0.0043199552237737351 0 -0.0033575075741200623 0.0043647829988203869 0 -0.0032771903037040364 0.0044489671977650377 0 -0.0030179778325881146 0.0043614610591290424 0 -0.0030453783157800593 0.0043199552237737351 0 -0.0032771903037040364 0.0044489671977650377 0 -0.0042913000100097218 0.0045191437379853601 0 -0.0045205454983552737 0.0046915707794083208 0 -0.0040292394425836134 0.0046217996033547648 0 -0.0030453783157800593 0.0043199552237737351 0 -0.002969770106359548 0.0043773849985646223 0 -0.0028343155476982422 0.0042593411056809482 0 -0.0030356990824937807 0.0043842876562437769 0 -0.0030453783157800593 0.0043199552237737351 0 -0.002969770106359548 0.0043773849985646223 0 -0.0030073568823321024 0.0044481110832683309 0 -0.0030356990824937807 0.0043842876562437769 0 -0.002969770106359548 0.0043773849985646223 0 -0.0029217431271279688 0.0044500438134409681 0 -0.002969770106359548 0.0043773849985646223 0 -0.0028830108457060678 0.0043789303770672694 0 -0.002969770106359548 0.0043773849985646223 0 -0.0028830108457060678 0.0043789303770672694 0 -0.0028343155476982422 0.0042593411056809482 0 -0.0028830108457060678 0.0043789303770672694 0 -0.0028215684632225116 0.0043404447936765157 0 -0.0028343155476982422 0.0042593411056809482 0 -0.0028830108457060678 0.0043789303770672694 0 -0.0028215684632225116 0.0043404447936765157 0 -0.0028025854244699798 0.0044746058556547706 0 -0.0028215684632225116 0.0043404447936765157 0 -0.0027437133728800637 0.0043432302726971921 0 -0.0028025854244699798 0.0044746058556547706 0 -0.0028215684632225116 0.0043404447936765157 0 -0.0028343155476982422 0.0042593411056809482 0 -0.0027437133728800637 0.0043432302726971921 0 -0.0035660851257940814 0.0044704040183918096 0 -0.0033575075741200623 0.0043647829988203869 0 -0.0032771903037040364 0.0044489671977650377 0 -0.0035716518780850178 0.0044819424995216654 0 -0.0036496099842076505 0.0045267966126262514 0 -0.0035660851257940814 0.0044704040183918096 0 -0.0033575075741200623 0.0043647829988203869 0 -0.003576812492481784 0.0044639950851405224 0 -0.0026766894707023251 0.0044420460772338988 0 -0.0025972042249863461 0.0044284001168112619 0 -0.0026062122817827717 0.0044549947295247578 0 -0.0026744884416158065 0.0043581741049972377 0 -0.0029555664810919724 0.0044463943179258924 0 -0.0031274934462648747 0.0043092059944471045 0 -0.0029555664810919724 0.0044463943179258924 0 -0.0028343155476982422 0.0042593411056809482 0 -0.0027437133728800637 0.0043432302726971921 0 -0.0026730788989764824 0.0042233497858214439 0 -0.0026766894707023251 0.0044420460772338988 0 -0.0026062122817827717 0.0044549947295247578 0 -0.0026145712784484275 0.0044893760022149754 0 -0.0026744884416158065 0.0043581741049972377 0 -0.0028062181140224088 0.0044940496130506588 0 -0.0026766894707023251 0.0044420460772338988 0 -0.0028025854244699798 0.0044746058556547706 0 -0.0026145712784484275 0.0044893760022149754 0 -0.0028025854244699798 0.0044746058556547706 0 -0.0026641967454880408 0.0045669887553372512 0 -0.0026145712784484275 0.0044893760022149754 0 -0.0029316649989939475 0.0045394437170872435 0 -0.0029217431271279688 0.0044500438134409681 0 -0.0028025854244699798 0.0044746058556547706 0 -0.0029217431271279688 0.0044500438134409681 0 -0.0028830108457060678 0.0043789303770672694 0 -0.0028025854244699798 0.0044746058556547706 0 -0.0029316649989939475 0.0045394437170872435 0 -0.0028025854244699798 0.0044746058556547706 0 -0.0027953828464552539 0.0046000532682614623 0 -0.0028025854244699798 0.0044746058556547706 0 -0.0026641967454880408 0.0045669887553372512 0 -0.0027953828464552539 0.0046000532682614623 0 -0.0027953828464552539 0.0046000532682614623 0 -0.0027688815120739409 0.0047188091639223436 0 -0.0026523952428552313 0.0046663323366806699 0 -0.0026641967454880408 0.0045669887553372512 0 -0.0027953828464552539 0.0046000532682614623 0 -0.0026523952428552313 0.0046663323366806699 0 -0.0029316649989939475 0.0045394437170872435 0 -0.0027953828464552539 0.0046000532682614623 0 -0.0029213076393904643 0.0046579965832561189 0 -0.0027953828464552539 0.0046000532682614623 0 -0.0029213076393904643 0.0046579965832561189 0 -0.0027688815120739409 0.0047188091639223436 0 -0.00290571654644123 0.0047951960494023085 0 -0.0029213076393904643 0.0046579965832561189 0 -0.0027688815120739409 0.0047188091639223436 0 -0.00290571654644123 0.0047951960494023085 0 -0.0027356284259484093 0.0048211187397364692 0 -0.0027688815120739409 0.0047188091639223436 0 -0.0027688815120739409 0.0047188091639223436 0 -0.0026523952428552313 0.0046663323366806699 0 -0.0026520200190495598 0.0047748860021524413 0 -0.0027356284259484093 0.0048211187397364692 0 -0.0026520200190495598 0.0047748860021524413 0 -0.0026427491128990965 0.0048840252550911714 0 -0.0027356284259484093 0.0048211187397364692 0 -0.0027688815120739409 0.0047188091639223436 0 -0.0026520200190495598 0.0047748860021524413 0 -0.0025992255061432707 0.0027830902500739509 0 -0.0026006695827937363 0.002796969034293727 0 -0.0026077587486910236 0.0027807893038070278 0 -0.0027356284259484093 0.0048211187397364692 0 -0.0028193655351058276 0.0048845136496094566 0 -0.0026427491128990965 0.0048840252550911714 0 -0.0026887798697006787 0.0041460350160529499 0 -0.0025792833951363029 0.003810892116573557 0 -0.0026887798697006787 0.0041460350160529499 0 -0.0026295873620549377 0.0049275595388766731 0 -0.0027092587443302129 0.0048579305107950615 0 -0.00255300702838277 0.0049116675983161689 0 -0.0025749848727214535 0.0048693384781565638 0 -0.0025992255061432707 0.0027830902500739509 0 -0.0026077587486910236 0.0027807893038070278 0 -0.0026056847252995071 0.0027725951971151004 0 -0.0025992255061432707 0.0027830902500739509 0 -0.0026006695827937363 0.002796969034293727 0 -0.002590250536478315 0.0028043355506775377 0 -0.00290571654644123 0.0047951960494023085 0 -0.0027356284259484093 0.0048211187397364692 0 -0.0028193655351058276 0.0048845136496094566 0 -0.0026887798697006787 0.0041460350160529499 0 -0.0029966471782811206 0.0045879691100039503 0 -0.00290571654644123 0.0047951960494023085 0 -0.0028193655351058276 0.0048845136496094566 0 -0.0030247544151446593 0.0048453081139026091 0 -0.0026887798697006787 0.0041460350160529499 0 -0.002942664463595198 0.0038865034861125199 0 -0.0027135230596313595 0.0041726604072734336 0 -0.0029615591974505727 0.0041237097525373499 0 -0.0030013687126620651 0.0041915624412396579 0 -0.00302983669613536 0.0046276368870640256 0 -0.0030364895487714968 0.0046382322167687305 0 -0.003048069294949171 0.0046258262563423896 0 -0.0029966471782811206 0.0045879691100039503 0 -0.0030354446901750104 0.0046110013540661583 0 -0.0029966471782811206 0.0045879691100039503 0 -0.002942664463595198 0.0038865034861125199 0 -0.0025992255061432707 0.0027830902500739509 0 -0.002590250536478315 0.0028043355506775377 0 -0.0025915842048466788 0.002776958191437722 0 -0.002590250536478315 0.0028043355506775377 0 -0.0025800954191194411 0.0027846980851597429 0 -0.0025915842048466788 0.002776958191437722 0 -0.0038251096540191146 0.0045657049646272308 0 -0.0035216703354891961 0.0043307052946741009 0 -0.003581743018674483 0.0040901537696081992 0 -0.002942664463595198 0.0038865034861125199 0 -0.0033749412278725297 0.00350562528310551 0 -0.0038251096540191146 0.0045657049646272308 0 -0.0035241213321232602 0.0045523557065420646 0 -0.0035216703354891961 0.0043307052946741009 0 -0.002942664463595198 0.0038865034861125199 0 -0.0033936759383835394 0.0045823004290950348 0 -0.0030364895487714968 0.0046382322167687305 0 -0.003048069294949171 0.0046258262563423896 0 -0.0030927304169132484 0.0046167959230382569 0 -0.003048069294949171 0.0046258262563423896 0 -0.0031077631482318811 0.0045902558244923994 0 -0.0030927304169132484 0.0046167959230382569 0 -0.003048069294949171 0.0046258262563423896 0 -0.0030640974752510152 0.0045969880834012163 0 -0.0031077631482318811 0.0045902558244923994 0 -0.0030640974752510152 0.0045969880834012163 0 -0.0030034217945378045 0.0046306278344021359 0 -0.0030113904995671872 0.0045910612676271691 0 -0.003048069294949171 0.0046258262563423896 0 -0.0030640974752510152 0.0045969880834012163 0 -0.0030034217945378045 0.0046306278344021359 0 -0.0030096387043087023 0.0046508780992570702 0 -0.003048069294949171 0.0046258262563423896 0 -0.0030034217945378045 0.0046306278344021359 0 -0.00290571654644123 0.0047951960494023085 0 -0.0029213076393904643 0.0046579965832561189 0 -0.0030247544151446593 0.0048453081139026091 0 -0.0029213076393904643 0.0046579965832561189 0 -0.0030096387043087023 0.0046508780992570702 0 -0.0030034217945378045 0.0046306278344021359 0 -0.002951663823572352 0.0047106254227920552 0 -0.0029966471782811206 0.0045879691100039503 0 -0.0029213076393904643 0.0046579965832561189 0 -0.0030034217945378045 0.0046306278344021359 0 -0.0030113904995671872 0.0045910612676271691 0 -0.0029316649989939475 0.0045394437170872435 0 -0.0029213076393904643 0.0046579965832561189 0 -0.0030113904995671872 0.0045910612676271691 0 -0.0030229009355340498 0.0045302042654577525 0 -0.0030113904995671872 0.0045910612676271691 0 -0.0030718859699804006 0.0045591773878422151 0 -0.0030640974752510152 0.0045969880834012163 0 -0.0030113904995671872 0.0045910612676271691 0 -0.0030718859699804006 0.0045591773878422151 0 -0.0030718859699804006 0.0045591773878422151 0 -0.0031277499649989306 0.0045452443230161637 0 -0.0031039238501511099 0.0045776661567690094 0 -0.0030640974752510152 0.0045969880834012163 0 -0.0030718859699804006 0.0045591773878422151 0 -0.0031039238501511099 0.0045776661567690094 0 -0.0031277499649989306 0.0045452443230161637 0 -0.0031285178433786147 0.004578317968138625 0 -0.0031039238501511099 0.0045776661567690094 0 -0.0031277499649989306 0.0045452443230161637 0 -0.0031285178433786147 0.004578317968138625 0 -0.0031373650732377909 0.0045765844783245864 0 -0.0031285178433786147 0.004578317968138625 0 -0.0031039238501511099 0.0045776661567690094 0 -0.0031077631482318811 0.0045902558244923994 0 -0.0030640974752510152 0.0045969880834012163 0 -0.0031039238501511099 0.0045776661567690094 0 -0.0031077631482318811 0.0045902558244923994 0 -0.0031285178433786147 0.004578317968138625 0 -0.0031077631482318811 0.0045902558244923994 0 -0.0031671300659153819 0.0045281603121618309 0 -0.0035241213321232602 0.0045523557065420646 0 -0.0035216703354891961 0.0043307052946741009 0 -0.0031671300659153819 0.0045281603121618309 0 -0.0033936759383835394 0.0045823004290950348 0 -0.0031452036838348738 0.0045422436990954435 0 -0.0031077631482318811 0.0045902558244923994 0 -0.0030927304169132484 0.0046167959230382569 0 -0.0031671300659153819 0.0045281603121618309 0 -0.0035216703354891961 0.0043307052946741009 0 -0.0033116487098137546 0.0042764470597068584 0 -0.0031671300659153819 0.0045281603121618309 0 -0.0033116487098137546 0.0042764470597068584 0 -0.0034500734965330166 0.0042071499861235538 0 -0.003391404671748594 0.004123087648065623 0 -0.0035216703354891961 0.0043307052946741009 0 -0.0035049728369639321 0.0041953087888844361 0 -0.003581743018674483 0.0040901537696081992 0 -0.0035216703354891961 0.0043307052946741009 0 -0.0033116487098137546 0.0042764470597068584 0 -0.0034500734965330166 0.0042071499861235538 0 -0.0035216703354891961 0.0043307052946741009 0 -0.0034500734965330166 0.0042071499861235538 0 -0.0035049728369639321 0.0041953087888844361 0 -0.0034500734965330166 0.0042071499861235538 0 -0.0035049728369639321 0.0041953087888844361 0 -0.0034809877543120833 0.0041276529901080657 0 -0.0031094719571751086 0.0043509514787498744 0 -0.003016096724142125 0.0044892403091924948 0 -0.0030173585560640316 0.0041389267568745225 0 -0.0031094719571751086 0.0043509514787498744 0 -0.0031671300659153819 0.0045281603121618309 0 -0.003016096724142125 0.0044892403091924948 0 -0.0033116487098137546 0.0042764470597068584 0 -0.0031094719571751086 0.0043509514787498744 0 -0.0032203590500434641 0.0040929236220032762 0 -0.0031094719571751086 0.0043509514787498744 0 -0.0032203590500434641 0.0040929236220032762 0 -0.0030173585560640316 0.0041389267568745225 0 -0.0033116487098137546 0.0042764470597068584 0 -0.0031094719571751086 0.0043509514787498744 0 -0.0031671300659153819 0.0045281603121618309 0 -0.0031285178433786147 0.004578317968138625 0 -0.0031671300659153819 0.0045281603121618309 0 -0.003016096724142125 0.0044892403091924948 0 -0.005214853710635149 0.0026927884179509362 0 -0.0051154912898943089 0.0027512174672885614 0 -0.0051530721802879537 0.0028894587338588879 0 -0.0044246561541833622 0.0033764900525173943 0 -0.0053541071062078258 0.0025753488840372482 0 -0.005214853710635149 0.0026927884179509362 0 -0.0051337434506362623 0.0026411086069507385 0 -0.0051154912898943089 0.0027512174672885614 0 -0.0044246561541833622 0.0033764900525173943 0 -0.0047520583602670679 0.002869951174957966 0 -0.005214853710635149 0.0026927884179509362 0 -0.0051337434506362623 0.0026411086069507385 0 -0.0052066488448458534 0.0025371215468367324 0 -0.004294274310764002 0.0033770013396563067 0 -0.0042977641727073744 0.0032140361886351678 0 -0.0043579458899172417 0.003216813744004815 0 -0.0044246561541833622 0.0033764900525173943 0 -0.0035794036234253718 0.0038303171717998215 0 -0.0051337434506362623 0.0026411086069507385 0 -0.0051190045939194387 0.0025435458403633877 0 -0.0052066488448458534 0.0025371215468367324 0 -0.0049999978683289252 0.0026959879227770032 0 -0.0051462443260889158 0.0024889689159982155 0 -0.0051337434506362623 0.0026411086069507385 0 -0.0049999921128467788 0.0026960641714423627 0 -0.0051190045939194387 0.0025435458403633877 0 -0.0049999971274570952 0.0025080223105325263 0 -0.005000001521931894 0.0026959833110568672 0 -0.0051336947855122944 0.0024763078291907084 0 -0.0051337434506362623 0.0026411086069507385 0 -0.0049999921128467788 0.0026960641714423627 0 -0.0051154912898943089 0.0027512174672885614 0 -0.0049999921128467788 0.0026960641714423627 0 -0.0051154912898943089 0.0027512174672885614 0 -0.0049999932045400363 0.0029836683615520358 0 -0.0051530721802879537 0.0028894587338588879 0 -0.0049999932045400363 0.0029836683615520358 0 -0.005114851800490019 0.0029898893055760214 0 -0.0051154912898943089 0.0027512174672885614 0 -0.0051530721802879537 0.0028894587338588879 0 -0.0049999932045400363 0.0029836683615520358 0 -0.0051924277482105772 0.0027516383007974957 0 -0.0051530721802879537 0.0028894587338588879 0 -0.0052169358862016631 0.0029659191943896038 0 -0.0044246561541833622 0.0033764900525173943 0 -0.0041355636264728763 0.0038270091030369129 0 -0.0031285178433786147 0.004578317968138625 0 -0.003016096724142125 0.0044892403091924948 0 -0.0031373650732377909 0.0045765844783245864 0 -0.0051530721802879537 0.0028894587338588879 0 -0.0052169358862016631 0.0029659191943896038 0 -0.005114851800490019 0.0029898893055760214 0 -0.0052162118947110701 0.0032599988600735875 0 -0.0052169358862016631 0.0029659191943896038 0 -0.0051163996414814155 0.0031024350837930417 0 -0.003205135735422613 0.0044892366150292269 0 -0.0031277499649989306 0.0045452443230161637 0 -0.0031373650732377909 0.0045765844783245864 0 -0.0041655594708649634 0.0038413317208674629 0 -0.0041355636264728763 0.0038270091030369129 0 -0.0052169358862016631 0.0029659191943896038 0 -0.0051163996414814155 0.0031024350837930417 0 -0.005114851800490019 0.0029898893055760214 0 -0.0049999671821303014 0.0032713776848174178 0 -0.0051163996414814155 0.0031024350837930417 0 -0.0049999932045400363 0.0029836683615520358 0 -0.0051163996414814155 0.0031024350837930417 0 -0.0049999932045400363 0.0029836683615520358 0 -0.005114851800490019 0.0029898893055760214 0 -0.002111698490680435 0.0047047885145882927 0 -0.0021915942705903386 0.0046927674575665476 0 -0.0021563383111097485 0.0047697513265071096 0 -0.0021915942705903386 0.0046927674575665476 0 -0.0021563383111097485 0.0047697513265071096 0 -0.0022815382834105594 0.0047373295278681444 0 -0.002111698490680435 0.0047047885145882927 0 -0.0021563383111097485 0.0047697513265071096 0 -0.0020474555220993573 0.0047421843749417226 0 -0.0021563383111097485 0.0047697513265071096 0 -0.0020474555220993573 0.0047421843749417226 0 -0.0020334769168676601 0.0047870468904990257 0 -0.0020474555220993573 0.0047421843749417226 0 -0.0019802681470091439 0.0047726082307166561 0 -0.0020334769168676601 0.0047870468904990257 0 -0.0020474555220993573 0.0047421843749417226 0 -0.0019802681470091439 0.0047726082307166561 0 -0.0019720839976581639 0.0047278209833840814 0 -0.0020474555220993573 0.0047421843749417226 0 -0.0019720839976581639 0.0047278209833840814 0 -0.0020351499971997104 0.0046941369846052808 0 -0.002111698490680435 0.0047047885145882927 0 -0.0020474555220993573 0.0047421843749417226 0 -0.0020351499971997104 0.0046941369846052808 0 -0.0019509912873734068 0.0047011627232749296 0 -0.0020351499971997104 0.0046941369846052808 0 -0.0020168180452008956 0.0046326304707799224 0 -0.0019509912873734068 0.0047011627232749296 0 -0.0019720839976581639 0.0047278209833840814 0 -0.0020351499971997104 0.0046941369846052808 0 -0.0020294062483357973 0.0046682278286887344 0 -0.0021264138054478843 0.0046399052889982556 0 -0.0020351499971997104 0.0046941369846052808 0 -0.0020168180452008956 0.0046326304707799224 0 -0.002135394535941687 0.0046329017379338963 0 -0.0021141945805726618 0.004616110579421768 0 -0.0020454160113451089 0.0047056796942911644 0 -0.002135394535941687 0.0046329017379338963 0 -0.002111698490680435 0.0047047885145882927 0 -0.0021915942705903386 0.0046927674575665476 0 -0.002135394535941687 0.0046329017379338963 0 -0.002111698490680435 0.0047047885145882927 0 -0.0020351499971997104 0.0046941369846052808 0 -0.002135394535941687 0.0046329017379338963 0 -0.0021915942705903386 0.0046927674575665476 0 -0.002135394535941687 0.0046329017379338963 0 -0.0022180187091290033 0.0046171207838688411 0 -0.0022043608583832918 0.0045747842838969443 0 -0.002135394535941687 0.0046329017379338963 0 -0.0022180187091290033 0.0046171207838688411 0 -0.0022043608583832918 0.0045747842838969443 0 -0.0022180187091290033 0.0046171207838688411 0 -0.0022705236308881113 0.0045631131758455358 0 -0.0022180187091290033 0.0046171207838688411 0 -0.0022705236308881113 0.0045631131758455358 0 -0.002306173534456678 0.0046258636332432721 0 -0.0022705236308881113 0.0045631131758455358 0 -0.0023072272071545143 0.0045415016696486003 0 -0.002330322769018203 0.0045611645534923079 0 -0.0022705236308881113 0.0045631131758455358 0 -0.002330322769018203 0.0045611645534923079 0 -0.002306173534456678 0.0046258636332432721 0 -0.0023302604693674822 0.0045105254497204315 0 -0.0023072272071545143 0.0045415016696486003 0 -0.0023508064272110339 0.0045279129870271625 0 -0.0023072272071545143 0.0045415016696486003 0 -0.002330322769018203 0.0045611645534923079 0 -0.0023508064272110339 0.0045279129870271625 0 -0.002330322769018203 0.0045611645534923079 0 -0.0023508064272110339 0.0045279129870271625 0 -0.0023766001496686212 0.0045656035400877919 0 -0.0024070745363027036 0.0044919794036013651 0 -0.0023508064272110339 0.0045279129870271625 0 -0.0023766001496686212 0.0045656035400877919 0 -0.0023624122479130091 0.0045052996440746304 0 -0.0024070745363027036 0.0044919794036013651 0 -0.0023508064272110339 0.0045279129870271625 0 -0.002330322769018203 0.0045611645534923079 0 -0.0023766001496686212 0.0045656035400877919 0 -0.002306173534456678 0.0046258636332432721 0 -0.0023766001496686212 0.0045656035400877919 0 -0.002306173534456678 0.0046258636332432721 0 -0.0023890777920229913 0.0046946748235513853 0 -0.0021915942705903386 0.0046927674575665476 0 -0.0022180187091290033 0.0046171207838688411 0 -0.002306173534456678 0.0046258636332432721 0 -0.0025500503697133861 0.0045005205588299077 0 -0.0029555664810919724 0.0044463943179258924 0 -0.0025155374773268 0.0044531873205184711 0 -0.0025972042249863461 0.0044284001168112619 0 -0.0025490778815361551 0.0044684558051066988 0 -0.0025972042249863461 0.0044284001168112619 0 -0.0025490778815361551 0.0044684558051066988 0 -0.0026062122817827717 0.0044549947295247578 0 -0.0025155374773268 0.0044531873205184711 0 -0.0025490778815361551 0.0044684558051066988 0 -0.0024799372883186348 0.0044898120706679742 0 -0.0025155374773268 0.0044531873205184711 0 -0.0024070745363027036 0.0044919794036013651 0 -0.0024799372883186348 0.0044898120706679742 0 -0.0024070745363027036 0.0044919794036013651 0 -0.0023766001496686212 0.0045656035400877919 0 -0.0024799372883186348 0.0044898120706679742 0 -0.0023766001496686212 0.0045656035400877919 0 -0.0024799372883186348 0.0044898120706679742 0 -0.0023890777920229913 0.0046946748235513853 0 -0.0025490778815361551 0.0044684558051066988 0 -0.0025733577486222558 0.0044742381145001777 0 -0.0025304016568473376 0.0044853267187636176 0 -0.0025490778815361551 0.0044684558051066988 0 -0.0024799372883186348 0.0044898120706679742 0 -0.0025304016568473376 0.0044853267187636176 0 -0.0024780162899768659 0.0044877308116936729 0 -0.0024590796697203715 0.0045856956770480174 0 -0.0025733577486222558 0.0044742381145001777 0 -0.0026062122817827717 0.0044549947295247578 0 -0.0026145712784484275 0.0044893760022149754 0 -0.0025490778815361551 0.0044684558051066988 0 -0.0025733577486222558 0.0044742381145001777 0 -0.0026062122817827717 0.0044549947295247578 0 -0.0025733577486222558 0.0044742381145001777 0 -0.0026145712784484275 0.0044893760022149754 0 -0.0025304016568473376 0.0044853267187636176 0 -0.0026145712784484275 0.0044893760022149754 0 -0.0025304016568473376 0.0044853267187636176 0 -0.0024835088629052205 0.0046041075061016845 0 -0.0024590796697203715 0.0045856956770480174 0 -0.0024253982124990804 0.0046973707115143771 0 -0.0026641967454880408 0.0045669887553372512 0 -0.0026145712784484275 0.0044893760022149754 0 -0.0024835088629052205 0.0046041075061016845 0 -0.0021915942705903386 0.0046927674575665476 0 -0.002306173534456678 0.0046258636332432721 0 -0.0022815382834105594 0.0047373295278681444 0 -0.002306173534456678 0.0046258636332432721 0 -0.0023890777920229913 0.0046946748235513853 0 -0.0022815382834105594 0.0047373295278681444 0 -0.0023890777920229913 0.0046946748235513853 0 -0.0022815382834105594 0.0047373295278681444 0 -0.0023664983282713019 0.0047773774154241345 0 -0.0022815382834105594 0.0047373295278681444 0 -0.0022723966976838789 0.0048038527538734029 0 -0.0023664983282713019 0.0047773774154241345 0 -0.0021563383111097485 0.0047697513265071096 0 -0.0022815382834105594 0.0047373295278681444 0 -0.0022723966976838789 0.0048038527538734029 0 -0.0022723966976838789 0.0048038527538734029 0 -0.0023319903033491196 0.004836694637568628 0 -0.0023664983282713019 0.0047773774154241345 0 -0.0023319903033491196 0.004836694637568628 0 -0.0023664983282713019 0.0047773774154241345 0 -0.0024003515403064222 0.004847467662974142 0 -0.0023319903033491196 0.004836694637568628 0 -0.0024003515403064222 0.004847467662974142 0 -0.0023551605093474854 0.0048686644471044611 0 -0.0023319903033491196 0.004836694637568628 0 -0.0022694629214326106 0.0048571138198999315 0 -0.0023130926011294892 0.0048972010840318001 0 -0.0023319903033491196 0.004836694637568628 0 -0.0023130926011294892 0.0048972010840318001 0 -0.0023551605093474854 0.0048686644471044611 0 -0.0022694629214326106 0.0048571138198999315 0 -0.0022289869709852216 0.0049071099431955006 0 -0.0021957671756685968 0.0048404242811585819 0 -0.0022723966976838789 0.0048038527538734029 0 -0.0022694629214326106 0.0048571138198999315 0 -0.0021957671756685968 0.0048404242811585819 0 -0.0022723966976838789 0.0048038527538734029 0 -0.0023319903033491196 0.004836694637568628 0 -0.0022694629214326106 0.0048571138198999315 0 -0.0026641967454880408 0.0045669887553372512 0 -0.0026523952428552313 0.0046663323366806699 0 -0.0024835088629052205 0.0046041075061016845 0 -0.0026523952428552313 0.0046663323366806699 0 -0.0024835088629052205 0.0046041075061016845 0 -0.002567756406460515 0.0047444791872063409 0 -0.0024835088629052205 0.0046041075061016845 0 -0.0024887217061765931 0.0047799115568025446 0 -0.002567756406460515 0.0047444791872063409 0 -0.0024835088629052205 0.0046041075061016845 0 -0.0024003515403064222 0.004847467662974142 0 -0.0024887217061765931 0.0047799115568025446 0 -0.0024253982124990804 0.0046973707115143771 0 -0.0024028034142561409 0.0048449026086644781 0 -0.0024003515403064222 0.004847467662974142 0 -0.0024887217061765931 0.0047799115568025446 0 -0.0024443097239875123 0.0048816414414307443 0 -0.0024887217061765931 0.0047799115568025446 0 -0.002555819119754923 0.0048219852827941084 0 -0.0024443097239875123 0.0048816414414307443 0 -0.0024887217061765931 0.0047799115568025446 0 -0.002567756406460515 0.0047444791872063409 0 -0.002555819119754923 0.0048219852827941084 0 -0.002567756406460515 0.0047444791872063409 0 -0.002555819119754923 0.0048219852827941084 0 -0.0026520200190495598 0.0047748860021524413 0 -0.002555819119754923 0.0048219852827941084 0 -0.0026520200190495598 0.0047748860021524413 0 -0.0026427491128990965 0.0048840252550911714 0 -0.0026523952428552313 0.0046663323366806699 0 -0.002567756406460515 0.0047444791872063409 0 -0.0026520200190495598 0.0047748860021524413 0 -0.002555819119754923 0.0048219852827941084 0 -0.0026427491128990965 0.0048840252550911714 0 -0.0024443097239875123 0.0048816414414307443 0 -0.00255300702838277 0.0049116675983161689 0 -0.0025749848727214535 0.0048693384781565638 0 -0.0024443097239875123 0.0048816414414307443 0 -0.0026295873620549377 0.0049275595388766731 0 -0.0024486085956881595 0.0048712405652033648 0 -0.00255300702838277 0.0049116675983161689 0 -0.0024443097239875123 0.0048816414414307443 0 -0.0023941208754197619 0.0049521637178665673 0 -0.0025792833951363029 0.003810892116573557 0 -0.0024796901686809148 0.0038491814422949014 0 -0.0024003515403064222 0.004847467662974142 0 -0.0024443097239875123 0.0048816414414307443 0 -0.002379886746533214 0.0048960171539688957 0 -0.0024443097239875123 0.0048816414414307443 0 -0.0023941208754197619 0.0049521637178665673 0 -0.002379886746533214 0.0048960171539688957 0 -0.0026077587486910236 0.0027807893038070278 0 -0.0025923020882872528 0.0027627282143648452 0 -0.0026107112534145636 0.0027683035157645367 0 -0.0025923020882872528 0.0027627282143648452 0 -0.0025649959412954674 0.0027757122591293101 0 -0.0026107112534145636 0.0027683035157645367 0 -0.0026077587486910236 0.0027807893038070278 0 -0.0026107112534145636 0.0027683035157645367 0 -0.0026056847252995071 0.0027725951971151004 0 -0.0023130926011294892 0.0048972010840318001 0 -0.0022594959407168757 0.0049601767726600811 0 -0.0022289869709852216 0.0049071099431955006 0 -0.0022694629214326106 0.0048571138198999315 0 -0.0023130926011294892 0.0048972010840318001 0 -0.0022289869709852216 0.0049071099431955006 0 -0.0024003515403064222 0.004847467662974142 0 -0.0023551605093474854 0.0048686644471044611 0 -0.002379886746533214 0.0048960171539688957 0 -0.0023130926011294892 0.0048972010840318001 0 -0.0023551605093474854 0.0048686644471044611 0 -0.002379886746533214 0.0048960171539688957 0 -0.0023941208754197619 0.0049521637178665673 0 -0.0023130926011294892 0.0048972010840318001 0 -0.002379886746533214 0.0048960171539688957 0 -0.0023941208754197619 0.0049521637178665673 0 -0.0023130926011294892 0.0048972010840318001 0 -0.0022594959407168757 0.0049601767726600811 0 -0.0025923020882872528 0.0027627282143648452 0 -0.002534086002328705 0.0027554067085221851 0 -0.0025649959412954674 0.0027757122591293101 0 -0.0024796901686809148 0.0038491814422949014 0 -0.0024635403329850707 0.003968637276692508 0 -0.002534086002328705 0.0027554067085221851 0 -0.0025318485341901857 0.0027906396388009619 0 -0.0025649959412954674 0.0027757122591293101 0 -0.0021651962668998393 0.004956443831576879 0 -0.0021364805019371616 0.0049162235200591641 0 -0.0022289869709852216 0.0049071099431955006 0 -0.0022594959407168757 0.0049601767726600811 0 -0.0021651962668998393 0.004956443831576879 0 -0.0022289869709852216 0.0049071099431955006 0 -0.002534086002328705 0.0027554067085221851 0 -0.0024590448490357276 0.0027621066255384095 0 -0.0024862296896153136 0.0027932325622513688 0 -0.0024635403329850707 0.003968637276692508 0 -0.0019101934950142073 0.0028266118848703291 0 -0.001416253180717772 0.0021614666006325701 0 -0.00146023525739241 0.0022269333376485857 0 -0.0015659029866790801 0.0020980942246848632 0 -0.0019101934950142073 0.0028266118848703291 0 -0.0018622982301635552 0.004353676040696133 0 -0.0021022186655975015 0.0049601854468533015 0 -0.0021434169276012111 0.0048810564371935556 0 -0.0020496792514645853 0.0048959742521828319 0 -0.0018622982301635552 0.004353676040696133 0 -0.002297699503129262 0.0050510340669464018 0 -0.0021022186655975015 0.0049601854468533015 0 -0.0022289869709852216 0.0049071099431955006 0 -0.0021434169276012111 0.0048810564371935556 0 -0.0022289869709852216 0.0049071099431955006 0 -0.0021957671756685968 0.0048404242811585819 0 -0.0021434169276012111 0.0048810564371935556 0 -0.0020989164525863683 0.0048293023487039934 0 -0.0021434169276012111 0.0048810564371935556 0 -0.0020496792514645853 0.0048959742521828319 0 -0.0021957671756685968 0.0048404242811585819 0 -0.0020989164525863683 0.0048293023487039934 0 -0.0021434169276012111 0.0048810564371935556 0 -0.0021563383111097485 0.0047697513265071096 0 -0.0020989164525863683 0.0048293023487039934 0 -0.0020334769168676601 0.0047870468904990257 0 -0.0021563383111097485 0.0047697513265071096 0 -0.0021957671756685968 0.0048404242811585819 0 -0.0020989164525863683 0.0048293023487039934 0 -0.0021563383111097485 0.0047697513265071096 0 -0.0022723966976838789 0.0048038527538734029 0 -0.0021957671756685968 0.0048404242811585819 0 -0.0019802681470091439 0.0047726082307166561 0 -0.0020334769168676601 0.0047870468904990257 0 -0.0019836325953725502 0.0048175392398499385 0 -0.0019518568568268064 0.0048028947898210812 0 -0.0019802681470091439 0.0047726082307166561 0 -0.0019836325953725502 0.0048175392398499385 0 -0.0020989164525863683 0.0048293023487039934 0 -0.0020334769168676601 0.0047870468904990257 0 -0.0019836325953725502 0.0048175392398499385 0 -0.0020989164525863683 0.0048293023487039934 0 -0.0019836325953725502 0.0048175392398499385 0 -0.0020496792514645853 0.0048959742521828319 0 -0.0019658538783114978 0.0047897564235260875 0 -0.0020609294425210484 0.0049255755260894547 0 -0.0019836325953725502 0.0048175392398499385 0 -0.0019399277938167111 0.004776583656860363 0 -0.0019613760064747885 0.0047880029125431985 0 -0.0019479532052415053 0.0048118670307343726 0 -0.0019836325953725502 0.0048175392398499385 0 -0.0019399277938167111 0.004776583656860363 0 -0.0019518568568268064 0.0048028947898210812 0 -0.0019479532052415053 0.0048118670307343726 0 -0.0019836325953725502 0.0048175392398499385 0 -0.0018438623064029639 0.0047852977635371814 0 -0.0019399277938167111 0.004776583656860363 0 -0.0019435984064832478 0.0048313964803096297 0 -0.0019399277938167111 0.004776583656860363 0 -0.0019585716227037229 0.0047966338095085104 0 -0.0019435984064832478 0.0048313964803096297 0 -0.0019399277938167111 0.004776583656860363 0 -0.0019585716227037229 0.0047966338095085104 0 -0.0019613760064747885 0.0047880029125431985 0 -0.0019828156025875525 0.0047974637575243437 0 -0.0019585716227037229 0.0047966338095085104 0 -0.0019613760064747885 0.0047880029125431985 0 -0.0018622982301635552 0.004353676040696133 0 -0.0020609294425210484 0.0049255755260894547 0 -0.0019101934950142073 0.0028266118848703291 0 -0.0014712990370119236 0.0019297373972723185 0 -0.0019828156025875525 0.0047974637575243437 0 -0.0019585716227037229 0.0047966338095085104 0 -0.0019435984064832478 0.0048313964803096297 0 -0.0018622982301635552 0.004353676040696133 0 -0.0017583891176040031 0.0033905860658379125 0 -0.00146023525739241 0.0022269333376485857 0 -0.0015929851262258172 0.0021580878581410144 0 -0.0015659029866790801 0.0020980942246848632 0 -0.0015929851262258172 0.0021580878581410144 0 -0.0015659029866790801 0.0020980942246848632 0 -0.0017465874366135727 0.0020482648096338471 0 -0.0014712990370119236 0.0019297373972723185 0 -0.0017758003393061924 0.0020179597944316291 0 -0.0015439741813892715 0.0019812369207116154 0 -0.0016375755732387003 0.0019342378209079769 0 -0.001743166885110079 0.001986435273244934 0 -0.0015439741813892715 0.0019812369207116154 0 -0.0015665800353731588 0.0019339006267142611 0 -0.0016375755732387003 0.0019342378209079769 0 -0.0015439741813892715 0.0019812369207116154 0 -0.0015179065970691286 0.0019338309351419022 0 -0.0015231159056431401 0.0019541464203401094 0 -0.0015179065970691286 0.0019338309351419022 0 -0.0015259931495040897 0.0019509069170393378 0 -0.0015231159056431401 0.0019541464203401094 0 -0.0015196893012399473 0.0019588065108496434 0 -0.0015439741813892715 0.0019812369207116154 0 -0.0015231159056431401 0.0019541464203401094 0 -0.0015439741813892715 0.0019812369207116154 0 -0.0015665800353731588 0.0019339006267142611 0 -0.0015179065970691286 0.0019338309351419022 0 -0.0015179065970691286 0.0019338309351419022 0 -0.0015201677665328346 0.0019548309603972694 0 -0.0015259931495040897 0.0019509069170393378 0 -0.0015052075032008542 0.0018704926364575998 0 -0.0016270726019475697 0.0020418809325649682 0 -0.0015179065970691286 0.0019338309351419022 0 -0.001560791299503517 0.0018622256073620308 0 -0.0014761491068476212 0.0018148978748442532 0 -0.0015665800353731588 0.0019339006267142611 0 -0.0015179065970691286 0.0019338309351419022 0 -0.001560791299503517 0.0018622256073620308 0 -0.0016284235821021279 0.001868853730974836 0 -0.001560791299503517 0.0018622256073620308 0 -0.0016231292194796919 0.0017324054280715021 0 -0.0015665800353731588 0.0019339006267142611 0 -0.0016375755732387003 0.0019342378209079769 0 -0.0016284235821021279 0.001868853730974836 0 -0.0015665800353731588 0.0019339006267142611 0 -0.0016284235821021279 0.001868853730974836 0 -0.001560791299503517 0.0018622256073620308 0 -0.001560791299503517 0.0018622256073620308 0 -0.0016231292194796919 0.0017324054280715021 0 -0.0014761491068476212 0.0018148978748442532 0 -0.0016231292194796919 0.0017324054280715021 0 -0.0013127697284075353 0.0018274138564061779 0 -0.0014672761949190611 0.0015517804014044468 0 -0.0015318811473495773 0.0016994656477078215 0 -0.0016270726019475697 0.0020418809325649682 0 -0.0016270726019475697 0.0020418809325649682 0 -0.0018424807274701916 0.002282110200795866 0 -0.0013127697284075353 0.0018274138564061779 0 -0.0012710515637265321 0.001624939699512127 0 -0.0014672761949190611 0.0015517804014044468 0 -0.0012710515637265321 0.001624939699512127 0 -0.0013851604770809185 0.0014474636247473075 0 -0.0012277228184832734 0.0014197176222649713 0 -0.0012710515637265321 0.001624939699512127 0 -0.0013851604770809185 0.0014474636247473075 0 -0.0014672761949190611 0.0015517804014044468 0 -0.0018424807274701916 0.002282110200795866 0 -0.0018868411611053649 0.001869840951487429 0 -0.0014672761949190611 0.0015517804014044468 0 -0.0015167505388737604 0.0013628422700793549 0 -0.0016702960720169514 0.0014413923611992093 0 -0.0016231292194796919 0.0017324054280715021 0 -0.0014672761949190611 0.0015517804014044468 0 -0.0016702960720169514 0.0014413923611992093 0 -0.0013851604770809185 0.0014474636247473075 0 -0.0014672761949190611 0.0015517804014044468 0 -0.0015167505388737604 0.0013628422700793549 0 -0.0024600746340598255 0.0026320491818836124 0 -0.0028069709349152296 0.0017558181912003255 0 -0.0023737596604887488 0.0020175223534448995 0 -0.0023022765119524208 0.0020688788326040414 0 -0.0022999071460452912 0.0019433371416093684 0 -0.0024373951759189636 0.002386218128679893 0 -0.0024600746340598255 0.0026320491818836124 0 -0.0024550999071479176 0.0028148741887650164 0 -0.0024822769948780097 0.0027730377736729459 0 -0.0025154175330356883 0.0027865665468652088 0 -0.0023848138854751012 0.0027849585133194392 0 -0.0024550999071479176 0.0028148741887650164 0 -0.002397544124535259 0.0028410606722444891 0 -0.0024373951759189636 0.002386218128679893 0 -0.0018868411611053649 0.001869840951487429 0 -0.0023669903135894446 0.0027185641482204109 0 -0.0024428920290573823 0.0027490735751122134 0 -0.0024899547527493559 0.002699797574969626 0 -0.0023669903135894446 0.0027185641482204109 0 -0.0023848138854751012 0.0027849585133194392 0 -0.0024428920290573823 0.0027490735751122134 0 -0.0023848138854751012 0.0027849585133194392 0 -0.0024550999071479176 0.0028148741887650164 0 -0.0024428920290573823 0.0027490735751122134 0 -0.0024550999071479176 0.0028148741887650164 0 -0.0024428920290573823 0.0027490735751122134 0 -0.0024822769948780097 0.0027730377736729459 0 -0.0024428920290573823 0.0027490735751122134 0 -0.0024909758185701898 0.0027450064634463142 0 -0.0024822769948780097 0.0027730377736729459 0 -0.0024428920290573823 0.0027490735751122134 0 -0.0024909758185701898 0.0027450064634463142 0 -0.0024899547527493559 0.002699797574969626 0 -0.002520590462279051 0.0027899600291328929 0 -0.0025181032916605142 0.0027640128078831832 0 -0.0025501347250389632 0.0027510056391729428 0 -0.0024822769948780097 0.0027730377736729459 0 -0.0025154175330356883 0.0027865665468652088 0 -0.0025181032916605142 0.0027640128078831832 0 -0.0024909758185701898 0.0027450064634463142 0 -0.0024822769948780097 0.0027730377736729459 0 -0.0025181032916605142 0.0027640128078831832 0 -0.0024600746340598255 0.0026320491818836124 0 -0.0024816471652939092 0.0027457320443223664 0 -0.0025181032916605142 0.0027640128078831832 0 -0.002521739535966148 0.0027368129627003174 0 -0.0025501347250389632 0.0027510056391729428 0 -0.0024909758185701898 0.0027450064634463142 0 -0.0025181032916605142 0.0027640128078831832 0 -0.002521739535966148 0.0027368129627003174 0 -0.0024899547527493559 0.002699797574969626 0 -0.0025326649045094855 0.0026980997072392414 0 -0.0025634833255751511 0.0027258567499248956 0 -0.0024909758185701898 0.0027450064634463142 0 -0.002521739535966148 0.0027368129627003174 0 -0.0024899547527493559 0.002699797574969626 0 -0.002521739535966148 0.0027368129627003174 0 -0.0024899547527493559 0.002699797574969626 0 -0.0025634833255751511 0.0027258567499248956 0 -0.0015364392675646515 0.0019617154375781336 0 -0.0015315660323923306 0.0019561789402558214 0 -0.0015460200730193221 0.0019623209899272149 0 -0.0015364392675646515 0.0019617154375781336 0 -0.0015315660323923306 0.0019561789402558214 0 -0.0015259931495040897 0.0019509069170393378 0 -0.0021017987409683672 0.0024104070204383145 0 -0.0023246860875692932 0.0024865816618995155 0 -0.0015201677665328346 0.0019548309603972694 0 -0.0015364392675646515 0.0019617154375781336 0 -0.0015259931495040897 0.0019509069170393378 0 -0.0016270726019475697 0.0020418809325649682 0 -0.0021017987409683672 0.0024104070204383145 0 -0.0015259931495040897 0.0019509069170393378 0 -0.0015247717791649447 0.0019546239470735402 0 -0.0015231159056431401 0.0019541464203401094 0 -0.0015315660323923306 0.0019561789402558214 0 -0.0015259931495040897 0.0019509069170393378 0 -0.0015247717791649447 0.0019546239470735402 0 -0.0015196893012399473 0.0019588065108496434 0 -0.0015247717791649447 0.0019546239470735402 0 -0.0015327600291999051 0.0019543892689429052 0 -0.0015196893012399473 0.0019588065108496434 0 -0.0015247717791649447 0.0019546239470735402 0 -0.0015231159056431401 0.0019541464203401094 0 -0.0025112851691379574 0.0028236589581239792 0 -0.0024862296896153136 0.0027932325622513688 0 -0.0025318485341901857 0.0027906396388009619 0 -0.0023246860875692932 0.0024865816618995155 0 -0.0019540747252692683 0.0023081908289323649 0 -0.0015315660323923306 0.0019561789402558214 0 -0.0015460200730193221 0.0019623209899272149 0 -0.0015327600291999051 0.0019543892689429052 0 -0.0015315660323923306 0.0019561789402558214 0 -0.0015247717791649447 0.0019546239470735402 0 -0.0015327600291999051 0.0019543892689429052 0 -0.0019101934950142073 0.0028266118848703291 0 -0.0019540747252692683 0.0023081908289323649 0 -0.002534086002328705 0.0027554067085221851 0 -0.0024862296896153136 0.0027932325622513688 0 -0.0025318485341901857 0.0027906396388009619 0 -0.0025112851691379574 0.0028236589581239792 0 -0.0025318485341901857 0.0027906396388009619 0 -0.0025595438056015656 0.0028073936383333524 0 -0.0025318485341901857 0.0027906396388009619 0 -0.0025649959412954674 0.0027757122591293101 0 -0.0025595438056015656 0.0028073936383333524 0 -0.0025649959412954674 0.0027757122591293101 0 -0.0025595438056015656 0.0028073936383333524 0 -0.0026107112534145636 0.0027683035157645367 0 -0.0026002395316668311 0.0027650360549336065 0 -0.0025985527103771439 0.0027676586904809759 0 -0.0026109862246111834 0.0027162188748459048 0 -0.002621774088742106 0.0027380241040781579 0 -0.0026170323058877978 0.0027418954622617686 0 -0.0023246860875692932 0.0024865816618995155 0 -0.0026002395316668311 0.0027650360549336065 0 -0.0025326649045094855 0.0026980997072392414 0 -0.0026109862246111834 0.0027162188748459048 0 -0.0025634833255751511 0.0027258567499248956 0 -0.0026109862246111834 0.0027162188748459048 0 -0.002621774088742106 0.0027380241040781579 0 -0.0025634833255751511 0.0027258567499248956 0 -0.002621774088742106 0.0027380241040781579 0 -0.0025634833255751511 0.0027258567499248956 0 -0.0025501347250389632 0.0027510056391729428 0 -0.0026107112534145636 0.0027683035157645367 0 -0.0026056847252995071 0.0027725951971151004 0 -0.0026036112035233237 0.0027480268184205256 0 -0.0026109862246111834 0.0027162188748459048 0 -0.0026107112534145636 0.0027683035157645367 0 -0.0026170323058877978 0.0027418954622617686 0 -0.0026107112534145636 0.0027683035157645367 0 -0.0026170323058877978 0.0027418954622617686 0 -0.0026122863043672876 0.0027376754533987523 0 -0.002621774088742106 0.0027380241040781579 0 -0.0026170323058877978 0.0027418954622617686 0 -0.0026122863043672876 0.0027376754533987523 0 -0.0026107112534145636 0.0027683035157645367 0 -0.0026122863043672876 0.0027376754533987523 0 -0.0026036112035233237 0.0027480268184205256 0 -0.0026122863043672876 0.0027376754533987523 0 -0.0026087817601084065 0.0027160090738678495 0 -0.0026036112035233237 0.0027480268184205256 0 -0.002621774088742106 0.0027380241040781579 0 -0.0026189241063650187 0.0027212037343685514 0 -0.0026122863043672876 0.0027376754533987523 0 -0.0026189241063650187 0.0027212037343685514 0 -0.0026122863043672876 0.0027376754533987523 0 -0.0026087817601084065 0.0027160090738678495 0 -0.0027776728217931254 0.0020103367647516953 0 -0.0027582772844988428 0.0020320141369494309 0 -0.0026189241063650187 0.0027212037343685514 0 -0.0026087817601084065 0.0027160090738678495 0 -0.0026279607265370947 0.0026900275027777103 0 -0.0029038221199552496 0.0013135022365446567 0 -0.0029089289329459326 0.0013116412529460195 0 -0.0029238175543264593 0.0013335511085257638 0 -0.0024600746340598255 0.0026320491818836124 0 -0.0026663875344068244 0.0027667201042961107 0 -0.002520590462279051 0.0027899600291328929 0 -0.002621774088742106 0.0027380241040781579 0 -0.0025501347250389632 0.0027510056391729428 0 -0.0026730014419884076 0.0027121181371418494 0 -0.002621774088742106 0.0027380241040781579 0 -0.002639997516104527 0.0027110460199267486 0 -0.002521739535966148 0.0027368129627003174 0 -0.0025634833255751511 0.0027258567499248956 0 -0.0025501347250389632 0.0027510056391729428 0 -0.002621774088742106 0.0027380241040781579 0 -0.0026189241063650187 0.0027212037343685514 0 -0.002639997516104527 0.0027110460199267486 0 -0.0026189241063650187 0.0027212037343685514 0 -0.0026279607265370947 0.0026900275027777103 0 -0.002639997516104527 0.0027110460199267486 0 -0.0026730014419884076 0.0027121181371418494 0 -0.002639997516104527 0.0027110460199267486 0 -0.0026732757681319375 0.0026639183685177297 0 -0.0026279607265370947 0.0026900275027777103 0 -0.002639997516104527 0.0027110460199267486 0 -0.0026732757681319375 0.0026639183685177297 0 -0.0027582772844988428 0.0020320141369494309 0 -0.0028069709349152296 0.0017558181912003255 0 -0.0029058342712211067 0.0013118741581325127 0 -0.0029080215917077911 0.0012906341652274551 0 -0.0029331889333770651 0.0013081143647689136 0 -0.0029058342712211067 0.0013118741581325127 0 -0.0029080215917077911 0.0012906341652274551 0 -0.0028984414269996009 0.001301909043760897 0 -0.0029080215917077911 0.0012906341652274551 0 -0.0028972941855791973 0.0012805076257945611 0 -0.0029044819263724648 0.0012625893594073064 0 -0.0029080215917077911 0.0012906341652274551 0 -0.0029328351463525871 0.0012670222021878333 0 -0.0029331889333770651 0.0013081143647689136 0 -0.0029080215917077911 0.0012906341652274551 0 -0.0029044819263724648 0.0012625893594073064 0 -0.0029328351463525871 0.0012670222021878333 0 -0.0029038221199552496 0.0013135022365446567 0 -0.0029089289329459326 0.0013116412529460195 0 -0.0028984414269996009 0.001301909043760897 0 -0.0029089289329459326 0.0013116412529460195 0 -0.0028984414269996009 0.001301909043760897 0 -0.0028875219605561551 0.0012945826425675162 0 -0.0029038221199552496 0.0013135022365446567 0 -0.0029058342712211067 0.0013118741581325127 0 -0.0028984414269996009 0.001301909043760897 0 -0.0028984414269996009 0.001301909043760897 0 -0.0028972941855791973 0.0012805076257945611 0 -0.0028886998055722354 0.0012777641576730036 0 -0.0029080215917077911 0.0012906341652274551 0 -0.0028984414269996009 0.001301909043760897 0 -0.0028972941855791973 0.0012805076257945611 0 -0.0028984414269996009 0.001301909043760897 0 -0.0028886998055722354 0.0012777641576730036 0 -0.0028875219605561551 0.0012945826425675162 0 -0.0028886998055722354 0.0012777641576730036 0 -0.0028735339066902417 0.0012491877814141048 0 -0.0028875219605561551 0.0012945826425675162 0 -0.0030580324978947307 0.0011226647586667679 0 -0.0029798718411054317 0.001256831151564719 0 -0.0032314876280075708 0.0010446784200721453 0 -0.0030701158782440925 0.0012217152711629349 0 -0.0030976475692336869 0.0010763753412757031 0 -0.0028886998055722354 0.0012777641576730036 0 -0.0028912260364149876 0.0012568926359675455 0 -0.0028735339066902417 0.0012491877814141048 0 -0.0028972941855791973 0.0012805076257945611 0 -0.0028912260364149876 0.0012568926359675455 0 -0.0029044819263724648 0.0012625893594073064 0 -0.0028972941855791973 0.0012805076257945611 0 -0.0028886998055722354 0.0012777641576730036 0 -0.0028912260364149876 0.0012568926359675455 0 -0.0028857927979038861 0.0012322583060883777 0 -0.0028735339066902417 0.0012491877814141048 0 -0.0028754467783992281 0.0012047261312117066 0 -0.0028912260364149876 0.0012568926359675455 0 -0.0028857927979038861 0.0012322583060883777 0 -0.0028978113932370251 0.0012366416030466165 0 -0.0028912260364149876 0.0012568926359675455 0 -0.0028857927979038861 0.0012322583060883777 0 -0.0028735339066902417 0.0012491877814141048 0 -0.0032314876280075708 0.0010446784200721453 0 -0.0030976475692336869 0.0010763753412757031 0 -0.0032780148541725084 0.0009258635545044123 0 -0.003319512646760424 0.00098710032901708623 0 -0.0033897064296480447 0.00089184371629280861 0 -0.0035391227703773843 0.00089845255149941536 0 -0.0035141195059446759 0.00085682592682261971 0 -0.0035086501510704906 0.00083829990134211979 0 -0.0029044819263724648 0.0012625893594073064 0 -0.0029088968910488825 0.0012370505454218266 0 -0.0029328351463525871 0.0012670222021878333 0 -0.0028912260364149876 0.0012568926359675455 0 -0.0029044819263724648 0.0012625893594073064 0 -0.0028978113932370251 0.0012366416030466165 0 -0.0028978113932370251 0.0012366416030466165 0 -0.0029088968910488825 0.0012370505454218266 0 -0.0029020242349377208 0.0012120701231503508 0 -0.0029044819263724648 0.0012625893594073064 0 -0.0028978113932370251 0.0012366416030466165 0 -0.0029088968910488825 0.0012370505454218266 0 -0.0028857927979038861 0.0012322583060883777 0 -0.0028978113932370251 0.0012366416030466165 0 -0.0028907393005977557 0.0012150168065277612 0 -0.0029088968910488825 0.0012370505454218266 0 -0.002911641935864291 0.00121550517811471 0 -0.0029328351463525871 0.0012670222021878333 0 -0.0029088968910488825 0.0012370505454218266 0 -0.002911641935864291 0.00121550517811471 0 -0.0029020242349377208 0.0012120701231503508 0 -0.00289902875539267 0.001214264773604264 0 -0.002911641935864291 0.00121550517811471 0 -0.0029041458032201982 0.0012117021563488723 0 -0.0029090832419686316 0.0012686189462153166 0 -0.0029236503089154053 0.0011272786280568823 0 -0.00289902875539267 0.001214264773604264 0 -0.002911641935864291 0.00121550517811471 0 -0.0028906840457988739 0.0012163517243829831 0 -0.0028906840457988739 0.0012163517243829831 0 -0.002892676953695925 0.0012154945692581859 0 -0.0028887550345122488 0.0012221192966909592 0 -0.00289902875539267 0.001214264773604264 0 -0.0028906840457988739 0.0012163517243829831 0 -0.002892676953695925 0.0012154945692581859 0 -0.0011613817624023116 0.00090180031453514513 0 -0.0011952659336924535 0.00083827997803333004 0 -0.001250364315471766 0.0010489509725785044 0 -0.0020228237849853289 0.0010171824564520738 0 -0.0020434080599765841 0.0010984530433949004 0 -0.00289902875539267 0.001214264773604264 0 -0.002892676953695925 0.0012154945692581859 0 -0.0029041458032201982 0.0012117021563488723 0 -0.0011952659336924535 0.00083827997803333004 0 -0.0011644221548459007 0.00071442408923346129 0 -0.0012225363095129174 0.0007478198236955118 0 -0.0011613817624023116 0.00090180031453514513 0 -0.0011952659336924535 0.00083827997803333004 0 -0.0011644221548459007 0.00071442408923346129 0 -0.0012225363095129174 0.0007478198236955118 0 -0.0012742899032502958 0.00075345497467310489 0 -0.0012562888755370198 0.00071057042212068324 0 -0.0011952659336924535 0.00083827997803333004 0 -0.0012225363095129174 0.0007478198236955118 0 -0.0012495266370357054 0.00078856482145259167 0 -0.0012225363095129174 0.0007478198236955118 0 -0.0012742899032502958 0.00075345497467310489 0 -0.0012495266370357054 0.00078856482145259167 0 -0.0012742899032502958 0.00075345497467310489 0 -0.0012916527576837689 0.00068061121771131709 0 -0.0013174122294755991 0.00075332920349446711 0 -0.0012742899032502958 0.00075345497467310489 0 -0.0012917665505285871 0.00079911197210483622 0 -0.0013174122294755991 0.00075332920349446711 0 -0.0012917665505285871 0.00079911197210483622 0 -0.0013096550575654345 0.00077487213620063694 0 -0.0013174122294755991 0.00075332920349446711 0 -0.0012151190935664525 0.00084547979028910206 0 -0.0013509547661776616 0.00087943843289490066 0 -0.0011952659336924535 0.00083827997803333004 0 -0.0014823102370999141 0.0010097100819832345 0 -0.0013709923503885193 0.0010785059522599944 0 -0.0011952659336924535 0.00083827997803333004 0 -0.0012917665505285871 0.00079911197210483622 0 -0.0012495266370357054 0.00078856482145259167 0 -0.0012742899032502958 0.00075345497467310489 0 -0.0012917665505285871 0.00079911197210483622 0 -0.0012495266370357054 0.00078856482145259167 0 -0.0011952659336924535 0.00083827997803333004 0 -0.0013709923503885193 0.0010785059522599944 0 -0.001250364315471766 0.0010489509725785044 0 -0.0013709923503885193 0.0010785059522599944 0 -0.0013062284088506968 0.0011507100215676579 0 -0.001250364315471766 0.0010489509725785044 0 -0.0013901528195056432 0.0012153980582782148 0 -0.0015110226416177217 0.0011697948871780292 0 -0.0014408281126563837 0.0012721502877614951 0 -0.0013709923503885193 0.0010785059522599944 0 -0.0013901528195056432 0.0012153980582782148 0 -0.0015110226416177217 0.0011697948871780292 0 -0.0013901528195056432 0.0012153980582782148 0 -0.0013062284088506968 0.0011507100215676579 0 -0.0012094193252680011 0.0012634684171634204 0 -0.0013709923503885193 0.0010785059522599944 0 -0.0013901528195056432 0.0012153980582782148 0 -0.0013062284088506968 0.0011507100215676579 0 -0.0014823102370999141 0.0010097100819832345 0 -0.0015110226416177217 0.0011697948871780292 0 -0.0017524097906004251 0.0011623402780263263 0 -0.0013509547661776616 0.00087943843289490066 0 -0.0016361351824716913 0.0010984543907368181 0 -0.0015110226416177217 0.0011697948871780292 0 -0.0016139298679205927 0.0012620105538947942 0 -0.0017524097906004251 0.0011623402780263263 0 -0.0014823102370999141 0.0010097100819832345 0 -0.0013709923503885193 0.0010785059522599944 0 -0.0015110226416177217 0.0011697948871780292 0 -0.0016139298679205927 0.0012620105538947942 0 -0.0015208314165048639 0.001266231216834971 0 -0.0015167505388737604 0.0013628422700793549 0 -0.0015110226416177217 0.0011697948871780292 0 -0.0016139298679205927 0.0012620105538947942 0 -0.0015208314165048639 0.001266231216834971 0 -0.0015110226416177217 0.0011697948871780292 0 -0.0015208314165048639 0.001266231216834971 0 -0.0014408281126563837 0.0012721502877614951 0 -0.0015208314165048639 0.001266231216834971 0 -0.0015167505388737604 0.0013628422700793549 0 -0.0014408281126563837 0.0012721502877614951 0 -0.0013851604770809185 0.0014474636247473075 0 -0.0015167505388737604 0.0013628422700793549 0 -0.0014408281126563837 0.0012721502877614951 0 -0.0016139298679205927 0.0012620105538947942 0 -0.0015167505388737604 0.0013628422700793549 0 -0.0016702960720169514 0.0014413923611992093 0 -0.0013106797691835002 0.0012925001860999911 0 -0.0018868411611053649 0.001869840951487429 0 -0.0013851604770809185 0.0014474636247473075 0 -0.0014408281126563837 0.0012721502877614951 0 -0.0012277228184832734 0.0014197176222649713 0 -0.0013901528195056432 0.0012153980582782148 0 -0.0014408281126563837 0.0012721502877614951 0 -0.0012795564097892234 0.0013782733338937819 0 -0.0013901528195056432 0.0012153980582782148 0 -0.0012795564097892234 0.0013782733338937819 0 -0.0012556054625433534 0.001258019279538907 0 -0.001175651608207802 0.0013128133199125907 0 -0.0020536840517477333 0.0013327194473974583 0 -0.0018868411611053649 0.001869840951487429 0 -0.0020536840517477333 0.0013327194473974583 0 -0.0023737596604887488 0.0020175223534448995 0 -0.0024424109475893675 0.0019675913827874262 0 -0.002430023114854346 0.0019046012919834183 0 -0.0020536840517477333 0.0013327194473974583 0 -0.0028069709349152296 0.0017558181912003255 0 -0.0023737596604887488 0.0020175223534448995 0 -0.002430023114854346 0.0019046012919834183 0 -0.0022999071460452912 0.0019433371416093684 0 -0.0028881019188556991 0.001226255270032758 0 -0.0028822795895886923 0.0012320301179654127 0 -0.0028887550345122488 0.0012221192966909592 0 -0.0028906840457988739 0.0012163517243829831 0 -0.0028822795895886923 0.0012320301179654127 0 -0.0028887550345122488 0.0012221192966909592 0 -0.0029236503089154053 0.0011272786280568823 0 -0.0028069709349152296 0.0017558181912003255 0 -0.0011613817624023116 0.00090180031453514513 0 -0.0012094193252680011 0.0012634684171634204 0 -0.001250364315471766 0.0010489509725785044 0 -0.002892676953695925 0.0012154945692581859 0 -0.0028881019188556991 0.001226255270032758 0 -0.0028887550345122488 0.0012221192966909592 0 -0.0020228237849853289 0.0010171824564520738 0 -0.0020536840517477333 0.0013327194473974583 0 -0.0013062284088506968 0.0011507100215676579 0 -0.0012094193252680011 0.0012634684171634204 0 -0.001250364315471766 0.0010489509725785044 0 -0.004999983530045553 0.0019244960882321967 0 -0.005150149728232546 0.0019269530998744131 0 -0.0051326830866938932 0.0020923786779488765 0 -0.004999983530045553 0.0019244960882321967 0 -0.005150149728232546 0.0019269530998744131 0 -0.0051387864150646322 0.0017627669047847259 0 -0.005150149728232546 0.0019269530998744131 0 -0.0052653223514858511 0.0020430548686617739 0 -0.0051326830866938932 0.0020923786779488765 0 -0.005235681220488007 0.0019761763048873719 0 -0.0052968224434881981 0.0019137180515075096 0 -0.0052520718931076803 0.0018299453660817341 0 -0.005150149728232546 0.0019269530998744131 0 -0.0052653223514858511 0.0020430548686617739 0 -0.0052520718931076803 0.0018299453660817341 0 -0.0052581802566374885 0.0019613300909471785 0 -0.0052516837007370422 0.0018664537259235707 0 -0.005235681220488007 0.0019761763048873719 0 -0.0052252215530255884 0.0021481428888699742 0 -0.0053024312406818094 0.0020223014247004465 0 -0.0052581802566374885 0.0019613300909471785 0 -0.0051109241042060268 0.0024189190580498131 0 -0.0052653223514858511 0.0020430548686617739 0 -0.0051326830866938932 0.0020923786779488765 0 -0.005257821636242368 0.0022492164841068914 0 -0.004999983530045553 0.0019244960882321967 0 -0.0051326830866938932 0.0020923786779488765 0 -0.0049999880121971369 0.0022239883006973243 0 -0.0049999974933109467 0.0022240287038269428 0 -0.0049999991334090969 0.0023200512448848716 0 -0.0052591085519974809 0.0022616331800161009 0 -0.0050003269603126257 0.0023199266487102274 0 -0.0051109241042060268 0.0024189190580498131 0 -0.0051326830866938932 0.0020923786779488765 0 -0.0049999880121971369 0.0022239883006973243 0 -0.005257821636242368 0.0022492164841068914 0 -0.0050002612389858352 0.0022239407303086775 0 -0.0051109241042060268 0.0024189190580498131 0 -0.0049999971274570952 0.0025080223105325263 0 -0.0050000006595306914 0.0023200806715493161 0 -0.0051336947855122944 0.0024763078291907084 0 -0.0050000006595306914 0.0023200806715493161 0 -0.0051336947855122944 0.0024763078291907084 0 -0.0052635565941687385 0.0022636730094942252 0 -0.0051190045939194387 0.0025435458403633877 0 -0.0052066488448458534 0.0025371215468367324 0 -0.0052094967519743726 0.0023985824575583656 0 -0.0042977641727073744 0.0032140361886351678 0 -0.0043058242968430447 0.003051218431364802 0 -0.0043579458899172417 0.003216813744004815 0 -0.0047520583602670679 0.002869951174957966 0 -0.0051109241042060268 0.0024189190580498131 0 -0.0051462443260889158 0.0024889689159982155 0 -0.0051109241042060268 0.0024189190580498131 0 -0.0049981343917767252 0.0026857981901770747 0 -0.0042500859777643042 0.0029251518979140647 0 -0.0043597459210489376 0.0026689161032087965 0 -0.0051318235556746241 0.0022475640897079421 0 -0.0053534039614017885 0.0021724751945643543 0 -0.005245382482555256 0.002066857861297284 0 -0.0051109241042060268 0.0024189190580498131 0 -0.0045934210341652074 0.002717435490121942 0 -0.0043058242968430447 0.003051218431364802 0 -0.0044237481802204279 0.0030574785940970322 0 -0.0043579458899172417 0.003216813744004815 0 -0.0051109241042060268 0.0024189190580498131 0 -0.0039482333877582064 0.003250888290469902 0 -0.0032469280564429138 0.003507486513524847 0 -0.0031842171950021512 0.0036513333293771671 0 -0.003300520146100563 0.0036657964295532747 0 -0.0039482333877582064 0.003250888290469902 0 -0.0034933432004559213 0.0033349263573889992 0 -0.0045934210341652074 0.002717435490121942 0 -0.0039482333877582064 0.003250888290469902 0 -0.0039482333877582064 0.003250888290469902 0 -0.0035794036234253718 0.0038303171717998215 0 -0.0031727284151725501 0.0036629507737123632 0 -0.0032203590500434641 0.0040929236220032762 0 -0.0030173585560640316 0.0041389267568745225 0 -0.0031727284151725501 0.0036629507737123632 0 -0.0032203590500434641 0.0040929236220032762 0 -0.0033141389955942337 0.003922606178322712 0 -0.0034571662216702111 0.0040172316858877802 0 -0.0033572090776228026 0.0035689851949132416 0 -0.003581743018674483 0.0040901537696081992 0 -0.0034571662216702111 0.0040172316858877802 0 -0.0034809877543120833 0.0041276529901080657 0 -0.003391404671748594 0.004123087648065623 0 -0.0034571662216702111 0.0040172316858877802 0 -0.0034809877543120833 0.0041276529901080657 0 -0.003581743018674483 0.0040901537696081992 0 -0.0035049728369639321 0.0041953087888844361 0 -0.0034809877543120833 0.0041276529901080657 0 -0.003581743018674483 0.0040901537696081992 0 -0.0034500734965330166 0.0042071499861235538 0 -0.0034809877543120833 0.0041276529901080657 0 -0.003391404671748594 0.004123087648065623 0 -0.0032203590500434641 0.0040929236220032762 0 -0.003391404671748594 0.004123087648065623 0 -0.0033141389955942337 0.003922606178322712 0 -0.0033116487098137546 0.0042764470597068584 0 -0.0032203590500434641 0.0040929236220032762 0 -0.003391404671748594 0.004123087648065623 0 -0.0034571662216702111 0.0040172316858877802 0 -0.003391404671748594 0.004123087648065623 0 -0.0033141389955942337 0.003922606178322712 0 -0.0034571662216702111 0.0040172316858877802 0 -0.0033141389955942337 0.003922606178322712 0 -0.003300520146100563 0.0036657964295532747 0 -0.0033572090776228026 0.0035689851949132416 0 -0.0036849478437906338 0.0036288825623059934 0 -0.0036295814139358155 0.0040188219256481004 0 -0.0034742349657165593 0.0038162706726670576 0 -0.0033749412278725297 0.00350562528310551 0 -0.0034571662216702111 0.0040172316858877802 0 -0.003300520146100563 0.0036657964295532747 0 -0.0033572090776228026 0.0035689851949132416 0 -0.0031727284151725501 0.0036629507737123632 0 -0.0033141389955942337 0.003922606178322712 0 -0.003300520146100563 0.0036657964295532747 0 -0.0032469280564429138 0.003507486513524847 0 -0.003300520146100563 0.0036657964295532747 0 -0.0033572090776228026 0.0035689851949132416 0 -0.0032469280564429138 0.003507486513524847 0 -0.0033572090776228026 0.0035689851949132416 0 -0.0038060351733647029 0.0033359165342441836 0 -0.0045934210341652074 0.002717435490121942 0 -0.0041909457131769625 0.0023276200985968215 0 -0.0053568087633930764 0.0021472039551771408 0 -0.005407816495307324 0.0020366064131654904 0 -0.0056041197071843478 0.0020739255677668981 0 -0.0045934210341652074 0.002717435490121942 0 -0.0053488533743415115 0.0018661213477437191 0 -0.0053534039614017885 0.0021724751945643543 0 -0.005407816495307324 0.0020366064131654904 0 -0.005245382482555256 0.002066857861297284 0 -0.0051109241042060268 0.0024189190580498131 0 -0.0052967527846913493 0.0020093388103383921 0 -0.005235681220488007 0.0019761763048873719 0 -0.0053024312406818094 0.0020223014247004465 0 -0.0052968224434881981 0.0019137180515075096 0 -0.0052967527846913493 0.0020093388103383921 0 -0.0053394234378611365 0.0019468594169584287 0 -0.005407816495307324 0.0020366064131654904 0 -0.005245382482555256 0.002066857861297284 0 -0.0053597745317456374 0.0019184818194710987 0 -0.0053024312406818094 0.0020223014247004465 0 -0.0053597745317456374 0.0019184818194710987 0 -0.0052968224434881981 0.0019137180515075096 0 -0.0052968224434881981 0.0019137180515075096 0 -0.0053416261700064216 0.0018183411693846565 0 -0.0052520718931076803 0.0018299453660817341 0 -0.0053597745317456374 0.0019184818194710987 0 -0.0052968224434881981 0.0019137180515075096 0 -0.0053416261700064216 0.0018183411693846565 0 -0.0053597745317456374 0.0019184818194710987 0 -0.0054415750154119804 0.0017965243530995397 0 -0.0053416261700064216 0.0018183411693846565 0 -0.005407816495307324 0.0020366064131654904 0 -0.0053597745317456374 0.0019184818194710987 0 -0.005540706342811637 0.0018929255235653512 0 -0.0053597745317456374 0.0019184818194710987 0 -0.005540706342811637 0.0018929255235653512 0 -0.0054415750154119804 0.0017965243530995397 0 -0.0041909457131769625 0.0023276200985968215 0 -0.0045857136258762076 0.0013767237587953131 0 -0.005540706342811637 0.0018929255235653512 0 -0.0056041197071843478 0.0020739255677668981 0 -0.0057093462415480139 0.001806871468803338 0 -0.0033726311717371203 0.0014441043628596786 0 -0.0034735608886307268 0.0012135309745324287 0 -0.0033544145400960495 0.0012019759985036069 0 -0.0031459037970830994 0.0022031869601326923 0 -0.0032188376056979944 0.0011110051169617933 0 -0.0033726311717371203 0.0014441043628596786 0 -0.0032590212273884557 0.0014806186731675627 0 -0.0033544145400960495 0.0012019759985036069 0 -0.0031459037970830994 0.0022031869601326923 0 -0.0031698174590987917 0.0033150320075067854 0 -0.0031459037970830994 0.0022031869601326923 0 -0.0041909457131769625 0.0023276200985968215 0 -0.0040817353495422107 0.0032112013651286603 0 -0.0037962652242810781 0.0032956449668474909 0 -0.0038464396071830691 0.0036513582621254901 0 -0.005407816495307324 0.0020366064131654904 0 -0.005540706342811637 0.0018929255235653512 0 -0.0056041197071843478 0.0020739255677668981 0 -0.0041909457131769625 0.0023276200985968215 0 -0.0035942753251310042 0.0038507615248140172 0 -0.0033572090776228026 0.0035689851949132416 0 -0.0038060351733647029 0.0033359165342441836 0 -0.0036849478437906338 0.0036288825623059934 0 -0.0036849478437906338 0.0036288825623059934 0 -0.0038464396071830691 0.0036513582621254901 0 -0.0036295814139358155 0.0040188219256481004 0 -0.0037962652242810781 0.0032956449668474909 0 -0.0036849478437906338 0.0036288825623059934 0 -0.0038464396071830691 0.0036513582621254901 0 -0.0031698174590987917 0.0033150320075067854 0 -0.0033749412278725297 0.00350562528310551 0 -0.0025840977830699219 0.0027637879705261015 0 -0.0025800954191194411 0.0027846980851597429 0 -0.0025915842048466788 0.002776958191437722 0 -0.0025840977830699219 0.0027637879705261015 0 -0.0025915842048466788 0.002776958191437722 0 -0.0025957828122943694 0.0027546096477593504 0 -0.0025905321636201691 0.0027428212519365787 0 -0.0025840977830699219 0.0027637879705261015 0 -0.0025957828122943694 0.0027546096477593504 0 -0.0025957828122943694 0.0027546096477593504 0 -0.002599941725015595 0.0027662847159970168 0 -0.0026036112035233237 0.0027480268184205256 0 -0.0025992255061432707 0.0027830902500739509 0 -0.0025915842048466788 0.002776958191437722 0 -0.002599941725015595 0.0027662847159970168 0 -0.0025915842048466788 0.002776958191437722 0 -0.0025957828122943694 0.0027546096477593504 0 -0.002599941725015595 0.0027662847159970168 0 -0.0025992255061432707 0.0027830902500739509 0 -0.002599941725015595 0.0027662847159970168 0 -0.0026056847252995071 0.0027725951971151004 0 -0.002599941725015595 0.0027662847159970168 0 -0.0026056847252995071 0.0027725951971151004 0 -0.0026036112035233237 0.0027480268184205256 0 -0.0025957828122943694 0.0027546096477593504 0 -0.0026036112035233237 0.0027480268184205256 0 -0.0026002072478414654 0.0027321881353267572 0 -0.0026087817601084065 0.0027160090738678495 0 -0.0026036112035233237 0.0027480268184205256 0 -0.0026002072478414654 0.0027321881353267572 0 -0.0031459037970830994 0.0022031869601326923 0 -0.002673928156005023 0.0020231702147721158 0 -0.0025905321636201691 0.0027428212519365787 0 -0.0025957828122943694 0.0027546096477593504 0 -0.0026002072478414654 0.0027321881353267572 0 -0.0029238175543264593 0.0013335511085257638 0 -0.0029304901105963359 0.0013191379310220164 0 -0.0028988297546179939 0.0013151932470099263 0 -0.0028799685750964784 0.0013610262917244486 0 -0.0029238175543264593 0.0013335511085257638 0 -0.0028988297546179939 0.0013151932470099263 0 -0.0027776728217931254 0.0020103367647516953 0 -0.002673928156005023 0.0020231702147721158 0 -0.0029089289329459326 0.0013116412529460195 0 -0.0029238175543264593 0.0013335511085257638 0 -0.0029304901105963359 0.0013191379310220164 0 -0.0029089289329459326 0.0013116412529460195 0 -0.0029304901105963359 0.0013191379310220164 0 -0.0028875219605561551 0.0012945826425675162 0 -0.0029382411325793232 0.0013094527536843027 0 -0.0029798718411054317 0.001256831151564719 0 -0.0032188376056979944 0.0011110051169617933 0 -0.0032320564571058558 0.0011633283593404647 0 -0.0029304901105963359 0.0013191379310220164 0 -0.0028988297546179939 0.0013151932470099263 0 -0.0029584695813363732 0.0012333201522733014 0 -0.0034735608886307268 0.0012135309745324287 0 -0.0034530969178918885 0.0011042540721411731 0 -0.003530707165854794 0.0010235148699649682 0 -0.0034530969178918885 0.0011042540721411731 0 -0.0034408814692100187 0.00098506072794358438 0 -0.003530707165854794 0.0010235148699649682 0 -0.0034408814692100187 0.00098506072794358438 0 -0.003530707165854794 0.0010235148699649682 0 -0.0035027754619256402 0.00093911656465482652 0 -0.0029304901105963359 0.0013191379310220164 0 -0.0029584695813363732 0.0012333201522733014 0 -0.0030701158782440925 0.0012217152711629349 0 -0.003530707165854794 0.0010235148699649682 0 -0.0035391227703773843 0.00089845255149941536 0 -0.0035027754619256402 0.00093911656465482652 0 -0.0032320564571058558 0.0011633283593404647 0 -0.003319512646760424 0.00098710032901708623 0 -0.0035391227703773843 0.00089845255149941536 0 -0.0034947200101487106 0.00086550334892201476 0 -0.0035027754619256402 0.00093911656465482652 0 -0.0029584695813363732 0.0012333201522733014 0 -0.0030701158782440925 0.0012217152711629349 0 -0.0030976475692336869 0.0010763753412757031 0 -0.0035391227703773843 0.00089845255149941536 0 -0.0035141195059446759 0.00085682592682261971 0 -0.0034947200101487106 0.00086550334892201476 0 -0.0034408814692100187 0.00098506072794358438 0 -0.0034947200101487106 0.00086550334892201476 0 -0.0035027754619256402 0.00093911656465482652 0 -0.0046116002331106536 0.0012963377355622967 0 -0.0046916502565911089 0.0010494946789182274 0 -0.0058070358612616908 0.0015406304952064788 0 -0.0058960191403603264 0.0012698887814008022 0 -0.0056300814157270174 0.0013407404479160684 0 -0.0058070358612616908 0.0015406304952064788 0 -0.0056300814157270174 0.0013407404479160684 0 -0.0055599736438894107 0.0016559003454860314 0 -0.0058960191403603264 0.0012698887814008022 0 -0.0056300814157270174 0.0013407404479160684 0 -0.00569369200604732 0.0011404814385312487 0 -0.0056300814157270174 0.0013407404479160684 0 -0.0054471638222423598 0.0012715251050451936 0 -0.005537761200965538 0.0010725263687798167 0 -0.0046116002331106536 0.0012963377355622967 0 -0.0045857136258762076 0.0013767237587953131 0 -0.0058070358612616908 0.0015406304952064788 0 -0.0055599736438894107 0.0016559003454860314 0 -0.0057093462415480139 0.001806871468803338 0 -0.0034530969178918885 0.0011042540721411731 0 -0.0034408814692100187 0.00098506072794358438 0 -0.0033544145400960495 0.0012019759985036069 0 -0.0034735608886307268 0.0012135309745324287 0 -0.0034530969178918885 0.0011042540721411731 0 -0.0033544145400960495 0.0012019759985036069 0 -0.005540706342811637 0.0018929255235653512 0 -0.0055599736438894107 0.0016559003454860314 0 -0.0057093462415480139 0.001806871468803338 0 -0.0055599736438894107 0.0016559003454860314 0 -0.0054115448772024651 0.001693499487549952 0 -0.0054415750154119804 0.0017965243530995397 0 -0.005540706342811637 0.0018929255235653512 0 -0.0055599736438894107 0.0016559003454860314 0 -0.0054415750154119804 0.0017965243530995397 0 -0.0054115448772024651 0.001693499487549952 0 -0.0054415750154119804 0.0017965243530995397 0 -0.0053416261700064216 0.0018183411693846565 0 -0.0053416261700064216 0.0018183411693846565 0 -0.0052877256377465336 0.0016989067881265929 0 -0.0052520718931076803 0.0018299453660817341 0 -0.0054115448772024651 0.001693499487549952 0 -0.0053416261700064216 0.0018183411693846565 0 -0.0052877256377465336 0.0016989067881265929 0 -0.0054115448772024651 0.001693499487549952 0 -0.0052877256377465336 0.0016989067881265929 0 -0.005384560418544823 0.0014848097298832501 0 -0.0052877256377465336 0.0016989067881265929 0 -0.005384560418544823 0.0014848097298832501 0 -0.0051916202178049443 0.0015933287074359082 0 -0.0055599736438894107 0.0016559003454860314 0 -0.0054115448772024651 0.001693499487549952 0 -0.005384560418544823 0.0014848097298832501 0 -0.0056300814157270174 0.0013407404479160684 0 -0.0055599736438894107 0.0016559003454860314 0 -0.005384560418544823 0.0014848097298832501 0 -0.0056300814157270174 0.0013407404479160684 0 -0.0054471638222423598 0.0012715251050451936 0 -0.005384560418544823 0.0014848097298832501 0 -0.0052837842076360617 0.0012513354801513407 0 -0.005384560418544823 0.0014848097298832501 0 -0.005165320142586239 0.0014061895464819562 0 -0.0054471638222423598 0.0012715251050451936 0 -0.0052837842076360617 0.0012513354801513407 0 -0.005384560418544823 0.0014848097298832501 0 -0.005384560418544823 0.0014848097298832501 0 -0.005165320142586239 0.0014061895464819562 0 -0.0051916202178049443 0.0015933287074359082 0 -0.0052837842076360617 0.0012513354801513407 0 -0.005165320142586239 0.0014061895464819562 0 -0.0051423315796415275 0.0011635659325229511 0 -0.005165320142586239 0.0014061895464819562 0 -0.0049999785141334437 0.0013255257680701241 0 -0.0051423315796415275 0.0011635659325229511 0 -0.005165320142586239 0.0014061895464819562 0 -0.0049999822024610714 0.0016250073498575712 0 -0.0051916202178049443 0.0015933287074359082 0 -0.005165320142586239 0.0014061895464819562 0 -0.0049999785141334437 0.0013255257680701241 0 -0.0049999822024610714 0.0016250073498575712 0 -0.0049999822024610714 0.0016250073498575712 0 -0.0051916202178049443 0.0015933287074359082 0 -0.0051387864150646322 0.0017627669047847259 0 -0.0052877256377465336 0.0016989067881265929 0 -0.0051916202178049443 0.0015933287074359082 0 -0.0051387864150646322 0.0017627669047847259 0 -0.0052877256377465336 0.0016989067881265929 0 -0.0051387864150646322 0.0017627669047847259 0 -0.0052520718931076803 0.0018299453660817341 0 -0.005150149728232546 0.0019269530998744131 0 -0.0051387864150646322 0.0017627669047847259 0 -0.0052520718931076803 0.0018299453660817341 0 -0.004999983530045553 0.0019244960882321967 0 -0.0049999822024610714 0.0016250073498575712 0 -0.0051387864150646322 0.0017627669047847259 0 -0.0049999824613320863 0.00072655387490584786 0 -0.005294824703552946 0.00080257155998657423 0 -0.0051914942312512773 0.00059706648084445024 0 -0.0049999824613320863 0.00072655387490584786 0 -0.0051592337466478096 0.00095652413285360902 0 -0.005294824703552946 0.00080257155998657423 0 -0.0049999824613320863 0.00072655387490584786 0 -0.0049999786579251748 0.0010260374438539836 0 -0.0051592337466478096 0.00095652413285360902 0 -0.0049999786579251748 0.0010260374438539836 0 -0.0051423315796415275 0.0011635659325229511 0 -0.0051592337466478096 0.00095652413285360902 0 -0.0049999785141334437 0.0013255257680701241 0 -0.0049999786579251748 0.0010260374438539836 0 -0.0051423315796415275 0.0011635659325229511 0 -0.0052837842076360617 0.0012513354801513407 0 -0.0051423315796415275 0.0011635659325229511 0 -0.0053374731730399709 0.0010497757532717707 0 -0.0051592337466478096 0.00095652413285360902 0 -0.0053374731730399709 0.0010497757532717707 0 -0.005294824703552946 0.00080257155998657423 0 -0.0051423315796415275 0.0011635659325229511 0 -0.0051592337466478096 0.00095652413285360902 0 -0.0053374731730399709 0.0010497757532717707 0 -0.0054471638222423598 0.0012715251050451936 0 -0.0052837842076360617 0.0012513354801513407 0 -0.0053374731730399709 0.0010497757532717707 0 -0.0054471638222423598 0.0012715251050451936 0 -0.0053374731730399709 0.0010497757532717707 0 -0.005537761200965538 0.0010725263687798167 0 -0.0053374731730399709 0.0010497757532717707 0 -0.0054869869514592553 0.00082019413768420822 0 -0.005537761200965538 0.0010725263687798167 0 -0.0053374731730399709 0.0010497757532717707 0 -0.0054869869514592553 0.00082019413768420822 0 -0.005294824703552946 0.00080257155998657423 0 -0.005294824703552946 0.00080257155998657423 0 -0.0053937151777581375 0.00064290450255370993 0 -0.0051914942312512773 0.00059706648084445024 0 -0.0054869869514592553 0.00082019413768420822 0 -0.005294824703552946 0.00080257155998657423 0 -0.0053937151777581375 0.00064290450255370993 0 -0.0054869869514592553 0.00082019413768420822 0 -0.0053937151777581375 0.00064290450255370993 0 -0.0055536236448265686 0.00063165401642408989 0 -0.0054869869514592553 0.00082019413768420822 0 -0.0055536236448265686 0.00063165401642408989 0 -0.0056656396466221942 0.00073895328396194801 0 -0.0055536236448265686 0.00063165401642408989 0 -0.0056656396466221942 0.00073895328396194801 0 -0.0056896529831794258 0.00058182186874782373 0 -0.0056656396466221942 0.00073895328396194801 0 -0.0057897267130827719 0.00063930983983993643 0 -0.0056896529831794258 0.00058182186874782373 0 -0.0056656396466221942 0.00073895328396194801 0 -0.0057900514158767931 0.00076082387693527601 0 -0.0057897267130827719 0.00063930983983993643 0 -0.0056656396466221942 0.00073895328396194801 0 -0.0057346745069533772 0.00085535913182642899 0 -0.0056336994017422599 0.00091149175528945268 0 -0.0056656396466221942 0.00073895328396194801 0 -0.0057346745069533772 0.00085535913182642899 0 -0.0057900514158767931 0.00076082387693527601 0 -0.0057346745069533772 0.00085535913182642899 0 -0.00578244578442996 0.00098487983498758117 0 -0.0058322322587021696 0.00087493008994390703 0 -0.0054869869514592553 0.00082019413768420822 0 -0.0056656396466221942 0.00073895328396194801 0 -0.0056336994017422599 0.00091149175528945268 0 -0.0056336994017422599 0.00091149175528945268 0 -0.005537761200965538 0.0010725263687798167 0 -0.00569369200604732 0.0011404814385312487 0 -0.0054869869514592553 0.00082019413768420822 0 -0.0056336994017422599 0.00091149175528945268 0 -0.005537761200965538 0.0010725263687798167 0 -0.0056300814157270174 0.0013407404479160684 0 -0.005537761200965538 0.0010725263687798167 0 -0.00569369200604732 0.0011404814385312487 0 -0.0058960191403603264 0.0012698887814008022 0 -0.00569369200604732 0.0011404814385312487 0 -0.00578244578442996 0.00098487983498758117 0 -0.0057346745069533772 0.00085535913182642899 0 -0.0056336994017422599 0.00091149175528945268 0 -0.00578244578442996 0.00098487983498758117 0 -0.0056336994017422599 0.00091149175528945268 0 -0.00569369200604732 0.0011404814385312487 0 -0.00578244578442996 0.00098487983498758117 0 -0.00578244578442996 0.00098487983498758117 0 -0.0059734975994313348 0.00099860398432210975 0 -0.0058322322587021696 0.00087493008994390703 0 -0.0058960191403603264 0.0012698887814008022 0 -0.00578244578442996 0.00098487983498758117 0 -0.0059734975994313348 0.00099860398432210975 0 -0.0035141195059446759 0.00085682592682261971 0 -0.0034947200101487106 0.00086550334892201476 0 -0.0035076694065188561 0.00083622467177114511 0 -0.0035141195059446759 0.00085682592682261971 0 -0.0035076694065188561 0.00083622467177114511 0 -0.0035086501510704906 0.00083829990134211979 0 -0.0046916502565911089 0.0010494946789182274 0 -0.0047865037364745663 0.00098676762481339345 0 -0.0059734975994313348 0.00099860398432210975 0 -0.0060127883280622491 0.00072203896185475441 0 -0.0060366065843989458 0.00073056837340369643 0 -0.0059734975994313348 0.00099860398432210975 0 -0.0058995953157897881 0.00077532306411964998 0 -0.0060127883280622491 0.00072203896185475441 0 -0.0035076694065188561 0.00083622467177114511 0 -0.0034842361658757471 0.00084507074958609042 0 -0.0034933841265955504 0.00085728824470592728 0 -0.0047865037364745663 0.00098676762481339345 0 -0.0043818419018728308 0.00043795620681335879 0 -0.0059734975994313348 0.00099860398432210975 0 -0.0058322322587021696 0.00087493008994390703 0 -0.0058995953157897881 0.00077532306411964998 0 -0.0058322322587021696 0.00087493008994390703 0 -0.0057900514158767931 0.00076082387693527601 0 -0.0058995953157897881 0.00077532306411964998 0 -0.0057346745069533772 0.00085535913182642899 0 -0.0058322322587021696 0.00087493008994390703 0 -0.0057900514158767931 0.00076082387693527601 0 -0.0057900514158767931 0.00076082387693527601 0 -0.0058995953157897881 0.00077532306411964998 0 -0.0058508634384463985 0.00070133193485690849 0 -0.0058995953157897881 0.00077532306411964998 0 -0.0058508634384463985 0.00070133193485690849 0 -0.005935855575805689 0.00069317301303505421 0 -0.0057900514158767931 0.00076082387693527601 0 -0.0058508634384463985 0.00070133193485690849 0 -0.0057897267130827719 0.00063930983983993643 0 -0.0058508634384463985 0.00070133193485690849 0 -0.0058955275286583734 0.00061158884619940204 0 -0.005935855575805689 0.00069317301303505421 0 -0.0058508634384463985 0.00070133193485690849 0 -0.0057897267130827719 0.00063930983983993643 0 -0.0058955275286583734 0.00061158884619940204 0 -0.0059877455495678236 0.00065580163081567348 0 -0.0059903658178154517 0.00058594882834147406 0 -0.0060332807385002369 0.00072902804667339188 0 -0.0058955275286583734 0.00061158884619940204 0 -0.0059877455495678236 0.00065580163081567348 0 -0.005935855575805689 0.00069317301303505421 0 -0.0058955275286583734 0.00061158884619940204 0 -0.0059877455495678236 0.00065580163081567348 0 -0.0059903658178154517 0.00058594882834147406 0 -0.0059877455495678236 0.00065580163081567348 0 -0.0060127883280622491 0.00072203896185475441 0 -0.0060332807385002369 0.00072902804667339188 0 -0.0059877455495678236 0.00065580163081567348 0 -0.0060127883280622491 0.00072203896185475441 0 -0.005935855575805689 0.00069317301303505421 0 -0.0048129601078185369 0.00056335168179919731 0 -0.0043818419018728308 0.00043795620681335879 0 -0.0058995953157897881 0.00077532306411964998 0 -0.0060127883280622491 0.00072203896185475441 0 -0.005935855575805689 0.00069317301303505421 0 -0.0059091268219497624 0.00051784575942028595 0 -0.0059903658178154517 0.00058594882834147406 0 -0.0059464091007571315 0.00041117979090007093 0 -0.0059091268219497624 0.00051784575942028595 0 -0.0058082216673282618 0.00048851549805797466 0 -0.0059464091007571315 0.00041117979090007093 0 -0.0058955275286583734 0.00061158884619940204 0 -0.0059091268219497624 0.00051784575942028595 0 -0.0059903658178154517 0.00058594882834147406 0 -0.0058955275286583734 0.00061158884619940204 0 -0.0059091268219497624 0.00051784575942028595 0 -0.0058082216673282618 0.00048851549805797466 0 -0.0057897267130827719 0.00063930983983993643 0 -0.0058955275286583734 0.00061158884619940204 0 -0.0058082216673282618 0.00048851549805797466 0 -0.0058082216673282618 0.00048851549805797466 0 -0.0057883408394183737 0.00035256737666502407 0 -0.0059464091007571315 0.00041117979090007093 0 -0.0057883408394183737 0.00035256737666502407 0 -0.0059464091007571315 0.00041117979090007093 0 -0.0058684477183970308 0.00026186330435817775 0 -0.0059832260883807553 0.00025770671239404205 0 -0.0059334454083073288 0.00016926953215890228 0 -0.0058684477183970308 0.00026186330435817775 0 -0.0059464091007571315 0.00041117979090007093 0 -0.0059832260883807553 0.00025770671239404205 0 -0.0058684477183970308 0.00026186330435817775 0 -0.0059184217611721011 4.5234291058883098e-05 0 -0.0059334454083073288 0.00016926953215890228 0 -0.0060223393626666309 0.00012595417806067645 0 -0.0059334454083073288 0.00016926953215890228 0 -0.0058441597492204719 0.00015689511678883855 0 -0.0058684477183970308 0.00026186330435817775 0 -0.0059184217611721011 4.5234291058883098e-05 0 -0.0059334454083073288 0.00016926953215890228 0 -0.0058441597492204719 0.00015689511678883855 0 -0.0059184217611721011 4.5234291058883098e-05 0 -0.0058441597492204719 0.00015689511678883855 0 -0.0057378537412091594 0.00010842012335019171 0 -0.0059132127727804136 4.6418126010768282e-05 0 -0.0057802738436280327 7.1837950980870383e-05 0 -0.0058441597492204719 0.00015689511678883855 0 -0.0057842298879202982 0.00022846686093922364 0 -0.0057378537412091594 0.00010842012335019171 0 -0.0058441597492204719 0.00015689511678883855 0 -0.0057842298879202982 0.00022846686093922364 0 -0.0058684477183970308 0.00026186330435817775 0 -0.0057883408394183737 0.00035256737666502407 0 -0.0057842298879202982 0.00022846686093922364 0 -0.0058684477183970308 0.00026186330435817775 0 -0.0057883408394183737 0.00035256737666502407 0 -0.0057842298879202982 0.00022846686093922364 0 -0.0056848428784941471 0.00026812991955712758 0 -0.0057565983477947469 -8.2116046151246884e-05 0 -0.0058188695756131179 3.5549498012055546e-05 0 -0.0056164492756095117 7.1718570343538233e-05 0 -0.0057802738436280327 7.1837950980870383e-05 0 -0.0055904076697888237 0.00010884373065427691 0 -0.0057842298879202982 0.00022846686093922364 0 -0.0056848428784941471 0.00026812991955712758 0 -0.0057378537412091594 0.00010842012335019171 0 -0.0056848428784941471 0.00026812991955712758 0 -0.0057378537412091594 0.00010842012335019171 0 -0.0055640946277997743 0.00014678216871092783 0 -0.0055640946277997743 0.00014678216871092783 0 -0.0055822615193681976 0.00027227137350912341 0 -0.0054672608683705021 0.00031308873774996192 0 -0.0055822615193681976 0.00027227137350912341 0 -0.0055903013569071746 0.00038428583411260044 0 -0.0054672608683705021 0.00031308873774996192 0 -0.0056848428784941471 0.00026812991955712758 0 -0.0055640946277997743 0.00014678216871092783 0 -0.0055822615193681976 0.00027227137350912341 0 -0.0056848428784941471 0.00026812991955712758 0 -0.0055822615193681976 0.00027227137350912341 0 -0.0055903013569071746 0.00038428583411260044 0 -0.0055903013569071746 0.00038428583411260044 0 -0.005603951328450269 0.00050669190576824836 0 -0.0054886489880885932 0.00049451632774624873 0 -0.0055903013569071746 0.00038428583411260044 0 -0.0056959498688207953 0.00044478745292274589 0 -0.005603951328450269 0.00050669190576824836 0 -0.0057883408394183737 0.00035256737666502407 0 -0.0056848428784941471 0.00026812991955712758 0 -0.0056959498688207953 0.00044478745292274589 0 -0.0056848428784941471 0.00026812991955712758 0 -0.0055903013569071746 0.00038428583411260044 0 -0.0056959498688207953 0.00044478745292274589 0 -0.0058082216673282618 0.00048851549805797466 0 -0.0057883408394183737 0.00035256737666502407 0 -0.0056959498688207953 0.00044478745292274589 0 -0.0057897267130827719 0.00063930983983993643 0 -0.0058082216673282618 0.00048851549805797466 0 -0.0056896529831794258 0.00058182186874782373 0 -0.0056959498688207953 0.00044478745292274589 0 -0.0056896529831794258 0.00058182186874782373 0 -0.005603951328450269 0.00050669190576824836 0 -0.0058082216673282618 0.00048851549805797466 0 -0.0056959498688207953 0.00044478745292274589 0 -0.0056896529831794258 0.00058182186874782373 0 -0.0055536236448265686 0.00063165401642408989 0 -0.0056896529831794258 0.00058182186874782373 0 -0.005603951328450269 0.00050669190576824836 0 -0.0055536236448265686 0.00063165401642408989 0 -0.005603951328450269 0.00050669190576824836 0 -0.0054886489880885932 0.00049451632774624873 0 -0.0053937151777581375 0.00064290450255370993 0 -0.0054886489880885932 0.00049451632774624873 0 -0.0053313303043672168 0.00046452631059547565 0 -0.0053937151777581375 0.00064290450255370993 0 -0.0055536236448265686 0.00063165401642408989 0 -0.0054886489880885932 0.00049451632774624873 0 -0.0053937151777581375 0.00064290450255370993 0 -0.0053313303043672168 0.00046452631059547565 0 -0.0051914942312512773 0.00059706648084445024 0 -0.0053313303043672168 0.00046452631059547565 0 -0.0054672608683705021 0.00031308873774996192 0 -0.0053064555417166445 0.00029690343616742195 0 -0.0055903013569071746 0.00038428583411260044 0 -0.0054886489880885932 0.00049451632774624873 0 -0.0054672608683705021 0.00031308873774996192 0 -0.0054886489880885932 0.00049451632774624873 0 -0.0053313303043672168 0.00046452631059547565 0 -0.0054672608683705021 0.00031308873774996192 0 -0.0055640946277997743 0.00014678216871092783 0 -0.0054672608683705021 0.00031308873774996192 0 -0.0053820492734216211 0.00017185401929978232 0 -0.0055374056287562307 -0.00011395925267935339 0 -0.0056164492756095117 7.1718570343538233e-05 0 -0.0054081801830079077 0.0001151530171694738 0 -0.0055904076697888237 0.00010884373065427691 0 -0.0053900520177648402 0.00014354319204167861 0 -0.0053900520177648402 0.00014354319204167861 0 -0.0051999093622946621 0.00017254475709118589 0 -0.0052616608767624548 -8.8859467728960283e-05 0 -0.0054081801830079077 0.0001151530171694738 0 -0.0051886707596052704 0.00017270094251075249 0 -0.0053820492734216211 0.00017185401929978232 0 -0.0053064555417166445 0.00029690343616742195 0 -0.0051886707596052704 0.00017270094251075249 0 -0.0054672608683705021 0.00031308873774996192 0 -0.0053820492734216211 0.00017185401929978232 0 -0.0053064555417166445 0.00029690343616742195 0 -0.0053064555417166445 0.00029690343616742195 0 -0.0051886707596052704 0.00017270094251075249 0 -0.0051724319602283958 0.00036594494824152761 0 -0.0052616608767624548 -8.8859467728960283e-05 0 -0.0051886707596052704 0.00017270094251075249 0 -0.0051156154329016056 1.1092337692397671e-05 0 -0.0051886707596052704 0.00017270094251075249 0 -0.0049999848476685229 0.00012759139452947978 0 -0.0051156154329016056 1.1092337692397671e-05 0 -0.0051886707596052704 0.00017270094251075249 0 -0.0049999848476685229 0.00012759139452947978 0 -0.0051724319602283958 0.00036594494824152761 0 -0.0049999848476685229 0.00012759139452947978 0 -0.0049999849232058849 0.00042707782410749626 0 -0.0051724319602283958 0.00036594494824152761 0 -0.0049999849232058849 0.00042707782410749626 0 -0.0051724319602283958 0.00036594494824152761 0 -0.0051914942312512773 0.00059706648084445024 0 -0.0053313303043672168 0.00046452631059547565 0 -0.0053064555417166445 0.00029690343616742195 0 -0.0051724319602283958 0.00036594494824152761 0 -0.0053313303043672168 0.00046452631059547565 0 -0.0051724319602283958 0.00036594494824152761 0 -0.0051914942312512773 0.00059706648084445024 0 -0.0049999824613320863 0.00072655387490584786 0 -0.0049999849232058849 0.00042707782410749626 0 -0.0051914942312512773 0.00059706648084445024 0 -0.002030128256299414 -0.00063529691169938876 0 -0.0020970736891011768 -0.00060265523147261572 0 -0.002051595846772811 -0.000538234341432082 0 -0.0018315430845579411 -0.00074165357620170212 0 -0.0016448428456794458 -0.00097688384822190201 0 -0.0015936863501475173 -0.00098050048884675955 0 -0.0013677933897537358 -0.0010230990485238047 0 -0.0013736079231512043 -0.0011516274333876399 0 -0.002030128256299414 -0.00063529691169938876 0 -0.002051595846772811 -0.000538234341432082 0 -0.0019538035347972365 -0.00064019228140750248 0 -0.002030128256299414 -0.00063529691169938876 0 -0.0020970736891011768 -0.00060265523147261572 0 -0.0020779406693389067 -0.00068410679250693733 0 -0.0020970736891011768 -0.00060265523147261572 0 -0.0021132296881386779 -0.00053121674631559108 0 -0.0021500031973686073 -0.00056230275775166945 0 -0.0020970736891011768 -0.00060265523147261572 0 -0.0021132296881386779 -0.00053121674631559108 0 -0.002051595846772811 -0.000538234341432082 0 -0.0021132296881386779 -0.00053121674631559108 0 -0.002051595846772811 -0.000538234341432082 0 -0.0021393003074918265 -0.00046830306954387071 0 -0.0021132296881386779 -0.00053121674631559108 0 -0.0021500031973686073 -0.00056230275775166945 0 -0.002139735135419151 -0.00050626543412669942 0 -0.0015936863501475173 -0.00098050048884675955 0 -0.0014064983878873609 -0.00091726519181896957 0 -0.0013677933897537358 -0.0010230990485238047 0 -0.0015936863501475173 -0.00098050048884675955 0 -0.0014064983878873609 -0.00091726519181896957 0 -0.0015281292928080899 -0.00084630921362667804 0 -0.0015936863501475173 -0.00098050048884675955 0 -0.0015281292928080899 -0.00084630921362667804 0 -0.001642319911023424 -0.00081380050772614557 0 -0.0014064983878873609 -0.00091726519181896957 0 -0.0012234733243338821 -0.00097444816764631734 0 -0.0012951248370097319 -0.00085172094824026076 0 -0.0014064983878873609 -0.00091726519181896957 0 -0.0012234733243338821 -0.00097444816764631734 0 -0.0013677933897537358 -0.0010230990485238047 0 -0.0012234733243338821 -0.00097444816764631734 0 -0.0011646927151600644 -0.0008355779373689689 0 -0.0010837837778523681 -0.00094505494316862498 0 -0.0012234733243338821 -0.00097444816764631734 0 -0.0011646927151600644 -0.0008355779373689689 0 -0.0012951248370097319 -0.00085172094824026076 0 -0.0012234733243338821 -0.00097444816764631734 0 -0.0011163700181530366 -0.0010578665956835975 0 -0.0010837837778523681 -0.00094505494316862498 0 -0.0012234733243338821 -0.00097444816764631734 0 -0.0011163700181530366 -0.0010578665956835975 0 -0.0012543131382949345 -0.0010885382037583284 0 -0.0011163700181530366 -0.0010578665956835975 0 -0.0012543131382949345 -0.0010885382037583284 0 -0.0011433912398064129 -0.0011508514541120629 0 -0.0012234733243338821 -0.00097444816764631734 0 -0.0013677933897537358 -0.0010230990485238047 0 -0.0012543131382949345 -0.0010885382037583284 0 -0.0013677933897537358 -0.0010230990485238047 0 -0.0012543131382949345 -0.0010885382037583284 0 -0.0013736079231512043 -0.0011516274333876399 0 -0.0012543131382949345 -0.0010885382037583284 0 -0.0013736079231512043 -0.0011516274333876399 0 -0.0012203969382059701 -0.0011810624479080087 0 -0.0019538035347972365 -0.00064019228140750248 0 -0.0019683848461812688 -0.00072244634366048154 0 -0.0018505384812213762 -0.00075838346044380814 0 -0.0013736079231512043 -0.0011516274333876399 0 -0.0012203969382059701 -0.0011810624479080087 0 -0.0011755350357887169 -0.0012789055604725125 0 -0.0016448428456794458 -0.00097688384822190201 0 -0.001500168925382378 -0.00055465327987305616 0 -0.0012543131382949345 -0.0010885382037583284 0 -0.0011433912398064129 -0.0011508514541120629 0 -0.0012203969382059701 -0.0011810624479080087 0 -0.0011433912398064129 -0.0011508514541120629 0 -0.0012203969382059701 -0.0011810624479080087 0 -0.001155268491455589 -0.0012261554549393809 0 -0.0012203969382059701 -0.0011810624479080087 0 -0.001155268491455589 -0.0012261554549393809 0 -0.0011755350357887169 -0.0012789055604725125 0 -0.0011433912398064129 -0.0011508514541120629 0 -0.001155268491455589 -0.0012261554549393809 0 -0.001064791084327486 -0.0012157659954994864 0 -0.001155268491455589 -0.0012261554549393809 0 -0.0011052739691803733 -0.0012544830910429031 0 -0.001064791084327486 -0.0012157659954994864 0 -0.001500168925382378 -0.00055465327987305616 0 -0.0011591069908014214 -0.00026134829959530251 0 -0.0011052739691803733 -0.0012544830910429031 0 -0.0011755350357887169 -0.0012789055604725125 0 -0.0010341614589569087 -0.0012881404316432104 0 -0.0011755350357887169 -0.0012789055604725125 0 -0.0010341614589569087 -0.0012881404316432104 0 -0.0010210497272039501 -0.0013874429717675471 0 -0.001155268491455589 -0.0012261554549393809 0 -0.0011052739691803733 -0.0012544830910429031 0 -0.0011755350357887169 -0.0012789055604725125 0 -0.0015393597420656146 -4.2993401330363175e-05 0 -0.001500168925382378 -0.00055465327987305616 0 -0.0012244650365448358 0.00064660311038703257 0 -0.0012916527576837689 0.00068061121771131709 0 -0.0012562888755370198 0.00071057042212068324 0 -0.0012225363095129174 0.0007478198236955118 0 -0.0012244650365448358 0.00064660311038703257 0 -0.0012562888755370198 0.00071057042212068324 0 -0.0012742899032502958 0.00075345497467310489 0 -0.0012916527576837689 0.00068061121771131709 0 -0.0012562888755370198 0.00071057042212068324 0 -0.0011644221548459007 0.00071442408923346129 0 -0.0012225363095129174 0.0007478198236955118 0 -0.0012244650365448358 0.00064660311038703257 0 -0.0011644221548459007 0.00071442408923346129 0 -0.0012244650365448358 0.00064660311038703257 0 -0.0011615754586944956 0.00062204689753991914 0 -0.002030128256299414 -0.00063529691169938876 0 -0.0019538035347972365 -0.00064019228140750248 0 -0.0019683848461812688 -0.00072244634366048154 0 -0.002030128256299414 -0.00063529691169938876 0 -0.0019683848461812688 -0.00072244634366048154 0 -0.0020779406693389067 -0.00068410679250693733 0 -0.0015393597420656146 -4.2993401330363175e-05 0 -0.0020743340371894817 0.0002887733832010567 0 -0.0020743340371894817 0.0002887733832010567 0 -0.0026922919999869226 0.00024740362211963992 0 -0.0029121698756525657 0.0011903272515251895 0 -0.0029093876824037345 0.001204357373220426 0 -0.0029040773963743558 0.0011957783511785483 0 -0.0020970736891011768 -0.00060265523147261572 0 -0.0020877741472401842 -0.0006539322219580113 0 -0.0021786394706059106 -0.0006331389278145563 0 -0.002026116112958061 -0.00088978703172501255 0 -0.0020743340371894817 0.0002887733832010567 0 -0.0020434080599765841 0.0010984530433949004 0 -0.0020743340371894817 0.0002887733832010567 0 -0.0029041458032201982 0.0012117021563488723 0 -0.0029121698756525657 0.0011903272515251895 0 -0.0029093876824037345 0.001204357373220426 0 -0.002911641935864291 0.00121550517811471 0 -0.0029041458032201982 0.0012117021563488723 0 -0.0029093876824037345 0.001204357373220426 0 -0.002911641935864291 0.00121550517811471 0 -0.0029093876824037345 0.001204357373220426 0 -0.0029040773963743558 0.0011957783511785483 0 -0.002911641935864291 0.00121550517811471 0 -0.0029020242349377208 0.0012120701231503508 0 -0.0029040773963743558 0.0011957783511785483 0 -0.0029020242349377208 0.0012120701231503508 0 -0.002899013685676694 0.0011909239902588504 0 -0.0029040773963743558 0.0011957783511785483 0 -0.0029020242349377208 0.0012120701231503508 0 -0.002899013685676694 0.0011909239902588504 0 -0.0028912920463521927 0.0011980906470513272 0 -0.0028978113932370251 0.0012366416030466165 0 -0.0029020242349377208 0.0012120701231503508 0 -0.0028907393005977557 0.0012150168065277612 0 -0.0029020242349377208 0.0012120701231503508 0 -0.0028907393005977557 0.0012150168065277612 0 -0.0028912920463521927 0.0011980906470513272 0 -0.002899013685676694 0.0011909239902588504 0 -0.0028912920463521927 0.0011980906470513272 0 -0.0028849164036730997 0.0011664720413478678 0 -0.002899013685676694 0.0011909239902588504 0 -0.0029053426615432191 0.0011784252034429401 0 -0.0028849164036730997 0.0011664720413478678 0 -0.0026922919999869226 0.00024740362211963992 0 -0.0029795183865818703 0.0014118573967843487 0 -0.002899013685676694 0.0011909239902588504 0 -0.0029053426615432191 0.0011784252034429401 0 -0.0029040773963743558 0.0011957783511785483 0 -0.0029121698756525657 0.0011903272515251895 0 -0.0028972873391172015 0.001176506692124153 0 -0.0029040773963743558 0.0011957783511785483 0 -0.0032314876280075708 0.0010446784200721453 0 -0.0032780148541725084 0.0009258635545044123 0 -0.0033924099753672968 0.00089272445975537951 0 -0.0030580324978947307 0.0011226647586667679 0 -0.0031414234274743441 0.0011441918911638631 0 -0.0032780148541725084 0.0009258635545044123 0 -0.0033924099753672968 0.00089272445975537951 0 -0.0034444198322044492 0.00084426778192252608 0 -0.0028857927979038861 0.0012322583060883777 0 -0.0028907393005977557 0.0012150168065277612 0 -0.0028754467783992281 0.0012047261312117066 0 -0.0028907393005977557 0.0012150168065277612 0 -0.0028912920463521927 0.0011980906470513272 0 -0.0028754467783992281 0.0012047261312117066 0 -0.0031414234274743441 0.0011441918911638631 0 -0.0030041605535623913 0.0004911074306975029 0 -0.0033897064296480447 0.00089184371629280861 0 -0.0034351870815999262 0.00085019123498540324 0 -0.0033924099753672968 0.00089272445975537951 0 -0.0034444198322044492 0.00084426778192252608 0 -0.0034822711978993739 0.00082168405550453027 0 -0.0028912920463521927 0.0011980906470513272 0 -0.0028754467783992281 0.0012047261312117066 0 -0.0028849164036730997 0.0011664720413478678 0 -0.0035076694065188561 0.00083622467177114511 0 -0.0034912094919609233 0.00083986075856053448 0 -0.0034842361658757471 0.00084507074958609042 0 -0.0035086501510704906 0.00083829990134211979 0 -0.0034444198322044492 0.00084426778192252608 0 -0.0034912094919609233 0.00083986075856053448 0 -0.0034444198322044492 0.00084426778192252608 0 -0.0034912094919609233 0.00083986075856053448 0 -0.0034842361658757471 0.00084507074958609042 0 -0.0035076694065188561 0.00083622467177114511 0 -0.0035086501510704906 0.00083829990134211979 0 -0.0034912094919609233 0.00083986075856053448 0 -0.0034444198322044492 0.00084426778192252608 0 -0.0034842361658757471 0.00084507074958609042 0 -0.003462911646762564 0.00084638470495083473 0 -0.0034842361658757471 0.00084507074958609042 0 -0.003462911646762564 0.00084638470495083473 0 -0.0034933841265955504 0.00085728824470592728 0 -0.0030824392148326094 0.00026085973285131946 0 -0.0043818419018728308 0.00043795620681335879 0 -0.0034444198322044492 0.00084426778192252608 0 -0.003462911646762564 0.00084638470495083473 0 -0.0034822711978993739 0.00082168405550453027 0 -0.0030824392148326094 0.00026085973285131946 0 -0.0030041605535623913 0.0004911074306975029 0 -0.0029807903921230919 -0.00022448018610001538 0 -0.0028857054257693401 -0.0001849027490485285 0 -0.0028643841960691607 -0.00026100681407129712 0 -0.0028857054257693401 -0.0001849027490485285 0 -0.0028685905030553312 -0.00011834683453773878 0 -0.0029293360000869051 -0.00013858254050214223 0 -0.0028685905030553312 -0.00011834683453773878 0 -0.0029293360000869051 -0.00013858254050214223 0 -0.0029186076590491062 -6.7388126057940181e-05 0 -0.0029293360000869051 -0.00013858254050214223 0 -0.0029994255503566682 -0.00013209109873031356 0 -0.0029186076590491062 -6.7388126057940181e-05 0 -0.0029807903921230919 -0.00022448018610001538 0 -0.0028857054257693401 -0.0001849027490485285 0 -0.0029293360000869051 -0.00013858254050214223 0 -0.0029807903921230919 -0.00022448018610001538 0 -0.0029293360000869051 -0.00013858254050214223 0 -0.0029994255503566682 -0.00013209109873031356 0 -0.0029994255503566682 -0.00013209109873031356 0 -0.0030994481298561578 -0.00018526715168311022 0 -0.0030275948786451135 -2.8485001126528428e-05 0 -0.0059903658178154517 0.00058594882834147406 0 -0.0060332807385002369 0.00072902804667339188 0 -0.0060815855876606159 0.00051604570839050741 0 -0.0043818419018728308 0.00043795620681335879 0 -0.0045811915964586829 0.00019597146089868895 0 -0.0029807903921230919 -0.00022448018610001538 0 -0.0029994255503566682 -0.00013209109873031356 0 -0.0030994481298561578 -0.00018526715168311022 0 -0.0026922919999869226 0.00024740362211963992 0 -0.0024756985652344661 -0.00048505912372816398 0 -0.0021786394706059106 -0.0006331389278145563 0 -0.0022455951991104252 -0.00055672503859510692 0 -0.0021500031973686073 -0.00056230275775166945 0 -0.0020970736891011768 -0.00060265523147261572 0 -0.0021786394706059106 -0.0006331389278145563 0 -0.0021500031973686073 -0.00056230275775166945 0 -0.0026922919999869226 0.00024740362211963992 0 -0.0030041605535623913 0.0004911074306975029 0 -0.0027773740361307863 -0.00019421744994067576 0 -0.0028284237877822509 -0.0001763031248637294 0 -0.0028143768885361621 -0.00014625435584850175 0 -0.0028857054257693401 -0.0001849027490485285 0 -0.0028643841960691607 -0.00026100681407129712 0 -0.0028143768885361621 -0.00014625435584850175 0 -0.0030041605535623913 0.0004911074306975029 0 -0.0029076458819402699 -0.00031881956878325988 0 -0.0027773740361307863 -0.00019421744994067576 0 -0.0028143768885361621 -0.00014625435584850175 0 -0.0027876279938988603 -0.00013169563686299068 0 -0.0028857054257693401 -0.0001849027490485285 0 -0.0028685905030553312 -0.00011834683453773878 0 -0.0028143768885361621 -0.00014625435584850175 0 -0.0028685905030553312 -0.00011834683453773878 0 -0.0028259491214653043 -0.00011597644490869872 0 -0.0028420876984316646 -5.7106356280698654e-05 0 -0.0028259491214653043 -0.00011597644490869872 0 -0.0027876279938988603 -0.00013169563686299068 0 -0.0028420876984316646 -5.7106356280698654e-05 0 -0.0028685905030553312 -0.00011834683453773878 0 -0.0028143768885361621 -0.00014625435584850175 0 -0.0028259491214653043 -0.00011597644490869872 0 -0.0028143768885361621 -0.00014625435584850175 0 -0.0028259491214653043 -0.00011597644490869872 0 -0.0027876279938988603 -0.00013169563686299068 0 -0.0022455951991104252 -0.00055672503859510692 0 -0.0021691867499081781 -0.00052249960737181121 0 -0.0021539403410299955 -0.00045880949518047618 0 -0.0022455951991104252 -0.00055672503859510692 0 -0.0021691867499081781 -0.00052249960737181121 0 -0.0021500031973686073 -0.00056230275775166945 0 -0.0021691867499081781 -0.00052249960737181121 0 -0.0021500031973686073 -0.00056230275775166945 0 -0.002139735135419151 -0.00050626543412669942 0 -0.0021691867499081781 -0.00052249960737181121 0 -0.002139735135419151 -0.00050626543412669942 0 -0.0021539403410299955 -0.00045880949518047618 0 -0.0021539403410299955 -0.00045880949518047618 0 -0.0021124808909459853 -0.00049123503274097141 0 -0.0021393003074918265 -0.00046830306954387071 0 -0.002139735135419151 -0.00050626543412669942 0 -0.0021539403410299955 -0.00045880949518047618 0 -0.0021393003074918265 -0.00046830306954387071 0 -0.0027876279938988603 -0.00013169563686299068 0 -0.0028420876984316646 -5.7106356280698654e-05 0 -0.0027996213972456465 4.4821528429372915e-05 0 -0.0022455951991104252 -0.00055672503859510692 0 -0.0021539403410299955 -0.00045880949518047618 0 -0.0025072687976222634 -0.00014803454730154738 0 -0.0024756985652344661 -0.00048505912372816398 0 -0.0026676675578276789 -6.0619109655994713e-07 0 -0.0028420876984316646 -5.7106356280698654e-05 0 -0.0027996213972456465 4.4821528429372915e-05 0 -0.0028614472747915914 2.4568648759639937e-06 0 -0.0021539403410299955 -0.00045880949518047618 0 -0.0025072687976222634 -0.00014803454730154738 0 -0.0024761904274208288 1.0983804705203249e-05 0 -0.0022370114905030966 -0.00042472167405905079 0 -0.0020388212687084744 -0.00029870440148785843 0 -0.0027996213972456465 4.4821528429372915e-05 0 -0.0028777938177022917 9.4282951600784773e-05 0 -0.002803662981349677 0.00034220872874374768 0 -0.0027996213972456465 4.4821528429372915e-05 0 -0.0028614472747915914 2.4568648759639937e-06 0 -0.0028777938177022917 9.4282951600784773e-05 0 -0.0020674780854977757 -0.00051447572281577861 0 -0.0018473307889956701 -0.00058412592266267934 0 -0.0018227064365028036 -0.00077774099000833363 0 -0.0021124808909459853 -0.00049123503274097141 0 -0.0020674780854977757 -0.00051447572281577861 0 -0.0021393003074918265 -0.00046830306954387071 0 -0.0021539403410299955 -0.00045880949518047618 0 -0.0020977185179400833 -0.00051973485407833496 0 -0.0021124808909459853 -0.00049123503274097141 0 -0.0020977185179400833 -0.00051973485407833496 0 -0.0021124808909459853 -0.00049123503274097141 0 -0.0020674780854977757 -0.00051447572281577861 0 -0.0020664443933209333 -0.00051591819922383348 0 -0.0019771771756856172 -0.00062268091497473619 0 -0.0059903658178154517 0.00058594882834147406 0 -0.0059464091007571315 0.00041117979090007093 0 -0.0060815855876606159 0.00051604570839050741 0 -0.0030275948786451135 -2.8485001126528428e-05 0 -0.0029186076590491062 -6.7388126057940181e-05 0 -0.002920526217102004 1.8785489600945449e-05 0 -0.0029994255503566682 -0.00013209109873031356 0 -0.0030275948786451135 -2.8485001126528428e-05 0 -0.0029186076590491062 -6.7388126057940181e-05 0 -0.0028685905030553312 -0.00011834683453773878 0 -0.0028420876984316646 -5.7106356280698654e-05 0 -0.0029186076590491062 -6.7388126057940181e-05 0 -0.0029186076590491062 -6.7388126057940181e-05 0 -0.0028614472747915914 2.4568648759639937e-06 0 -0.002920526217102004 1.8785489600945449e-05 0 -0.0028420876984316646 -5.7106356280698654e-05 0 -0.0029186076590491062 -6.7388126057940181e-05 0 -0.0028614472747915914 2.4568648759639937e-06 0 -0.0028777938177022917 9.4282951600784773e-05 0 -0.002920526217102004 1.8785489600945449e-05 0 -0.0029601317329922931 0.00014799153793581524 0 -0.0030275948786451135 -2.8485001126528428e-05 0 -0.002920526217102004 1.8785489600945449e-05 0 -0.0029601317329922931 0.00014799153793581524 0 -0.0028614472747915914 2.4568648759639937e-06 0 -0.0028777938177022917 9.4282951600784773e-05 0 -0.002920526217102004 1.8785489600945449e-05 0 -0.0059464091007571315 0.00041117979090007093 0 -0.0059832260883807553 0.00025770671239404205 0 -0.006121583946979159 0.00031184417882807239 0 -0.0045811915964586829 0.00019597146089868895 0 -0.0045622382990943532 0.0002953148949383099 0 -0.0059464091007571315 0.00041117979090007093 0 -0.0060815855876606159 0.00051604570839050741 0 -0.006121583946979159 0.00031184417882807239 0 -0.0059832260883807553 0.00025770671239404205 0 -0.006121583946979159 0.00031184417882807239 0 -0.0060223393626666309 0.00012595417806067645 0 -0.0028777938177022917 9.4282951600784773e-05 0 -0.0029601317329922931 0.00014799153793581524 0 -0.002803662981349677 0.00034220872874374768 0 -0.0045622382990943532 0.0002953148949383099 0 -0.0041781614905370325 -2.3724250243280809e-06 0 -0.0029601317329922931 0.00014799153793581524 0 -0.002803662981349677 0.00034220872874374768 0 -0.002861665548197459 0.00049194298958162269 0 -0.0060818645783342687 1.9463515266639458e-05 0 -0.0061519450916974671 0.00012640164606227009 0 -0.0060223393626666309 0.00012595417806067645 0 -0.006121583946979159 0.00031184417882807239 0 -0.0061519450916974671 0.00012640164606227009 0 -0.0060223393626666309 0.00012595417806067645 0 -0.0059832260883807553 0.00025770671239404205 0 -0.0059334454083073288 0.00016926953215890228 0 -0.0060223393626666309 0.00012595417806067645 0 -0.0019858916429829078 -0.00040585796000993393 0 -0.0021089666081781353 -0.00041318340991285026 0 -0.0020424845711530626 -0.00031694043935325352 0 -0.0019858916429829078 -0.00040585796000993393 0 -0.0020674780854977757 -0.00051447572281577861 0 -0.0021089666081781353 -0.00041318340991285026 0 -0.0019858916429829078 -0.00040585796000993393 0 -0.0019227546905551025 -0.00030335519946651551 0 -0.0018451704861755446 -0.00042412337093277651 0 -0.0019858916429829078 -0.00040585796000993393 0 -0.001936299317050059 -0.00047954232637709615 0 -0.0018451704861755446 -0.00042412337093277651 0 -0.001936299317050059 -0.00047954232637709615 0 -0.0020674780854977757 -0.00051447572281577861 0 -0.0018473307889956701 -0.00058412592266267934 0 -0.0019858916429829078 -0.00040585796000993393 0 -0.001936299317050059 -0.00047954232637709615 0 -0.0020674780854977757 -0.00051447572281577861 0 -0.0020977185179400833 -0.00051973485407833496 0 -0.0022640386566099152 -0.00029532566600127668 0 -0.0021089666081781353 -0.00041318340991285026 0 -0.0020977185179400833 -0.00051973485407833496 0 -0.0020674780854977757 -0.00051447572281577861 0 -0.0021089666081781353 -0.00041318340991285026 0 -0.0020388212687084744 -0.00029870440148785843 0 -0.0041781614905370325 -2.3724250243280809e-06 0 -0.0026676675578276789 -6.0619109655994713e-07 0 -0.0027905072255713682 0.00031684082796701465 0 -0.0024761904274208288 1.0983804705203249e-05 0 -0.002803662981349677 0.00034220872874374768 0 -0.002861665548197459 0.00049194298958162269 0 -0.0025072687976222634 -0.00014803454730154738 0 -0.0024761904274208288 1.0983804705203249e-05 0 -0.002803662981349677 0.00034220872874374768 0 -0.0021089666081781353 -0.00041318340991285026 0 -0.0021271837268574956 -0.0002655615360360197 0 -0.0020424845711530626 -0.00031694043935325352 0 -0.0021931987157536308 -8.4622997898656764e-05 0 -0.0022640386566099152 -0.00029532566600127668 0 -0.0021271837268574956 -0.0002655615360360197 0 -0.0022640386566099152 -0.00029532566600127668 0 -0.0021089666081781353 -0.00041318340991285026 0 -0.0021271837268574956 -0.0002655615360360197 0 -0.0020303632767085448 -0.00020007852988640262 0 -0.0021271837268574956 -0.0002655615360360197 0 -0.0020424845711530626 -0.00031694043935325352 0 -0.0020303632767085448 -0.00020007852988640262 0 -0.0020424845711530626 -0.00031694043935325352 0 -0.0019227546905551025 -0.00030335519946651551 0 -0.0019858916429829078 -0.00040585796000993393 0 -0.0020424845711530626 -0.00031694043935325352 0 -0.0019227546905551025 -0.00030335519946651551 0 -0.0020303632767085448 -0.00020007852988640262 0 -0.0018904074726147156 -0.00015621051383706537 0 -0.0019227546905551025 -0.00030335519946651551 0 -0.0019227546905551025 -0.00030335519946651551 0 -0.0017341255308079859 -0.00031431935371375449 0 -0.0018451704861755446 -0.00042412337093277651 0 -0.0018904074726147156 -0.00015621051383706537 0 -0.0019227546905551025 -0.00030335519946651551 0 -0.0017341255308079859 -0.00031431935371375449 0 -0.0016443077157310664 -0.00017442081214969217 0 -0.0017341255308079859 -0.00031431935371375449 0 -0.0014362636558104169 -0.00036530996121444568 0 -0.0017341255308079859 -0.00031431935371375449 0 -0.0016398913322785637 -0.00047285598171064902 0 -0.0014362636558104169 -0.00036530996121444568 0 -0.0016398913322785637 -0.00047285598171064902 0 -0.0018451704861755446 -0.00042412337093277651 0 -0.0018473307889956701 -0.00058412592266267934 0 -0.0017341255308079859 -0.00031431935371375449 0 -0.0016398913322785637 -0.00047285598171064902 0 -0.0018451704861755446 -0.00042412337093277651 0 -0.001936299317050059 -0.00047954232637709615 0 -0.0018451704861755446 -0.00042412337093277651 0 -0.0018473307889956701 -0.00058412592266267934 0 -0.0018473307889956701 -0.00058412592266267934 0 -0.0016833621355383042 -0.00066972777654902252 0 -0.0018227064365028036 -0.00077774099000833363 0 -0.0016398913322785637 -0.00047285598171064902 0 -0.0018473307889956701 -0.00058412592266267934 0 -0.0016833621355383042 -0.00066972777654902252 0 -0.0016398913322785637 -0.00047285598171064902 0 -0.0015470846188854589 -0.0006320772257808789 0 -0.0014125594111231952 -0.00057211844496661589 0 -0.0016398913322785637 -0.00047285598171064902 0 -0.0016833621355383042 -0.00066972777654902252 0 -0.0015470846188854589 -0.0006320772257808789 0 -0.0016833621355383042 -0.00066972777654902252 0 -0.0015470846188854589 -0.0006320772257808789 0 -0.0015692432048984876 -0.00075349685987382968 0 -0.0016833621355383042 -0.00066972777654902252 0 -0.0015692432048984876 -0.00075349685987382968 0 -0.001642319911023424 -0.00081380050772614557 0 -0.0015470846188854589 -0.0006320772257808789 0 -0.0015692432048984876 -0.00075349685987382968 0 -0.0014321976071043283 -0.0007644765547748125 0 -0.0015692432048984876 -0.00075349685987382968 0 -0.0015281292928080899 -0.00084630921362667804 0 -0.0014321976071043283 -0.0007644765547748125 0 -0.0015692432048984876 -0.00075349685987382968 0 -0.0015281292928080899 -0.00084630921362667804 0 -0.001642319911023424 -0.00081380050772614557 0 -0.0015936863501475173 -0.00098050048884675955 0 -0.001642319911023424 -0.00081380050772614557 0 -0.0018227064365028036 -0.00077774099000833363 0 -0.0021132296881386779 -0.00053121674631559108 0 -0.002139735135419151 -0.00050626543412669942 0 -0.0021393003074918265 -0.00046830306954387071 0 -0.0018315430845579411 -0.00074165357620170212 0 -0.0019771771756856172 -0.00062268091497473619 0 -0.0016833621355383042 -0.00066972777654902252 0 -0.001642319911023424 -0.00081380050772614557 0 -0.0018227064365028036 -0.00077774099000833363 0 -0.0011646927151600644 -0.0008355779373689689 0 -0.0012667174161851134 -0.00070923146940475709 0 -0.0011058053623610731 -0.00065843074636989514 0 -0.0011646927151600644 -0.0008355779373689689 0 -0.0012951248370097319 -0.00085172094824026076 0 -0.0012667174161851134 -0.00070923146940475709 0 -0.0014064983878873609 -0.00091726519181896957 0 -0.0012951248370097319 -0.00085172094824026076 0 -0.0014321976071043283 -0.0007644765547748125 0 -0.0014064983878873609 -0.00091726519181896957 0 -0.0015281292928080899 -0.00084630921362667804 0 -0.0014321976071043283 -0.0007644765547748125 0 -0.0012951248370097319 -0.00085172094824026076 0 -0.0014321976071043283 -0.0007644765547748125 0 -0.0012667174161851134 -0.00070923146940475709 0 -0.0014321976071043283 -0.0007644765547748125 0 -0.0014125594111231952 -0.00057211844496661589 0 -0.0012667174161851134 -0.00070923146940475709 0 -0.0015470846188854589 -0.0006320772257808789 0 -0.0014321976071043283 -0.0007644765547748125 0 -0.0014125594111231952 -0.00057211844496661589 0 -0.0014125594111231952 -0.00057211844496661589 0 -0.0012667174161851134 -0.00070923146940475709 0 -0.0012577556429995236 -0.000532334130631977 0 -0.0012667174161851134 -0.00070923146940475709 0 -0.0012577556429995236 -0.000532334130631977 0 -0.0011058053623610731 -0.00065843074636989514 0 -0.0012577556429995236 -0.000532334130631977 0 -0.0011362688656407305 -0.00038715373079818569 0 -0.0011058053623610731 -0.00065843074636989514 0 -0.0012577556429995236 -0.000532334130631977 0 -0.0014362636558104169 -0.00036530996121444568 0 -0.0011362688656407305 -0.00038715373079818569 0 -0.0014125594111231952 -0.00057211844496661589 0 -0.0012577556429995236 -0.000532334130631977 0 -0.0014362636558104169 -0.00036530996121444568 0 -0.0016398913322785637 -0.00047285598171064902 0 -0.0014125594111231952 -0.00057211844496661589 0 -0.0014362636558104169 -0.00036530996121444568 0 -0.0016443077157310664 -0.00017442081214969217 0 -0.001395712221665267 -0.00016616944794400031 0 -0.0014362636558104169 -0.00036530996121444568 0 -0.0012667884881884292 -0.0013579506031322361 0 -0.00090404725687215142 -0.0012773309765933612 0 -0.00093795733344307188 -0.0015219547954623475 0 -0.001395712221665267 -0.00016616944794400031 0 -0.0014362636558104169 -0.00036530996121444568 0 -0.0011362688656407305 -0.00038715373079818569 0 -0.001333032394160208 -0.00075850960735124187 0 -0.0010408275187422879 -0.00095205484207950295 0 -0.00090404725687215142 -0.0012773309765933612 0 -0.00065115390356577658 -0.0014582503177069533 0 -0.00093795733344307188 -0.0015219547954623475 0 -0.00065115390356577658 -0.0014582503177069533 0 -0.00053707440996326311 -0.0016073748389529659 0 -0.00063087177881639492 -0.0016338565727533076 0 -0.00065115390356577658 -0.0014582503177069533 0 -0.00093795733344307188 -0.0015219547954623475 0 -0.00063087177881639492 -0.0016338565727533076 0 -0.0011362688656407305 -0.00038715373079818569 0 -0.0011058053623610731 -0.00065843074636989514 0 -0.00090659344514029813 -0.00061883967584241072 0 -0.0010408275187422879 -0.00095205484207950295 0 -0.00077490080468519914 -0.0011153010170576723 0 -0.00044007192552437171 -0.0012219869137843765 0 -0.00026423018690593784 -0.0013465519666337402 0 -0.00043594805627618659 -0.0014767722719280605 0 -0.00046802154364395673 -0.0012609556534232682 0 -0.00064085501197676438 -0.0014458598689837461 0 -0.00044007192552437171 -0.0012219869137843765 0 -0.00065115390356577658 -0.0014582503177069533 0 -0.00043594805627618659 -0.0014767722719280605 0 -0.00065115390356577658 -0.0014582503177069533 0 -0.00043594805627618659 -0.0014767722719280605 0 -0.00053707440996326311 -0.0016073748389529659 0 -0.00043594805627618659 -0.0014767722719280605 0 -0.00033166747417621994 -0.0016334875105369791 0 -0.00053707440996326311 -0.0016073748389529659 0 -0.00026423018690593784 -0.0013465519666337402 0 -0.00043594805627618659 -0.0014767722719280605 0 -0.00021566660734951437 -0.0015330015850120854 0 -0.00043594805627618659 -0.0014767722719280605 0 -0.00033166747417621994 -0.0016334875105369791 0 -0.00021566660734951437 -0.0015330015850120854 0 -0.00033166747417621994 -0.0016334875105369791 0 -0.00053707440996326311 -0.0016073748389529659 0 -0.00032126261107244769 -0.0018012486675766778 0 -0.00033166747417621994 -0.0016334875105369791 0 -0.00032126261107244769 -0.0018012486675766778 0 -0.00013697734417854817 -0.0017786910448299906 0 -0.00053707440996326311 -0.0016073748389529659 0 -0.00049257906840353949 -0.0014462446776323896 0 -0.00063087177881639492 -0.0016338565727533076 0 -0.00052225639270747626 -0.001611965700588238 0 -0.0004543338292758199 -0.0016279958030908995 0 -0.00053707440996326311 -0.0016073748389529659 0 -0.00049257906840353949 -0.0014462446776323896 0 -0.0005879962149864654 -0.0014682871234818721 0 -0.00049257906840353949 -0.0014462446776323896 0 -0.00059168985014911046 -0.0013329798520145201 0 -0.0005879962149864654 -0.0014682871234818721 0 -0.0011058053623610731 -0.00065843074636989514 0 -0.00090659344514029813 -0.00061883967584241072 0 -0.00097516187635028661 -0.00073181991931251206 0 -0.00090659344514029813 -0.00061883967584241072 0 -0.00088509607412821164 -0.00081652208865711472 0 -0.00097516187635028661 -0.00073181991931251206 0 -0.00061938844727338067 -0.0011449783398125807 0 -0.00077490080468519914 -0.0011153010170576723 0 -0.00071586466768123417 -0.00085449392620426206 0 -0.00090659344514029813 -0.00061883967584241072 0 -0.00088509607412821164 -0.00081652208865711472 0 -0.00088509607412821164 -0.00081652208865711472 0 -0.0010189005614616659 -0.00083129146317266695 0 -0.00097516187635028661 -0.00073181991931251206 0 -0.00071586466768123417 -0.00085449392620426206 0 -0.00088509607412821164 -0.00081652208865711472 0 -0.00083590780685117039 -0.00095061129572772743 0 -0.00088509607412821164 -0.00081652208865711472 0 -0.0010189005614616659 -0.00083129146317266695 0 -0.0009602093795321098 -0.00094778075419894446 0 -0.0011058053623610731 -0.00065843074636989514 0 -0.0010189005614616659 -0.00083129146317266695 0 -0.00097516187635028661 -0.00073181991931251206 0 -0.0011646927151600644 -0.0008355779373689689 0 -0.0011058053623610731 -0.00065843074636989514 0 -0.0010189005614616659 -0.00083129146317266695 0 -0.0011646927151600644 -0.0008355779373689689 0 -0.0010189005614616659 -0.00083129146317266695 0 -0.0010837837778523681 -0.00094505494316862498 0 -0.0010189005614616659 -0.00083129146317266695 0 -0.0010837837778523681 -0.00094505494316862498 0 -0.0009602093795321098 -0.00094778075419894446 0 -0.0010837837778523681 -0.00094505494316862498 0 -0.0009602093795321098 -0.00094778075419894446 0 -0.0010049903393021034 -0.0010377668049536268 0 -0.0011163700181530366 -0.0010578665956835975 0 -0.0010837837778523681 -0.00094505494316862498 0 -0.0010049903393021034 -0.0010377668049536268 0 -0.0010049903393021034 -0.0010377668049536268 0 -0.00087390675691971476 -0.0010607951222501122 0 -0.00099810102440817919 -0.0011348699527562885 0 -0.0011163700181530366 -0.0010578665956835975 0 -0.0011433912398064129 -0.0011508514541120629 0 -0.00099810102440817919 -0.0011348699527562885 0 -0.0011163700181530366 -0.0010578665956835975 0 -0.0010049903393021034 -0.0010377668049536268 0 -0.00099810102440817919 -0.0011348699527562885 0 -0.00087390675691971476 -0.0010607951222501122 0 -0.0007512426432276923 -0.0011284284531417987 0 -0.00086761186364084993 -0.0011568040456068252 0 -0.00087390675691971476 -0.0010607951222501122 0 -0.00099810102440817919 -0.0011348699527562885 0 -0.00086761186364084993 -0.0011568040456068252 0 -0.0009602093795321098 -0.00094778075419894446 0 -0.0010049903393021034 -0.0010377668049536268 0 -0.00087390675691971476 -0.0010607951222501122 0 -0.00087390675691971476 -0.0010607951222501122 0 -0.00083590780685117039 -0.00095061129572772743 0 -0.00072359922964246456 -0.0010484591078440356 0 -0.0009602093795321098 -0.00094778075419894446 0 -0.00087390675691971476 -0.0010607951222501122 0 -0.00083590780685117039 -0.00095061129572772743 0 -0.00088509607412821164 -0.00081652208865711472 0 -0.0009602093795321098 -0.00094778075419894446 0 -0.00083590780685117039 -0.00095061129572772743 0 -0.00071586466768123417 -0.00085449392620426206 0 -0.00083590780685117039 -0.00095061129572772743 0 -0.00072359922964246456 -0.0010484591078440356 0 -0.00071586466768123417 -0.00085449392620426206 0 -0.00072359922964246456 -0.0010484591078440356 0 -0.00060085364314132951 -0.0011333750954762296 0 -0.00061938844727338067 -0.0011449783398125807 0 -0.00060745968566528906 -0.0011270372954755188 0 -0.00049257906840353949 -0.0014462446776323896 0 -0.00059168985014911046 -0.0013329798520145201 0 -0.00060085364314132951 -0.0011333750954762296 0 -0.00072359922964246456 -0.0010484591078440356 0 -0.00060085364314132951 -0.0011333750954762296 0 -0.00065962036913869008 -0.0011246747429784873 0 -0.00060085364314132951 -0.0011333750954762296 0 -0.00065962036913869008 -0.0011246747429784873 0 -0.00061127896834190334 -0.0011562908067414405 0 -0.00072359922964246456 -0.0010484591078440356 0 -0.00065962036913869008 -0.0011246747429784873 0 -0.0007512426432276923 -0.0011284284531417987 0 -0.00087390675691971476 -0.0010607951222501122 0 -0.00072359922964246456 -0.0010484591078440356 0 -0.0007512426432276923 -0.0011284284531417987 0 -0.00065962036913869008 -0.0011246747429784873 0 -0.0007512426432276923 -0.0011284284531417987 0 -0.00066741406490051852 -0.0011682206100912728 0 -0.0007512426432276923 -0.0011284284531417987 0 -0.00066741406490051852 -0.0011682206100912728 0 -0.00078376718209923304 -0.001220584674559607 0 -0.00065962036913869008 -0.0011246747429784873 0 -0.00066741406490051852 -0.0011682206100912728 0 -0.00061127896834190334 -0.0011562908067414405 0 -0.00066741406490051852 -0.0011682206100912728 0 -0.00061127896834190334 -0.0011562908067414405 0 -0.00053784263989099985 -0.001212489326328588 0 -0.00061127896834190334 -0.0011562908067414405 0 -0.00053784263989099985 -0.001212489326328588 0 -0.00058691753713591827 -0.0011800157573816741 0 -0.00053784263989099985 -0.001212489326328588 0 -0.00078376718209923304 -0.001220584674559607 0 -0.00077810931368767222 -0.0013547528175218344 0 -0.00066741406490051852 -0.0011682206100912728 0 -0.00053784263989099985 -0.001212489326328588 0 -0.00078376718209923304 -0.001220584674559607 0 -0.00078376718209923304 -0.001220584674559607 0 -0.00094427686933044961 -0.0012261123266039625 0 -0.00091032119616204208 -0.0013321290103463644 0 -0.00078376718209923304 -0.001220584674559607 0 -0.00091032119616204208 -0.0013321290103463644 0 -0.00077810931368767222 -0.0013547528175218344 0 -0.0010341614589569087 -0.0012881404316432104 0 -0.00094427686933044961 -0.0012261123266039625 0 -0.00091032119616204208 -0.0013321290103463644 0 -0.0010341614589569087 -0.0012881404316432104 0 -0.00094427686933044961 -0.0012261123266039625 0 -0.001064791084327486 -0.0012157659954994864 0 -0.0011052739691803733 -0.0012544830910429031 0 -0.0010341614589569087 -0.0012881404316432104 0 -0.001064791084327486 -0.0012157659954994864 0 -0.00094427686933044961 -0.0012261123266039625 0 -0.001064791084327486 -0.0012157659954994864 0 -0.00099810102440817919 -0.0011348699527562885 0 -0.0011433912398064129 -0.0011508514541120629 0 -0.001064791084327486 -0.0012157659954994864 0 -0.00099810102440817919 -0.0011348699527562885 0 -0.00094427686933044961 -0.0012261123266039625 0 -0.00099810102440817919 -0.0011348699527562885 0 -0.00086761186364084993 -0.0011568040456068252 0 -0.00078376718209923304 -0.001220584674559607 0 -0.00094427686933044961 -0.0012261123266039625 0 -0.00086761186364084993 -0.0011568040456068252 0 -0.0007512426432276923 -0.0011284284531417987 0 -0.00078376718209923304 -0.001220584674559607 0 -0.00086761186364084993 -0.0011568040456068252 0 0.00012444871611188118 -0.00050461490969434407 0 -1.4364139713712604e-05 -0.00055896981102205158 0 7.4483914972810948e-05 -0.00033090662328920633 0 0.00012444871611188118 -0.00050461490969434407 0 0.00032984170545813618 -0.00054426342041693642 0 9.878458309836207e-05 -0.00060957417783280782 0 0.00012444871611188118 -0.00050461490969434407 0 9.878458309836207e-05 -0.00060957417783280782 0 -1.4364139713712604e-05 -0.00055896981102205158 0 0.00012444871611188118 -0.00050461490969434407 0 0.00032984170545813618 -0.00054426342041693642 0 7.4483914972810948e-05 -0.00033090662328920633 0 0.00032984170545813618 -0.00054426342041693642 0 9.878458309836207e-05 -0.00060957417783280782 0 0.00027738042715896334 -0.00067392125099733898 0 9.878458309836207e-05 -0.00060957417783280782 0 -1.4364139713712604e-05 -0.00055896981102205158 0 -0.00014764617115811427 -0.00066636737630193803 0 -0.00037234381423825941 -0.00086248763094152938 0 -0.00036299778880511156 -0.0008847178086256013 0 -0.00058691753713591827 -0.0011800157573816741 0 -0.00061099966630189092 -0.0011774941652389868 0 -0.00060223434545630017 -0.0010945816373953594 0 -0.00053784263989099985 -0.001212489326328588 0 -0.00058691753713591827 -0.0011800157573816741 0 -0.00060223434545630017 -0.0010945816373953594 0 -0.00061127896834190334 -0.0011562908067414405 0 -0.00058691753713591827 -0.0011800157573816741 0 -0.00062719581154338348 -0.0011463813615511568 0 -0.00058691753713591827 -0.0011800157573816741 0 -0.00061099966630189092 -0.0011774941652389868 0 -0.00062719581154338348 -0.0011463813615511568 0 -0.00037234381423825941 -0.00086248763094152938 0 0.00013772253672735655 -0.00079222434140892176 0 -0.00062719581154338348 -0.0011463813615511568 0 -0.00058992545268127011 -0.0011090923983732165 0 -0.00057579494349935484 -0.0011203815197116281 0 -0.00061099966630189092 -0.0011774941652389868 0 -0.00062719581154338348 -0.0011463813615511568 0 -0.00057579494349935484 -0.0011203815197116281 0 -0.00062719581154338348 -0.0011463813615511568 0 -0.00065458333334204801 -0.0011757145003012642 0 -0.00070705241530768647 -0.0011746640959225635 0 -0.00073819513784162871 -0.0012125225973646466 0 -0.00010397663351975088 -0.0012026146269742189 0 -0.00060085364314132951 -0.0011333750954762296 0 -0.00061127896834190334 -0.0011562908067414405 0 -0.00062719581154338348 -0.0011463813615511568 0 -0.00060085364314132951 -0.0011333750954762296 0 -0.00062719581154338348 -0.0011463813615511568 0 -0.00065458333334204801 -0.0011757145003012642 0 -0.00059168985014911046 -0.0013329798520145201 0 -0.00060085364314132951 -0.0011333750954762296 0 -0.00067917264655975649 -0.0012764379865196288 0 -0.00060085364314132951 -0.0011333750954762296 0 -0.00065458333334204801 -0.0011757145003012642 0 -0.00067917264655975649 -0.0012764379865196288 0 -0.00038666124762632884 -0.0016743499235514596 0 -0.00010397663351975088 -0.0012026146269742189 0 -9.732085545625291e-05 -0.0019652710472860945 0 0.00013378355732129881 -0.002127409137381965 0 0.00015192984715168008 -0.0019407211527843336 0 -0.00065458333334204801 -0.0011757145003012642 0 -0.00067917264655975649 -0.0012764379865196288 0 -0.00070705241530768647 -0.0011746640959225635 0 0.00063323280107522261 -0.00078166586211882378 0 0.00071346596937373063 -0.00069793531444296267 0 0.00048286568586138377 -0.00069535560941990553 0 -0.00010397663351975088 -0.0012026146269742189 0 0.0005651026571565096 -0.0014265376030444968 0 0.000771338290655271 -0.00072645528405715267 0 0.00063323280107522261 -0.00078166586211882378 0 0.00065780281137857617 -0.00093111040780161688 0 0.00013378355732129881 -0.002127409137381965 0 0.00033274457949058719 -0.0018912274000235415 0 0.00015192984715168008 -0.0019407211527843336 0 0.000771338290655271 -0.00072645528405715267 0 0.00063323280107522261 -0.00078166586211882378 0 0.00071346596937373063 -0.00069793531444296267 0 0.000771338290655271 -0.00072645528405715267 0 0.00071874674200139536 -0.00068348275963500433 0 0.00071346596937373063 -0.00069793531444296267 0 -0.00010397663351975088 -0.0012026146269742189 0 0.00013772253672735655 -0.00079222434140892176 0 0.00071805833613749689 -0.00067884452910881726 0 0.00071346596937373063 -0.00069793531444296267 0 0.00048286568586138377 -0.00069535560941990553 0 0.00013772253672735655 -0.00079222434140892176 0 0.00016213962522323348 -0.0007678595561614464 0 0.00042028176552272241 -0.00046138045513659747 0 0.00013772253672735655 -0.00079222434140892176 0 0.00032984170545813618 -0.00054426342041693642 0 0.00071805833613749689 -0.00067884452910881726 0 0.00048286568586138377 -0.00069535560941990553 0 0.00063323280107522261 -0.00078166586211882378 0 0.00048286568586138377 -0.00069535560941990553 0 0.00052700725375620877 -0.00085963051268660618 0 0.00063323280107522261 -0.00078166586211882378 0 0.00052700725375620877 -0.00085963051268660618 0 0.00065780281137857617 -0.00093111040780161688 0 0.00052700725375620877 -0.00085963051268660618 0 0.00065780281137857617 -0.00093111040780161688 0 0.00054961869821373844 -0.0012995140733553297 0 0.00033274457949058719 -0.0018912274000235415 0 0.00030007929089883928 -0.0018154514271969864 0 0.00036910526818515025 -0.001776678561179934 0 0.0005651026571565096 -0.0014265376030444968 0 0.00043112467452464172 -0.0015578763550078293 0 0.00033274457949058719 -0.0018912274000235415 0 0.00023236977898486238 -0.0018734128465439641 0 0.00030007929089883928 -0.0018154514271969864 0 0.00033274457949058719 -0.0018912274000235415 0 0.00023236977898486238 -0.0018734128465439641 0 0.00015192984715168008 -0.0019407211527843336 0 0.00023236977898486238 -0.0018734128465439641 0 0.00015192984715168008 -0.0019407211527843336 0 9.2618385212740774e-05 -0.0017942799012177482 0 0.00023236977898486238 -0.0018734128465439641 0 0.00030007929089883928 -0.0018154514271969864 0 9.2618385212740774e-05 -0.0017942799012177482 0 0.00030007929089883928 -0.0018154514271969864 0 0.00013457708574894189 -0.0016445126699212527 0 0.00025528968769657646 -0.0015356894125427934 0 0.00030694287544589816 -0.0018217221508355797 0 0.00035392222559874748 -0.0017113685730901511 0 0.00030007929089883928 -0.0018154514271969864 0 0.00013457708574894189 -0.0016445126699212527 0 9.2618385212740774e-05 -0.0017942799012177482 0 0.00030007929089883928 -0.0018154514271969864 0 0.00045597318841603736 -0.0018632354755405819 0 0.00036910526818515025 -0.001776678561179934 0 -0.00032126261107244769 -0.0018012486675766778 0 -9.732085545625291e-05 -0.0019652710472860945 0 -0.00013697734417854817 -0.0017786910448299906 0 -0.00059168985014911046 -0.0013329798520145201 0 -0.0005879962149864654 -0.0014682871234818721 0 -0.00067917264655975649 -0.0012764379865196288 0 -9.732085545625291e-05 -0.0019652710472860945 0 -0.00013697734417854817 -0.0017786910448299906 0 7.5543463290329365e-06 -0.0018755745775571831 0 -0.0004543338292758199 -0.0016279958030908995 0 -0.00038666124762632884 -0.0016743499235514596 0 -0.00013697734417854817 -0.0017786910448299906 0 7.5543463290329365e-06 -0.0018755745775571831 0 9.2618385212740774e-05 -0.0017942799012177482 0 -9.732085545625291e-05 -0.0019652710472860945 0 7.5543463290329365e-06 -0.0018755745775571831 0 0.00015192984715168008 -0.0019407211527843336 0 7.5543463290329365e-06 -0.0018755745775571831 0 0.00015192984715168008 -0.0019407211527843336 0 9.2618385212740774e-05 -0.0017942799012177482 0 -0.00013697734417854817 -0.0017786910448299906 0 9.2618385212740774e-05 -0.0017942799012177482 0 -3.0051083400829395e-05 -0.0016525982711010489 0 0.00013457708574894189 -0.0016445126699212527 0 9.2618385212740774e-05 -0.0017942799012177482 0 -3.0051083400829395e-05 -0.0016525982711010489 0 -0.00033166747417621994 -0.0016334875105369791 0 -0.00013697734417854817 -0.0017786910448299906 0 -0.00021566660734951437 -0.0015330015850120854 0 -0.00013697734417854817 -0.0017786910448299906 0 -3.0051083400829395e-05 -0.0016525982711010489 0 -0.00021566660734951437 -0.0015330015850120854 0 -3.0051083400829395e-05 -0.0016525982711010489 0 -0.00021566660734951437 -0.0015330015850120854 0 6.5517803500109414e-05 -0.00145835518615955 0 0.00013457708574894189 -0.0016445126699212527 0 -3.0051083400829395e-05 -0.0016525982711010489 0 6.5517803500109414e-05 -0.00145835518615955 0 3.1670441646104067e-05 -0.0012698192137328649 0 6.5517803500109414e-05 -0.00145835518615955 0 -7.8352953927841596e-05 -0.0013233749454780921 0 -0.00026423018690593784 -0.0013465519666337402 0 -0.00021566660734951437 -0.0015330015850120854 0 -7.8352953927841596e-05 -0.0013233749454780921 0 -0.00021566660734951437 -0.0015330015850120854 0 6.5517803500109414e-05 -0.00145835518615955 0 -7.8352953927841596e-05 -0.0013233749454780921 0 0.00045597318841603736 -0.0018632354755405819 0 0.00037332131378550076 -0.0020007216508828207 0 0.00036910526818515025 -0.001776678561179934 0 0.00013457708574894189 -0.0016445126699212527 0 6.5517803500109414e-05 -0.00145835518615955 0 0.00025528968769657646 -0.0015356894125427934 0 3.1670441646104067e-05 -0.0012698192137328649 0 6.5517803500109414e-05 -0.00145835518615955 0 0.00025321313309435906 -0.0012983406384553648 0 6.5517803500109414e-05 -0.00145835518615955 0 0.00025528968769657646 -0.0015356894125427934 0 0.00025321313309435906 -0.0012983406384553648 0 0.00035392222559874748 -0.0017113685730901511 0 0.00038889122640230786 -0.0017263596152198989 0 0.00045597318841603736 -0.0018632354755405819 0 0.00053992034107024707 -0.0021141539321203754 0 0.00037332131378550076 -0.0020007216508828207 0 0.000337269352323481 -0.0022280162408975534 0 0.00053992034107024707 -0.0021141539321203754 0 0.00037332131378550076 -0.0020007216508828207 0 0.000337269352323481 -0.0022280162408975534 0 0.00037332131378550076 -0.0020007216508828207 0 0.00018674457638462772 -0.0020823384955254267 0 0.00037332131378550076 -0.0020007216508828207 0 0.00025294583416355309 -0.0018232083412348073 0 0.00018674457638462772 -0.0020823384955254267 0 0.00037332131378550076 -0.0020007216508828207 0 0.00025294583416355309 -0.0018232083412348073 0 0.00036910526818515025 -0.001776678561179934 0 0.00025294583416355309 -0.0018232083412348073 0 3.4530512701181772e-05 -0.002033720808298486 0 -0.00017322949052539114 -0.0018479522538946361 0 0.00025294583416355309 -0.0018232083412348073 0 -0.00017322949052539114 -0.0018479522538946361 0 0.00018466801200457735 -0.0013409163877631761 0 0.00025294583416355309 -0.0018232083412348073 0 0.00018674457638462772 -0.0020823384955254267 0 3.4530512701181772e-05 -0.002033720808298486 0 2.7487833690224745e-05 -0.0022112832304458144 0 0.00018674457638462772 -0.0020823384955254267 0 3.4530512701181772e-05 -0.002033720808298486 0 2.7487833690224745e-05 -0.0022112832304458144 0 -0.00011344962502655009 -0.0021549601226123864 0 3.4530512701181772e-05 -0.002033720808298486 0 -0.00011344962502655009 -0.0021549601226123864 0 3.4530512701181772e-05 -0.002033720808298486 0 -0.00017322949052539114 -0.0018479522538946361 0 -0.00011344962502655009 -0.0021549601226123864 0 -0.00025305587255086606 -0.0021206778864937344 0 -0.00017322949052539114 -0.0018479522538946361 0 -0.00017959220986636017 -0.002342576271437493 0 -0.00011344962502655009 -0.0021549601226123864 0 -0.00025305587255086606 -0.0021206778864937344 0 -0.00039949001521320988 -0.0021109433283271208 0 -0.00015936606629016556 -0.0018606629862853723 0 -0.00047856800340031878 -0.0020754822318678279 0 -0.00046975300818125569 -0.00169571532045381 0 -0.0005333465239532499 -0.0017238650396753711 0 -0.00047856800340031878 -0.0020754822318678279 0 -0.00046975300818125569 -0.00169571532045381 0 -0.00017322949052539114 -0.0018479522538946361 0 -0.00026482112176735986 -0.0013281911521213895 0 -1.9270634547820654e-05 -0.0011862335264612137 0 -0.00046975300818125569 -0.00169571532045381 0 -0.00017322949052539114 -0.0018479522538946361 0 -0.00016881894369157226 -0.0012375413042504657 0 -0.00017322949052539114 -0.0018479522538946361 0 -0.00016881894369157226 -0.0012375413042504657 0 0.00018466801200457735 -0.0013409163877631761 0 -1.9270634547820654e-05 -0.0011862335264612137 0 0.00014485796176357281 -0.00080022744061045788 0 -0.00046975300818125569 -0.00169571532045381 0 -0.00053780353601095047 -0.0017319116640558796 0 -0.00016881894369157226 -0.0012375413042504657 0 0.0005464111680163761 -0.00030220529070384267 0 0.00041413055116477405 -0.00043513280946575118 0 0.000569134173059988 -0.00039166846969578326 0 0.00041413055116477405 -0.00043513280946575118 0 0.00058053434456077993 -0.00048272788796415914 0 0.00045237538182088592 -0.00056649812839269754 0 0.00041413055116477405 -0.00043513280946575118 0 0.000569134173059988 -0.00039166846969578326 0 0.00058053434456077993 -0.00048272788796415914 0 0.00014485796176357281 -0.00080022744061045788 0 0.0002720702811155543 -0.00071559677991022558 0 -0.00016881894369157226 -0.0012375413042504657 0 0.00018466801200457735 -0.0013409163877631761 0 0.00028377184314724396 -0.00070376897656040612 0 0.00052700725375620877 -0.00085963051268660618 0 0.00054961869821373844 -0.0012995140733553297 0 0.00028377184314724396 -0.00070376897656040612 0 0.00054961869821373844 -0.0012995140733553297 0 0.00018466801200457735 -0.0013409163877631761 0 0.00028377184314724396 -0.00070376897656040612 0 0.00026108470222675089 -0.0018032169315555899 0 0.00043112467452464172 -0.0015578763550078293 0 0.00025294583416355309 -0.0018232083412348073 0 0.00054961869821373844 -0.0012995140733553297 0 0.00018466801200457735 -0.0013409163877631761 0 -0.00036776672475731379 -0.0012058515051496426 0 0.00039176386025162487 -0.00090966615086820611 0 0.00013092954283179398 -0.0013166136575238996 0 0.00086694019509081651 -0.00066640586273345077 0 0.0010394516837463627 -0.00058446421222647319 0 0.0010049536499864042 -0.00053399119078459878 0 0.00014823954533740716 -0.00097024612954771296 0 0.00074438712386427376 -0.00075313759084630328 0 0.0010394516837463627 -0.00058446421222647319 0 0.0010363899909588709 -0.00057069841612489205 0 0.0010049536499864042 -0.00053399119078459878 0 0.00039176386025162487 -0.00090966615086820611 0 0.00046384360566531854 -0.0012293342225367244 0 0.00079810184996080265 -0.0011052877324846566 0 0.00039176386025162487 -0.00090966615086820611 0 0.00046384360566531854 -0.0012293342225367244 0 0.00013092954283179398 -0.0013166136575238996 0 -0.00019697191936035048 -0.0015437278796214618 0 0.00013092954283179398 -0.0013166136575238996 0 0.000523308198671918 -0.0015894757441519602 0 0.00046384360566531854 -0.0012293342225367244 0 0.00013092954283179398 -0.0013166136575238996 0 0.000523308198671918 -0.0015894757441519602 0 0.00017365791890889951 -0.0018099147304765082 0 0.00060951020587420132 -0.0010409384728557848 0 3.7706645038612416e-05 -0.0020671918044870077 0 -0.00016647931798716433 -0.0021332770940758654 0 -0.00022109599167774758 -0.0019300997799574537 0 3.7706645038612416e-05 -0.0020671918044870077 0 -0.00022109599167774758 -0.0019300997799574537 0 0.00021418682802314156 -0.0017560476898124441 0 0.00046384360566531854 -0.0012293342225367244 0 0.000523308198671918 -0.0015894757441519602 0 0.00079810184996080265 -0.0011052877324846566 0 0.00074438712386427376 -0.00075313759084630328 0 0.0010604870619606676 -0.00068697465175399195 0 0.0010394516837463627 -0.00058446421222647319 0 0.0011002045608630689 -0.00069801032956898993 0 0.0010363899909588709 -0.00057069841612489205 0 0.000523308198671918 -0.0015894757441519602 0 0.00079810184996080265 -0.0011052877324846566 0 0.0014490243808967008 -0.0010770949318867776 0 0.00039176386025162487 -0.00090966615086820611 0 0.00079810184996080265 -0.0011052877324846566 0 0.0011002045608630689 -0.00069801032956898993 0 0.00079810184996080265 -0.0011052877324846566 0 0.0014490243808967008 -0.0010770949318867776 0 0.0011002045608630689 -0.00069801032956898993 0 3.7706645038612416e-05 -0.0020671918044870077 0 0.00021418682802314156 -0.0017560476898124441 0 0.00027816452239108391 -0.0019095265171601174 0 3.7706645038612416e-05 -0.0020671918044870077 0 0.00020377283290819777 -0.0020698314747544595 0 0.00027816452239108391 -0.0019095265171601174 0 0.00020377283290819777 -0.0020698314747544595 0 0.00036701239158323258 -0.0021296700779090882 0 0.00027816452239108391 -0.0019095265171601174 0 0.00060951020587420132 -0.0010409384728557848 0 -0.00011627701080078706 -0.00192284270381383 0 -0.00047856800340031878 -0.0020754822318678279 0 -0.0005333465239532499 -0.0017238650396753711 0 -0.0008509871100885471 -0.0020622718538057662 0 -0.0007485031557028371 -0.0023041379788959248 0 -0.00047856800340031878 -0.0020754822318678279 0 -0.0008509871100885471 -0.0020622718538057662 0 -0.00027504027117741705 -0.0022666269191939986 0 -0.00011627701080078706 -0.00192284270381383 0 -0.00027504027117741705 -0.0022666269191939986 0 -0.00039949001521320988 -0.0021109433283271208 0 0.0001398245981573797 -0.0013355309479432204 0 0.00012086698800046615 -0.0013462837178214019 0 0.00012392694450774597 -0.0013573465741148288 0 -1.9270634547820654e-05 -0.0011862335264612137 0 -0.00011627701080078706 -0.00192284270381383 0 0.0005464111680163761 -0.00030220529070384267 0 0.00067146836786021336 -0.00026399651286242891 0 0.0006384342140711664 -0.00034894144912688745 0 -1.9270634547820654e-05 -0.0011862335264612137 0 0.00060951020587420132 -0.0010409384728557848 0 0.0005464111680163761 -0.00030220529070384267 0 0.0006384342140711664 -0.00034894144912688745 0 0.000569134173059988 -0.00039166846969578326 0 0.0006384342140711664 -0.00034894144912688745 0 0.000569134173059988 -0.00039166846969578326 0 0.00066010939751891826 -0.00041249776764494035 0 0.000569134173059988 -0.00039166846969578326 0 0.00058053434456077993 -0.00048272788796415914 0 0.00066010939751891826 -0.00041249776764494035 0 0.00058053434456077993 -0.00048272788796415914 0 0.00066010939751891826 -0.00041249776764494035 0 0.00069939451555665216 -0.00046404709252955057 0 0.00066010939751891826 -0.00041249776764494035 0 0.00073206395238442352 -0.00038414293312825568 0 0.00069939451555665216 -0.00046404709252955057 0 0.00060951020587420132 -0.0010409384728557848 0 0.00097767227993530189 -0.00037726379910917339 0 0.0006384342140711664 -0.00034894144912688745 0 0.00066010939751891826 -0.00041249776764494035 0 0.00073206395238442352 -0.00038414293312825568 0 0.0014490243808967008 -0.0010770949318867776 0 0.0011002045608630689 -0.00069801032956898993 0 0.0011056614734285041 -0.0004735755893641643 0 0.00067146836786021336 -0.00026399651286242891 0 0.0006384342140711664 -0.00034894144912688745 0 0.00073206395238442352 -0.00038414293312825568 0 0.0010353974859854615 -0.00052722750253216921 0 0.0011056614734285041 -0.0004735755893641643 0 0.0010426002854421056 -0.00049540755154037068 0 0.0011002045608630689 -0.00069801032956898993 0 0.0010353974859854615 -0.00052722750253216921 0 0.0010363899909588709 -0.00057069841612489205 0 0.0011002045608630689 -0.00069801032956898993 0 0.0010353974859854615 -0.00052722750253216921 0 0.0011056614734285041 -0.0004735755893641643 0 0.00073206395238442352 -0.00038414293312825568 0 0.00081842280332297332 -0.00047455446432487404 0 0.00069939451555665216 -0.00046404709252955057 0 0.00097767227993530189 -0.00037726379910917339 0 0.00092001268573367525 -0.00050374505825378352 0 0.0011056614734285041 -0.0004735755893641643 0 0.0010426002854421056 -0.00049540755154037068 0 0.001022750308102573 -0.00049670005316831414 0 0.0010353974859854615 -0.00052722750253216921 0 0.0010426002854421056 -0.00049540755154037068 0 0.0010381029315800431 -0.00051122290016028527 0 0.0010426002854421056 -0.00049540755154037068 0 0.0010503625564363961 -0.00050355579409996389 0 0.001022750308102573 -0.00049670005316831414 0 0.0010426002854421056 -0.00049540755154037068 0 0.0010503625564363961 -0.00050355579409996389 0 0.0010381029315800431 -0.00051122290016028527 0 0.0010299327448902876 -0.00051967484678776461 0 0.0010381029315800431 -0.00051122290016028527 0 0.0010236370516670138 -0.00052977131178613408 0 0.0010353974859854615 -0.00052722750253216921 0 0.0010381029315800431 -0.00051122290016028527 0 0.0010236370516670138 -0.00052977131178613408 0 0.0010353974859854615 -0.00052722750253216921 0 0.0010363899909588709 -0.00057069841612489205 0 0.0010236370516670138 -0.00052977131178613408 0 0.0010363899909588709 -0.00057069841612489205 0 0.0010049536499864042 -0.00053399119078459878 0 0.0010236370516670138 -0.00052977131178613408 0 0.0010299327448902876 -0.00051967484678776461 0 0.0010049536499864042 -0.00053399119078459878 0 0.0010236370516670138 -0.00052977131178613408 0 0.00092001268573367525 -0.00050374505825378352 0 0.00096622688453360623 -0.00057654992051561207 0 0.0010640070243822758 -0.00050789458724554673 0 0.001022750308102573 -0.00049670005316831414 0 0.00096544123620086728 -0.00057714185607999323 0 0.0010640070243822758 -0.00050789458724554673 0 0.0010503625564363961 -0.00050355579409996389 0 0.001022750308102573 -0.00049670005316831414 0 0.00081842280332297332 -0.00047455446432487404 0 0.0007494483995177521 -0.00062073551940923706 0 0.00096544123620086728 -0.00057714185607999323 0 0.00081842280332297332 -0.00047455446432487404 0 0.00067406086837125075 -0.00054038934081685971 0 0.0007494483995177521 -0.00062073551940923706 0 0.00058053434456077993 -0.00048272788796415914 0 0.00067406086837125075 -0.00054038934081685971 0 0.00069939451555665216 -0.00046404709252955057 0 0.00081842280332297332 -0.00047455446432487404 0 0.00067406086837125075 -0.00054038934081685971 0 0.00069939451555665216 -0.00046404709252955057 0 0.00058053434456077993 -0.00048272788796415914 0 0.00067406086837125075 -0.00054038934081685971 0 0.00053266440519722307 -0.00061601903750932712 0 0.00067406086837125075 -0.00054038934081685971 0 0.0007494483995177521 -0.00062073551940923706 0 0.00053266440519722307 -0.00061601903750932712 0 0.00062468752950311666 -0.00070644282834227243 0 0.0007494483995177521 -0.00062073551940923706 0 0.00053266440519722307 -0.00061601903750932712 0 0.00062468752950311666 -0.00070644282834227243 0 0.00049778301610729715 -0.00071073221687992434 0 0.00059551365278718617 -0.00081055155190118324 0 0.00062468752950311666 -0.00070644282834227243 0 0.0007494483995177521 -0.00062073551940923706 0 0.00078926420237811267 -0.00079507995316101634 0 0.0007494483995177521 -0.00062073551940923706 0 0.00087830354322426644 -0.00068380250352905109 0 0.00096544123620086728 -0.00057714185607999323 0 0.0007494483995177521 -0.00062073551940923706 0 0.00087830354322426644 -0.00068380250352905109 0 0.00078926420237811267 -0.00079507995316101634 0 0.00087830354322426644 -0.00068380250352905109 0 0.001012926145264417 -0.000722581428296906 0 0.00078926420237811267 -0.00079507995316101634 0 0.0014167633126751027 -0.00026894489078770588 0 0.0011217708948471272 -0.00031135364516290633 0 0.00087830354322426644 -0.00068380250352905109 0 0.001012926145264417 -0.000722581428296906 0 0.00096544123620086728 -0.00057714185607999323 0 0.00033418767763526567 -0.00061743236948189799 0 0.00037871882880416099 -0.00062558112172801422 0 0.00037899683738217471 -0.00064586634262584288 0 0.00033418767763526567 -0.00061743236948189799 0 0.00028377184314724396 -0.00070376897656040612 0 0.00037871882880416099 -0.00062558112172801422 0 0.00032984170545813618 -0.00054426342041693642 0 0.00048286568586138377 -0.00069535560941990553 0 0.00033418767763526567 -0.00061743236948189799 0 0.00048286568586138377 -0.00069535560941990553 0 0.00033418767763526567 -0.00061743236948189799 0 0.00028377184314724396 -0.00070376897656040612 0 0.00048286568586138377 -0.00069535560941990553 0 0.00052700725375620877 -0.00085963051268660618 0 0.00028377184314724396 -0.00070376897656040612 0 0.00028377184314724396 -0.00070376897656040612 0 0.00045237538182088592 -0.00056649812839269754 0 0.00037871882880416099 -0.00062558112172801422 0 0.00041413055116477405 -0.00043513280946575118 0 0.00028377184314724396 -0.00070376897656040612 0 0.00045237538182088592 -0.00056649812839269754 0 0.00058053434456077993 -0.00048272788796415914 0 0.00045237538182088592 -0.00056649812839269754 0 0.00053266440519722307 -0.00061601903750932712 0 0.00045237538182088592 -0.00056649812839269754 0 0.00053266440519722307 -0.00061601903750932712 0 0.00037871882880416099 -0.00062558112172801422 0 0.00053266440519722307 -0.00061601903750932712 0 0.00037871882880416099 -0.00062558112172801422 0 0.00037899683738217471 -0.00064586634262584288 0 0.00053266440519722307 -0.00061601903750932712 0 0.00049778301610729715 -0.00071073221687992434 0 0.00037899683738217471 -0.00064586634262584288 0 0.00062468752950311666 -0.00070644282834227243 0 0.00053266440519722307 -0.00061601903750932712 0 0.00049778301610729715 -0.00071073221687992434 0 0.00049778301610729715 -0.00071073221687992434 0 0.00037899683738217471 -0.00064586634262584288 0 0.00037416420254119802 -0.00072118338140086718 0 0.00032984170545813618 -0.00054426342041693642 0 0.00033418767763526567 -0.00061743236948189799 0 0.00037899683738217471 -0.00064586634262584288 0 0.00032984170545813618 -0.00054426342041693642 0 0.00037899683738217471 -0.00064586634262584288 0 0.00027738042715896334 -0.00067392125099733898 0 0.00037899683738217471 -0.00064586634262584288 0 0.00027738042715896334 -0.00067392125099733898 0 0.00037416420254119802 -0.00072118338140086718 0 0.00027738042715896334 -0.00067392125099733898 0 0.00032916285445244671 -0.00080441157926143081 0 0.00037416420254119802 -0.00072118338140086718 0 0.00028427306212681116 -0.00028532655502740086 0 0.0006347613616225563 -0.0001023588872956769 0 0.00046359523557503362 -0.00058223694833287553 0 0.00027738042715896334 -0.00067392125099733898 0 0.00032916285445244671 -0.00080441157926143081 0 0.00013244900568081346 -0.00082704585289419482 0 0.00031274579100262209 -0.00054561168926791444 0 7.6868086769085647e-05 -0.00066422653211822098 0 0.00031274579100262209 -0.00054561168926791444 0 0.00054928453335090883 -0.00045160226022910894 0 0.00032916285445244671 -0.00080441157926143081 0 0.00037416420254119802 -0.00072118338140086718 0 0.00045222832755146858 -0.00080136260682531788 0 0.00049778301610729715 -0.00071073221687992434 0 0.00037416420254119802 -0.00072118338140086718 0 0.00045222832755146858 -0.00080136260682531788 0 0.00049778301610729715 -0.00071073221687992434 0 0.00045222832755146858 -0.00080136260682531788 0 0.00059551365278718617 -0.00081055155190118324 0 0.00054928453335090883 -0.00045160226022910894 0 0.00082025538029793278 -0.00037358373656596532 0 0.0006347613616225563 -0.0001023588872956769 0 0.0010369227641839115 6.5471155098979338e-05 0 0.00094485640662646199 -0.00019989371393216613 0 0.0006347613616225563 -0.0001023588872956769 0 0.00081369640854062357 -0.00046377437510760456 0 0.00094485640662646199 -0.00019989371393216613 0 0.0006347613616225563 -0.0001023588872956769 0 0.00081369640854062357 -0.00046377437510760456 0 0.00046359523557503362 -0.00058223694833287553 0 0.00081369640854062357 -0.00046377437510760456 0 0.0011018759172324449 -0.00067323285875956265 0 0.00071314886760687776 -0.00083824047231021348 0 0.00081369640854062357 -0.00046377437510760456 0 0.00046359523557503362 -0.00058223694833287553 0 0.00071314886760687776 -0.00083824047231021348 0 0.00046359523557503362 -0.00058223694833287553 0 0.00022441482486987947 -0.00055111548642793008 0 0.00023435941270599832 -0.00076012345154294282 0 0.00022441482486987947 -0.00055111548642793008 0 0.00023435941270599832 -0.00076012345154294282 0 8.0744535210628581e-05 -0.00072289148496922724 0 0.00028427306212681116 -0.00028532655502740086 0 0.00022441482486987947 -0.00055111548642793008 0 3.2097735328273431e-06 -0.00050901470135291879 0 0.00028427306212681116 -0.00028532655502740086 0 0.00046359523557503362 -0.00058223694833287553 0 0.00022441482486987947 -0.00055111548642793008 0 0.0017803550059314573 1.6850084390181224e-05 0 0.0015535002815359432 -0.00012865699488928038 0 0.0017484356085785086 -0.00020273358921834986 0 0.0018388240916757676 0.00020380956780685573 0 0.0017803550059314573 1.6850084390181224e-05 0 0.0014548713906926559 0.00017143845206095713 0 0.0017803550059314573 1.6850084390181224e-05 0 0.0014548713906926559 0.00017143845206095713 0 0.0015535002815359432 -0.00012865699488928038 0 0.0015535002815359432 -0.00012865699488928038 0 0.0013312683145128572 -5.1295431112349652e-05 0 0.0013555380925828761 -0.00028592020130881093 0 0.0014548713906926559 0.00017143845206095713 0 0.0015535002815359432 -0.00012865699488928038 0 0.0013312683145128572 -5.1295431112349652e-05 0 0.0013312683145128572 -5.1295431112349652e-05 0 0.0011752868237500126 -0.00021666632193215575 0 0.0013555380925828761 -0.00028592020130881093 0 0.0013312683145128572 -5.1295431112349652e-05 0 0.0011752868237500126 -0.00021666632193215575 0 0.0010369227641839115 6.5471155098979338e-05 0 0.0011217708948471272 -0.00031135364516290633 0 0.00082025538029793278 -0.00037358373656596532 0 0.00062468752950311666 -0.00070644282834227243 0 0.00078926420237811267 -0.00079507995316101634 0 0.00059551365278718617 -0.00081055155190118324 0 0.0014548713906926559 0.00017143845206095713 0 0.0013312683145128572 -5.1295431112349652e-05 0 0.0010369227641839115 6.5471155098979338e-05 0 0.0011752868237500126 -0.00021666632193215575 0 0.0010369227641839115 6.5471155098979338e-05 0 0.00094485640662646199 -0.00019989371393216613 0 0.00081369640854062357 -0.00046377437510760456 0 0.00094485640662646199 -0.00019989371393216613 0 0.0010532493291473743 -0.00040536743191800761 0 0.0011752868237500126 -0.00021666632193215575 0 0.0010532493291473743 -0.00040536743191800761 0 0.0012302988652593595 -0.00047887855037969019 0 0.0011752868237500126 -0.00021666632193215575 0 0.00094485640662646199 -0.00019989371393216613 0 0.0010532493291473743 -0.00040536743191800761 0 0.00081369640854062357 -0.00046377437510760456 0 0.0010532493291473743 -0.00040536743191800761 0 0.0011018759172324449 -0.00067323285875956265 0 0.0010532493291473743 -0.00040536743191800761 0 0.0011018759172324449 -0.00067323285875956265 0 0.0012302988652593595 -0.00047887855037969019 0 0.0011018759172324449 -0.00067323285875956265 0 0.0012302988652593595 -0.00047887855037969019 0 0.001504337251462731 -0.00046133570418323592 0 0.0012302988652593595 -0.00047887855037969019 0 0.001453409899982764 -0.00041022513903202402 0 0.001504337251462731 -0.00046133570418323592 0 0.000126020014308372 0.0026158887056806218 0 0.00015693590139112242 0.0026016018888457234 0 0.00014701362157610884 0.0026066996294139633 0 0.0006201175286434091 0.0010693687028005148 0 0.00090473325942690163 0.00040073388942442383 0 0.0012302988652593595 -0.00047887855037969019 0 0.0013555380925828761 -0.00028592020130881093 0 0.001453409899982764 -0.00041022513903202402 0 0.0011752868237500126 -0.00021666632193215575 0 0.0012302988652593595 -0.00047887855037969019 0 0.0013555380925828761 -0.00028592020130881093 0 0.0015535002815359432 -0.00012865699488928038 0 0.0013555380925828761 -0.00028592020130881093 0 0.00152652649275852 -0.00025402277495626421 0 0.0013555380925828761 -0.00028592020130881093 0 0.00152652649275852 -0.00025402277495626421 0 0.001460687935677736 -0.00031834689493590365 0 0.0015535002815359432 -0.00012865699488928038 0 0.00152652649275852 -0.00025402277495626421 0 0.0016171887017770901 -0.00028403773625705679 0 0.00152652649275852 -0.00025402277495626421 0 0.0015275000759360075 -0.00034290535239160885 0 0.0016171887017770901 -0.00028403773625705679 0 0.0015275000759360075 -0.00034290535239160885 0 0.0015819138525897905 -0.00037038788459395745 0 0.0016171887017770901 -0.00028403773625705679 0 0.0015275000759360075 -0.00034290535239160885 0 0.0015819138525897905 -0.00037038788459395745 0 0.0015008913570675028 -0.0004345389643104866 0 0.0013555380925828761 -0.00028592020130881093 0 0.001460687935677736 -0.00031834689493590365 0 0.001453409899982764 -0.00041022513903202402 0 0.0015275000759360075 -0.00034290535239160885 0 0.001453409899982764 -0.00041022513903202402 0 0.0015008913570675028 -0.0004345389643104866 0 0.0015275000759360075 -0.00034290535239160885 0 0.001460687935677736 -0.00031834689493590365 0 0.001453409899982764 -0.00041022513903202402 0 0.00152652649275852 -0.00025402277495626421 0 0.0015275000759360075 -0.00034290535239160885 0 0.001460687935677736 -0.00031834689493590365 0 0.00015693590139112242 0.0026016018888457234 0 0.00016462444782483626 0.0026007180445643012 0 0.00015659715218788815 0.0026035168052969747 0 0.0012550219492665686 1.415364459676173e-05 0 0.00090473325942690163 0.00040073388942442383 0 0.00015693590139112242 0.0026016018888457234 0 0.00014701362157610884 0.0026066996294139633 0 0.00015659715218788815 0.0026035168052969747 0 0.0015819138525897905 -0.00037038788459395745 0 0.0015292904694151476 -0.00038539605047939278 0 0.0016733147645395824 -0.00039637089090573927 0 0.0012125150914237223 0.00020986847668074649 0 0.00090473325942690163 0.00040073388942442383 0 0.0018604767319725813 -0.00035568176734576137 0 0.0016733147645395824 -0.00039637089090573927 0 0.0017263334749268379 -0.00053910164303127444 0 0.0015819138525897905 -0.00037038788459395745 0 0.0016733147645395824 -0.00039637089090573927 0 0.0016948806549939752 -0.00032208004455842859 0 0.00090473325942690163 0.00040073388942442383 0 0.0012386669758048887 0.0018771874950786591 0 0.0015292904694151476 -0.00038539605047939278 0 0.0016733147645395824 -0.00039637089090573927 0 0.0017263334749268379 -0.00053910164303127444 0 0.0018604767319725813 -0.00035568176734576137 0 0.0016733147645395824 -0.00039637089090573927 0 0.0016948806549939752 -0.00032208004455842859 0 0.0018604767319725813 -0.00035568176734576137 0 0.0016948806549939752 -0.00032208004455842859 0 0.0017484356085785086 -0.00020273358921834986 0 0.0015535002815359432 -0.00012865699488928038 0 0.0016171887017770901 -0.00028403773625705679 0 0.0017484356085785086 -0.00020273358921834986 0 0.0016948806549939752 -0.00032208004455842859 0 0.0016171887017770901 -0.00028403773625705679 0 0.0017484356085785086 -0.00020273358921834986 0 0.0015819138525897905 -0.00037038788459395745 0 0.0016948806549939752 -0.00032208004455842859 0 0.0016171887017770901 -0.00028403773625705679 0 0.0001613584979582468 0.0026087716872908533 0 0.00015459069744621227 0.002608326764745456 0 0.00015890835907723621 0.0026181858500062037 0 0.0001613584979582468 0.0026087716872908533 0 0.00016087927516617064 0.0026043340352153274 0 0.00015459069744621227 0.002608326764745456 0 0.0012386669758048887 0.0018771874950786591 0 0.00051004942644221091 0.0024226942985822648 0 0.0001613584979582468 0.0026087716872908533 0 0.00016734452958617685 0.0025983614758306006 0 0.00016087927516617064 0.0026043340352153274 0 0.00016462444782483626 0.0026007180445643012 0 0.00015907601798683329 0.0026034486797040252 0 0.00015659715218788815 0.0026035168052969747 0 0.00016462444782483626 0.0026007180445643012 0 0.00015907601798683329 0.0026034486797040252 0 0.00016087927516617064 0.0026043340352153274 0 0.00015907601798683329 0.0026034486797040252 0 0.00016087927516617064 0.0026043340352153274 0 0.00015242322389574719 0.0026055020817040875 0 0.00015907601798683329 0.0026034486797040252 0 0.00015242322389574719 0.0026055020817040875 0 0.00015178732111095666 0.0026052484033552131 0 0.00015907601798683329 0.0026034486797040252 0 0.00015659715218788815 0.0026035168052969747 0 0.00015178732111095666 0.0026052484033552131 0 0.00014701362157610884 0.0026066996294139633 0 0.00015178732111095666 0.0026052484033552131 0 0.00014170330087900188 0.002607768402622898 0 0.00014701362157610884 0.0026066996294139633 0 0.00015659715218788815 0.0026035168052969747 0 0.00015178732111095666 0.0026052484033552131 0 0.00015242322389574719 0.0026055020817040875 0 0.000142544401587539 0.0026057060755899776 0 0.00014170330087900188 0.002607768402622898 0 0.00015242322389574719 0.0026055020817040875 0 0.00015178732111095666 0.0026052484033552131 0 0.00014170330087900188 0.002607768402622898 0 0.00016087927516617064 0.0026043340352153274 0 0.00015242322389574719 0.0026055020817040875 0 0.00015459069744621227 0.002608326764745456 0 0.00015242322389574719 0.0026055020817040875 0 0.000142544401587539 0.0026057060755899776 0 0.00015459069744621227 0.002608326764745456 0 0.000142544401587539 0.0026057060755899776 0 0.00015459069744621227 0.002608326764745456 0 0.00013801167530219251 0.0026035295635636227 0 0.000142544401587539 0.0026057060755899776 0 0.00013096147051881875 0.0026022039492282537 0 0.00013801167530219251 0.0026035295635636227 0 0.000142544401587539 0.0026057060755899776 0 0.00013197793190031378 0.0026064687897102666 0 0.00013096147051881875 0.0026022039492282537 0 0.00013197793190031378 0.0026064687897102666 0 0.00011135308008596308 0.0026053814834932584 0 0.00013096147051881875 0.0026022039492282537 0 0.000142544401587539 0.0026057060755899776 0 0.00013197793190031378 0.0026064687897102666 0 0.00014170330087900188 0.002607768402622898 0 0.000126020014308372 0.0026158887056806218 0 0.00013197793190031378 0.0026064687897102666 0 0.00014170330087900188 0.002607768402622898 0 0.000126020014308372 0.0026158887056806218 0 0.00014701362157610884 0.0026066996294139633 0 0.00014170330087900188 0.002607768402622898 0 0.000126020014308372 0.0026158887056806218 0 0.00013197793190031378 0.0026064687897102666 0 0.00011135308008596308 0.0026053814834932584 0 0.000126020014308372 0.0026158887056806218 0 0.00011135308008596308 0.0026053814834932584 0 7.4424555161325742e-05 0.0026188450877023383 0 0.00011135308008596308 0.0026053814834932584 0 0.0001105709979090575 0.0025926015268690895 0 8.2256106635095874e-05 0.0025960798427871259 0 0.00011135308008596308 0.0026053814834932584 0 0.0001105709979090575 0.0025926015268690895 0 0.00013096147051881875 0.0026022039492282537 0 0.0001105709979090575 0.0025926015268690895 0 0.00010728669200627603 0.0025602179591465812 0 7.7658845230087846e-05 0.0025720990840067495 0 0.0001105709979090575 0.0025926015268690895 0 0.00010728669200627603 0.0025602179591465812 0 0.00013680038220204626 0.0026065779638220384 0 0.00015591936038482278 0.0026269146850267863 0 0.00013411578628124568 0.0026041451830344448 0 0.0001621031201513072 0.0026990336228520217 0 0.00020217691464118883 0.0026798680038134094 0 0.00013680038220204626 0.0026065779638220384 0 0.0001621031201513072 0.0026990336228520217 0 0.0001232726807073606 0.0026853323258616744 0 0.00013680038220204626 0.0026065779638220384 0 0.00013680038220204626 0.0026065779638220384 0 0.00013096147051881875 0.0026022039492282537 0 0.00013801167530219251 0.0026035295635636227 0 0.0001105709979090575 0.0025926015268690895 0 0.00013680038220204626 0.0026065779638220384 0 0.00013096147051881875 0.0026022039492282537 0 0.00015459069744621227 0.002608326764745456 0 0.00013801167530219251 0.0026035295635636227 0 0.00015229892514512634 0.0026123927097546689 0 0.00013801167530219251 0.0026035295635636227 0 0.00015229892514512634 0.0026123927097546689 0 0.00015396196366215893 0.0026185684142999389 0 0.00013680038220204626 0.0026065779638220384 0 0.00013801167530219251 0.0026035295635636227 0 9.0204563748502747e-05 0.0026303356983216034 0 0.00012402346087839208 0.0026348485413508625 0 0.00014923515723376185 0.0025452520067470929 0 0.0001232726807073606 0.0026853323258616744 0 0.00013680038220204626 0.0026065779638220384 0 9.0204563748502747e-05 0.0026303356983216034 0 0.0001232726807073606 0.0026853323258616744 0 5.9030220516280423e-05 0.0026996812101891896 0 9.0204563748502747e-05 0.0026303356983216034 0 0.00015403496167765615 0.0026249157159001775 0 0.00015396196366215893 0.0026185684142999389 0 0.00015504042178411228 0.0026220241421022221 0 -8.969742795068668e-05 0.0031880131435670115 0 0.00014923515723376185 0.0025452520067470929 0 0.00015229892514512634 0.0026123927097546689 0 0.00015396196366215893 0.0026185684142999389 0 0.00015504042178411228 0.0026220241421022221 0 0.00015403496167765615 0.0026249157159001775 0 0.00015504042178411228 0.0026220241421022221 0 0.00015769055240607552 0.0026261241743789515 0 0.00016040269717653745 0.0026328010622368538 0 0.00015504042178411228 0.0026220241421022221 0 0.00015769055240607552 0.0026261241743789515 0 0.00016040269717653745 0.0026328010622368538 0 0.00015504042178411228 0.0026220241421022221 0 0.00015890835907723621 0.0026181858500062037 0 0.00015229892514512634 0.0026123927097546689 0 0.00015504042178411228 0.0026220241421022221 0 0.00015890835907723621 0.0026181858500062037 0 0.00015459069744621227 0.002608326764745456 0 0.00015229892514512634 0.0026123927097546689 0 0.00015890835907723621 0.0026181858500062037 0 0.0001590268245289833 0.002625608388621972 0 0.0001613584979582468 0.0026087716872908533 0 0.00015890835907723621 0.0026181858500062037 0 0.00046359523557503362 -0.00058223694833287553 0 0.00036443205429513944 -0.00095532536720412727 0 0.00023435941270599832 -0.00076012345154294282 0 1.0785612140284728e-05 0.0026091781258444553 0 4.9053543310994982e-05 0.0025986601399872445 0 1.673088823025478e-05 0.0025863077835389706 0 0.00036443205429513944 -0.00095532536720412727 0 0.00018110777372123396 -0.00088445739747748241 0 0.00012845744163865193 -0.00095223381172404391 0 0.00036443205429513944 -0.00095532536720412727 0 0.00011424925367305084 -0.0009760442136306284 0 0.00012845744163865193 -0.00095223381172404391 0 1.0785612140284728e-05 0.0026091781258444553 0 -1.5109770979982953e-05 0.0025900093233093167 0 -5.0987290724256543e-05 0.0025938664443069638 0 0.00019011851000624348 0.00087041786898655552 0 8.8232147421275699e-05 0.00053998884986702835 0 0.00018110777372123396 -0.00088445739747748241 0 0.00012845744163865193 -0.00095223381172404391 0 7.9536320193088629e-05 -0.00088788245265189946 0 0.00036443205429513944 -0.00095532536720412727 0 0.00018110777372123396 -0.00088445739747748241 0 0.00023435941270599832 -0.00076012345154294282 0 0.00018110777372123396 -0.00088445739747748241 0 7.9536320193088629e-05 -0.00088788245265189946 0 0.00010723610954524808 -0.00083527657996953055 0 0.00018110777372123396 -0.00088445739747748241 0 0.00023435941270599832 -0.00076012345154294282 0 0.00010723610954524808 -0.00083527657996953055 0 0.00023435941270599832 -0.00076012345154294282 0 0.00010723610954524808 -0.00083527657996953055 0 8.0744535210628581e-05 -0.00072289148496922724 0 0.00046359523557503362 -0.00058223694833287553 0 0.00036443205429513944 -0.00095532536720412727 0 0.00071314886760687776 -0.00083824047231021348 0 0.0006201175286434091 0.0010693687028005148 0 0.00038773061006865242 0.00087055183308438089 0 7.4424555161325742e-05 0.0026188450877023383 0 4.9053543310994982e-05 0.0025986601399872445 0 8.2256106635095874e-05 0.0025960798427871259 0 0.00011135308008596308 0.0026053814834932584 0 7.4424555161325742e-05 0.0026188450877023383 0 8.2256106635095874e-05 0.0025960798427871259 0 1.0785612140284728e-05 0.0026091781258444553 0 7.4424555161325742e-05 0.0026188450877023383 0 4.9053543310994982e-05 0.0025986601399872445 0 0.00019011851000624348 0.00087041786898655552 0 0.00038773061006865242 0.00087055183308438089 0 5.2649728000407682e-05 0.0025804258223146421 0 1.7485081351841333e-05 0.0025650357414230837 0 1.673088823025478e-05 0.0025863077835389706 0 4.9053543310994982e-05 0.0025986601399872445 0 5.2649728000407682e-05 0.0025804258223146421 0 1.673088823025478e-05 0.0025863077835389706 0 4.9053543310994982e-05 0.0025986601399872445 0 5.2649728000407682e-05 0.0025804258223146421 0 8.2256106635095874e-05 0.0025960798427871259 0 0.0001105709979090575 0.0025926015268690895 0 8.2256106635095874e-05 0.0025960798427871259 0 7.7658845230087846e-05 0.0025720990840067495 0 5.2649728000407682e-05 0.0025804258223146421 0 8.2256106635095874e-05 0.0025960798427871259 0 7.7658845230087846e-05 0.0025720990840067495 0 6.769082075374761e-05 0.002534140190216673 0 7.7658845230087846e-05 0.0025720990840067495 0 4.3241343382497351e-05 0.0025576400416921765 0 6.769082075374761e-05 0.002534140190216673 0 0.00010728669200627603 0.0025602179591465812 0 7.7658845230087846e-05 0.0025720990840067495 0 5.2649728000407682e-05 0.0025804258223146421 0 7.7658845230087846e-05 0.0025720990840067495 0 4.3241343382497351e-05 0.0025576400416921765 0 5.2649728000407682e-05 0.0025804258223146421 0 4.3241343382497351e-05 0.0025576400416921765 0 1.7485081351841333e-05 0.0025650357414230837 0 1.6931506057883401e-05 0.0025454828094496193 0 4.3241343382497351e-05 0.0025576400416921765 0 1.7485081351841333e-05 0.0025650357414230837 0 1.6931506057883401e-05 0.0025454828094496193 0 -8.3228204069472986e-06 0.0025483528841847387 0 1.7485081351841333e-05 0.0025650357414230837 0 -8.3228204069472986e-06 0.0025483528841847387 0 1.7485081351841333e-05 0.0025650357414230837 0 -1.3885368783848687e-05 0.0025710266375853115 0 1.7485081351841333e-05 0.0025650357414230837 0 1.673088823025478e-05 0.0025863077835389706 0 -1.3885368783848687e-05 0.0025710266375853115 0 1.0785612140284728e-05 0.0026091781258444553 0 1.673088823025478e-05 0.0025863077835389706 0 -1.5109770979982953e-05 0.0025900093233093167 0 1.673088823025478e-05 0.0025863077835389706 0 -1.5109770979982953e-05 0.0025900093233093167 0 -1.3885368783848687e-05 0.0025710266375853115 0 -1.5109770979982953e-05 0.0025900093233093167 0 -3.4828142684581177e-05 0.0025815092518467089 0 -5.0987290724256543e-05 0.0025938664443069638 0 -1.5109770979982953e-05 0.0025900093233093167 0 -3.4828142684581177e-05 0.0025815092518467089 0 -1.3885368783848687e-05 0.0025710266375853115 0 -3.4828142684581177e-05 0.0025815092518467089 0 -4.2590480179647899e-05 0.0025701239268947295 0 -5.1943584361025979e-05 0.0025803500066233728 0 -3.4828142684581177e-05 0.0025815092518467089 0 -5.1943584361025979e-05 0.0025803500066233728 0 -5.0987290724256543e-05 0.0025938664443069638 0 -8.3228204069472986e-06 0.0025483528841847387 0 -1.3885368783848687e-05 0.0025710266375853115 0 -3.079035037585975e-05 0.0025550298804995243 0 -3.4828142684581177e-05 0.0025815092518467089 0 -4.2590480179647899e-05 0.0025701239268947295 0 -1.3885368783848687e-05 0.0025710266375853115 0 -4.2590480179647899e-05 0.0025701239268947295 0 -1.3885368783848687e-05 0.0025710266375853115 0 -3.079035037585975e-05 0.0025550298804995243 0 -4.2590480179647899e-05 0.0025701239268947295 0 -3.079035037585975e-05 0.0025550298804995243 0 -6.3758491171117892e-05 0.0025557659234122132 0 -6.3758491171117892e-05 0.0025557659234122132 0 -0.00010806386673849335 0.0025803081556262861 0 -7.3274707045820292e-05 0.0025775900218372788 0 -4.2590480179647899e-05 0.0025701239268947295 0 -6.3758491171117892e-05 0.0025557659234122132 0 -5.7847345620814605e-05 0.0025716309325225098 0 -6.3758491171117892e-05 0.0025557659234122132 0 -5.7847345620814605e-05 0.0025716309325225098 0 -7.3274707045820292e-05 0.0025775900218372788 0 -4.2590480179647899e-05 0.0025701239268947295 0 -5.7847345620814605e-05 0.0025716309325225098 0 -5.1943584361025979e-05 0.0025803500066233728 0 -0.0010877704227182843 0.0048430364005557294 0 -0.0011494610812297144 0.0048513029355371478 0 -0.0011927741891412207 0.0049188358046885535 0 -0.0005808823338015835 0.0037734489029390647 0 -0.00065500882390969882 0.0027780767942980245 0 -0.0011834773952004414 0.0048297702165109035 0 -0.0012113590218829186 0.0048510427940390366 0 -0.0011867113070004763 0.0048755163044468131 0 -0.0012113590218829186 0.0048510427940390366 0 -0.0011867113070004763 0.0048755163044468131 0 -0.0012383519848006572 0.004872866609237139 0 -0.0011834773952004414 0.0048297702165109035 0 -0.0011494610812297144 0.0048513029355371478 0 -0.0011867113070004763 0.0048755163044468131 0 -0.0011494610812297144 0.0048513029355371478 0 -0.0011867113070004763 0.0048755163044468131 0 -0.0011927741891412207 0.0049188358046885535 0 -0.0011867113070004763 0.0048755163044468131 0 -0.0012063990516965398 0.0048950194902074229 0 -0.0011927741891412207 0.0049188358046885535 0 -0.0011867113070004763 0.0048755163044468131 0 -0.0012063990516965398 0.0048950194902074229 0 -0.0012383519848006572 0.004872866609237139 0 -0.0012063990516965398 0.0048950194902074229 0 -0.0011927741891412207 0.0049188358046885535 0 -0.0012212416101901942 0.0049103599069807574 0 -4.3423615922072412e-05 -0.0010271224778063272 0 -0.0009997000914646636 0.0010925444675717875 0 -0.00012560002703721995 -0.0010535377545537055 0 -0.00043201131845125516 -0.0008935799717858274 0 -0.00051715788530442165 -0.0011640024567744934 0 1.4026679720938325e-05 -0.00092769037681168266 0 -4.492684100738092e-05 -0.00094733855788216054 0 -8.6297872607529546e-05 -0.00091164980353575047 0 -0.00065500882390969882 0.0027780767942980245 0 -0.0009997000914646636 0.0010925444675717875 0 -0.00065500882390969882 0.0027780767942980245 0 -0.00065293103350652008 0.0033893370904378422 0 -0.00065500882390969882 0.0027780767942980245 0 8.8232147421275699e-05 0.00053998884986702835 0 1.4026679720938325e-05 -0.00092769037681168266 0 -4.492684100738092e-05 -0.00094733855788216054 0 0.00011424925367305084 -0.0009760442136306284 0 -0.00010806386673849335 0.0025803081556262861 0 -7.3274707045820292e-05 0.0025775900218372788 0 -5.0987290724256543e-05 0.0025938664443069638 0 1.4026679720938325e-05 -0.00092769037681168266 0 0.00011424925367305084 -0.0009760442136306284 0 0.00012845744163865193 -0.00095223381172404391 0 -5.1943584361025979e-05 0.0025803500066233728 0 -7.3274707045820292e-05 0.0025775900218372788 0 -5.0987290724256543e-05 0.0025938664443069638 0 -5.7847345620814605e-05 0.0025716309325225098 0 -5.1943584361025979e-05 0.0025803500066233728 0 -7.3274707045820292e-05 0.0025775900218372788 0 7.9536320193088629e-05 -0.00088788245265189946 0 5.5828026337174639e-06 -0.00092456868847526959 0 -9.669171747181862e-06 -0.00083924915568092152 0 -0.00012560002703721995 -0.0010535377545537055 0 0.00012845744163865193 -0.00095223381172404391 0 5.5828026337174639e-06 -0.00092456868847526959 0 0.00012845744163865193 -0.00095223381172404391 0 7.9536320193088629e-05 -0.00088788245265189946 0 5.5828026337174639e-06 -0.00092456868847526959 0 -4.3423615922072412e-05 -0.0010271224778063272 0 0.00010116092890326336 -0.00095330407713798641 0 -5.8802461662463968e-06 -0.00091703548850934535 0 -0.00038455624664115735 -0.00071863318630228218 0 -0.00012560002703721995 -0.0010535377545537055 0 5.5828026337174639e-06 -0.00092456868847526959 0 -0.00043201131845125516 -0.0008935799717858274 0 5.5828026337174639e-06 -0.00092456868847526959 0 -9.669171747181862e-06 -0.00083924915568092152 0 -0.00016832969152887726 -0.00088396491939055945 0 5.5828026337174639e-06 -0.00092456868847526959 0 -0.00055893673583967479 -0.00058184970407300547 0 -0.00043201131845125516 -0.0008935799717858274 0 -9.669171747181862e-06 -0.00083924915568092152 0 -0.00016832969152887726 -0.00088396491939055945 0 -9.4065383971070733e-05 -0.00076060397573872928 0 0.00010723610954524808 -0.00083527657996953055 0 -9.669171747181862e-06 -0.00083924915568092152 0 8.0744535210628581e-05 -0.00072289148496922724 0 7.9536320193088629e-05 -0.00088788245265189946 0 0.00010723610954524808 -0.00083527657996953055 0 -9.669171747181862e-06 -0.00083924915568092152 0 -0.00016832969152887726 -0.00088396491939055945 0 -0.00031569786751204417 -0.00083500085272440727 0 -0.00021077033699210923 -0.00081032820520955998 0 -0.00055893673583967479 -0.00058184970407300547 0 -0.0010200879724344351 -0.00077036905788236136 0 -0.0011824078973982611 -0.00027665827053756576 0 -0.00038455624664115735 -0.00071863318630228218 0 -0.00067125295766755941 -0.00064000735734203731 0 -0.00016832969152887726 -0.00088396491939055945 0 -9.4065383971070733e-05 -0.00076060397573872928 0 -0.00021077033699210923 -0.00081032820520955998 0 -0.00055893673583967479 -0.00058184970407300547 0 -0.00043201131845125516 -0.0008935799717858274 0 -0.0010200879724344351 -0.00077036905788236136 0 -0.0015199169425418049 0.00030460197794015479 0 -0.0009997000914646636 0.0010925444675717875 0 -0.00043201131845125516 -0.0008935799717858274 0 -0.0010200879724344351 -0.00077036905788236136 0 -0.00051715788530442165 -0.0011640024567744934 0 -0.0017854293521690334 0.003685451434714868 0 -0.0009997000914646636 0.0010925444675717875 0 -0.0020378914685945972 0.0017477723299429448 0 -0.0020229585652057165 0.0018823692352488198 0 -0.0021198961591525124 0.0018292538895363884 0 -0.0011929891306376381 0.0049156474395340407 0 -0.0012373542970563686 0.0049509793603293066 0 -0.0012212416101901942 0.0049103599069807574 0 -0.001394585738406831 0.0049420837303426699 0 -0.0012373542970563686 0.0049509793603293066 0 -0.0012963057972263203 0.0048719394638057521 0 -0.0012373542970563686 0.0049509793603293066 0 -0.0012212416101901942 0.0049103599069807574 0 -0.0012963057972263203 0.0048719394638057521 0 -0.0012063990516965398 0.0048950194902074229 0 -0.0012212416101901942 0.0049103599069807574 0 -0.0012383519848006572 0.004872866609237139 0 -0.0012212416101901942 0.0049103599069807574 0 -0.0012963057972263203 0.0048719394638057521 0 -0.0012383519848006572 0.004872866609237139 0 -0.0012374837522452782 0.0048260311771971612 0 -0.0012963057972263203 0.0048719394638057521 0 -0.0012383519848006572 0.004872866609237139 0 -0.0012374837522452782 0.0048260311771971612 0 -0.0012113590218829186 0.0048510427940390366 0 -0.0012383519848006572 0.004872866609237139 0 -0.001430106561977517 0.0048547882380678611 0 -0.001394585738406831 0.0049420837303426699 0 -0.0012963057972263203 0.0048719394638057521 0 -0.0017854293521690334 0.003685451434714868 0 -0.0017335310716116883 0.003406127771678891 0 -0.001430106561977517 0.0048547882380678611 0 -0.001394585738406831 0.0049420837303426699 0 -0.0015763653358123689 0.0049252857116383365 0 -0.0015489819753083066 0.0048255401862344364 0 -0.0015763653358123689 0.0049252857116383365 0 -0.0017773777901230442 0.0048895063102429078 0 -0.0019234306149883698 0.0018474225936306644 0 -0.0018349296627684876 0.0018648299378821499 0 -0.0018737358206303602 0.0017704562494531707 0 -0.0019060754985810475 0.0019557992332139801 0 -0.0019234306149883698 0.0018474225936306644 0 -0.0018349296627684876 0.0018648299378821499 0 -0.0020229585652057165 0.0018823692352488198 0 -0.0019234306149883698 0.0018474225936306644 0 -0.0019635339168083601 0.0017619524327015341 0 -0.0020229585652057165 0.0018823692352488198 0 -0.0019060754985810475 0.0019557992332139801 0 -0.0019234306149883698 0.0018474225936306644 0 -0.0015659029866790801 0.0020980942246848632 0 -0.0017465874366135727 0.0020482648096338471 0 -0.001743166885110079 0.001986435273244934 0 -0.0016375755732387003 0.0019342378209079769 0 -0.001743166885110079 0.001986435273244934 0 -0.0017263813802322395 0.0018738104026118578 0 -0.0017335310716116883 0.003406127771678891 0 -0.0017587632784750173 0.0034860556090474046 0 -0.0019060754985810475 0.0019557992332139801 0 -0.001743166885110079 0.001986435273244934 0 -0.0018349296627684876 0.0018648299378821499 0 -0.0019060754985810475 0.0019557992332139801 0 -0.0017465874366135727 0.0020482648096338471 0 -0.001743166885110079 0.001986435273244934 0 -0.001743166885110079 0.001986435273244934 0 -0.0018349296627684876 0.0018648299378821499 0 -0.0017263813802322395 0.0018738104026118578 0 -0.0018349296627684876 0.0018648299378821499 0 -0.001795422622827171 0.0017755184968124267 0 -0.0018737358206303602 0.0017704562494531707 0 -0.0018349296627684876 0.0018648299378821499 0 -0.0017263813802322395 0.0018738104026118578 0 -0.001795422622827171 0.0017755184968124267 0 -0.0016284235821021279 0.001868853730974836 0 -0.0016231292194796919 0.0017324054280715021 0 -0.0017263813802322395 0.0018738104026118578 0 -0.0016375755732387003 0.0019342378209079769 0 -0.0016284235821021279 0.001868853730974836 0 -0.0017263813802322395 0.0018738104026118578 0 -0.0016231292194796919 0.0017324054280715021 0 -0.001795422622827171 0.0017755184968124267 0 -0.0017527410872692766 0.0016135942441929231 0 -0.0016231292194796919 0.0017324054280715021 0 -0.0017263813802322395 0.0018738104026118578 0 -0.001795422622827171 0.0017755184968124267 0 -0.0018268111577391399 0.0016827304173880776 0 -0.0018548126980490441 0.0018112183327698617 0 -0.001795422622827171 0.0017755184968124267 0 -0.0018143064265805846 0.0016593475067031192 0 -0.0018737358206303602 0.0017704562494531707 0 -0.001795422622827171 0.0017755184968124267 0 -0.0019324729864680129 0.0015419703776393284 0 -0.0017527410872692766 0.0016135942441929231 0 -0.0019324729864680129 0.0015419703776393284 0 -0.0017527410872692766 0.0016135942441929231 0 -0.0018401752806363086 0.0013409657483920998 0 -0.0016231292194796919 0.0017324054280715021 0 -0.0017527410872692766 0.0016135942441929231 0 -0.0016702960720169514 0.0014413923611992093 0 -0.0017527410872692766 0.0016135942441929231 0 -0.0016702960720169514 0.0014413923611992093 0 -0.0018401752806363086 0.0013409657483920998 0 -0.0020378914685945972 0.0017477723299429448 0 -0.0019635339168083601 0.0017619524327015341 0 -0.0019521623666355408 0.0016636274997019254 0 -0.0020378914685945972 0.0017477723299429448 0 -0.0020229585652057165 0.0018823692352488198 0 -0.0019635339168083601 0.0017619524327015341 0 -0.0018143064265805846 0.0016593475067031192 0 -0.0018737358206303602 0.0017704562494531707 0 -0.0019045528755059383 0.0016881721493803542 0 -0.0019635339168083601 0.0017619524327015341 0 -0.0018737358206303602 0.0017704562494531707 0 -0.0019045528755059383 0.0016881721493803542 0 -0.0019234306149883698 0.0018474225936306644 0 -0.0019635339168083601 0.0017619524327015341 0 -0.0018737358206303602 0.0017704562494531707 0 -0.0019045528755059383 0.0016881721493803542 0 -0.0019391275229345408 0.0016368249749966889 0 -0.0019521623666355408 0.0016636274997019254 0 -0.0018143064265805846 0.0016593475067031192 0 -0.0019045528755059383 0.0016881721493803542 0 -0.0018776083994119148 0.0016329013959621623 0 -0.0018143064265805846 0.0016593475067031192 0 -0.0018776083994119148 0.0016329013959621623 0 -0.0018528241649986461 0.0015543556583429109 0 -0.0018776083994119148 0.0016329013959621623 0 -0.0019391275229345408 0.0016368249749966889 0 -0.0018528241649986461 0.0015543556583429109 0 -0.0019045528755059383 0.0016881721493803542 0 -0.0018776083994119148 0.0016329013959621623 0 -0.0019391275229345408 0.0016368249749966889 0 -0.0018067610323103753 0.0010932950761656356 0 -0.0019754834093637778 0.0016331415712456932 0 -0.0015199169425418049 0.00030460197794015479 0 -0.0018067610323103753 0.0010932950761656356 0 -0.0020378914685945972 0.0017477723299429448 0 -0.0019394304444042671 0.0016395202624337254 0 -0.0019521623666355408 0.0016636274997019254 0 -0.0019635339168083601 0.0017619524327015341 0 -0.0019045528755059383 0.0016881721493803542 0 -0.0019521623666355408 0.0016636274997019254 0 -0.0010200879724344351 -0.00077036905788236136 0 -0.0015275330482488717 -0.00036064256071633631 0 -0.0011824078973982611 -0.00027665827053756576 0 -0.0018067610323103753 0.0010932950761656356 0 -0.0019545001813373055 0.0013652359441552275 0 -0.0015275330482488717 -0.00036064256071633631 0 -0.0011824078973982611 -0.00027665827053756576 0 -0.0018044294969168262 1.5440573155689926e-05 0 -0.00031569786751204417 -0.00083500085272440727 0 -0.0002915098394981745 -0.0008007402093750598 0 -0.00031613693622357643 -0.00081339112129594215 0 -0.00031569786751204417 -0.00083500085272440727 0 -0.00031613693622357643 -0.00081339112129594215 0 -0.00029749866544974662 -0.00081287573828659409 0 -0.00067125295766755941 -0.00064000735734203731 0 -0.0013217154366190499 9.126779266400795e-05 0 -0.0018143064265805846 0.0016593475067031192 0 -0.0018556648176452195 0.0015093884014251422 0 -0.0018528241649986461 0.0015543556583429109 0 -0.0019271585256793759 0.0016120079095618019 0 -0.0018556648176452195 0.0015093884014251422 0 -0.0018528241649986461 0.0015543556583429109 0 -0.0018067610323103753 0.0010932950761656356 0 -0.0013217154366190499 9.126779266400795e-05 0 -0.0013217154366190499 9.126779266400795e-05 0 -0.0004180959627632907 -0.0014639850232934083 0 -0.0002915098394981745 -0.0008007402093750598 0 -0.00031613693622357643 -0.00081339112129594215 0 -0.0002896580602958294 -0.00090982162887200363 0 -0.00077959693544753673 -0.0016368411923695717 0 -0.00088951109555225627 -0.00151713922527561 0 -0.00068646801707865151 -0.0014840715521359073 0 -0.00031613693622357643 -0.00081339112129594215 0 -0.0002896580602958294 -0.00090982162887200363 0 -0.0003403029927584403 -0.00080148201518107716 0 -0.00031613693622357643 -0.00081339112129594215 0 -0.00029749866544974662 -0.00081287573828659409 0 -0.0003403029927584403 -0.00080148201518107716 0 -0.0016139298679205927 0.0012620105538947942 0 -0.0017196606684311676 0.0013005356175509405 0 -0.0017524097906004251 0.0011623402780263263 0 -0.0016139298679205927 0.0012620105538947942 0 -0.0016702960720169514 0.0014413923611992093 0 -0.0017196606684311676 0.0013005356175509405 0 -0.0016702960720169514 0.0014413923611992093 0 -0.0017196606684311676 0.0013005356175509405 0 -0.0018401752806363086 0.0013409657483920998 0 -0.0017196606684311676 0.0013005356175509405 0 -0.0018401752806363086 0.0013409657483920998 0 -0.0017524097906004251 0.0011623402780263263 0 -0.0018548126980490441 0.0018112183327698617 0 -0.0013217154366190499 9.126779266400795e-05 0 -0.0020303132824007119 0.0012899726224094915 0 -0.0018401752806363086 0.0013409657483920998 0 -0.0017524097906004251 0.0011623402780263263 0 -0.0019324729864680129 0.0015419703776393284 0 -0.0020303132824007119 0.0012899726224094915 0 -0.0018401752806363086 0.0013409657483920998 0 -0.0012779239922039191 0.00073045178331068803 0 -0.001315006247250468 0.00076469794862952438 0 -0.001305720994408685 0.00077118997629562478 0 -0.0013217154366190499 9.126779266400795e-05 0 -0.0010293251636631984 -0.00049213683416408362 0 -0.0013217154366190499 9.126779266400795e-05 0 -0.0016361351824716913 0.0010984543907368181 0 -0.0012917665505285871 0.00079911197210483622 0 -0.001315006247250468 0.00076469794862952438 0 -0.0013096550575654345 0.00077487213620063694 0 -0.001315006247250468 0.00076469794862952438 0 -0.0013096550575654345 0.00077487213620063694 0 -0.001305720994408685 0.00077118997629562478 0 -0.0013096550575654345 0.00077487213620063694 0 -0.001305720994408685 0.00077118997629562478 0 -0.0013174122294755991 0.00075332920349446711 0 -0.0010293251636631984 -0.00049213683416408362 0 -0.0011591069908014214 -0.00026134829959530251 0 -0.00088951109555225627 -0.00151713922527561 0 -0.00091032119616204208 -0.0013321290103463644 0 -0.00077810931368767222 -0.0013547528175218344 0 -0.00088951109555225627 -0.00151713922527561 0 -0.00091032119616204208 -0.0013321290103463644 0 -0.0010210497272039501 -0.0013874429717675471 0 -0.0010341614589569087 -0.0012881404316432104 0 -0.00091032119616204208 -0.0013321290103463644 0 -0.0010210497272039501 -0.0013874429717675471 0 -0.00044272393424276411 -0.0010029040686620595 0 -0.0002896580602958294 -0.00090982162887200363 0 -0.0003403029927584403 -0.00080148201518107716 0 -0.00088951109555225627 -0.00151713922527561 0 -0.00068646801707865151 -0.0014840715521359073 0 -0.00077810931368767222 -0.0013547528175218344 0 -0.00053784263989099985 -0.001212489326328588 0 -0.00068646801707865151 -0.0014840715521359073 0 -0.00077810931368767222 -0.0013547528175218344 0 -0.00053784263989099985 -0.001212489326328588 0 -0.00044272393424276411 -0.0010029040686620595 0 -0.0002896580602958294 -0.00090982162887200363 0 -0.00053317026650714309 -0.001098475543263434 0 -0.0004180959627632907 -0.0014639850232934083 0 -0.00053784263989099985 -0.001212489326328588 0 -0.00044272393424276411 -0.0010029040686620595 0 -0.00060223434545630017 -0.0010945816373953594 0 -0.00044272393424276411 -0.0010029040686620595 0 -0.00060223434545630017 -0.0010945816373953594 0 -0.0003403029927584403 -0.00080148201518107716 0 -0.00036299778880511156 -0.0008847178086256013 0 -0.0003514566403802351 -0.00081907158211687108 0 -0.00014764617115811427 -0.00066636737630193803 0 -5.8482602428086156e-05 -0.00072647995684154624 0 -0.0003403029927584403 -0.00080148201518107716 0 -0.00014764617115811427 -0.00066636737630193803 0 -5.8482602428086156e-05 -0.00072647995684154624 0 6.7374474387895417e-05 -0.00068536372345182864 0 9.878458309836207e-05 -0.00060957417783280782 0 -0.00014764617115811427 -0.00066636737630193803 0 6.7374474387895417e-05 -0.00068536372345182864 0 9.878458309836207e-05 -0.00060957417783280782 0 0.00027738042715896334 -0.00067392125099733898 0 6.7374474387895417e-05 -0.00068536372345182864 0 0.00027738042715896334 -0.00067392125099733898 0 6.7374474387895417e-05 -0.00068536372345182864 0 0.00013244900568081346 -0.00082704585289419482 0 -5.8482602428086156e-05 -0.00072647995684154624 0 6.7374474387895417e-05 -0.00068536372345182864 0 0.00013244900568081346 -0.00082704585289419482 0 -5.8482602428086156e-05 -0.00072647995684154624 0 0.00013244900568081346 -0.00082704585289419482 0 -0.00015063136866102405 -0.000764464691073703 0 7.6868086769085647e-05 -0.00066422653211822098 0 -0.00012437612638268054 -0.00075166751619034212 0 3.2097735328273431e-06 -0.00050901470135291879 0 -9.4065383971070733e-05 -0.00076060397573872928 0 -0.00015063136866102405 -0.000764464691073703 0 0.00022441482486987947 -0.00055111548642793008 0 3.2097735328273431e-06 -0.00050901470135291879 0 8.0744535210628581e-05 -0.00072289148496922724 0 3.2097735328273431e-06 -0.00050901470135291879 0 8.0744535210628581e-05 -0.00072289148496922724 0 -9.4065383971070733e-05 -0.00076060397573872928 0 -9.669171747181862e-06 -0.00083924915568092152 0 8.0744535210628581e-05 -0.00072289148496922724 0 -9.4065383971070733e-05 -0.00076060397573872928 0 -9.4065383971070733e-05 -0.00076060397573872928 0 -0.00021077033699210923 -0.00081032820520955998 0 -0.00015063136866102405 -0.000764464691073703 0 -0.00021077033699210923 -0.00081032820520955998 0 -0.00029749866544974662 -0.00081287573828659409 0 -0.00015063136866102405 -0.000764464691073703 0 -0.00031569786751204417 -0.00083500085272440727 0 -0.00021077033699210923 -0.00081032820520955998 0 -0.00029749866544974662 -0.00081287573828659409 0 -0.00029749866544974662 -0.00081287573828659409 0 -0.0003403029927584403 -0.00080148201518107716 0 -0.00015063136866102405 -0.000764464691073703 0 -5.8482602428086156e-05 -0.00072647995684154624 0 -0.0003403029927584403 -0.00080148201518107716 0 -0.00015063136866102405 -0.000764464691073703 0 
</DataArray>
</PointData>
<CellData Scalars="region_id,cross_section_updated," Vectors="" Tensors="stress,">
<DataArray type="Float64" Name="region_id" format="ascii">
5 5 5 5 5 5 5 5 5 6 5 6 5 5 5 5 5 5 5 5 5 5 5 5 5 5 5 6 5 5 5 5 5 5 5 5 5 5 5 5 6 5 5 5 5 5 5 5 5 5 5 5 5 5 5 5 5 5 5 5 5 5 5 5 5 5 5 6 5 6 5 5 5 5 6 6 5 5 6 5 5 6 5 5 5 5 5 5 5 5 5 5 6 5 5 5 5 6 5 5 5 5 5 5 5 5 5 5 5 5 6 5 5 5 5 5 5 5 5 5 5 6 5 5 5 5 5 5 6 5 5 5 5 5 5 6 5 6 5 5 5 5 5 5 5 5 5 5 5 6 5 6 5 5 5 5 6 5 6 5 5 5 5 5 5 5 5 5 5 6 5 5 5 6 5 5 5 5 6 5 5 6 5 6 5 6 5 6 5 5 6 5 6 5 5 5 6 5 5 5 6 5 5 6 5 5 6 5 5 5 6 6 6 5 5 5 5 5 5 5 5 5 5 6 5 5 6 5 5 6 5 5 5 5 6 5 5 5 5 5 5 5 5 5 5 5 5 5 5 5 5 5 5 5 5 5 5 5 6 5 5 5 5 5 5 5 5 5 5 5 6 5 5 5 6 5 5 6 5 5 5 5 5 5 5 5 6 5 5 5 5 6 5 5 5 5 5 5 5 5 5 5 5 6 5 5 6 5 5 5 5 5 5 5 5 6 5 5 6 5 6 5 5 6 5 5 6 5 5 5 5 5 5 5 5 5 5 5 5 5 5 5 5 5 5 5 5 5 5 6 5 5 5 5 5 5 5 5 5 6 5 5 5 5 5 5 5 5 5 5 5 5 5 5 5 5 5 5 5 5 5 5 5 5 6 5 5 5 5 5 5 5 5 5 6 5 5 5 6 6 5 5 5 6 5 5 6 5 6 5 5 6 6 5 5 6 5 5 6 5 6 5 5 6 5 5 5 5 5 5 5 5 5 5 5 5 5 5 5 5 5 6 5 5 5 5 5 5 6 5 5 6 5 5 5 5 5 5 5 5 6 5 5 5 5 6 5 5 5 5 5 6 5 5 5 5 5 5 5 5 5 5 5 5 5 6 5 5 5 6 5 5 5 5 6 5 5 5 6 6 6 5 5 6 6 5 6 6 5 5 5 5 6 6 6 5 5 6 5 5 5 5 5 5 6 5 5 5 5 5 5 5 6 5 5 6 5 5 5 6 5 5 5 5 6 5 6 5 5 5 5 5 5 5 5 5 5 5 5 5 5 5 5 5 6 5 5 5 5 5 5 5 5 5 5 5 5 5 5 5 5 5 6 5 6 5 5 5 5 5 5 5 5 5 5 5 5 6 5 5 5 5 5 6 5 5 5 5 5 5 5 5 5 6 5 6 5 5 6 5 5 5 5 5 5 5 5 5 5 5 5 5 5 5 5 6 5 5 5 5 5 5 5 6 5 5 5 5 5 5 6 5 6 5 5 5 6 6 6 5 5 5 5 5 5 5 6 5 5 5 5 6 5 5 5 5 5 5 5 5 5 5 6 5 5 6 5 5 5 5 5 5 5 5 5 5 6 5 5 6 5 5 5 5 5 5 5 5 5 5 5 5 5 5 6 5 5 6 5 6 5 5 5 5 5 5 5 5 5 5 5 5 5 5 5 5 5 5 6 6 5 5 5 5 5 6 5 5 5 5 5 5 5 5 5 5 5 5 5 5 5 5 5 5 6 5 5 5 5 5 5 5 5 6 5 5 5 5 6 5 6 5 5 5 5 5 5 5 5 5 5 5 5 5 6 5 5 5 5 6 5 5 5 6 6 5 5 5 5 6 5 6 5 5 6 5 6 5 5 5 5 5 5 5 5 5 5 5 5 5 5 5 5 5 5 6 5 5 6 5 5 5 6 5 5 5 5 6 5 5 5 5 5 5 5 6 5 5 5 6 5 5 5 5 5 5 5 5 5 5 5 5 5 5 5 5 5 5 5 5 5 5 5 5 5 5 5 5 5 5 5 6 5 5 5 5 5 5 6 5 5 5 5 5 5 5 5 5 5 5 6 5 5 5 5 5 5 5 6 5 5 5 5 5 6 5 5 6 5 5 5 6 5 5 5 6 6 5 5 5 6 6 5 5 5 5 5 5 5 5 5 5 5 5 5 5 6 5 5 5 5 5 6 5 5 5 5 5 5 5 5 5 5 5 5 5 5 5 5 5 5 5 5 5 5 5 5 5 5 5 5 5 5 5 5 5 5 5 5 5 5 5 5 5 5 5 5 5 5 5 5 5 6 5 5 5 5 6 5 5 5 5 5 6 5 6 5 5 5 5 5 5 5 5 5 5 5 5 5 5 5 5 5 6 5 5 5 6 5 5 5 5 5 6 5 5 5 5 5 5 5 5 5 5 5 5 5 5 5 5 5 5 5 5 5 5 5 5 5 5 5 5 5 5 5 5 5 5 5 5 5 5 5 5 5 5 5 5 5 5 5 5 5 5 5 5 5 5 5 5 5 5 6 5 5 5 5 5 5 5 5 5 5 5 5 5 6 5 5 5 5 5 5 5 5 5 5 5 6 5 5 5 6 5 5 5 5 5 5 5 5 5 5 5 5 5 5 5 5 5 5 5 5 5 5 6 5 5 6 5 5 6 5 5 5 5 5 5 5 5 5 5 5 5 6 5 5 5 5 5 5 5 5 5 6 5 5 5 5 5 5 6 5 5 5 6 5 5 6 5 5 5 5 5 5 5 5 5 6 5 5 5 5 5 5 5 5 5 5 6 5 5 5 5 5 5 5 6 5 5 5 5 5 6 5 5 5 5 5 5 5 6 5 5 5 5 5 5 6 6 5 5 5 5 5 5 5 5 6 5 5 5 5 5 5 5 5 5 5 5 5 5 5 5 5 5 5 6 5 5 5 5 5 5 5 5 5 5 5 5 5 6 5 5 5 6 6 5 5 5 5 5 5 5 5 5 5 5 5 5 5 5 5 5 5 5 5 5 5 5 5 5 5 5 5 5 5 5 5 5 5 5 5 5 5 5 5 5 5 5 5 5 5 5 6 6 5 5 5 6 5 5 5 6 5 5 6 5 5 5 5 5 5 5 5 5 5 5 6 5 5 5 5 5 5 6 5 6 6 5 5 5 6 5 5 6 5 6 5 5 5 6 5 5 5 5 6 5 5 5 5 6 5 5 5 6 5 5 5 5 5 5 6 5 5 5 5 5 5 5 5 5 5 6 5 5 5 5 5 5 5 5 5 5 5 5 5 5 5 5 5 5 5 6 5 5 5 5 5 6 5 5 6 5 5 5 5 5 5 5 5 5 5 5 5 5 5 5 5 6 5 5 5 5 5 5 5 5 5 6 5 5 5 5 5 5 5 5 5 5 5 5 5 5 5 5 5 5 5 6 5 5 5 6 6 5 5 5 6 5 5 5 6 5 5 5 5 5 5 6 5 5 5 5 5 5 5 5 5 5 5 6 6 5 5 5 5 6 5 5 5 5 5 5 5 5 5 6 5 5 5 6 5 5 5 5 5 5 5 5 6 5 5 5 5 5 5 5 6 5 5 5 5 5 5 5 5 5 5 6 5 5 5 6 5 5 5 5 5 5 6 6 5 5 5 5 6 5 5 5 5 5 5 5 5 5 5 5 5 5 5 5 5 5 5 6 5 5 5 5 5 5 5 6 5 5 5 5 5 5 5 5 5 6 5 5 5 5 5 5 6 5 6 5 5 5 5 6 5 5 5 5 5 5 5 5 5 5 6 5 5 5 5 5 5 5 5 5 5 5 5 5 5 5 5 5 5 5 5 5 5 5 6 5 6 6 5 5 6 6 5 5 5 5 5 5 5 5 5 5 5 5 5 5 5 5 5 5 6 5 5 5 6 5 5 6 5 5 5 5 5 5 5 5 5 5 5 5 5 6 5 5 5 5 5 5 6 5 5 5 5 5 5 5 5 5 5 5 5 5 5 5 5 5 5 5 5 5 5 5 5 6 5 5 6 5 5 5 5 5 5 5 5 5 5 5 5 5 5 6 5 6 5 5 6 5 6 5 5 5 5 5 5 6 5 5 5 5 5 6 5 5 5 5 5 5 5 5 5 5 5 5 5 5 5 5 5 5 6 5 5 5 5 5 5 6 5 5 5 5 6 6 5 5 6 5 6 6 5 5 6 5 6 5 5 5 5 5 6 5 6 5 5 5 5 5 6 5 5 5 5 5 5 5 5 5 6 5 5 5 6 5 5 5 5 6 5 5 5 5 5 5 5 5 5 5 5 5 5 5 5 5 6 5 5 5 6 5 5 5 5 5 5 5 5 5 5 5 5 5 5 5 5 5 5 6 5 6 5 5 5 5 6 5 6 5 5 5 6 5 5 5 5 5 5 5 5 5 5 5 5 5 5 5 5 5 5 5 5 5 5 5 5 5 5 5 6 5 6 5 6 5 5 5 6 6 5 5 5 6 5 6 5 5 5 5 5 5 5 5 5 5 5 6 5 5 5 5 5 5 5 5 5 5 5 5 5 6 5 5 5 6 5 5 5 5 5 5 5 5 5 6 5 5 5 6 5 5 5 5 6 5 5 5 5 5 5 5 5 6 5 5 5 5 5 5 5 5 5 6 5 5 5 5 5 5 5 5 5 5 5 5 5 5 5 5 5 5 5 5 5 5 5 5 5 5 5 5 5 5 5 5 6 5 5 6 5 5 5 5 5 5 5 5 5 5 5 5 5 5 5 5 6 5 6 6 5 5 5 6 5 5 5 5 5 5 5 6 5 5 5 5 5 5 5 6 5 6 5 5 5 5 5 5 5 5 5 5 6 5 5 5 5 6 5 5 6 6 6 6 5 5 5 5 5 6 5 5 5 5 6 5 5 5 5 5 5 6 5 5 5 5 5 5 5 5 5 5 5 5 5 6 5 5 5 6 5 5 5 5 5 5 5 5 5 5 5 5 5 5 5 6 5 5 5 5 5 6 5 5 6 5 5 5 5 5 5 5 5 6 6 5 5 5 5 5 5 5 6 5 5 5 5 5 5 5 6 5 5 5 5 5 5 6 6 5 5 5 5 6 6 5 5 5 5 5 5 5 5 5 5 5 5 5 5 5 5 5 5 5 5 5 5 5 5 5 5 5 5 5 5 5 5 5 5 5 5 5 5 5 5 5 5 5 6 6 5 5 6 5 5 5 5 5 5 5 5 5 5 5 6 5 5 5 5 5 5 5 5 5 5 5 5 5 5 5 5 5 5 6 5 5 6 5 5 5 5 5 6 5 5 5 5 6 5 5 5 5 5 5 6 5 6 5 5 5 5 5 6 5 5 6 5 5 5 5 5 5 5 5 5 5 6 5 5 6 5 5 5 5 5 5 5 5 5 5 5 5 6 5 5 5 5 5 5 5 5 5 5 5 5 5 5 6 5 5 5 5 5 5 5 5 5 5 5 5 5 6 5 5 5 5 5 5 5 5 5 5 5 5 5 5 5 5 5 5 6 5 5 5 6 5 5 5 6 5 5 5 5 5 5 5 5 5 5 5 5 5 5 5 5 5 5 5 6 5 5 5 5 5 5 5 5 5 5 5 6 5 5 5 6 5 5 5 5 5 5 5 5 6 6 5 5 5 6 5 6 5 5 6 5 5 6 5 6 5 5 6 5 6 6 6 5 5 5 5 5 5 5 6 6 5 5 6 5 6 5 5 5 5 5 5 5 5 5 5 5 5 5 5 5 5 5 5 5 5 5 5 5 5 5 5 6 5 5 5 5 5 6 5 6 5 5 6 5 5 5 5 5 5 5 5 6 5 5 5 6 5 5 5 5 5 5 5 5 5 5 5 5 5 5 5 6 5 5 5 5 5 5 5 5 5 5 5 5 5 5 5 5 5 5 5 5 5 5 5 6 5 5 5 6 5 5 5 5 5 5 5 6 5 6 5 5 5 5 5 5 5 5 5 5 5 6 6 5 5 6 5 5 5 5 5 5 5 5 5 5 5 5 5 5 5 5 5 6 5 5 5 6 5 5 5 5 5 5 5 5 5 5 5 5 5 5 5 5 5 5 5 5 5 5 5 5 5 5 5 5 5 5 5 5 5 5 5 5 5 5 5 5 5 5 5 5 6 5 5 5 5 5 5 5 5 5 5 5 6 5 5 5 5 5 5 5 5 5 5 5 6 5 5 5 5 5 5 5 5 5 5 5 6 5 5 5 5 5 5 5 5 5 5 5 5 5 5 5 5 5 5 5 5 5 5 5 5 6 5 5 6 5 5 5 5 5 6 5 5 5 5 5 5 5 5 5 5 5 5 5 5 5 5 5 5 6 6 5 5 6 5 5 5 5 5 5 5 5 5 5 5 5 5 5 5 5 5 5 5 5 5 5 5 5 5 5 5 5 5 5 5 5 5 5 5 5 5 5 5 5 5 5 5 5 5 5 6 5 5 5 6 5 5 5 5 5 5 5 5 5 5 5 5 5 5 5 5 5 5 5 5 5 5 5 5 5 6 5 6 6 5 5 5 5 5 6 5 5 6 5 5 5 5 5 5 5 5 5 5 5 5 5 5 5 5 5 5 5 5 5 5 5 5 5 5 5 5 5 5 5 5 5 5 5 5 5 5 5 5 5 6 5 5 5 5 6 5 5 5 6 5 5 5 5 5 5 5 5 6 5 5 5 5 5 5 5 5 5 5 5 5 5 5 5 5 5 5 5 5 5 5 5 5 5 6 5 5 5 5 5 6 5 5 5 5 5 5 5 5 5 5 5 5 5 5 5 5 5 5 5 5 5 5 5 5 5 5 5 5 5 5 5 5 6 6 5 5 5 5 5 5 5 5 5 5 6 5 5 5 6 5 5 6 5 5 5 5 6 5 6 5 5 5 6 5 5 5 5 5 6 5 5 5 6 5 5 5 5 5 5 5 5 5 5 5 5 5 5 5 5 5 5 5 6 5 5 5 5 5 5 5 5 5 5 5 5 5 5 5 5 5 5 5 5 5 5 5 5 5 5 5 5 5 5 5 5 5 5 5 5 5 5 5 6 5 5 5 5 5 5 5 5 5 5 5 5 5 5 5 5 5 5 5 5 5 6 5 5 5 5 5 5 5 5 6 5 5 5 5 6 5 5 5 6 5 6 5 5 5 5 5 5 5 5 6 5 5 5 6 5 6 5 5 5 5 6 5 5 5 5 5 5 5 5 5 5 5 5 5 6 5 6 5 5 5 5 5 6 5 5 5 5 5 5 5 5 5 5 5 5 5 5 5 5 5 5 5 5 6 5 5 5 5 5 5 6 5 5 5 5 5 5 5 5 5 5 5 5 5 5 5 5 5 5 5 5 6 5 5 5 5 5 5 5 5 5 5 5 5 5 5 5 5 5 5 5 5 5 5 5 6 5 5 5 5 5 5 5 6 5 6 5 5 6 5 5 5 5 5 5 5 5 5 5 5 5 5 5 5 5 5 5 5 5 5 5 5 5 5 5 5 5 5 5 5 6 5 5 5 5 5 6 5 5 5 5 5 6 5 5 5 5 5 6 5 6 5 5 6 5 5 5 5 5 5 5 5 5 5 5 5 5 5 5 5 5 5 5 5 5 5 5 5 5 5 5 5 5 5 5 5 5 5 5 5 5 5 5 5 5 5 6 5 5 5 5 5 5 5 6 5 6 5 5 5 6 5 6 5 5 5 5 6 5 5 5 5 5 6 5 5 5 5 5 5 5 5 5 6 5 5 5 5 5 5 5 5 5 5 5 5 5 5 5 5 5 5 5 5 5 5 5 5 5 5 5 5 5 5 5 6 5 6 5 5 5 5 5 6 5 5 5 5 6 5 5 5 5 5 5 5 5 5 5 5 5 5 5 5 5 5 5 5 5 5 5 5 5 5 5 5 5 5 5 5 5 5 5 5 5 5 5 5 5 5 5 5 5 5 5 5 5 5 5 5 5 5 5 5 5 5 5 5 5 5 5 5 5 5 5 5 5 5 5 5 5 5 5 5 5 6 5 5 5 5 5 5 5 5 5 5 5 5 5 5 5 5 5 5 5 5 5 5 5 5 5 5 5 5 5 6 5 5 5 5 5 5 5 5 5 5 5 5 5 5 5 5 5 5 5 5 5 5 5 5 5 5 5 5 5 5 5 5 5 5 5 5 5 5 5 5 5 5 5 5 6 5 6 5 5 5 5 5 5 5 5 5 5 5 5 5 5 5 5 5 5 5 5 5 5 5 5 5 5 5 5 6 5 6 5 5 5 5 5 5 5 5 5 5 5 5 5 5 5 5 5 6 5 5 5 5 5 5 5 5 5 5 5 5 5 5 5 5 5 5 5 5 5 5 5 5 5 5 5 5 5 5 5 5 5 5 5 5 5 5 5 5 5 5 5 5 5 5 5 5 5 5 5 5 5 5 5 5 5 5 5 5 5 5 5 5 5 5 5 5 5 5 5 5 6 5 6 5 5 5 5 5 6 5 5 5 5 5 5 5 5 5 6 5 5 6 6 5 6 5 5 5 5 5 5 5 5 5 5 5 5 5 5 5 5 5 5 5 5 5 6 5 5 5 5 6 5 5 5 5 5 5 5 6 5 5 6 5 5 6 5 6 5 5 5 6 5 5 6 5 5 5 5 5 6 5 6 6 5 5 5 5 6 5 5 5 5 5 5 5 5 5 6 5 5 6 5 5 5 5 5 5 5 5 5 5 5 5 5 5 5 6 5 5 5 5 5 5 6 5 5 6 5 5 6 5 6 5 6 6 5 6 5 6 6 5 5 6 5 5 5 5 5 5 5 5 5 6 5 5 5 6 5 5 5 5 5 5 5 5 5 5 5 5 6 5 5 5 5 5 5 5 5 5 6 5 6 5 5 5 5 5 5 5 6 5 5 5 5 5 5 5 5 5 5 5 5 5 5 5 5 5 5 5 5 5 5 5 5 5 5 5 5 5 5 5 5 5 5 6 5 5 5 6 5 5 5 5 5 5 5 5 5 6 5 6 5 5 5 6 5 5 5 5 5 5 5 5 5 6 5 5 5 5 5 5 5 5 5 5 5 5 5 5 5 5 5 5 5 5 5 5 5 5 5 5 5 5 5 6 6 5 5 5 5 6 5 6 5 5 5 6 6 5 6 6 5 6 5 5 5 5 5 5 5 6 5 5 5 5 5 6 5 6 5 5 5 6 5 5 6 5 5 5 6 5 5 6 6 6 5 5 5 6 5 5 5 5 6 5 5 5 5 5 6 5 6 5 5 6 5 6 5 5 5 5 5 5 5 5 5 6 5 5 5 5 5 5 5 5 5 5 5 5 5 5 5 5 5 5 5 5 5 5 6 5 5 5 5 5 6 5 6 5 6 6 5 5 6 5 6 5 5 5 5 6 5 5 5 5 5 5 5 5 5 5 5 5 5 5 5 5 5 5 5 5 5 5 5 5 5 5 5 5 5 5 5 5 5 5 5 5 5 5 5 5 5 5 5 5 5 5 5 5 5 5 5 5 5 5 5 5 5 5 5 5 5 5 5 5 5 5 5 5 5 5 5 5 5 5 5 5 5 5 5 5 5 5 5 5 5 5 5 5 5 5 5 5 5 5 5 5 5 5 5 5 5 5 5 5 5 5 5 5 5 5 5 5 5 5 5 5 5 5 5 5 5 5 5 5 5 6 5 5 6 5 5 5 5 5 5 6 5 5 5 5 5 5 6 5 5 5 5 5 5 5 5 5 5 5 5 5 5 5 5 6 5 5 5 5 5 5 6 5 5 5 5 5 5 5 5 5 5 5 6 5 5 5 5 5 5 5 5 6 5 5 5 5 5 6 5 5 6 5 5 5 5 5 5 5 6 5 5 5 5 5 5 5 5 5 5 5 5 5 5 5 6 6 5 5 5 5 6 5 5 5 5 5 5 5 5 5 5 5 5 5 5 5 5 5 5 5 5 5 5 5 6 5 5 5 5 5 5 5 5 5 5 5 6 5 5 5 5 5 5 5 5 5 6 5 5 5 5 5 5 5 5 5 5 5 5 6 5 6 5 5 6 5 5 5 5 6 5 5 5 5 5 5 5 5 5 5 6 5 5 5 5 5 5 5 6 6 5 5 5 6 6 6 5 5 6 5 5 6 5 6 5 5 5 5 6 5 5 5 6 5 6 5 5 6 5 5 6 5 5 6 6 5 5 5 5 5 5 6 5 5 6 5 6 5 5 5 6 5 5 5 5 5 6 6 5 5 6 6 5 5 5 6 6 5 6 5 5 6 6 5 5 6 5 5 5 6 5 6 5 5 5 5 5 5 5 5 5 6 5 5 5 5 5 5 5 5 5 5 5 5 5 5 6 5 5 6 5 5 5 5 5 5 5 5 5 5 5 5 5 5 5 5 5 5 5 5 5 5 5 5 5 5 5 5 5 5 5 6 5 5 5 5 5 5 5 5 5 5 6 5 5 5 5 5 6 6 5 6 5 5 5 5 5 5 5 5 5 5 5 5 5 5 6 5 5 5 5 5 5 5 5 5 5 5 5 5 5 5 5 5 5 6 5 5 6 6 5 6 5 6 5 5 5 6 6 5 6 5 6 5 5 6 5 5 5 5 5 6 5 5 5 5 6 6 5 5 5 6 5 5 5 5 5 5 5 5 5 5 5 5 6 5 5 5 5 5 5 5 5 5 5 5 5 5 5 5 5 5 6 6 5 5 6 5 5 5 5 5 5 5 5 6 5 5 5 5 5 5 5 5 5 5 5 5 5 5 6 5 5 5 5 6 5 5 5 6 5 5 6 5 5 5 5 5 5 5 5 5 5 5 5 5 5 5 5 5 5 6 5 5 5 5 5 5 5 5 6 5 5 5 5 5 5 5 5 5 5 5 5 6 5 6 5 5 6 5 5 6 5 5 5 5 5 5 6 5 5 5 6 5 5 5 5 5 6 5 5 5 5 5 5 5 5 5 5 6 5 6 5 5 5 5 5 5 5 5 6 5 5 5 6 5 5 5 6 5 6 5 6 5 5 5 5 5 5 5 5 5 6 5 5 5 5 6 5 5 5 5 5 5 6 6 5 5 6 5 5 5 5 6 6 5 5 5 5 6 5 5 5 6 6 5 5 6 5 5 5 6 5 6 5 5 6 5 5 5 5 6 5 5 5 5 5 5 5 5 6 5 6 5 6 5 5 5 5 6 5 5 5 5 5 5 5 5 5 6 5 6 5 5 5 6 6 5 6 5 5 5 5 5 5 5 5 5 6 6 5 5 6 5 5 5 5 5 6 5 5 5 5 5 6 5 6 6 5 6 6 6 5 5 5 5 5 5 5 5 6 5 5 5 5 5 6 5 5 6 5 5 5 5 5 5 5 5 5 5 5 5 5 5 5 6 6 6 5 5 5 5 6 5 5 6 6 5 6 5 6 6 5 5 5 5 5 5 5 5 5 6 5 5 5 5 5 6 5 5 6 5 5 5 5 5 5 5 5 5 5 5 5 5 5 5 5 5 5 5 5 5 5 5 5 5 5 6 5 5 5 5 5 5 5 5 5 5 5 5 5 5 6 5 5 5 5 5 5 5 6 5 5 5 5 5 5 5 5 5 5 5 5 6 5 5 6 6 5 6 5 6 5 5 5 5 5 5 5 5 5 5 5 5 6 5 5 5 5 6 5 5 5 5 6 5 5 5 5 5 6 5 5 5 6 5 6 5 6 5 6 6 6 5 6 5 5 5 5 6 5 5 6 5 5 5 5 5 5 5 6 5 5 5 6 6 6 5 5 5 5 5 6 5 5 5 5 5 6 5 5 5 6 5 5 6 5 6 5 5 5 5 5 5 6 5 5 5 5 5 5 5 5 5 5 6 6 5 5 5 5 5 5 6 5 5 6 5 5 5 5 5 5 5 5 5 5 5 5 5 5 5 5 5 5 6 5 5 5 5 5 5 5 5 5 5 5 5 5 5 6 6 5 5 6 6 5 5 5 5 5 6 5 5 5 5 5 5 5 5 5 5 5 5 5 5 5 5 5 5 5 5 5 5 5 5 5 6 5 5 5 5 5 6 5 6 5 5 5 6 5 5 5 5 5 5 5 6 5 5 6 5 5 5 6 5 5 5 5 5 5 5 5 6 5 5 6 5 5 5 5 5 6 6 5 5 5 5 6 5 5 5 5 5 5 5 5 5 5 5 5 6 5 5 5 5 5 5 5 5 5 5 5 5 5 5 5 5 5 5 5 5 5 5 5 5 5 5 5 5 5 5 5 5 5 5 6 5 5 5 5 5 5 6 5 5 5 5 5 5 5 5 5 5 5 5 5 5 5 5 5 5 5 5 5 5 5 5 5 5 5 5 5 6 5 5 6 5 6 5 6 5 6 5 5 5 6 5 5 5 5 5 5 5 5 5 6 5 5 5 5 5 5 5 5 5 5 5 5 5 5 5 5 5 6 5 5 5 5 5 5 5 5 6 5 5 5 5 5 5 5 5 5 5 5 5 5 6 5 5 5 5 6 6 5 5 5 5 5 6 5 5 5 6 5 5 6 5 5 5 6 5 6 5 6 5 5 5 5 5 6 5 5 5 5 5 5 5 5 6 5 5 5 6 5 5 5 5 5 5 5 5 6 5 5 5 5 6 5 5 5 5 5 6 5 5 5 5 5 6 5 5 5 5 5 5 5 5 5 5 5 5 5 5 5 5 5 5 5 5 5 5 5 5 6 5 5 5 5 5 5 6 5 5 5 5 5 5 5 6 5 6 5 5 5 5 6 5 5 5 5 5 6 5 5 5 5 5 6 5 5 6 5 6 5 6 5 5 6 5 6 5 5 5 5 5 5 5 5 5 5 5 6 5 5 6 5 5 5 5 5 5 5 5 5 5 6 5 5 6 5 6 5 6 5 5 6 5 5 6 5 5 5 5 5 5 5 6 6 5 5 5 5 5 5 5 6 5 5 6 5 5 5 5 5 5 5 5 5 5 5 5 5 5 5 5 5 5 5 5 5 5 5 5 5 5 5 5 5 5 5 5 5 5 5 5 5 5 5 5 5 5 5 5 5 5 5 5 5 5 5 5 5 5 5 5 5 5 5 5 6 5 5 5 5 5 6 5 5 5 5 5 5 5 5 5 5 5 5 5 5 5 5 5 5 5 5 5 5 5 5 5 5 5 5 5 6 5 5 5 5 5 5 5 5 5 5 5 5 5 5 5 5 5 5 5 5 5 5 5 6 6 5 5 5 5 5 5 5 5 5 6 5 5 5 5 5 5 5 6 5 5 5 6 5 6 6 5 6 5 5 5 5 5 6 5 5 5 5 5 5 5 5 5 5 5 5 5 5 5 5 6 6 5 5 5 5 6 5 5 5 6 6 5 5 6 5 5 5 5 6 5 5 5 5 5 5 5 5 6 5 5 5 6 6 5 5 5 6 5 5 5 5 5 5 5 5 5 5 5 5 6 5 5 5 5 5 5 6 5 5 5 5 5 5 5 5 5 5 5 5 5 5 6 5 5 6 5 5 5 5 5 5 6 5 5 5 6 5 5 5 5 5 5 5 5 5 5 5 5 5 5 5 5 6 5 5 6 6 5 6 6 5 5 5 5 5 5 6 5 5 5 6 6 5 5 5 6 5 6 5 5 5 6 5 5 6 5 5 6 5 5 5 5 5 5 5 5 5 5 5 5 5 5 5 6 5 5 5 5 5 5 5 5 5 5 5 5 5 5 5 5 5 5 5 5 6 5 5 5 6 5 5 5 5 5 5 5 6 5 6 5 5 5 5 5 5 5 5 5 6 6 5 5 5 5 5 5 6 6 5 5 5 5 6 5 5 5 6 5 5 5 5 5 5 5 6 5 6 5 6 6 5 5 5 5 6 5 5 5 5 5 6 6 5 5 6 5 5 5 6 5 5 5 5 6 5 5 5 5 5 5 5 5 5 5 5 6 6 5 5 5 5 5 5 5 5 5 5 5 5 6 5 5 5 5 6 5 5 5 5 5 5 5 5 5 5 5 5 5 5 5 5 5 5 5 5 5 5 5 5 5 5 5 5 5 5 5 5 6 5 5 5 6 5 6 5 5 6 6 5 5 5 5 5 5 5 6 5 5 6 5 6 5 5 5 6 5 5 5 5 5 6 5 5 5 6 5 5 5 5 6 5 6 6 5 6 5 5 5 5 6 5 5 5 5 5 5 5 6 6 5 5 5 5 6 5 5 5 5 5 5 5 5 5 5 5 5 5 5 5 5 5 6 5 5 5 5 5 6 5 5 6 5 5 5 5 5 5 5 5 5 5 6 5 5 5 5 5 5 5 5 5 6 5 5 5 5 5 5 5 6 5 5 5 5 6 5 5 5 5 5 5 5 6 5 6 5 5 6 6 5 5 5 6 5 5 5 6 5 5 5 5 5 5 6 5 5 6 5 5 5 5 5 5 5 5 5 5 5 5 5 5 5 5 5 5 5 5 6 5 5 5 5 5 5 5 5 5 5 5 5 5 5 5 5 5 5 5 5 5 5 5 5 5 5 5 5 5 5 5 5 5 5 5 6 5 5 5 5 5 5 5 5 5 5 6 5 5 6 5 5 5 6 5 5 5 5 6 5 5 5 5 5 5 5 5 5 6 5 5 5 5 5 5 5 5 5 6 5 5 5 5 5 5 6 5 5 5 5 5 5 5 5 5 5 5 5 5 6 5 5 6 5 5 5 5 5 5 5 5 5 6 5 5 6 5 5 5 5 5 6 5 5 6 5 5 5 5 5 5 6 6 5 6 5 6 5 5 6 5 5 5 5 6 5 5 5 5 5 5 6 5 5 5 5 5 6 5 5 5 6 5 5 6 5 5 5 5 5 6 5 5 5 6 5 5 5 6 5 5 5 5 5 5 5 6 5 5 5 5 5 5 5 5 5 5 5 5 5 5 5 5 5 5 5 5 5 5 5 5 5 5 5 5 5 5 6 5 5 6 6 5 5 5 5 5 5 5 5 6 5 5 5 5 5 5 5 5 5 5 5 5 5 6 5 5 6 5 5 5 5 6 5 5 5 5 5 5 5 5 5 5 5 5 6 5 5 5 5 5 5 5 5 5 6 5 5 6 5 5 5 5 5 5 5 5 5 6 5 5 5 5 5 5 5 5 5 5 5 5 5 5 5 5 5 5 5 5 5 5 5 5 5 5 5 5 5 5 5 5 5 5 5 6 5 5 5 5 5 5 5 5 6 5 5 5 5 6 5 6 5 6 5 5 5 5 5 5 5 5 6 5 5 5 5 5 6 5 5 5 5 5 5 5 5 5 5 5 5 5 5 6 5 6 5 5 5 5 5 5 6 5 5 5 5 5 5 5 5 5 5 5 5 5 5 5 5 5 5 5 5 5 5 5 5 6 5 5 5 5 5 6 5 6 6 5 5 5 5 5 6 5 5 5 5 5 5 5 6 5 5 5 5 5 6 5 5 6 6 5 5 5 6 5 5 5 5 5 6 5 5 6 5 5 5 5 6 5 5 6 5 5 5 5 5 5 6 5 6 6 5 5 6 5 5 5 5 5 5 6 5 5 5 5 5 5 5 6 5 6 5 5 5 6 5 5 5 5 5 5 5 5 5 5 5 5 5 6 5 5 5 6 5 5 5 5 5 5 5 5 5 6 5 5 6 5 5 6 5 5 5 6 5 5 5 6 5 5 6 6 5 5 5 5 5 5 5 6 5 5 5 5 5 5 5 5 5 5 6 5 5 5 5 5 5 5 5 6 5 5 5 5 6 5 5 5 5 6 6 5 5 5 5 5 5 5 5 5 5 5 5 6 5 5 5 5 5 5 5 5 5 5 5 5 5 5 5 5 5 5 5 5 5 5 5 5 5 5 5 5 5 5 5 5 5 5 5 5 5 5 5 5 5 6 5 6 5 5 6 5 5 5 5 5 5 5 5 5 5 5 6 5 6 5 5 6 5 5 5 5 6 5 5 5 5 6 5 5 5 5 5 5 5 5 5 5 5 5 5 5 5 5 5 5 5 5 5 5 5 5 5 5 5 5 5 5 5 5 5 5 5 5 5 5 5 5 5 5 5 5 5 5 5 5 6 5 5 5 6 5 5 5 5 5 6 6 5 5 5 5 5 6 5 5 5 5 5 5 5 6 5 5 5 5 5 5 5 5 5 6 5 5 5 6 5 5 5 6 5 6 6 5 5 5 6 5 5 6 5 5 5 5 5 5 5 6 5 6 5 5 6 5 6 5 5 6 5 5 6 5 5 5 5 5 5 5 5 5 6 6 5 5 5 5 5 5 5 5 5 5 5 5 5 5 6 5 6 5 5 5 5 5 6 5 5 5 6 6 5 5 5 5 5 5 6 6 5 5 6 5 5 5 5 5 6 5 5 5 5 5 5 5 5 6 5 5 6 5 5 5 5 5 5 6 5 5 5 5 6 5 5 5 5 5 5 5 6 5 5 6 5 5 6 6 5 5 5 5 5 5 5 5 5 5 5 5 5 5 5 5 5 5 5 5 5 5 5 5 6 5 5 5 5 5 5 6 5 5 5 5 5 5 5 5 5 5 5 5 5 5 6 5 5 5 5 6 5 5 5 5 6 5 5 5 5 5 5 5 5 5 5 5 5 6 6 5 6 5 5 5 5 5 5 5 6 5 5 5 5 5 5 5 5 5 5 5 5 5 5 5 5 5 5 5 5 5 5 5 5 5 5 5 6 6 5 5 5 5 5 5 5 6 5 6 5 5 6 5 5 5 5 5 6 5 5 6 5 5 5 5 6 5 5 6 5 6 5 5 5 5 5 5 5 5 5 5 5 5 5 5 6 5 5 5 5 5 5 5 6 5 5 5 5 5 5 5 5 5 5 5 5 5 5 5 5 5 5 5 5 5 5 6 5 5 5 5 5 5 5 5 5 5 5 5 5 5 5 5 5 5 5 5 5 5 5 5 5 5 5 5 5 5 5 5 5 5 5 5 5 5 5 5 5 5 5 5 5 5 5 5 5 5 5 5 5 5 5 5 5 5 5 5 5 5 5 5 5 5 5 5 5 5 5 5 5 5 5 5 5 5 5 5 5 5 5 5 5 5 5 5 5 5 5 5 5 5 5 5 5 5 5 5 5 5 5 5 5 5 5 5 5 5 5 5 5 5 5 5 5 5 5 5 5 5 6 5 5 5 5 5 5 5 5 5 5 5 5 5 5 5 5 5 5 5 5 5 5 5 5 5 6 6 5 5 5 5 5 5 5 5 5 5 6 5 5 5 5 5 5 6 6 5 6 5 5 5 5 5 5 5 5 5 5 5 5 5 5 5 5 5 5 6 5 6 5 5 5 5 5 5 5 6 5 5 6 5 5 5 5 5 6 5 5 5 6 5 5 5 5 5 5 6 6 5 5 6 5 6 5 5 5 5 5 6 5 5 5 5 5 6 5 5 5 5 5 5 5 5 5 5 5 5 5 5 5 5 5 6 5 5 5 6 5 5 5 6 6 5 5 5 5 5 5 5 5 5 5 5 5 5 5 5 5 5 5 6 5 5 5 6 5 5 5 5 5 5 5 5 5 5 5 5 6 5 5 5 5 5 5 5 5 5 5 5 5 5 6 6 5 5 5 5 6 5 6 5 6 5 6 5 5 5 5 5 5 5 5 5 5 5 5 5 5 6 5 5 5 6 5 5 5 5 6 5 5 6 5 5 5 5 5 5 5 5 6 5 5 5 5 6 5 5 5 6 5 5 5 6 5 5 6 5 5 5 5 5 5 5 6 5 5 5 5 5 5 6 5 5 5 5 5 5 6 5 6 6 5 6 5 5 6 6 5 6 6 5 5 5 5 5 5 5 5 5 5 5 5 5 5 5 5 5 5 5 5 5 5 5 5 5 5 5 5 5 5 6 5 5 5 5 5 5 5 5 5 5 5 5 5 6 5 5 5 5 5 5 5 5 5 5 6 5 6 5 5 5 5 5 5 5 5 6 5 5 6 5 5 5 6 5 5 5 5 5 5 5 5 5 6 6 5 5 5 6 5 5 5 5 5 5 5 5 5 5 6 5 5 6 5 5 5 5 5 5 5 5 5 5 5 5 5 5 6 5 5 5 5 6 5 5 5 5 5 5 5 5 5 5 5 5 5 5 5 5 6 5 5 5 5 6 5 5 5 6 5 5 5 5 5 5 5 5 5 5 5 5 6 5 5 5 5 5 5 5 5 5 5 5 5 5 6 5 5 6 5 5 5 5 5 5 5 6 5 5 5 5 5 5 5 5 5 5 5 5 5 5 5 5 5 5 5 5 5 5 5 5 5 5 5 5 6 5 5 5 5 5 6 5 5 5 5 5 5 5 5 5 6 5 6 5 5 5 5 5 5 5 6 5 5 5 5 5 5 6 5 5 6 5 5 6 5 5 5 6 5 5 6 6 5 5 6 5 6 5 5 5 5 5 5 5 5 5 5 5 5 6 5 5 5 6 5 5 6 5 5 6 5 5 5 5 5 5 5 5 5 5 5 5 5 5 5 5 5 5 5 5 6 5 5 5 5 5 5 5 5 5 5 5 5 5 5 5 5 5 5 5 5 5 5 5 5 5 5 5 5 5 5 5 5 5 5 5 5 5 5 5 5 5 5 5 5 5 5 5 5 5 5 5 5 5 6 5 5 5 5 5 5 5 5 5 5 5 5 5 5 5 5 5 5 5 5 5 5 5 5 5 5 5 5 6 6 5 5 5 5 6 5 5 5 6 5 5 5 6 5 6 5 5 5 6 5 5 5 5 5 5 6 5 5 5 6 5 5 5 5 5 5 6 5 5 5 5 5 6 5 5 6 5 5 6 6 5 5 5 5 5 5 5 5 6 5 6 5 6 5 5 5 5 5 5 5 5 5 6 5 5 5 5 5 6 6 5 6 5 6 5 6 5 5 5 5 5 5 5 6 5 5 5 5 5 5 5 5 5 5 6 5 5 5 5 6 5 6 5 5 5 5 5 6 5 5 5 5 5 5 6 5 5 5 5 5 5 5 5 5 5 5 5 5 6 6 5 5 5 5 6 5 6 5 5 5 5 5 5 5 5 5 5 5 5 5 5 5 5 5 5 5 5 5 5 5 5 5 5 5 5 5 5 5 5 5 5 5 5 5 5 5 5 5 5 5 5 5 5 5 5 5 5 5 5 5 5 5 5 5 5 5 5 5 5 5 6 5 5 6 5 5 5 6 5 6 5 5 6 5 5 5 5 5 5 5 5 5 5 5 5 5 5 5 5 5 6 5 5 5 5 5 5 5 5 5 5 5 5 5 5 6 5 5 5 5 5 5 5 5 5 5 5 5 5 5 5 5 5 5 5 5 5 5 5 5 5 5 5 5 5 5 5 5 6 5 5 6 5 6 5 5 5 5 5 5 6 5 5 5 5 5 5 5 5 5 6 5 5 5 6 5 5 5 6 5 5 5 6 6 5 5 5 6 5 5 5 5 5 5 5 5 5 5 5 5 5 5 5 5 5 5 5 5 5 5 5 5 5 5 5 5 6 5 6 5 5 5 5 5 5 5 5 6 5 5 5 5 5 5 5 5 5 6 6 5 5 5 5 5 5 5 5 5 6 5 5 6 5 5 5 5 6 5 5 5 5 6 5 6 5 5 5 5 5 5 5 5 5 5 5 5 5 6 5 5 5 5 5 5 5 6 5 5 5 5 5 5 5 5 5 5 5 5 5 5 5 5 5 5 5 5 5 5 5 6 5 6 5 5 5 5 5 6 5 5 5 5 6 5 5 6 5 5 6 5 5 6 5 5 6 5 5 5 5 5 5 5 5 5 5 6 5 5 5 5 5 5 5 5 6 5 5 6 6 5 5 5 5 5 5 5 5 5 5 6 5 5 6 6 5 5 6 6 5 5 5 5 5 5 6 5 5 5 5 5 5 6 6 5 6 6 5 5 5 5 5 6 5 5 6 6 5 5 5 5 5 6 5 5 5 5 6 6 5 5 5 5 6 5 6 5 5 6 6 5 5 5 5 6 5 5 6 5 6 5 5 5 5 5 6 5 5 6 5 5 5 5 5 5 5 5 6 5 5 5 5 6 5 5 5 5 5 5 5 5 5 6 5 6 5 5 6 5 5 5 6 5 6 5 6 5 5 5 6 5 5 5 5 5 5 5 5 5 5 5 5 5 6 5 5 5 5 5 5 6 5 5 5 6 5 5 5 6 5 5 5 5 5 5 5 5 5 5 6 5 5 5 5 5 5 5 6 5 5 5 5 5 5 5 5 5 6 5 5 5 5 5 5 6 5 5 6 5 5 6 5 5 6 5 5 6 5 6 5 6 5 5 6 5 6 6 5 5 5 5 6 6 5 5 5 5 5 6 5 5 6 5 5 5 5 5 6 5 5 5 6 5 5 5 5 5 5 5 5 5 5 5 5 5 5 5 5 5 5 6 5 5 5 5 5 5 5 6 5 5 5 5 5 6 6 5 5 5 5 5 5 5 5 5 5 5 5 5 5 5 5 5 5 5 5 5 5 6 5 5 5 5 5 5 5 5 5 5 5 5 5 5 5 6 6 5 5 5 5 6 5 5 5 5 5 5 5 5 6 5 5 5 6 5 5 6 6 5 6 5 6 5 6 5 6 5 5 5 5 6 5 5 5 5 5 5 5 5 5 5 5 5 5 5 5 5 5 5 5 5 5 5 5 5 5 5 5 5 6 6 5 5 5 5 5 5 5 5 5 5 5 5 5 6 5 5 6 6 5 5 6 5 5 5 5 5 5 5 5 5 5 5 5 5 5 5 5 5 6 6 5 5 5 5 6 5 6 5 5 6 6 5 5 5 6 5 6 5 5 5 5 5 5 5 5 6 5 5 5 5 5 5 5 5 5 5 5 5 6 5 5 5 5 5 5 5 5 5 5 5 5 5 5 6 5 6 5 5 6 5 6 5 5 5 5 5 5 5 6 5 5 5 5 6 5 5 5 5 5 5 5 5 5 5 5 5 5 6 5 5 5 5 5 5 5 5 5 5 5 5 5 5 5 5 5 5 6 5 5 5 5 5 5 5 5 6 5 5 5 5 6 5 5 5 5 5 5 5 5 5 5 5 5 5 5 5 5 5 5 6 5 5 5 5 5 5 5 5 6 5 6 5 5 5 5 5 5 5 5 5 5 5 5 6 5 5 5 5 6 5 6 5 6 5 5 5 5 5 5 5 5 5 5 5 6 5 5 5 5 5 5 5 6 6 5 6 5 5 6 5 5 5 5 5 5 5 6 5 5 5 5 5 5 5 6 6 5 5 5 6 5 5 5 6 5 6 5 5 6 5 5 5 5 5 5 5 5 5 6 5 5 5 5 5 5 5 6 5 6 5 5 5 5 5 6 5 5 6 5 5 5 5 6 5 6 5 5 5 5 5 5 5 5 5 5 5 6 5 5 6 5 5 5 5 5 5 5 6 5 5 5 5 5 5 5 5 5 5 5 5 6 5 5 5 5 5 5 5 5 6 5 5 5 5 5 5 5 5 5 6 5 5 5 5 6 5 5 5 5 5 5 5 5 5 6 5 5 5 5 5 5 5 5 5 5 6 5 5 5 5 5 5 5 5 6 5 5 5 6 6 5 6 5 5 5 6 5 5 6 5 5 5 5 5 5 6 5 6 5 5 5 6 5 6 5 5 5 5 6 6 5 5 6 5 6 5 6 6 6 5 5 5 5 5 5 5 5 5 5 5 5 6 5 5 5 5 6 5 6 5 6 5 6 5 5 5 5 5 5 5 6 5 5 6 5 6 6 5 5 6 5 5 5 6 5 5 5 5 5 5 5 5 5 5 6 5 5 5 6 5 5 6 6 5 5 5 5 5 5 6 5 5 5 5 6 5 5 5 5 6 5 5 5 5 5 5 5 5 5 5 5 5 5 5 5 5 5 5 5 5 5 5 5 5 5 5 5 5 5 5 5 5 5 5 5 5 5 5 5 5 5 5 5 5 5 5 5 5 5 5 5 5 5 5 5 5 5 5 5 6 5 5 5 6 5 5 5 5 5 5 5 5 5 5 5 5 5 6 5 5 5 5 5 5 5 5 5 5 5 5 5 5 6 5 5 5 5 5 6 5 5 5 5 5 5 5 5 5 5 5 5 5 5 5 5 5 5 5 5 5 5 5 5 6 6 5 5 5 5 5 5 5 5 5 5 5 5 5 6 5 5 5 5 5 5 5 5 5 5 5 5 5 5 5 5 5 5 5 5 5 5 6 5 5 5 5 5 6 5 5 5 6 5 5 5 5 5 5 5 6 6 5 5 6 6 5 5 5 5 5 5 5 5 5 5 6 5 5 5 6 5 5 5 6 6 5 5 5 5 5 5 5 5 6 5 6 5 5 5 5 5 5 5 5 6 5 6 5 5 6 5 5 6 5 5 5 5 5 5 5 5 5 5 5 5 5 5 6 5 5 6 5 5 5 5 5 5 6 5 5 5 5 5 5 5 5 5 5 6 5 5 5 6 5 5 5 5 5 5 5 5 5 5 5 5 6 6 5 5 5 5 5 5 5 5 5 5 5 5 5 5 5 5 5 5 5 5 5 5 5 5 5 5 5 6 5 5 5 5 5 5 5 5 5 5 5 5 5 5 5 5 5 6 5 5 5 5 6 5 6 5 5 5 5 5 5 5 5 6 5 5 5 5 6 5 5 5 5 5 5 5 5 5 5 5 5 5 5 5 5 5 5 5 5 5 6 5 5 5 5 5 5 5 5 5 5 5 5 5 5 5 5 5 5 5 5 5 5 5 5 5 5 5 5 6 5 5 5 5 6 5 5 5 6 5 5 5 5 6 5 5 5 6 5 5 5 5 6 5 6 6 5 5 5 5 5 6 5 5 5 5 5 6 5 5 5 5 5 6 5 5 5 5 5 5 5 5 5 5 5 5 5 5 5 5 6 5 5 5 5 5 5 5 5 5 5 5 5 5 6 5 5 6 5 5 6 5 5 5 5 6 5 5 5 6 5 5 5 6 5 5 5 5 5 6 5 5 5 6 5 5 5 5 5 5 5 6 5 5 6 6 5 6 5 6 5 5 5 5 5 6 5 5 5 5 5 5 5 6 5 5 5 5 5 5 5 5 5 6 5 5 5 5 5 5 5 5 5 5 5 5 5 5 6 5 5 5 5 5 5 5 5 5 5 5 5 5 5 5 5 5 5 5 5 6 6 5 5 5 6 5 5 5 5 5 5 5 5 5 5 5 5 5 5 5 5 6 5 5 5 5 5 5 5 5 5 5 5 6 5 5 5 5 5 5 5 5 5 5 5 5 5 6 5 5 6 5 5 6 5 5 5 5 5 5 5 5 6 5 5 5 5 5 5 5 5 5 5 5 5 5 5 5 5 5 5 5 5 5 5 5 5 5 6 5 5 5 5 5 5 5 6 5 5 5 6 5 5 5 5 5 5 5 5 5 5 5 5 6 5 5 5 5 5 5 6 5 5 5 6 5 5 5 5 5 5 5 5 5 5 5 5 5 5 5 5 5 5 5 5 5 5 5 5 5 5 5 5 6 5 5 5 5 5 5 5 6 5 5 6 6 6 5 5 5 5 5 5 5 5 6 6 5 5 5 5 5 5 5 5 6 5 5 6 5 6 5 5 5 5 5 5 5 5 5 6 5 5 5 5 5 5 5 5 6 5 5 5 5 5 5 5 5 5 6 5 5 5 5 5 5 5 5 5 5 5 5 5 5 5 6 6 5 5 5 6 5 5 5 6 5 5 6 6 5 5 5 5 5 5 5 5 6 5 5 5 6 6 5 5 5 6 5 5 5 5 5 5 5 6 5 5 6 5 5 5 5 5 5 5 6 5 5 5 5 5 5 5 5 5 
</DataArray>
<DataArray type="Float64" Name="stress" NumberOfComponents="9" format="ascii">
0.1917579748933349 355.04890955926294 0 355.04890955926294 -283.98196281091896 0 0 0 0 -149.74663051990501 403.34998556224355 0 403.34998556224355 -105.14578425947366 0 0 0 0 -295.37203334894548 327.91944229211094 0 327.91944229211094 0.042644106675652438 0 0 0 0 -265.32875711827364 271.15014508788227 0 271.15014508788227 -231.38444135054397 0 0 0 0 -233.18847089413612 286.08128156443763 0 286.08128156443763 -343.75883869574636 0 0 0 0 -105.81159719888819 273.88747114179478 0 273.88747114179478 -345.61457621969384 0 0 0 0 -0.5659446600047886 237.87545709579217 0 237.87545709579217 -382.34646153162703 0 0 0 0 -174.07858989445776 376.72919302699074 0 376.72919302699074 -389.12382167305441 0 0 0 0 -201.97622107114148 355.65061451311158 0 355.65061451311158 -253.24533412825622 0 0 0 0 -1.0569308384247194 -0.004194321407872792 0 -0.004194321407872792 -1.3930555440454597 0 0 0 0 -204.6021047287395 262.90699614948426 0 262.90699614948426 -320.8405302038575 0 0 0 0 -0.64870662545950886 2.1346562188256897 0 2.1346562188256897 -5.5864015719532247 0 0 0 0 94.982577419834342 -34.497634400342577 0 -34.497634400342577 19.982799615787371 0 0 0 0 260.01469805805209 145.85500509710346 0 145.85500509710346 -277.65149559351084 0 0 0 0 -276.06220758087147 306.19529194387178 0 306.19529194387178 -313.76967532347658 0 0 0 0 -585.14197531110221 315.76944808247117 0 315.76944808247117 -145.86641325661731 0 0 0 0 -222.8042702581115 276.89406884169512 0 276.89406884169512 -416.18723476236801 0 0 0 0 -63.162058507325128 642.97162228164598 0 642.97162228164598 -807.10894070720678 0 0 0 0 -1553.3054368629528 669.44927385910705 0 669.44927385910705 -390.54470506972575 0 0 0 0 -314.88840010427884 249.81223482965834 0 249.81223482965834 -252.06058121281239 0 0 0 0 -318.68439194511302 312.20452124448275 0 312.20452124448275 -298.1892984611768 0 0 0 0 -204.21200607293576 366.2705140465041 0 366.2705140465041 -276.7830294149262 0 0 0 0 11.780086134538578 352.87681214013355 0 352.87681214013355 -466.17133662016568 0 0 0 0 16.129587643939885 324.55598603545513 0 324.55598603545513 -406.26850180163456 0 0 0 0 -10.990141143083974 107.58740944205852 0 107.58740944205852 -161.57646370077055 0 0 0 0 -299.50495546391539 301.63128989642792 0 301.63128989642792 -173.75507123605712 0 0 0 0 -296.81807691679933 331.00036345418994 0 331.00036345418994 -155.96506903095815 0 0 0 0 -1.6884109584265516 -0.056311450007179076 0 -0.056311450007179076 -0.48316190039788864 0 0 0 0 -247.65821968623641 318.14111589022286 0 318.14111589022286 -210.87527798584233 0 0 0 0 -287.17468818935049 252.59478716122339 0 252.59478716122339 -133.073915828586 0 0 0 0 -305.29825712346883 285.52510258548659 0 285.52510258548659 -103.50256963129141 0 0 0 0 -207.90394527396711 182.41064122990792 0 182.41064122990792 -0.24058907944981911 0 0 0 0 -77.660424751101345 131.84669018474779 0 131.84669018474779 -118.73737969725971 0 0 0 0 -120.99191612190771 159.32843448719541 0 159.32843448719541 -132.76814116570404 0 0 0 0 -314.68033592526444 236.05443104716551 0 236.05443104716551 -198.48253941887378 0 0 0 0 -115.03625303765875 164.45557379212732 0 164.45557379212732 -224.69190569882448 0 0 0 0 -106.65770317735769 102.66443040952254 0 102.66443040952254 -43.010418964979181 0 0 0 0 -77.585493742167046 95.000491881845846 0 95.000491881845846 -63.587303809883451 0 0 0 0 -85.147860612108161 127.59990810450199 0 127.59990810450199 -102.53688851584775 0 0 0 0 -98.546388070892135 87.021335741304938 0 87.021335741304938 -54.89721257803194 0 0 0 0 0.10637359945145164 0.02793557229516086 0 0.02793557229516086 -0.68030778063041453 0 0 0 0 -48.669410202716108 22.334834263258017 0 22.334834263258017 -0.36692597924957226 0 0 0 0 -68.601151316870528 85.278153062745332 0 85.278153062745332 -94.080109298356092 0 0 0 0 -25.523866089328294 14.530896068138645 0 14.530896068138645 -59.003340744790648 0 0 0 0 -41.277724151511848 19.004514721715623 0 19.004514721715623 0.02652672815565893 0 0 0 0 -26.453635463505634 -4.5849000164948848 0 -4.5849000164948848 1.2554330061975634 0 0 0 0 10.552729019769686 -9.1278410488430382 0 -9.1278410488430382 -11.860527821524101 0 0 0 0 -39.481804107563221 164.63560011275695 0 164.63560011275695 -242.17265098219741 0 0 0 0 -101.81550697319744 102.8633178577752 0 102.8633178577752 -118.01321142503002 0 0 0 0 -66.112909244151524 61.052462104552433 0 61.052462104552433 -51.467624860093565 0 0 0 0 -49.107207834060318 86.935760948465031 0 86.935760948465031 -176.22742670411162 0 0 0 0 -55.885144505177777 18.766424530718723 0 18.766424530718723 7.6184542242572206 0 0 0 0 9.438397710900972 21.812566683938712 0 21.812566683938712 -101.72275116079595 0 0 0 0 -6.7576728820276912 103.36276766102037 0 103.36276766102037 -164.66546543006461 0 0 0 0 8.125965049740671 79.368124224315352 0 79.368124224315352 61.474186525321784 0 0 0 0 -5.6755048149025242 18.453034069502792 0 18.453034069502792 28.31525828419035 0 0 0 0 -17.397917918655367 34.242945645301006 0 34.242945645301006 8.1044831449762569 0 0 0 0 4.7340654293238913 45.235312879181947 0 45.235312879181947 25.12150000362044 0 0 0 0 32.79485465538346 29.282475668171173 0 29.282475668171173 2.197791896016497 0 0 0 0 5.8489761638120399 0.82966592559660057 0 0.82966592559660057 -3.4220534599298844 0 0 0 0 -16.960072946978471 2.6639430668274144 0 2.6639430668274144 12.111509466467396 0 0 0 0 -34.5056771497716 11.942808547436925 0 11.942808547436925 18.760686205585444 0 0 0 0 -14.813734209903487 4.385896077605139 0 4.385896077605139 0.1655080434968994 0 0 0 0 -8.8258026564526517 19.646802650170685 0 19.646802650170685 19.562735031394823 0 0 0 0 4.5600988139185574 5.4294595575320272 0 5.4294595575320272 10.603426043331638 0 0 0 0 5.1495041639009287 19.907433445324386 0 19.907433445324386 -2.9278997593200984 0 0 0 0 -11.407549432359701 14.836119098993549 0 14.836119098993549 12.693291221810796 0 0 0 0 6.6474602150543305 8.6389259427581671 0 8.6389259427581671 8.1566334833644163 0 0 0 0 14.938164617524308 18.807272173807178 0 18.807272173807178 -21.505401935809346 0 0 0 0 7.8598257700205352 9.7327636983298333 0 9.7327636983298333 2.0363518536017926 0 0 0 0 2.8968299837690523 6.7134591942511008 0 6.7134591942511008 6.3510652761233359 0 0 0 0 18.777472721154481 35.760892918199715 0 35.760892918199715 0.53359272772831901 0 0 0 0 -11.488617417696332 25.808452182217025 0 25.808452182217025 5.5043378390400903 0 0 0 0 3.3440472079139596 20.199172553091273 0 20.199172553091273 -8.0639199974502844 0 0 0 0 10.11329396208394 10.368029083163819 0 10.368029083163819 4.2269948728517051 0 0 0 0 6.1380698164554737 11.362448609341609 0 11.362448609341609 6.2771171076236003 0 0 0 0 8.7523102273571567 35.388051930192887 0 35.388051930192887 -8.7142892072997711 0 0 0 0 25.456610886016279 24.653298379958869 0 24.653298379958869 -23.710217148032825 0 0 0 0 4.0585068541207789 14.760572842515735 0 14.760572842515735 3.7623990483860741 0 0 0 0 7.5129683131872298 27.012821757699385 0 27.012821757699385 -6.0703219742899819 0 0 0 0 34.089697308444556 34.40687262033498 0 34.40687262033498 -14.642842870383902 0 0 0 0 -0.30564880524093674 7.2899701903594014 0 7.2899701903594014 -19.667650567703845 0 0 0 0 20.99605632404473 18.355375619832103 0 18.355375619832103 -41.071346182414345 0 0 0 0 -23.907185217344704 -5.1972331869246773 0 -5.1972331869246773 -18.765673564369536 0 0 0 0 -15.311679133214056 12.128831304262349 0 12.128831304262349 -14.254569910930513 0 0 0 0 -37.006301258703388 62.695309991786417 0 62.695309991786417 -89.420816347284017 0 0 0 0 -3.6282382189856435 13.26209572737298 0 13.26209572737298 -26.953804088924471 0 0 0 0 0.1739973259409453 86.054407053621617 0 86.054407053621617 -83.478574835601194 0 0 0 0 -56.238382620340417 105.85746221802947 0 105.85746221802947 -90.283831504188583 0 0 0 0 -103.30020313837485 61.883244265704889 0 61.883244265704889 -40.931805498400763 0 0 0 0 -122.49156625444812 206.71349851858486 0 206.71349851858486 -175.4825099267764 0 0 0 0 -0.63708187525116955 106.68917190501406 0 106.68917190501406 -99.784019087495835 0 0 0 0 0.019552155445289543 0.41563272035579502 0 0.41563272035579502 -0.9099729180932421 0 0 0 0 -241.72317382871188 249.63392890452087 0 249.63392890452087 -166.95700859297904 0 0 0 0 -397.36665311519027 140.58299766071013 0 140.58299766071013 13.425098683406759 0 0 0 0 -156.48994412104435 -9.6115394466494308 0 -9.6115394466494308 -34.806744452656858 0 0 0 0 117.78366657432161 73.162197787901277 0 73.162197787901277 8.1517713836728944 0 0 0 0 -1.270801473692039 4.5992836831779833 0 4.5992836831779833 -14.379235713827136 0 0 0 0 -37.738755414255138 48.129135170634072 0 48.129135170634072 -41.398768274727217 0 0 0 0 -91.953836931181286 -44.687305003008078 0 -44.687305003008078 -50.393996314707692 0 0 0 0 23.302257803053863 70.993809961942134 0 70.993809961942134 -166.80316424225748 0 0 0 0 45.612359468516843 -12.600737953634962 0 -12.600737953634962 -52.080625505317585 0 0 0 0 40.16228402253364 4.0914075007840438 0 4.0914075007840438 -16.272122361879156 0 0 0 0 74.256712595458396 -55.642846514515554 0 -55.642846514515554 3.692545157209679 0 0 0 0 72.252904020334427 -28.689366439863079 0 -28.689366439863079 -26.450511914366416 0 0 0 0 33.358916961384239 -20.364523972624738 0 -20.364523972624738 11.835460813280406 0 0 0 0 22.210052570737389 -45.248827973261541 0 -45.248827973261541 104.0645715112787 0 0 0 0 169.16656430238709 34.346281105693379 0 34.346281105693379 -29.725967772072181 0 0 0 0 14.712644621920617 49.535352436402263 0 49.535352436402263 9.185866900250403 0 0 0 0 152.91664947839854 -142.61986441536374 0 -142.61986441536374 114.33679059333497 0 0 0 0 2.4524598416415309 1.0657067365202622 0 1.0657067365202622 0.62060293412559986 0 0 0 0 200.01343574288603 69.725442565903904 0 69.725442565903904 -0.8647251219372265 0 0 0 0 49.468807819576568 12.637037944939266 0 12.637037944939266 0.035963205129519338 0 0 0 0 44.036719702161236 20.612469151608366 0 20.612469151608366 13.346418266872206 0 0 0 0 -12.950336685903949 -20.543147686040129 0 -20.543147686040129 -10.614131511701999 0 0 0 0 24.331005051319153 -13.038699706398802 0 -13.038699706398802 -14.36729077768905 0 0 0 0 4.6237061423726118 2.1401055351179821 0 2.1401055351179821 13.801731799397345 0 0 0 0 20.643051626420856 2.8275513248672723 0 2.8275513248672723 0.0088735192766762339 0 0 0 0 18.918801027281006 4.6855887371407334 0 4.6855887371407334 0.65327456150589569 0 0 0 0 14.636092785025539 3.5923492962901946 0 3.5923492962901946 1.9300854852954217 0 0 0 0 37.422129963039424 8.0032494354363735 0 8.0032494354363735 2.3188382471071236 0 0 0 0 0.56416001894547563 -0.1835902456349352 0 -0.1835902456349352 -0.16725993071149503 0 0 0 0 0.5888855388511729 -5.6988497867605474 0 -5.6988497867605474 15.307666223796105 0 0 0 0 11.571123194064057 -20.117226235681301 0 -20.117226235681301 14.049321052549203 0 0 0 0 6.7329441414094617 -6.34012923429691 0 -6.34012923429691 -6.5484083803021349 0 0 0 0 28.313456659920121 -23.263665458631294 0 -23.263665458631294 -15.080612759204087 0 0 0 0 16.268997976001629 28.43628700539557 0 28.43628700539557 -37.568985536015589 0 0 0 0 -3.7355446533965733 30.401895315857473 0 30.401895315857473 28.627763268694252 0 0 0 0 7.7754499286601586 3.107847513454761 0 3.107847513454761 1.1980654884046054 0 0 0 0 40.00096916955863 -65.764685941050629 0 -65.764685941050629 73.90452669885417 0 0 0 0 51.646414811821614 -8.3176411762924545 0 -8.3176411762924545 -24.232142645159911 0 0 0 0 38.455005810690636 -5.6690823976841784 0 -5.6690823976841784 33.265124208579437 0 0 0 0 36.633718142718863 -20.252144187788872 0 -20.252144187788872 18.294805601592088 0 0 0 0 35.298596870994515 -24.024132164066032 0 -24.024132164066032 27.203103606661898 0 0 0 0 26.685101189743364 -12.354346715470456 0 -12.354346715470456 -28.954975661123171 0 0 0 0 11.710673354860406 6.0432691942187766 0 6.0432691942187766 2.5845947664207465 0 0 0 0 47.2686187833433 -17.797734935492372 0 -17.797734935492372 13.549334831444867 0 0 0 0 2.2624327861395166 0.86443652483220923 0 0.86443652483220923 -0.065939193005490893 0 0 0 0 6.8989456644738993 5.2945712024048248 0 5.2945712024048248 7.7675687485025264 0 0 0 0 9.3946427307373597 2.3303854550822507 0 2.3303854550822507 -11.499536127957981 0 0 0 0 18.075184751185589 4.3224338476047706 0 4.3224338476047706 -28.292317545359992 0 0 0 0 6.1055030726238328 7.7087396301776607 0 7.7087396301776607 6.4011537584774487 0 0 0 0 6.87716289504624 7.1764799609754846 0 7.1764799609754846 6.544865330133689 0 0 0 0 6.1118513651563262 7.8219940736980789 0 7.8219940736980789 8.0896650175964169 0 0 0 0 7.9735458320719772 9.256564906652784 0 9.256564906652784 8.6532965433434583 0 0 0 0 7.5860787142091795 6.0489367292066163 0 6.0489367292066163 1.9055879901461594 0 0 0 0 -5.1729459349371609 1.5585125906463873 0 1.5585125906463873 2.3033447513644205 0 0 0 0 7.1557368940120796 -3.6570387793162809 0 -3.6570387793162809 5.3364555046682653 0 0 0 0 -0.14697877446815255 -0.67811349318435532 0 -0.67811349318435532 5.092700944782905 0 0 0 0 -0.22114049453914086 0.10693593041415639 0 0.10693593041415639 -0.80860161571178679 0 0 0 0 4.7619140061242433 -0.78112630867053667 0 -0.78112630867053667 -2.4320236613511952 0 0 0 0 1.1390210911009255 -0.5543198741821147 0 -0.5543198741821147 -0.10521928183322871 0 0 0 0 14.316494153541498 2.3242097999354883 0 2.3242097999354883 -0.0018048546025966061 0 0 0 0 14.544764096517838 3.1144916508063716 0 3.1144916508063716 1.8560222344494832 0 0 0 0 7.7499410491927847 3.1257660829396627 0 3.1257660829396627 1.8583154293592088 0 0 0 0 -28.604919069540301 -0.328572411789537 0 -0.328572411789537 6.6868406766807311 0 0 0 0 0.36119844866803819 -0.50852975926581578 0 -0.50852975926581578 -0.085707875651806376 0 0 0 0 0.7728695415371476 0.21175742078958137 0 0.21175742078958137 -0.0010973169621835404 0 0 0 0 0.57341366055187493 0.10891950141006213 0 0.10891950141006213 -0.58344296435551257 0 0 0 0 -0.70702069432593362 4.3660925075793102 0 4.3660925075793102 -7.7195512313155632 0 0 0 0 9.1702235178127012 16.376954638113602 0 16.376954638113602 -15.367360805221779 0 0 0 0 -29.854167176285046 41.909365007345514 0 41.909365007345514 -0.067367532947530104 0 0 0 0 -20.591665676347134 33.567721344617325 0 33.567721344617325 -19.884933037268638 0 0 0 0 27.057126215840981 13.949356486983561 0 13.949356486983561 -21.250827167493071 0 0 0 0 15.763806100292186 5.1741577637253613 0 5.1741577637253613 1.5819985614089092 0 0 0 0 11.017499931316706 17.353512614634383 0 17.353512614634383 5.7204762352971557 0 0 0 0 5.5069530429464066 4.4039530995150926 0 4.4039530995150926 8.3708119109760446 0 0 0 0 10.318190047859389 8.4886039112861909 0 8.4886039112861909 5.9061960593135154 0 0 0 0 12.262146930530434 15.663917653817407 0 15.663917653817407 15.141537748258997 0 0 0 0 0.39313137507243856 -0.084695825697014726 0 -0.084695825697014726 0.025875129173357436 0 0 0 0 32.96993018227829 15.14388727100561 0 15.14388727100561 4.7666993635430117 0 0 0 0 17.621377491639578 12.967990121029743 0 12.967990121029743 -6.587613002056969 0 0 0 0 21.380221097981121 15.067214223141491 0 15.067214223141491 10.135092431140947 0 0 0 0 0.50286863339366406 0.32459577425625685 0 0.32459577425625685 -1.0644986224006487 0 0 0 0 24.83304954270352 14.770589656507582 0 14.770589656507582 5.1138018851052038 0 0 0 0 16.344200233936135 3.8435947774914894 0 3.8435947774914894 4.8920742242335109 0 0 0 0 5.8177652653652814 2.5473381012754572 0 2.5473381012754572 7.2865319129014097 0 0 0 0 4.7987878453503185 3.8590958119037282 0 3.8590958119037282 0.72595545162039343 0 0 0 0 1.4966128580275886 3.3290574036138096 0 3.3290574036138096 3.5044156941106266 0 0 0 0 11.369104822635563 12.916905826754373 0 12.916905826754373 7.6401766037770358 0 0 0 0 12.024917177177485 7.614493679707266 0 7.614493679707266 2.105472243715667 0 0 0 0 3.5292064309438675 1.6393125959325134 0 1.6393125959325134 -1.8129374195572154 0 0 0 0 11.542370801565085 7.7134255933124223 0 7.7134255933124223 0.93868933093744999 0 0 0 0 5.9107246489870811 4.8985329426793172 0 4.8985329426793172 1.2431127391493639 0 0 0 0 9.4038110720039185 9.4794143518165583 0 9.4794143518165583 0.139802469395363 0 0 0 0 0.40416543432926488 3.9029993005391841 0 3.9029993005391841 0.63571356963379344 0 0 0 0 1.7606864939966727 0.82750989874512015 0 0.82750989874512015 14.93997842846511 0 0 0 0 3.9798722623598124 7.5374074359906729 0 7.5374074359906729 7.0005492564048026 0 0 0 0 7.8884324548844234 11.565136797343257 0 11.565136797343257 -2.1094056357487716 0 0 0 0 4.6933174093462213 6.1267929445318572 0 6.1267929445318572 8.8007438040840498 0 0 0 0 2.1393103869635968 6.7330315324450396 0 6.7330315324450396 2.0743266669394984 0 0 0 0 19.082888557138176 5.9132735635266727 0 5.9132735635266727 -25.762453548122267 0 0 0 0 8.9067715306148294 10.570741470886734 0 10.570741470886734 1.3491495811339989 0 0 0 0 0.59998991717657191 3.0203378935975707 0 3.0203378935975707 -3.8635935311976937 0 0 0 0 8.1538384837094782 21.314083416676112 0 21.314083416676112 22.598977784729868 0 0 0 0 8.3562749512966548 3.1398325478721745 0 3.1398325478721745 -11.173853512666028 0 0 0 0 0.46211390992082713 -0.23980441203415026 0 -0.23980441203415026 -1.0833192844901447 0 0 0 0 13.979618421666601 9.8981916261800507 0 9.8981916261800507 -2.6656371822173242 0 0 0 0 7.2998902018767353 12.100684648248404 0 12.100684648248404 6.3417233007676259 0 0 0 0 37.704001950006841 11.04232344697175 0 11.04232344697175 -11.044352274742778 0 0 0 0 0.93768447402866872 7.9655393513131916 0 7.9655393513131916 0.10400459602752932 0 0 0 0 6.084444646189695 9.1697838530744775 0 9.1697838530744775 2.6934827198219864 0 0 0 0 2.0552446220808633 -2.5871291196240236 0 -2.5871291196240236 -5.0685527907335199 0 0 0 0 0.14912812251958307 3.8554201731556876 0 3.8554201731556876 -2.2694551942640402 0 0 0 0 73.75029066911884 14.798813081335538 0 14.798813081335538 -43.215782424435019 0 0 0 0 14.856243562903728 42.007512311094615 0 42.007512311094615 22.049255636155067 0 0 0 0 1.9571848983132654 7.1042430156392591 0 7.1042430156392591 -0.80411610589260363 0 0 0 0 12.436099268073121 6.6971668683545431 0 6.6971668683545431 -8.3665228735681012 0 0 0 0 -2.6492294430927359 7.111790015376755 0 7.111790015376755 -1.6366690561080759 0 0 0 0 -11.356756098980895 14.491865865385989 0 14.491865865385989 -1.5556979750908795 0 0 0 0 -0.19205867446710645 9.2040169582386113 0 9.2040169582386113 -1.8216922494454764 0 0 0 0 -1.467164221962296 2.5841089039916874 0 2.5841089039916874 -2.7180898428182374 0 0 0 0 -1.5619100714283292 5.6555756367450361 0 5.6555756367450361 3.5409282712141206 0 0 0 0 41.044678176594516 19.695105454938584 0 19.695105454938584 -15.71327775374084 0 0 0 0 80.048383662138804 13.074683199623905 0 13.074683199623905 -3.0942733326874077 0 0 0 0 51.975927637491623 34.410537196557925 0 34.410537196557925 -6.3424518223946507 0 0 0 0 45.920083298052305 12.537649840206086 0 12.537649840206086 -31.345842757185892 0 0 0 0 44.653008069556563 8.580474705542656 0 8.580474705542656 -5.2194947121946029 0 0 0 0 56.241288001826433 22.301106825761053 0 22.301106825761053 -4.7484830431531009 0 0 0 0 43.812191613955633 1.4773767602222279 0 1.4773767602222279 -16.689401365543745 0 0 0 0 43.421696454669359 0.77439136005318687 0 0.77439136005318687 2.115011544101435 0 0 0 0 1.5676677773872143 6.1609022066131729 0 6.1609022066131729 1.6155230809708883 0 0 0 0 7.2734570328138943 6.3496131687534216 0 6.3496131687534216 -0.93864970986760454 0 0 0 0 6.2415218684200626 7.6816942689813246 0 7.6816942689813246 0.55866369624635581 0 0 0 0 10.836337168861064 11.493740046062157 0 11.493740046062157 3.8492121590898023 0 0 0 0 4.078861150243938 7.7123701278605949 0 7.7123701278605949 1.1875585617508477 0 0 0 0 6.4398557132577103 5.6114818308953964 0 5.6114818308953964 3.1620800735163748 0 0 0 0 9.9186134900246543 10.277493704472363 0 10.277493704472363 2.2717451821445138 0 0 0 0 2.0039235311778612 5.3819326759366959 0 5.3819326759366959 5.5729786423580663 0 0 0 0 2.9871207962763462 2.060591765607608 0 2.060591765607608 -0.95023620086220717 0 0 0 0 26.573336760975508 -0.10384565064850904 0 -0.10384565064850904 -19.12572147580795 0 0 0 0 44.907737153824201 -0.49320160686238523 0 -0.49320160686238523 -0.33741807446131133 0 0 0 0 37.911590213378076 -0.06046212178262067 0 -0.06046212178262067 12.014457209472312 0 0 0 0 31.419738508325281 -7.8041993606402684 0 -7.8041993606402684 27.736905343459512 0 0 0 0 14.593418640985668 9.1495457559656579 0 9.1495457559656579 0.75590994310238813 0 0 0 0 38.678920444025607 -2.3988345262678195 0 -2.3988345262678195 18.893270717766427 0 0 0 0 39.744271929175738 -3.223278508682597 0 -3.223278508682597 1.6406960517633706 0 0 0 0 33.76034362612063 -12.42400814841676 0 -12.42400814841676 -1.323408162479609 0 0 0 0 34.930419984450054 -15.543168241329113 0 -15.543168241329113 17.455510088542724 0 0 0 0 34.795900391571578 -8.4530054198980906 0 -8.4530054198980906 3.7144911406940082 0 0 0 0 34.090699332171425 -18.150952066687751 0 -18.150952066687751 14.558123790870013 0 0 0 0 44.809282717824317 -9.0621988612710993 0 -9.0621988612710993 -5.6104859677070635 0 0 0 0 34.764221773508325 1.6485380203221212 0 1.6485380203221212 -15.738250856942614 0 0 0 0 18.234808325709309 17.40759562771882 0 17.40759562771882 -15.584587200926762 0 0 0 0 26.183289563907238 -1.0547404922072019 0 -1.0547404922072019 -0.63179108186523081 0 0 0 0 6.7366178209913414 19.788731069090318 0 19.788731069090318 -18.518609846189975 0 0 0 0 10.610197291685836 22.063694800021949 0 22.063694800021949 -20.115247696916413 0 0 0 0 22.691976618486024 -4.7162511435130909 0 -4.7162511435130909 -16.547338768701593 0 0 0 0 32.933889228750559 2.8767057268778444 0 2.8767057268778444 -11.1010127035388 0 0 0 0 34.088564841135849 -6.6044245997763937 0 -6.6044245997763937 0.012390630184199836 0 0 0 0 31.306608617566781 -1.5979022884685037 0 -1.5979022884685037 -15.546377570833101 0 0 0 0 28.725359130699871 10.191351294060041 0 10.191351294060041 -27.413984782825537 0 0 0 0 29.68899086599373 22.050009430740317 0 22.050009430740317 -59.071749115311832 0 0 0 0 29.878174202404807 25.105540024924267 0 25.105540024924267 -12.347207919407992 0 0 0 0 -4.3330172280866464 51.224534689651591 0 51.224534689651591 -20.997564439781854 0 0 0 0 -4.2972120949743839 -7.843773004958166 0 -7.843773004958166 -34.096932452271176 0 0 0 0 -34.906443638984456 34.84001655873044 0 34.84001655873044 -22.391017948233639 0 0 0 0 -10.418635565682052 43.673026672718152 0 43.673026672718152 -46.493766800886988 0 0 0 0 -0.97221838105392422 0.42377108477606829 0 0.42377108477606829 0.069294527149018847 0 0 0 0 8.878761155842767 0.65326184082096006 0 0.65326184082096006 -36.883780862219282 0 0 0 0 -6.5969152004569196 12.120160555670282 0 12.120160555670282 -5.868693023445303 0 0 0 0 -2.878445557798841 31.20452043163823 0 31.20452043163823 -27.029237542843475 0 0 0 0 -24.203781042985611 40.672556640492985 0 40.672556640492985 -24.227442403192072 0 0 0 0 -15.857346562980183 32.627033870169271 0 32.627033870169271 -18.931619463324751 0 0 0 0 -14.495792968554724 47.243511895135271 0 47.243511895135271 -30.736214870132244 0 0 0 0 29.059001481483392 23.728668381100761 0 23.728668381100761 -30.583224236226272 0 0 0 0 -10.84092911782227 69.006745979048901 0 69.006745979048901 -71.634800164254557 0 0 0 0 -53.311657342100261 34.053330544363689 0 34.053330544363689 -18.983762124327768 0 0 0 0 -6.0165356317402257 12.628445450837717 0 12.628445450837717 16.100896579482651 0 0 0 0 -8.4577605790409507 4.5176283899518239 0 4.5176283899518239 -2.0782241940396489 0 0 0 0 1.0228615527786999 0.88656036780557912 0 0.88656036780557912 0.73968868768484342 0 0 0 0 -8.8783638092918409 0.59847715643081756 0 0.59847715643081756 45.319236130802892 0 0 0 0 111.89135635012281 -5.0192062083465316 0 -5.0192062083465316 -9.2817844299868284 0 0 0 0 17.045260498896369 8.6924726121887943 0 8.6924726121887943 -1.8642647703909461 0 0 0 0 1.5579310950852712 2.856495138684636 0 2.856495138684636 2.3442762526802809 0 0 0 0 -2.6332413302261557 12.104683422893686 0 12.104683422893686 -3.5342836002254217 0 0 0 0 14.098826510823073 9.4451290302290545 0 9.4451290302290545 3.4952046796479408 0 0 0 0 -0.72878426588251344 1.8037856216911594 0 1.8037856216911594 -0.054435528840546255 0 0 0 0 -0.92777395087477998 6.1461821814218638 0 6.1461821814218638 2.7791809349419054 0 0 0 0 5.0172347665921961 8.9155126157306768 0 8.9155126157306768 3.1368527710910712 0 0 0 0 12.410987176153185 17.856989376746242 0 17.856989376746242 6.3499267918341502 0 0 0 0 4.4616653775465238 5.6282723126137171 0 5.6282723126137171 2.5248135005249424 0 0 0 0 11.922689942967736 19.188833539412144 0 19.188833539412144 4.0126975664497877 0 0 0 0 -30.548393335814126 13.111067217091659 0 13.111067217091659 6.917806759674022 0 0 0 0 24.890263679684722 24.354919705595876 0 24.354919705595876 0.79702244621967111 0 0 0 0 28.242370879132977 38.099540804504159 0 38.099540804504159 5.4230656332101717 0 0 0 0 -2.4185081286114354 4.5569797422295171 0 4.5569797422295171 -8.813007072648837 0 0 0 0 27.643129257395231 26.881452061734308 0 26.881452061734308 7.6712335979145791 0 0 0 0 69.964738914539339 92.747534268022264 0 92.747534268022264 -25.723679965407428 0 0 0 0 -19.554412976096501 26.671230787073455 0 26.671230787073455 15.438891081864313 0 0 0 0 7.3605142602664273 -21.453221397649031 0 -21.453221397649031 -31.225403935372015 0 0 0 0 -1.3748005089077351 2.4828280620995913 0 2.4828280620995913 -4.4931071026688159 0 0 0 0 16.068962453338827 -2.6707019338605278 0 -2.6707019338605278 -24.363696712639467 0 0 0 0 19.584743870711463 32.175516912552212 0 32.175516912552212 -15.655030799684027 0 0 0 0 31.832229975082555 4.5069177552668407 0 4.5069177552668407 -30.712579041587105 0 0 0 0 4.1231407729783314 7.3655491758072458 0 7.3655491758072458 -20.185992289929345 0 0 0 0 15.734053240556932 8.1496648150146029 0 8.1496648150146029 -31.137431250750979 0 0 0 0 0.95822154336838139 23.642272989072808 0 23.642272989072808 -33.801191836075304 0 0 0 0 16.328305855989129 4.9828868479767152 0 4.9828868479767152 -14.272193857313141 0 0 0 0 26.180604243814741 15.453372481527822 0 15.453372481527822 -23.541088935952757 0 0 0 0 10.511393193076401 1.8548346800580475 0 1.8548346800580475 -3.814767798217872 0 0 0 0 51.014636688692917 34.287011350433204 0 34.287011350433204 -11.053794615471816 0 0 0 0 50.735157950946814 38.197625710043212 0 38.197625710043212 -20.106050645597065 0 0 0 0 -2.9345954974685551 7.2481966028065159 0 7.2481966028065159 -12.006419840499582 0 0 0 0 1.0026663499279493 33.774552382295042 0 33.774552382295042 -6.4344376117096544 0 0 0 0 -36.17466558318074 36.517475221489349 0 36.517475221489349 -3.1251005836238619 0 0 0 0 1.1717070206033844 1.1115986584705748 0 1.1115986584705748 -0.54861382250119917 0 0 0 0 -1.69426974369253 13.0719982788778 0 13.0719982788778 -8.2368935231424985 0 0 0 0 -6.1929800414327474 18.28558768349103 0 18.28558768349103 -28.479374368589561 0 0 0 0 -2.5869201689924921 22.56138503689499 0 22.56138503689499 -26.725294864760144 0 0 0 0 -32.025946433388526 22.783020385465534 0 22.783020385465534 -17.970845845749864 0 0 0 0 15.802645509107151 17.392614031846279 0 17.392614031846279 -18.431447329192451 0 0 0 0 -16.14994810484859 29.405397888538573 0 29.405397888538573 -29.08569875772082 0 0 0 0 -1.3302851571543215 -3.1266219255749093 0 -3.1266219255749093 5.70317593002801 0 0 0 0 -39.197490423763384 42.69628538145389 0 42.69628538145389 -29.667547582721454 0 0 0 0 2.1383819567294573 0.92273113421542163 0 0.92273113421542163 -1.3881857908851529 0 0 0 0 11.295219048833133 -1.3080236536306984 0 -1.3080236536306984 -6.9254480009567487 0 0 0 0 3.6358369028366724 5.8455433714748324 0 5.8455433714748324 -1.7455449891522221 0 0 0 0 3.2774835483956899 4.4143169114301308 0 4.4143169114301308 2.4036003549899796 0 0 0 0 16.520480798993077 10.596079317935917 0 10.596079317935917 -12.351908501965227 0 0 0 0 1.7599277291222686 1.9516244074217539 0 1.9516244074217539 -8.9135771189406867 0 0 0 0 19.806834610240912 0.99774821997243635 0 0.99774821997243635 -4.2214998032236508 0 0 0 0 29.328054873473349 4.0779846319498816 0 4.0779846319498816 -3.9502378790139119 0 0 0 0 -0.054610240744364991 0.14821887130231381 0 0.14821887130231381 -0.58210453056734934 0 0 0 0 81.729054799503501 -7.3807727440062081 0 -7.3807727440062081 -2.5346630205604015 0 0 0 0 48.424032803684895 -4.6083618203183505 0 -4.6083618203183505 -0.68999405606496111 0 0 0 0 0.157821345673538 -0.16369280728250857 0 -0.16369280728250857 0.38866064901757724 0 0 0 0 -56.820532171161631 56.274129485866979 0 56.274129485866979 -14.992993438395388 0 0 0 0 -19.819182892595563 34.826831743378534 0 34.826831743378534 -42.462657270923046 0 0 0 0 -16.3046504274771 25.883581002223764 0 25.883581002223764 -24.193057536897868 0 0 0 0 -19.05864296863183 21.981914342845812 0 21.981914342845812 -25.404119071970399 0 0 0 0 -19.200252847873344 20.119751348290265 0 20.119751348290265 -35.474090403606624 0 0 0 0 4.1439189882312348 19.500634784239082 0 19.500634784239082 -24.977678598890975 0 0 0 0 22.99223889214602 52.235750182061906 0 52.235750182061906 -12.261337251276927 0 0 0 0 -3.1188980309898398 62.403661320704487 0 62.403661320704487 -14.753056391324662 0 0 0 0 24.519866543371791 64.697315474034895 0 64.697315474034895 2.2008878631900188 0 0 0 0 26.371442431757828 36.500803446511028 0 36.500803446511028 -20.072019783375254 0 0 0 0 13.64560649723353 68.279691398079649 0 68.279691398079649 3.2299419688597482 0 0 0 0 16.154586569876301 64.997992698946973 0 64.997992698946973 1.8213753308546075 0 0 0 0 -23.43994675858994 89.190547014520234 0 89.190547014520234 -5.6770166946989775 0 0 0 0 1.3015626115297891 57.280058841045957 0 57.280058841045957 37.573520890144209 0 0 0 0 -13.411063835063942 19.263252491363346 0 19.263252491363346 -27.092580808588536 0 0 0 0 39.343747310265371 36.687022974574575 0 36.687022974574575 8.6393976492281581 0 0 0 0 83.086622076758431 74.544256510689593 0 74.544256510689593 27.556160350430218 0 0 0 0 35.857938596003351 88.454297893586499 0 88.454297893586499 9.8590870670632285 0 0 0 0 129.6257059116806 86.074916026175742 0 86.074916026175742 18.992832282121753 0 0 0 0 79.117157955747416 45.075093958011621 0 45.075093958011621 -13.942850704969715 0 0 0 0 178.50284512614871 17.608552335421336 0 17.608552335421336 3.4615768700150511 0 0 0 0 103.11996441788324 18.005814428294229 0 18.005814428294229 54.972854586602807 0 0 0 0 0.19138544630231102 -0.22078277308071481 0 -0.22078277308071481 1.2497525799346114 0 0 0 0 145.58312955228064 -31.325504125870339 0 -31.325504125870339 -3.8295456464347808 0 0 0 0 68.168808001815705 10.748067549727239 0 10.748067549727239 -25.407967110761092 0 0 0 0 40.127358175872814 -16.164265792271181 0 -16.164265792271181 -29.774067258943433 0 0 0 0 51.283060164061681 49.421335736936726 0 49.421335736936726 -14.497389608022559 0 0 0 0 80.878782415476508 12.30841004560375 0 12.30841004560375 -40.998821033747845 0 0 0 0 24.655881556250733 -5.0472505509158054 0 -5.0472505509158054 -42.487666250724942 0 0 0 0 -32.273789922700416 -16.025075086334255 0 -16.025075086334255 -27.582166475494205 0 0 0 0 10.527911896871046 -91.093599289961276 0 -91.093599289961276 51.729162118388558 0 0 0 0 -57.464116876429216 -80.572979233084425 0 -80.572979233084425 -47.541973694445915 0 0 0 0 -0.50208777875460697 0.63638003580686053 0 0.63638003580686053 -1.2026228351035826 0 0 0 0 -0.34957939290831064 -36.347891013823073 0 -36.347891013823073 -100.46323122055401 0 0 0 0 48.448737901915592 -27.868574899076521 0 -27.868574899076521 -59.923152003904761 0 0 0 0 -4.1832561542196345 -10.534555490473394 0 -10.534555490473394 -22.6251151047245 0 0 0 0 9.1569100997448913 33.110990287564164 0 33.110990287564164 14.192848571168724 0 0 0 0 43.223945093982138 -37.849083123898481 0 -37.849083123898481 -8.9593641224746534 0 0 0 0 27.218998669913162 -4.9177118848356258 0 -4.9177118848356258 83.54892346466886 0 0 0 0 48.157186924176131 60.928080883284565 0 60.928080883284565 51.766759056220508 0 0 0 0 -32.688198868271684 20.471604996243968 0 20.471604996243968 30.242311557092307 0 0 0 0 -63.145774443300979 21.708685013793456 0 21.708685013793456 -15.246071498750098 0 0 0 0 -8.1454822483431144 -10.067987599257663 0 -10.067987599257663 2.9856291424603114 0 0 0 0 -13.582337849114992 -0.34560414696807129 0 -0.34560414696807129 -5.1875607515760862 0 0 0 0 -54.911839754785433 -52.581566092179855 0 -52.581566092179855 -70.336860387903471 0 0 0 0 -27.604195736081238 -9.040406412653283 0 -9.040406412653283 -5.8492448656431861 0 0 0 0 -13.610224710622333 5.3326770404009949 0 5.3326770404009949 8.5008688620600878 0 0 0 0 -1.4527214459544666 -4.1946071933643907 0 -4.1946071933643907 -41.478052357567321 0 0 0 0 7.3171412423225775 36.251262180225694 0 36.251262180225694 -19.769758691854804 0 0 0 0 8.4474065441672792 41.406221271720824 0 41.406221271720824 -4.3599960067349457 0 0 0 0 20.631408012347492 37.888151955400645 0 37.888151955400645 -103.06680352049011 0 0 0 0 11.669867727323435 76.948645215617034 0 76.948645215617034 -14.786596996377739 0 0 0 0 -19.344692587754253 47.913364730894045 0 47.913364730894045 70.048772681762784 0 0 0 0 -7.3095219060724048 30.497259975555608 0 30.497259975555608 19.593726341277943 0 0 0 0 -12.821369905155734 42.05672723643147 0 42.05672723643147 -4.3052831532080518 0 0 0 0 -4.3359196630553924 9.472471585220319 0 9.472471585220319 13.164548629102228 0 0 0 0 0.10976964035762649 11.45602424545541 0 11.45602424545541 10.356189029023881 0 0 0 0 -6.637881072030936 5.7025678442307166 0 5.7025678442307166 0.82519733527685091 0 0 0 0 -14.957229194313868 10.951107985315161 0 10.951107985315161 8.5135663534883861 0 0 0 0 -1.8668114352403791 14.372511756644144 0 14.372511756644144 5.6956732306630329 0 0 0 0 -1.8999823869271495 16.380518691364159 0 16.380518691364159 19.402485843391332 0 0 0 0 -7.594198029331892 23.685005378960795 0 23.685005378960795 10.450654912111531 0 0 0 0 -9.169114266467659 17.991564512405603 0 17.991564512405603 32.859155438459766 0 0 0 0 5.6041959726735513 23.241807891353801 0 23.241807891353801 4.2092093360088256 0 0 0 0 0.0037359562793426448 31.037895229972946 0 31.037895229972946 33.199336271753964 0 0 0 0 -5.4046367783557798 -3.0536836329401922 0 -3.0536836329401922 82.81877685751715 0 0 0 0 9.8567590612219647e-05 4.1946589707131352 0 4.1946589707131352 -3.5824603123000998 0 0 0 0 0.54301604103721246 -0.19356653817666825 0 -0.19356653817666825 -0.34027793015069463 0 0 0 0 -3.3914284636466618 4.5019447170143394 0 4.5019447170143394 29.838578450080604 0 0 0 0 -6.0125590931094166 8.0061337604545599 0 8.0061337604545599 25.968233887457245 0 0 0 0 -0.47556433674617438 4.9732052717372426 0 4.9732052717372426 2.2128541224537912 0 0 0 0 -0.031323548210295371 0.41487356011288767 0 0.41487356011288767 0.41072742892303182 0 0 0 0 -1.4740745785778415 1.2564283832754448 0 1.2564283832754448 0.68705998120702461 0 0 0 0 16.966120815228351 -18.204430757596128 0 -18.204430757596128 -31.252849184575098 0 0 0 0 -0.47556433675345033 0.38601827089769358 0 0.38601827089769358 0.79039049317725585 0 0 0 0 -0.00095825438984320499 4.4638761264213827 0 4.4638761264213827 5.3184693802832044 0 0 0 0 0.9823043520783088 -0.0074985821063897617 0 -0.0074985821063897617 0.33403890598970865 0 0 0 0 -35.632951917596074 52.367202788325812 0 52.367202788325812 39.249183573641858 0 0 0 0 2.6904651629229193 199.82029157038778 0 199.82029157038778 -261.36094215728735 0 0 0 0 -0.68920656082453036 0.16352748802505257 0 0.16352748802505257 0.071274827392340256 0 0 0 0 -23.942434942167893 -11.739626898088318 0 -11.739626898088318 79.229054990425993 0 0 0 0 3.1391728227569331 1.9890123049669697 0 1.9890123049669697 -2.5771263121477084 0 0 0 0 -11.883365111223611 16.857865492741439 0 16.857865492741439 20.109746436309024 0 0 0 0 26.720197623878448 16.923477041563274 0 16.923477041563274 -16.291950036971684 0 0 0 0 -5.0264841023751146 0.39490344698003632 0 0.39490344698003632 1.3245699690827131 0 0 0 0 1.6780000934542727 3.6353680448573087 0 3.6353680448573087 3.3729969364134931 0 0 0 0 -1.5127517168002669 8.6614661298367537 0 8.6614661298367537 7.8566359288661261 0 0 0 0 -2.5582618783546422 20.612908704526035 0 20.612908704526035 -16.756688980556646 0 0 0 0 -0.050499630592753419 9.0062391586782393 0 9.0062391586782393 3.9985648834578598 0 0 0 0 -3.1657816098995681 9.6512740178827698 0 9.6512740178827698 2.0338696857829746 0 0 0 0 -0.66461014509445704 6.4303265406082346 0 6.4303265406082346 4.8381325490518066 0 0 0 0 1.9521748738548013 6.4386135522629822 0 6.4386135522629822 5.1087525271383214 0 0 0 0 5.1755790030001663 16.658099674132245 0 16.658099674132245 -1.6317068116441078 0 0 0 0 8.0427848720488164 13.616497693998888 0 13.616497693998888 -1.2476858557908628 0 0 0 0 1.6224690649833065 14.406024678930407 0 14.406024678930407 -9.0845566111543121 0 0 0 0 12.251312695590968 19.978676163820637 0 19.978676163820637 6.1294952570569876 0 0 0 0 10.210395789248636 12.790521879753072 0 12.790521879753072 2.5665551821001564 0 0 0 0 8.9283723604376064 25.321629017069881 0 25.321629017069881 0.028065304994015605 0 0 0 0 2.3472800407207615 33.130895220194361 0 33.130895220194361 6.3407391643695519 0 0 0 0 1.3624266058650392 21.909678153698678 0 21.909678153698678 9.1061305006232942 0 0 0 0 9.7482298687664297 21.607815358764128 0 21.607815358764128 5.3441402253706656 0 0 0 0 29.046506509502251 20.128759792346955 0 20.128759792346955 -8.4614187845450033 0 0 0 0 6.2238634840491613 16.072519106901836 0 16.072519106901836 -8.8383954615555922 0 0 0 0 5.5098838809235531 22.618293127293782 0 22.618293127293782 -0.68286042464478669 0 0 0 0 16.944044247314196 29.526234517090415 0 29.526234517090415 1.0626117834437991 0 0 0 0 37.073433437367385 26.186497618247813 0 26.186497618247813 -1.1327232829348759 0 0 0 0 12.37327469892216 22.739440953780559 0 22.739440953780559 -1.1811300421568376 0 0 0 0 68.915211037342488 24.63521728452065 0 24.63521728452065 1.889664497679405 0 0 0 0 32.898954073361892 23.757778131914392 0 23.757778131914392 5.3670862849758123 0 0 0 0 16.042874839105025 34.125460285141344 0 34.125460285141344 7.862135604773357 0 0 0 0 45.629161666644904 26.658788268743137 0 26.658788268743137 2.4540925829189746 0 0 0 0 20.193986187679911 51.452754094163993 0 51.452754094163993 19.909748475024571 0 0 0 0 41.105128462965695 24.067805865178798 0 24.067805865178798 13.115869600586848 0 0 0 0 -7.5969340136371102 15.267065413256205 0 15.267065413256205 8.200408814011098 0 0 0 0 -5.063645239492172 7.1635725255688261 0 7.1635725255688261 6.308393471073817 0 0 0 0 -19.652200275974792 22.016502650567418 0 22.016502650567418 12.315028133403757 0 0 0 0 16.20370870793522 33.827329115533985 0 33.827329115533985 4.9645115815837926 0 0 0 0 -9.0766386650157074 43.661080828421291 0 43.661080828421291 10.317071239320285 0 0 0 0 -10.979264367046198 24.956311271732375 0 24.956311271732375 11.446856512973682 0 0 0 0 -12.461311780321466 35.600549752644156 0 35.600549752644156 -12.010998314288372 0 0 0 0 -9.3587315010954626 27.153311594559455 0 27.153311594559455 7.3092067832649263 0 0 0 0 -6.088294501520819 14.324421087185479 0 14.324421087185479 4.1789466312334405 0 0 0 0 -22.818832041028145 33.539331459119694 0 33.539331459119694 -3.0297843548778474 0 0 0 0 -35.385289507351445 13.154976756194174 0 13.154976756194174 15.254165642373664 0 0 0 0 5.8861695852965212 5.2341086212569197 0 5.2341086212569197 -0.86413428927039959 0 0 0 0 -48.649588726617367 36.92146858673641 0 36.92146858673641 10.371408385966788 0 0 0 0 -43.095767145328182 -0.045548306094588042 0 -0.045548306094588042 6.6086112045886694 0 0 0 0 -24.286285774658609 15.403273033691221 0 15.403273033691221 11.981650372608783 0 0 0 0 -30.291547215529135 1.0862566171554136 0 1.0862566171554136 11.636790016061923 0 0 0 0 -27.07220983789739 25.602093817184652 0 25.602093817184652 44.07402877878485 0 0 0 0 -21.298112849849531 7.9310700606961291 0 7.9310700606961291 -3.1275412405739189 0 0 0 0 -27.510977431938954 10.331538815891918 0 10.331538815891918 -5.5572709661482804 0 0 0 0 -14.641976650702532 12.272928715378299 0 12.272928715378299 -0.92629142113219132 0 0 0 0 -1.0700286189994408 1.0859410672020964 0 1.0859410672020964 0.86778243715598791 0 0 0 0 -30.831064325184343 12.567959680183776 0 12.567959680183776 -4.9837073319213232 0 0 0 0 -28.378885235712005 12.912046997193102 0 12.912046997193102 -5.4474975409129911 0 0 0 0 -30.418613721154543 10.405454397115136 0 10.405454397115136 -5.3800422839881321 0 0 0 0 0.37059015884551627 31.92897583374679 0 31.92897583374679 0.87262159606598289 0 0 0 0 -5.1244062574610254 14.851484962518072 0 14.851484962518072 1.0051585126645932 0 0 0 0 -36.228011657437492 7.8472643196796525 0 7.8472643196796525 4.4584974516565126 0 0 0 0 -21.799234878365496 12.105582040063382 0 12.105582040063382 20.998749908774698 0 0 0 0 14.515886656173279 42.424518355629061 0 42.424518355629061 35.482865083237812 0 0 0 0 25.140866104397332 43.468067968799801 0 43.468067968799801 11.434368981005719 0 0 0 0 -23.887337028012553 2.7603122402765621 0 2.7603122402765621 27.148310570047215 0 0 0 0 -0.0054095105270484112 0.021094741771069181 0 0.021094741771069181 0.58028212233704579 0 0 0 0 57.202874176819023 40.428531572056272 0 40.428531572056272 -0.23749246752913677 0 0 0 0 5.6959934447713749 23.430838525432591 0 23.430838525432591 -5.7125684895891027 0 0 0 0 -15.384598937358021 24.960035049869617 0 24.960035049869617 -3.5810629348579823 0 0 0 0 -2.5458134736600186 13.918034463456024 0 13.918034463456024 -8.2361680223170879 0 0 0 0 0.086959323763949214 25.87931392551036 0 25.87931392551036 5.661412817667042 0 0 0 0 0.29150476459381025 58.374822778641828 0 58.374822778641828 14.629226813225273 0 0 0 0 25.200623972594258 38.563267423054185 0 38.563267423054185 -1.5659162050797022 0 0 0 0 -38.287812743643372 26.910923516902585 0 26.910923516902585 14.392824061292686 0 0 0 0 -8.9813449312480316 -1.1083015663878086 0 -1.1083015663878086 38.711996100963006 0 0 0 0 -17.679302424705384 18.606399938758841 0 18.606399938758841 -1.4349449856708816 0 0 0 0 1.5209720142629521 8.7738487915239602 0 8.7738487915239602 -5.1166789604046699 0 0 0 0 -16.110314648789426 43.156217188496157 0 43.156217188496157 -90.878703425916001 0 0 0 0 -11.240641164620683 23.194888464805445 0 23.194888464805445 -17.071878408395605 0 0 0 0 -0.47504672260050995 -0.56384784328648685 0 -0.56384784328648685 -0.054196701832243122 0 0 0 0 -54.218655780531662 61.691021973367242 0 61.691021973367242 -25.917448416957996 0 0 0 0 -65.290519398247397 42.181785487270986 0 42.181785487270986 24.644853435327605 0 0 0 0 2.7849114490472857 22.642615502201352 0 22.642615502201352 -21.18903441425573 0 0 0 0 -4.390927607820962 15.655491570264775 0 15.655491570264775 -2.2844112995234056 0 0 0 0 2.1651149059780437 23.144320317745496 0 23.144320317745496 -10.835847974420176 0 0 0 0 2.8341440301319381 16.42592382039129 0 16.42592382039129 -11.381410405906536 0 0 0 0 -27.023940268373735 15.20567237410387 0 15.20567237410387 12.07520585374823 0 0 0 0 -35.191777544965589 11.246154122073676 0 11.246154122073676 -2.2314126964647585 0 0 0 0 -1.7056794847645183 0.63062854823158787 0 0.63062854823158787 -0.1267882169551271 0 0 0 0 -20.900146743138066 30.3711048790326 0 30.3711048790326 -8.2090270466487709 0 0 0 0 -5.0109836190831629 19.744388874506512 0 19.744388874506512 -9.6606969365475379 0 0 0 0 -28.963620286696823 14.378067099625696 0 14.378067099625696 -5.0686747385843773 0 0 0 0 -13.012816253124701 0.25553276127961055 0 0.25553276127961055 2.9407578822698035 0 0 0 0 -3.4104790176550139 5.8390257080855541 0 5.8390257080855541 -1.4377233355487533 0 0 0 0 -5.6057137981790994 14.595429814143078 0 14.595429814143078 -5.2703815474035665 0 0 0 0 -0.061819369620934594 25.025186271679559 0 25.025186271679559 -21.080082881968792 0 0 0 0 4.6032411820733614 23.732236190919139 0 23.732236190919139 -21.22500131630477 0 0 0 0 -2.8120043539082005 4.4678530365590898 0 4.4678530365590898 -0.81052074561256582 0 0 0 0 -2.0013344722201563 5.3295792243317983 0 5.3295792243317983 -2.202465655032416 0 0 0 0 2.0298214231461316 13.324027453895724 0 13.324027453895724 -15.873600009452275 0 0 0 0 -0.14996456634212052 1.6332351908810665 0 1.6332351908810665 -1.0745537177662641 0 0 0 0 -1.4555512790879952 1.8985963185175727 0 1.8985963185175727 -0.44547814918033879 0 0 0 0 -11.756431580448407 10.298809373509812 0 10.298809373509812 0.55205494587664816 0 0 0 0 -33.924030351980036 24.061495289386585 0 24.061495289386585 -8.2138935915801312 0 0 0 0 3.3233614590826619 5.561811220664822 0 5.561811220664822 4.0254965796339093 0 0 0 0 -11.51647271222464 10.3018357692672 0 10.3018357692672 1.3837899846403161 0 0 0 0 -15.8361954345988 13.211963893881844 0 13.211963893881844 2.4286583881963857 0 0 0 0 -8.1412847017233574 11.46779311618009 0 11.46779311618009 -0.26760787353157411 0 0 0 0 0.24700321077615683 -0.70130580330501502 0 -0.70130580330501502 -0.16094883321216358 0 0 0 0 0.012750369351124391 5.3823173391956516 0 5.3823173391956516 20.140741679603479 0 0 0 0 -6.4909586976682476 16.857151698285634 0 16.857151698285634 -39.233753464879328 0 0 0 0 0.65828659658071587 0.22179230779670434 0 0.22179230779670434 -0.079603232454674711 0 0 0 0 -7.9992442075308645 32.996484546135321 0 32.996484546135321 -43.468048686332622 0 0 0 0 -13.598943331979171 19.022809349061163 0 19.022809349061163 -25.636216964050618 0 0 0 0 1.0217558766526054 31.879146702691287 0 31.879146702691287 -20.523413284714479 0 0 0 0 -2.02754731152163 22.216293874767871 0 22.216293874767871 -49.5187556730707 0 0 0 0 0.11268166214358644 8.4399855822985046 0 8.4399855822985046 -34.038876940192495 0 0 0 0 -4.9906537966926408 7.7214806610272717 0 7.7214806610272717 38.691667112629148 0 0 0 0 0.4883545178336135 0.0076651053155245563 0 0.0076651053155245563 -0.24695061583667588 0 0 0 0 -5.642683661339106 4.3236764575840425 0 4.3236764575840425 21.971589253893399 0 0 0 0 -0.81381340477673803 22.247380079162212 0 22.247380079162212 20.508807948436129 0 0 0 0 9.3219705160026933 23.913795444924745 0 23.913795444924745 10.435230088054595 0 0 0 0 -0.62393397973937681 23.876700436566352 0 23.876700436566352 33.377283037238385 0 0 0 0 9.6571649074376182 25.616720294164679 0 25.616720294164679 0.99066570908416907 0 0 0 0 -28.464392821537331 25.664438552393221 0 25.664438552393221 5.4528753678451949 0 0 0 0 9.9079850797261315 0.99701703064920366 0 0.99701703064920366 -2.6705385574950924 0 0 0 0 0.29331698223005276 0.36309934957924028 0 0.36309934957924028 -0.3672594587351945 0 0 0 0 19.091041680911985 10.375060230648387 0 10.375060230648387 5.8412312317532269 0 0 0 0 -0.0081693603788153268 13.188272514770688 0 13.188272514770688 -12.897644665910775 0 0 0 0 0.39849193021088425 0.44682319418723893 0 0.44682319418723893 -0.70976280848090667 0 0 0 0 -6.259099569182581 13.322312705334753 0 13.322312705334753 -12.460297019559675 0 0 0 0 0.23710485906849499 1.588017623936139 0 1.588017623936139 -2.628737562330798 0 0 0 0 0.97484804167470429 0.62028497069468358 0 0.62028497069468358 -1.7287037003197838 0 0 0 0 0.52890369806440418 0.33527640040216511 0 0.33527640040216511 0.07603397892247088 0 0 0 0 -18.170676270672629 35.301404279445251 0 35.301404279445251 -29.579233991558795 0 0 0 0 -25.950127754549612 22.831493428877366 0 22.831493428877366 -4.8195194843592617 0 0 0 0 -0.015049170304337167 2.6810144853479869 0 2.6810144853479869 -6.8435579494180274 0 0 0 0 -19.649019654760195 11.02562146969376 0 11.02562146969376 -21.665666042051271 0 0 0 0 0.3422758126947798 -0.095249096687961554 0 -0.095249096687961554 -0.49786770200897834 0 0 0 0 -34.299909577825019 12.565244838076524 0 12.565244838076524 20.745975749781792 0 0 0 0 0.30023368453095145 0.51991980726191045 0 0.51991980726191045 -0.12027412574117236 0 0 0 0 -38.141363635011658 21.7116364503363 0 21.7116364503363 37.814535121001427 0 0 0 0 -0.0014783329497731756 0.80171822363035972 0 0.80171822363035972 -0.045174031398346415 0 0 0 0 -12.681122976333427 13.983850768358934 0 13.983850768358934 -5.5464661549848984 0 0 0 0 -13.691234183246706 31.699161648903555 0 31.699161648903555 8.8247119245279464 0 0 0 0 -17.337352525675783 32.770546863233164 0 32.770546863233164 20.072347506242295 0 0 0 0 3.3661562961897289 30.984918755401395 0 30.984918755401395 10.556500706744373 0 0 0 0 -16.201173914660103 48.14073199852146 0 48.14073199852146 45.015828396807137 0 0 0 0 -0.098401023647966213 59.160891846619961 0 59.160891846619961 14.431361294778981 0 0 0 0 8.079311874571431 6.1707937512019271 0 6.1707937512019271 -8.6120377224633557 0 0 0 0 26.601391868558494 18.36361862327476 0 18.36361862327476 -6.4337890381068519 0 0 0 0 -2.9043777343194961 -2.0538385063573514 0 -2.0538385063573514 4.4524839021414664 0 0 0 0 -3.6583891010523075 27.065440373648016 0 27.065440373648016 10.922895058460199 0 0 0 0 3.3713818755204557 28.033012088048963 0 28.033012088048963 10.93766677954973 0 0 0 0 11.067042092985503 13.841618770668902 0 13.841618770668902 8.9174186068175914 0 0 0 0 15.574855026261503 38.239646155183891 0 38.239646155183891 17.821912933537533 0 0 0 0 6.2550068540622306 22.101675542786325 0 22.101675542786325 26.189922976971502 0 0 0 0 -20.797969557770557 11.759257124171199 0 11.759257124171199 16.849089129002095 0 0 0 0 0.67622309869032549 0.22007498425821481 0 0.22007498425821481 -0.130708565935997 0 0 0 0 18.858771229357615 42.653650482021071 0 42.653650482021071 4.8088017663940263 0 0 0 0 -20.741787816514261 23.299742128564958 0 23.299742128564958 2.2332985421594458 0 0 0 0 15.228885252259715 27.236723165886815 0 27.236723165886815 -3.903814194165534 0 0 0 0 19.798245090088301 16.586652386546632 0 16.586652386546632 9.018882193862737 0 0 0 0 16.026555300579275 13.187254392287969 0 13.187254392287969 25.765613142899383 0 0 0 0 9.3046246884960055 29.675189326893587 0 29.675189326893587 -2.1071674765134958 0 0 0 0 -3.1817962570421514 59.085482641999079 0 59.085482641999079 -12.780509378786519 0 0 0 0 4.9087396529112084 36.511033189690352 0 36.511033189690352 49.81262659060576 0 0 0 0 0.054986098759400193 60.240645611214859 0 60.240645611214859 -12.748809415822507 0 0 0 0 2.3294921462074853 44.837124174128803 0 44.837124174128803 11.365186947789539 0 0 0 0 14.215048147580092 29.580665068264352 0 29.580665068264352 10.543124657027647 0 0 0 0 6.728019910511648 41.691963113311658 0 41.691963113311658 -8.7676709196703086 0 0 0 0 20.437937872949988 15.12355969455848 0 15.12355969455848 -17.83166556015658 0 0 0 0 20.691176079038087 29.955649942889067 0 29.955649942889067 -2.8836522835945289 0 0 0 0 17.291046482214369 42.528126277848514 0 42.528126277848514 -49.366043137096312 0 0 0 0 24.123809196358707 8.5955031864691591 0 8.5955031864691591 -34.581993292676316 0 0 0 0 0.020176976204311359 6.7806854661628222 0 6.7806854661628222 9.2397251046722886 0 0 0 0 -0.48427647185533829 0.34703618634443245 0 0.34703618634443245 0.16114862204343439 0 0 0 0 11.087921971247852 13.719036704907694 0 13.719036704907694 13.378257955241679 0 0 0 0 -0.67451319827175382 0.66502682366719412 0 0.66502682366719412 -0.2023284836072321 0 0 0 0 38.855068660260741 4.8639871121203271 0 4.8639871121203271 -14.448280033563606 0 0 0 0 11.587162177687787 18.000679261081814 0 18.000679261081814 15.45462537151252 0 0 0 0 21.740666385440818 5.7744677632338153 0 5.7744677632338153 1.0220021866271054 0 0 0 0 38.615660881343501 21.661308688033387 0 21.661308688033387 11.672692448522866 0 0 0 0 15.307585014162214 -17.357646465415087 0 -17.357646465415087 -17.18256526742789 0 0 0 0 19.196316285971989 -6.869227792251877 0 -6.869227792251877 9.9508959326649347 0 0 0 0 44.657941051641501 -11.768922720297496 0 -11.768922720297496 -84.914851640627603 0 0 0 0 9.5749611073842971 -43.413434328635503 0 -43.413434328635503 70.681794267066948 0 0 0 0 -75.326513362339028 107.76827998229942 0 107.76827998229942 -113.78142936357835 0 0 0 0 8.8495343097038131 7.9337782468626301 0 7.9337782468626301 -22.38859890918684 0 0 0 0 26.506512045358249 -2.2302370164059084 0 -2.2302370164059084 -7.3428747452780954 0 0 0 0 12.941726533987094 13.539552062074563 0 13.539552062074563 -24.575410818061073 0 0 0 0 -0.80666617725114165 0.81377376216913788 0 0.81377376216913788 -0.25950413974346098 0 0 0 0 25.827031075888954 52.532145381889904 0 52.532145381889904 4.271448897181358 0 0 0 0 -7.0810197749924555 13.117477279611649 0 13.117477279611649 8.2489090254457551 0 0 0 0 -84.418172336798307 74.808196014748773 0 74.808196014748773 -28.562665279445724 0 0 0 0 -75.564939985866658 39.704807711072135 0 39.704807711072135 29.398328900576871 0 0 0 0 -81.664251826066902 54.566983788677135 0 54.566983788677135 19.128185060120359 0 0 0 0 -0.63072692279919806 0.49166552809884578 0 0.49166552809884578 0.10528082473228118 0 0 0 0 7.7270347551730083 21.705178152590861 0 21.705178152590861 17.843199149328655 0 0 0 0 11.33744720881441 13.999777851464842 0 13.999777851464842 11.009855395328088 0 0 0 0 -0.0019138642996958098 16.278459803398686 0 16.278459803398686 18.542870662016867 0 0 0 0 8.1953162191402953 21.200377212392141 0 21.200377212392141 13.64520813356819 0 0 0 0 26.895444459310966 28.058707754905981 0 28.058707754905981 15.021024614733051 0 0 0 0 15.968293509714385 13.626010772362861 0 13.626010772362861 14.597521770810999 0 0 0 0 -174.75422558838 27.648904335601856 0 27.648904335601856 14.160749193495121 0 0 0 0 267.37789807506397 78.40412745051708 0 78.40412745051708 1.7331592117097898 0 0 0 0 -66.232387939631735 5.8112990710046688 0 5.8112990710046688 -9.9041925497472221 0 0 0 0 -0.013520498616305332 0.2931157468773975 0 0.2931157468773975 -0.26465308309712299 0 0 0 0 -60.592295048441201 38.909122846297521 0 38.909122846297521 -17.711840638888134 0 0 0 0 5.9449900106414981 11.808610881864283 0 11.808610881864283 4.2003376145630291 0 0 0 0 -22.7891579045654 4.0535930070799395 0 4.0535930070799395 -5.2458109458739273 0 0 0 0 -30.664821478158046 16.661167707387449 0 16.661167707387449 25.131652689512521 0 0 0 0 -4.0498103604903122 4.5219843006222717 0 4.5219843006222717 -5.7618025558188819 0 0 0 0 67.407811911802128 148.36036099586363 0 148.36036099586363 41.604944564298421 0 0 0 0 132.18804487554735 14.31705368936673 0 14.31705368936673 0.88391884755446881 0 0 0 0 -67.792928080963065 78.281139767634386 0 78.281139767634386 -16.250472099587569 0 0 0 0 -6.1246298691296488 22.072465477928205 0 22.072465477928205 -3.0428158583790719 0 0 0 0 -4.1521152931527467 9.5870895394095896 0 9.5870895394095896 -10.539193483800318 0 0 0 0 -33.948407999338087 12.366158658536733 0 12.366158658536733 1.2194729721977637 0 0 0 0 -39.878407604570384 28.236739732567912 0 28.236739732567912 -3.1809134338864169 0 0 0 0 -73.717407659433775 33.158075936609919 0 33.158075936609919 15.513646442643221 0 0 0 0 -99.640280499705113 29.061250073391875 0 29.061250073391875 25.413969786922735 0 0 0 0 -55.639940606959499 -19.890237940115867 0 -19.890237940115867 -2.9318727058207514 0 0 0 0 -81.047795672787856 24.638249434360546 0 24.638249434360546 4.750465010820335 0 0 0 0 85.633500567668534 7.4246141844359386 0 7.4246141844359386 -32.430460446416873 0 0 0 0 182.06100694519955 58.681842178090392 0 58.681842178090392 -47.768704626520957 0 0 0 0 81.147018897274393 41.234179102844791 0 41.234179102844791 62.349633056766379 0 0 0 0 -181.59089235270221 62.98838960049261 0 62.98838960049261 4.7271513837749808 0 0 0 0 -163.99979881015861 -23.243479433971061 0 -23.243479433971061 6.8692691844958063 0 0 0 0 -1.4034043655507666 1.6099757908942394 0 1.6099757908942394 -1.6059164773232339 0 0 0 0 -12.167423972703546 -32.220746932608563 0 -32.220746932608563 187.00999596106431 0 0 0 0 49.525913421501173 122.88655718554946 0 122.88655718554946 -93.850040863651202 0 0 0 0 -220.38540407515575 92.486415577261141 0 92.486415577261141 134.93138894212279 0 0 0 0 33.998252589461117 79.43095824819784 0 79.43095824819784 8.2355647252994686 0 0 0 0 104.17257998001151 31.31918093991203 0 31.31918093991203 26.378416187694711 0 0 0 0 -51.082674267652692 8.2302842596936898 0 8.2302842596936898 1.2788799409299827 0 0 0 0 -65.124075281836667 15.156547861253102 0 15.156547861253102 -1.1307870290265782 0 0 0 0 0.1359838271302678 0.75111042671475658 0 0.75111042671475658 -0.44290932115158554 0 0 0 0 -34.857441908085093 19.081884466759902 0 19.081884466759902 -10.837180530571459 0 0 0 0 -49.530215899911411 27.165943168325512 0 27.165943168325512 -4.7414770501509338 0 0 0 0 -32.238399672870457 19.652019642379756 0 19.652019642379756 -10.293333223256013 0 0 0 0 -33.606587358090565 4.7199515151311289 0 4.7199515151311289 6.0350734658068177 0 0 0 0 -28.027963971295321 9.6092846380270203 0 9.6092846380270203 -1.4769620167433004 0 0 0 0 -34.096639528528613 17.708175462347754 0 17.708175462347754 -7.2394996671032459 0 0 0 0 -23.709942016465487 4.4933690175695311 0 4.4933690175695311 5.5725151221103673 0 0 0 0 -4.1028244232657016 44.913576800115379 0 44.913576800115379 -71.11845767484283 0 0 0 0 1.1000436085994494 -0.036102192939161171 0 -0.036102192939161171 -0.18717822007107898 0 0 0 0 -21.148403585655615 28.785504480821146 0 28.785504480821146 -11.469124576325157 0 0 0 0 -45.51075794060489 28.348041116481909 0 28.348041116481909 83.133941598411184 0 0 0 0 -18.978900293190236 32.592241845013177 0 32.592241845013177 -21.870035374980944 0 0 0 0 -4.1550314933924781 2.5674187296524558 0 2.5674187296524558 0.78737592108111798 0 0 0 0 -0.728484391115515 4.8319383988751383 0 4.8319383988751383 -1.0342984837013329 0 0 0 0 -6.6812959262520746 16.820205233410764 0 16.820205233410764 -11.033138251000437 0 0 0 0 -20.055536180772833 25.393230788592064 0 25.393230788592064 -12.092684083691438 0 0 0 0 -23.257027379509964 28.457965572360536 0 28.457965572360536 1.1802181518924044 0 0 0 0 -19.133501253696522 30.045849310788526 0 30.045849310788526 -10.766465415756556 0 0 0 0 -26.690147346711456 29.276321033574959 0 29.276321033574959 -17.942065993796859 0 0 0 0 -33.295833484768082 8.2772154253880217 0 8.2772154253880217 -1.6410552709357944 0 0 0 0 -38.862470133652096 9.6868978734783013 0 9.6868978734783013 3.9855094256481607 0 0 0 0 -38.97951081955398 11.5585671172189 0 11.5585671172189 0.32498994042452978 0 0 0 0 -4.802653961974487 14.984658457704654 0 14.984658457704654 -8.4600317827040747 0 0 0 0 -21.23944695336354 24.477596497138279 0 24.477596497138279 -2.4474544658178274 0 0 0 0 0.12463687418630798 19.722783486411117 0 19.722783486411117 -16.07458405370744 0 0 0 0 -47.336271122410835 11.652213702219228 0 11.652213702219228 -9.5455549924045044 0 0 0 0 -42.895023007065902 8.8771182469527048 0 8.8771182469527048 3.4233196852565015 0 0 0 0 -7.2047073647484829 2.0822219920209548 0 2.0822219920209548 -0.60023060359967317 0 0 0 0 -35.352395282712678 12.555588883378277 0 12.555588883378277 -9.477629879847882 0 0 0 0 -30.344282350402864 12.183703373353637 0 12.183703373353637 9.2459577613290094 0 0 0 0 -42.004542430623587 22.211684037260966 0 22.211684037260966 3.8114256161475168 0 0 0 0 -31.50522832401748 17.364804065162389 0 17.364804065162389 -7.3153388222117428 0 0 0 0 -32.348102215077233 26.566128906799349 0 26.566128906799349 -2.2861237460565462 0 0 0 0 -32.43905312495508 26.784310899616571 0 26.784310899616571 2.5630021688903071 0 0 0 0 -31.950967214416323 8.7053748878718125 0 8.7053748878718125 11.874070852644763 0 0 0 0 -25.26507876654432 8.1628856565453134 0 8.1628856565453134 52.867919147196517 0 0 0 0 -25.87405352487167 15.784253314420766 0 15.784253314420766 13.506066603536965 0 0 0 0 -17.059715936626162 2.7359965084888245 0 2.7359965084888245 9.7993624717914827 0 0 0 0 -3.3422780459751213 4.3690348738283884 0 4.3690348738283884 -0.591209612168619 0 0 0 0 30.769929046132347 6.8952159750033388 0 6.8952159750033388 -15.274401860161561 0 0 0 0 -10.403716514586961 13.377881175398386 0 13.377881175398386 -1.8454789739826083 0 0 0 0 3.5781061297832579 6.5440703450727806 0 6.5440703450727806 -1.8183895602998952 0 0 0 0 6.0330586330492224 6.2640175153110249 0 6.2640175153110249 -1.7962827570990214 0 0 0 0 29.537239583448354 44.574830663903413 0 44.574830663903413 15.665882696500375 0 0 0 0 -12.513010157166718 8.3188671343100395 0 8.3188671343100395 89.101088651161263 0 0 0 0 29.754036946140332 41.784099781323675 0 41.784099781323675 43.256787983602862 0 0 0 0 132.23887592394749 49.960341540113404 0 49.960341540113404 -19.15948291505083 0 0 0 0 126.63958210611781 110.55975461603703 0 110.55975461603703 81.557961753727795 0 0 0 0 358.96361428044929 178.75282824658916 0 178.75282824658916 52.850729048834182 0 0 0 0 126.92388319641623 39.758772554426514 0 39.758772554426514 18.508324823476869 0 0 0 0 110.88509228151543 -93.289097913223713 0 -93.289097913223713 -19.809653507099938 0 0 0 0 404.4551837773397 -80.922002226021505 0 -80.922002226021505 -99.3149861774491 0 0 0 0 -0.0068928227347999638 0.14605556989716639 0 0.14605556989716639 2.0630760286913592 0 0 0 0 251.64433200850885 70.233868942226025 0 70.233868942226025 -27.47609776101217 0 0 0 0 -13.270468181777687 114.45044801762879 0 114.45044801762879 210.61908636992985 0 0 0 0 2.7895149220428248 0.47205322085724433 0 0.47205322085724433 0.01822286884412172 0 0 0 0 78.632143405115585 128.79059128308654 0 128.79059128308654 209.67448123545728 0 0 0 0 210.70906038751673 -78.372571841747686 0 -78.372571841747686 0.54314384540612082 0 0 0 0 49.641164997563465 -10.985096175309991 0 -10.985096175309991 5.7324720118849655 0 0 0 0 115.45659424605333 -27.851202190882532 0 -27.851202190882532 -11.318559683722924 0 0 0 0 151.84823961615757 35.667102425759822 0 35.667102425759822 -11.619651668559527 0 0 0 0 139.89225531602187 49.084421390275565 0 49.084421390275565 -25.64372576286496 0 0 0 0 113.34823839415401 69.561784303627689 0 69.561784303627689 19.066437757818676 0 0 0 0 162.31922610518677 70.494588652609082 0 70.494588652609082 -9.3672501173768978 0 0 0 0 110.24518825284738 22.547498901322911 0 22.547498901322911 -15.240368422219035 0 0 0 0 83.985193455410808 20.222723846620283 0 20.222723846620283 -0.083998895752301905 0 0 0 0 87.438415361480111 4.9962969625662481 0 4.9962969625662481 -14.568109457571154 0 0 0 0 60.800696210988008 4.1355637894193933 0 4.1355637894193933 -5.7875309317082611 0 0 0 0 62.673431968774821 -2.8363930240479931 0 -2.8363930240479931 1.2910457019538626 0 0 0 0 49.624264080593093 6.2129923310167214 0 6.2129923310167214 -0.52396296990536939 0 0 0 0 -7.5442773599516295 2.1490052266568744 0 2.1490052266568744 -0.58068246988738537 0 0 0 0 -31.038776054726441 10.75218938735361 0 10.75218938735361 6.4196402992147341 0 0 0 0 -27.171775516403159 40.447790329187683 0 40.447790329187683 -12.223778498009779 0 0 0 0 3.5317122263184664 16.868407147930739 0 16.868407147930739 -10.252530634618875 0 0 0 0 -41.011982604091827 17.411959705449135 0 17.411959705449135 -4.4479330012356968 0 0 0 0 -24.015343968265114 4.014505299022666 0 4.014505299022666 6.378363803557825 0 0 0 0 -23.368162121368186 13.803337071626174 0 13.803337071626174 0.78814386358862976 0 0 0 0 44.418045962255746 18.063981919488015 0 18.063981919488015 -15.451113726325275 0 0 0 0 47.301146934972849 -8.7041683145323532 0 -8.7041683145323532 3.1413642190636892 0 0 0 0 76.989932298382882 5.9860631694791664 0 5.9860631694791664 -5.4534312946630052 0 0 0 0 39.01407375389681 20.608054905364952 0 20.608054905364952 -16.123351680584165 0 0 0 0 -11.966493955311307 9.3123738667204634 0 9.3123738667204634 10.019282991650016 0 0 0 0 -18.037347567712459 22.083893315871592 0 22.083893315871592 -6.7149265214229672 0 0 0 0 -18.098444537978139 21.707308395837572 0 21.707308395837572 -3.7418298278444126 0 0 0 0 -22.749125506137716 19.130490419547186 0 19.130490419547186 24.080473348418309 0 0 0 0 21.597854549186081 30.680057920348304 0 30.680057920348304 -12.110698686037722 0 0 0 0 8.5589566880180428 8.8085182460395117 0 8.8085182460395117 26.321357379280926 0 0 0 0 19.800275135407901 31.867752989623114 0 31.867752989623114 23.302415208658431 0 0 0 0 26.504659790198275 23.072677500261761 0 23.072677500261761 19.649965457205781 0 0 0 0 87.003955095402489 25.186604296495716 0 25.186604296495716 0.38501256116160221 0 0 0 0 27.46834699541796 1.4023493613285609 0 1.4023493613285609 14.890632571452443 0 0 0 0 -2.9404853455262128 27.45036941170838 0 27.45036941170838 19.185106059336931 0 0 0 0 50.648879887137582 40.208212702525771 0 40.208212702525771 -29.91816722290605 0 0 0 0 7.142790128048091 60.997870941040219 0 60.997870941040219 41.242627216489836 0 0 0 0 -0.061380803259442729 0.42839041069494233 0 0.42839041069494233 0.83501433911452949 0 0 0 0 -0.46887686350208568 0.11141823641260018 0 0.11141823641260018 -0.029983718620723743 0 0 0 0 -13.616829004428382 54.463616359320099 0 54.463616359320099 0.594053901204461 0 0 0 0 2.7920189362957899 39.60656788625738 0 39.60656788625738 -103.11174399571155 0 0 0 0 -16.436474087986426 16.977196582461147 0 16.977196582461147 -10.897395569678793 0 0 0 0 -5.0206292096991092 6.2099812926740015 0 6.2099812926740015 73.763990267617686 0 0 0 0 -2.844210575039142 6.5417759185297655 0 6.5417759185297655 16.609653718895515 0 0 0 0 -1.4288922422383799 -0.43008050009124155 0 -0.43008050009124155 0.11635620492958992 0 0 0 0 -5.2430237902355401 18.444916204039384 0 18.444916204039384 34.216133644583351 0 0 0 0 -16.43557114313171 16.897913475041605 0 16.897913475041605 -5.5815530026891338 0 0 0 0 -5.4805846746635325 15.328047741428463 0 15.328047741428463 -35.220652006096316 0 0 0 0 -10.030025206312303 33.045307640820056 0 33.045307640820056 -14.91064354504033 0 0 0 0 -7.1038784861730164 29.696291695254786 0 29.696291695254786 12.210144878225947 0 0 0 0 10.555058104319414 21.189805425794361 0 21.189805425794361 18.734328396098135 0 0 0 0 12.632558051956494 21.003318422092889 0 21.003318422092889 -9.8077032867686285 0 0 0 0 -0.87105469469270247 11.298118203489025 0 11.298118203489025 -16.720949282283982 0 0 0 0 50.001933107811055 26.68363818672151 0 26.68363818672151 -31.418125756729523 0 0 0 0 12.966745611002807 34.987316707878108 0 34.987316707878108 28.551480486719356 0 0 0 0 88.232199991941343 56.772275078588791 0 56.772275078588791 -6.8941404603538103 0 0 0 0 51.997890420505087 35.186165904348854 0 35.186165904348854 -17.036990905919083 0 0 0 0 68.826533496920092 45.477579941564272 0 45.477579941564272 -39.984133066115646 0 0 0 0 86.538120987410366 45.09554654421936 0 45.09554654421936 -43.291558783171695 0 0 0 0 39.772763364842831 51.614864211720487 0 51.614864211720487 -37.776201731809124 0 0 0 0 -26.982645751016662 66.105257464388387 0 66.105257464388387 116.49236942041898 0 0 0 0 111.86239554982967 108.39974374278199 0 108.39974374278199 6.9194128775670833 0 0 0 0 81.492793506900398 12.391243404617171 0 12.391243404617171 -89.314899785899797 0 0 0 0 1.3733341781543587 0.38565160152684719 0 0.38565160152684719 -0.0011592687968828841 0 0 0 0 59.417518070598817 81.200656497959471 0 81.200656497959471 75.169992405591984 0 0 0 0 46.847746371243375 23.93317281269492 0 23.93317281269492 -32.331650941878934 0 0 0 0 129.08623118298442 53.242866257201172 0 53.242866257201172 -63.016131434016643 0 0 0 0 67.274242025701824 17.318340097978535 0 17.318340097978535 -67.44111102824354 0 0 0 0 7.486420660019121 -11.797077949958293 0 -11.797077949958293 -52.239246874237324 0 0 0 0 -17.032411453023087 36.18845857001179 0 36.18845857001179 -30.020848664672258 0 0 0 0 8.4591634177577362 3.1162149796004996 0 3.1162149796004996 -14.133147868599281 0 0 0 0 46.003096817781625 -7.8771834572398802 0 -7.8771834572398802 -13.394252561344274 0 0 0 0 3.4362985415228309 0.45973936993999054 0 0.45973936993999054 0.34324286716479335 0 0 0 0 4.1145866337710686 35.606594030304223 0 35.606594030304223 -71.634151854455922 0 0 0 0 93.011947323419918 27.718196349934715 0 27.718196349934715 -20.436851851234337 0 0 0 0 9.6600485570879755 14.054402914157436 0 14.054402914157436 -32.193402230665924 0 0 0 0 -47.977187956881608 25.39872936694178 0 25.39872936694178 -2.8482279911982005 0 0 0 0 3.2208806947577058 7.8552719275160321 0 7.8552719275160321 -1.8728458280948281 0 0 0 0 -23.331319132033968 4.3818664868085762 0 4.3818664868085762 22.231903495383449 0 0 0 0 -1.3373067179074969 10.170748395010261 0 10.170748395010261 -3.9347103620253705 0 0 0 0 67.043691261845652 10.717742060777709 0 10.717742060777709 -24.414230246270563 0 0 0 0 49.232789376291976 9.5136865890855233 0 9.5136865890855233 -6.7973133912764752 0 0 0 0 73.321640287632363 7.1972685141054171 0 7.1972685141054171 -9.7697709794438197 0 0 0 0 80.522441180724854 9.1771619870378345 0 9.1771619870378345 -23.393069727946568 0 0 0 0 72.001316750750448 3.0104399079914401 0 3.0104399079914401 -13.835579291870886 0 0 0 0 91.34771259643685 31.162621278748247 0 31.162621278748247 -23.735662003318794 0 0 0 0 75.017590061090232 30.944442688673462 0 30.944442688673462 13.586098206084557 0 0 0 0 57.412853865250327 32.470900784591322 0 32.470900784591322 -23.157770917442349 0 0 0 0 69.092105404047288 23.736001749228002 0 23.736001749228002 -40.467463005076752 0 0 0 0 80.269469317704988 1.0538971787823357 0 1.0538971787823357 -69.776091181271113 0 0 0 0 48.10597242053791 -6.1259285490873481 0 -6.1259285490873481 -29.632005140040746 0 0 0 0 27.957486835127952 -49.063211018733853 0 -49.063211018733853 -85.217481198054884 0 0 0 0 87.572643623695512 104.37314680880218 0 104.37314680880218 83.717398117679977 0 0 0 0 0.25227673836856113 -0.18406353485379379 0 -0.18406353485379379 0.2299614271441861 0 0 0 0 3.4932713931157195 18.703514455093227 0 18.703514455093227 -29.479791879540699 0 0 0 0 45.732419616265588 37.659929216906448 0 37.659929216906448 -22.939253858294251 0 0 0 0 -7.9586667721102913 -7.5062445906373796 0 -7.5062445906373796 -13.864971485701062 0 0 0 0 63.65725036681215 53.063803543506765 0 53.063803543506765 27.163254994034105 0 0 0 0 1.2505398533353773 -0.34877636814207413 0 -0.34877636814207413 0.00089310664326447409 0 0 0 0 54.729642739572682 34.320372994728132 0 34.320372994728132 27.062398777470662 0 0 0 0 20.833153429192862 -6.6228679597334121 0 -6.6228679597334121 2.0363152902910997 0 0 0 0 102.24984474067804 35.110306216311585 0 35.110306216311585 -12.465709019227688 0 0 0 0 0.92952090440381197 8.2077360307575713 0 8.2077360307575713 -1.2703810841229739 0 0 0 0 3.8995355828796043 9.7398584127846366 0 9.7398584127846366 0.28462663528291188 0 0 0 0 13.741210595263965 15.02901660572229 0 15.02901660572229 23.313741630462573 0 0 0 0 -3.4656887417031612 2.8347909982880992 0 2.8347909982880992 23.916905344178303 0 0 0 0 21.195977075443807 14.011921331400799 0 14.011921331400799 -24.851927380244888 0 0 0 0 -16.645945309690489 16.396931486120678 0 16.396931486120678 8.1565273480528049 0 0 0 0 0.65237397701218791 9.5301271315451999 0 9.5301271315451999 -1.8300073447748382 0 0 0 0 9.1450648592209518 9.820946377778057 0 9.820946377778057 5.9400032665253093 0 0 0 0 10.467832742239269 7.9503703986822414 0 7.9503703986822414 -7.9973064844451063 0 0 0 0 2.9802114152275863 53.307615974078587 0 53.307615974078587 64.932886901945949 0 0 0 0 12.575935792647442 38.05029461437266 0 38.05029461437266 76.956504963242196 0 0 0 0 -0.049183969851578579 4.6066841346460192 0 4.6066841346460192 -0.34799897824538584 0 0 0 0 107.17949842929659 48.723437087355293 0 48.723437087355293 -28.579324400278608 0 0 0 0 -5.0284760506000374 10.061228208755306 0 10.061228208755306 -11.48664071957203 0 0 0 0 17.389352943529047 4.3862613214337216 0 4.3862613214337216 -14.769626653231683 0 0 0 0 15.451361320068827 23.334691149562786 0 23.334691149562786 -6.5441124507431141 0 0 0 0 68.551096221934131 20.311937771039993 0 20.311937771039993 -15.165401820028819 0 0 0 0 24.730881198736824 15.604899461884543 0 15.604899461884543 -5.275488337162642 0 0 0 0 24.166140536611238 18.348991646771083 0 18.348991646771083 -17.171254236893901 0 0 0 0 59.320906270354499 43.664043270909133 0 43.664043270909133 16.022579261184546 0 0 0 0 63.264714621683652 33.337429249905426 0 33.337429249905426 -9.7577925466221132 0 0 0 0 44.030750055149838 40.630437941729724 0 40.630437941729724 25.438354109037164 0 0 0 0 45.428500473165514 34.107254460267995 0 34.107254460267995 -14.264536910980951 0 0 0 0 56.543756806410556 34.09475633988859 0 34.09475633988859 -14.744929822863014 0 0 0 0 53.321309368045377 38.916747507381046 0 38.916747507381046 -13.034469479426662 0 0 0 0 46.572713918842055 31.894753177552047 0 31.894753177552047 -9.2161615380779267 0 0 0 0 52.632875114430135 25.798689915842942 0 25.798689915842942 -12.715837141819975 0 0 0 0 40.56904915105406 37.036909648764549 0 37.036909648764549 -3.2373853052722552 0 0 0 0 42.293811246678828 36.961603700750828 0 36.961603700750828 -3.2341176435547823 0 0 0 0 52.669794739162171 42.256570101914576 0 42.256570101914576 -5.1734208235534425 0 0 0 0 46.294712154761328 53.112497737650301 0 53.112497737650301 22.23799578989815 0 0 0 0 42.324156481328998 37.421948443666324 0 37.421948443666324 0.35033525246399222 0 0 0 0 -5.1952686969546544 8.11981931131651 0 8.11981931131651 -11.277179220659624 0 0 0 0 2.0161753685561052 64.408495519493528 0 64.408495519493528 62.554375203959538 0 0 0 0 55.047648980934355 95.91014695317881 0 95.91014695317881 44.463749099855491 0 0 0 0 -22.728658307635342 14.103514542079292 0 14.103514542079292 2.1888403960573264 0 0 0 0 6.043538132881622 19.022125859491553 0 19.022125859491553 26.163232712584232 0 0 0 0 -6.6710655964807302 37.065894209206334 0 37.065894209206334 18.805370449800478 0 0 0 0 -32.393798511698151 3.7871752606782962 0 3.7871752606782962 7.2955435688995749 0 0 0 0 -18.696016609652368 16.42103697062268 0 16.42103697062268 4.819396327571833 0 0 0 0 26.61657136265967 10.0973945251163 0 10.0973945251163 76.320260529560414 0 0 0 0 -12.265984497137651 59.909335737582779 0 59.909335737582779 69.045729859449921 0 0 0 0 59.521717609898587 46.177968813094083 0 46.177968813094083 -5.167577382156054 0 0 0 0 -10.473455872908062 71.911413307711598 0 71.911413307711598 55.057570308766003 0 0 0 0 0.44177228532571 0.3568566585258548 0 0.3568566585258548 -0.072036256686107691 0 0 0 0 78.848880141706559 60.974148501000059 0 60.974148501000059 25.207492223684312 0 0 0 0 -25.523000720016171 27.256456206680014 0 27.256456206680014 15.475000978703974 0 0 0 0 95.489076501733166 14.527218614060246 0 14.527218614060246 -32.814823961762158 0 0 0 0 -15.953737268786426 -10.754198811428978 0 -10.754198811428978 26.176295513161676 0 0 0 0 114.84178471565451 140.8316616243097 0 140.8316616243097 98.132876693081926 0 0 0 0 12.455399560710475 34.747163295341124 0 34.747163295341124 55.333924136921723 0 0 0 0 49.090544160524587 -27.717213713196088 0 -27.717213713196088 -108.41849998561247 0 0 0 0 0.4698126612845801 -0.084561911431526582 0 -0.084561911431526582 0.057751348552280035 0 0 0 0 94.062147020544217 39.577568805594638 0 39.577568805594638 -30.659238906212522 0 0 0 0 19.112315022146049 26.406909698742652 0 26.406909698742652 -14.62775229970066 0 0 0 0 4.7274361358022361 -1.6830098684189352 0 -1.6830098684189352 -23.767325484624962 0 0 0 0 1.4433590317434337 -0.26472539510726234 0 -0.26472539510726234 -0.16389194723724998 0 0 0 0 137.56021476823435 33.312259774143058 0 33.312259774143058 10.003774227636768 0 0 0 0 36.036239086301066 22.060833900470698 0 22.060833900470698 -2.2645385052742313 0 0 0 0 36.663839064081913 20.456307362160715 0 20.456307362160715 -21.480233851954836 0 0 0 0 47.463449547089112 26.838159378131877 0 26.838159378131877 -26.542664581455938 0 0 0 0 43.586296093809324 34.297300250882017 0 34.297300250882017 -14.384373548478379 0 0 0 0 47.303067385705162 38.690614736846101 0 38.690614736846101 -8.983825010689543 0 0 0 0 56.150652059207232 38.991597957882163 0 38.991597957882163 -18.334065715062934 0 0 0 0 65.513296965195877 49.247427660839094 0 49.247427660839094 -12.226549837878451 0 0 0 0 59.853160236853455 41.957193915668995 0 41.957193915668995 -20.292901116431949 0 0 0 0 85.48926705548638 27.126322402031747 0 27.126322402031747 -22.308028030944115 0 0 0 0 48.981167827763329 23.685336431466112 0 23.685336431466112 -21.57011449210404 0 0 0 0 28.968556723041729 24.87327173876929 0 24.87327173876929 -20.5823423755769 0 0 0 0 60.367682714279454 30.742529719369486 0 30.742529719369486 -25.116573551748843 0 0 0 0 50.866189479332661 8.5731727224999759 0 8.5731727224999759 -41.326097598701381 0 0 0 0 58.935623460899478 19.648428640067323 0 19.648428640067323 -32.291953501883654 0 0 0 0 58.21246008369792 12.109824239205921 0 12.109824239205921 -21.833153940412558 0 0 0 0 76.80684764095713 -2.8956196903068303 0 -2.8956196903068303 -12.655177082420778 0 0 0 0 61.3586295297373 9.3214937389107035 0 9.3214937389107035 -23.257097274523744 0 0 0 0 61.465475293096006 10.272391035040528 0 10.272391035040528 -29.420965549271386 0 0 0 0 62.43333019427746 10.040445330108014 0 10.040445330108014 -27.773903296948902 0 0 0 0 6.842202687184745 23.842517691633851 0 23.842517691633851 -10.999018062981122 0 0 0 0 9.3735908506969281 51.319395911771153 0 51.319395911771153 25.49631237140602 0 0 0 0 84.733665361362 50.933055489542767 0 50.933055489542767 -2.091804591771961 0 0 0 0 19.760176252211409 14.640149861834516 0 14.640149861834516 -17.016226843796176 0 0 0 0 -8.2701616255033059 63.959442431307593 0 63.959442431307593 48.929503200992713 0 0 0 0 -21.296209912732138 8.5222488711780215 0 8.5222488711780215 -9.1232994800839151 0 0 0 0 71.320726232393554 -33.414179762567528 0 -33.414179762567528 -30.114448086784705 0 0 0 0 95.019751459651161 14.239707476562671 0 14.239707476562671 -43.712269678490429 0 0 0 0 164.44738310820412 35.5419399602049 0 35.5419399602049 -37.19044845663575 0 0 0 0 47.751628768750379 152.93144463124418 0 152.93144463124418 183.28426807332812 0 0 0 0 167.74586999869371 -8.3386386839943043 0 -8.3386386839943043 -31.665250334646672 0 0 0 0 2.9407928814812401 1.7953947182372332 0 1.7953947182372332 1.0390152850701213 0 0 0 0 -47.446300265885839 55.637199348760078 0 55.637199348760078 451.37695612510561 0 0 0 0 262.92263826484577 118.97788189401058 0 118.97788189401058 -4.6719577055646369 0 0 0 0 104.18627521259174 60.649131371672098 0 60.649131371672098 -13.245126793428426 0 0 0 0 108.56435614610018 60.617969708594046 0 60.617969708594046 -23.621248013021841 0 0 0 0 111.37079299901916 64.517295229419233 0 64.517295229419233 -18.204966171265824 0 0 0 0 70.728578468158503 105.66408895083202 0 105.66408895083202 35.11101571763902 0 0 0 0 -1.2985267996463179 5.0965004742768256 0 5.0965004742768256 -8.724432101906805 0 0 0 0 67.961071443312676 42.105791011496869 0 42.105791011496869 16.260864848242704 0 0 0 0 13.3606385486828 -15.885367552825528 0 -15.885367552825528 64.341649184591517 0 0 0 0 55.459590196773433 86.790555741905862 0 86.790555741905862 60.111596142852555 0 0 0 0 43.386098336452051 37.79302669496456 0 37.79302669496456 40.690330360682061 0 0 0 0 28.198629286139294 20.635817644323652 0 20.635817644323652 -11.78776508242494 0 0 0 0 25.642370801245306 62.331598344790109 0 62.331598344790109 10.67856542874938 0 0 0 0 56.665910429381711 50.49837330348555 0 50.49837330348555 -15.253647545518277 0 0 0 0 68.581381786425879 71.017632116507244 0 71.017632116507244 17.769701369093809 0 0 0 0 65.282611801159874 35.593964295055656 0 35.593964295055656 8.3815192281506086 0 0 0 0 295.75696599277626 193.95041948011465 0 193.95041948011465 -103.89632424252068 0 0 0 0 122.87508116028584 65.037295234006024 0 65.037295234006024 -65.920013669981699 0 0 0 0 0.015556434039387668 4.4801474510039077 0 4.4801474510039077 -8.7603438160785885 0 0 0 0 39.591126180337596 64.71553421688111 0 64.71553421688111 57.65815154491429 0 0 0 0 104.35613666593667 109.50330386556749 0 109.50330386556749 57.866954050344702 0 0 0 0 -27.376721364675177 9.943773967684379 0 9.943773967684379 15.916252353818706 0 0 0 0 13.977925239721117 62.549380564240948 0 62.549380564240948 -2.527227736826319 0 0 0 0 -114.8970494434252 22.620521644166246 0 22.620521644166246 22.649408058213268 0 0 0 0 -46.282384565126449 19.25659429438068 0 19.25659429438068 31.596428981316905 0 0 0 0 59.089717374492466 39.016058815978141 0 39.016058815978141 7.1252905180896278 0 0 0 0 -3.2833919818968926 6.8521919370108986 0 6.8521919370108986 -10.050323417073447 0 0 0 0 72.385251205963868 86.872080936168459 0 86.872080936168459 47.947447329035242 0 0 0 0 35.093116697257756 66.00592083838842 0 66.00592083838842 18.640922004746699 0 0 0 0 19.716739954636068 49.478650190643549 0 49.478650190643549 62.296209269450046 0 0 0 0 36.145481080135141 36.81043073398115 0 36.81043073398115 50.314479134615617 0 0 0 0 33.619592737947187 47.97479637052875 0 47.97479637052875 4.4133654215751932 0 0 0 0 -19.51926049556711 16.208780263007704 0 16.208780263007704 1.4448398910813176 0 0 0 0 21.262847199712269 15.060082023110667 0 15.060082023110667 24.801400576539482 0 0 0 0 19.959236957047324 58.487409151681788 0 58.487409151681788 42.883238567508059 0 0 0 0 9.6456955096749031 18.051055159307392 0 18.051055159307392 1.4187890647792616 0 0 0 0 41.359732937407898 11.740416019075013 0 11.740416019075013 -22.127654622735974 0 0 0 0 25.541180460209489 7.1333591183767169 0 7.1333591183767169 2.7776208678651244 0 0 0 0 28.820276352475958 46.104757034763537 0 46.104757034763537 30.166178459700618 0 0 0 0 6.0572289714322007 2.2762025652835174 0 2.2762025652835174 -1.3368590867949113 0 0 0 0 21.052029326810953 14.860125238766599 0 14.860125238766599 1.3524550944470075 0 0 0 0 -14.056980290828506 20.133749959259262 0 20.133749959259262 21.841157853018146 0 0 0 0 19.129222091459269 15.089676715356767 0 15.089676715356767 -22.076712716291013 0 0 0 0 0.022852655243516651 0.25208969361523348 0 0.25208969361523348 -0.14020661267412349 0 0 0 0 13.280505369149711 17.429809825273079 0 17.429809825273079 -0.96729945558311548 0 0 0 0 16.81398020822121 10.688885101793051 0 10.688885101793051 6.893203547289886 0 0 0 0 25.677427842458201 15.305986183156051 0 15.305986183156051 -5.3709719278105013 0 0 0 0 43.84647031530767 7.9103379343133611 0 7.9103379343133611 6.1812748794404939 0 0 0 0 9.4847042352732487 3.3783461800429571 0 3.3783461800429571 -2.0095724999305222 0 0 0 0 -0.66931654241280825 0.88396259771139896 0 0.88396259771139896 -0.087671198443205867 0 0 0 0 22.203713505656197 12.056471816691783 0 12.056471816691783 10.724324155822742 0 0 0 0 3.3802492089125735 32.343315883493631 0 32.343315883493631 9.6821365192758009 0 0 0 0 39.77611807474932 22.685406338772864 0 22.685406338772864 -44.725418277750407 0 0 0 0 -44.549293091593427 88.640287124596739 0 88.640287124596739 -38.975111005323072 0 0 0 0 -59.941085593636672 -26.60356379966926 0 -26.60356379966926 -41.425270050903009 0 0 0 0 -73.503400089693969 43.944311861497042 0 43.944311861497042 -53.089427739808968 0 0 0 0 -91.944280648462154 50.411772367931974 0 50.411772367931974 64.785951806304809 0 0 0 0 -73.146407754124084 24.224053120200296 0 24.224053120200296 8.7820768405371226 0 0 0 0 -214.09764526096114 0.90623066873621339 0 0.90623066873621339 19.044998278214891 0 0 0 0 -22.856759694050595 66.069453911053714 0 66.069453911053714 111.32680408156529 0 0 0 0 -23.62587576286387 33.37817549426304 0 33.37817549426304 4.8281525635201277 0 0 0 0 116.36686981616731 75.56514780074906 0 75.56514780074906 49.821310888549476 0 0 0 0 130.69843583532929 74.935456342121654 0 74.935456342121654 81.850877400025851 0 0 0 0 -15.187926660772064 3.9448799533384857 0 3.9448799533384857 27.92187449046952 0 0 0 0 0.23481521571186548 0.57317597573871026 0 0.57317597573871026 0.83822783996510775 0 0 0 0 -11.359974238212089 14.704946119813435 0 14.704946119813435 -22.419293704769842 0 0 0 0 -56.945316823432222 7.120596380644713 0 7.120596380644713 21.7655150924965 0 0 0 0 -52.472243449705275 -9.478510821711879 0 -9.478510821711879 -2.9950325043053709 0 0 0 0 -36.047732453509525 -0.77896135427104696 0 -0.77896135427104696 1.6041823914231088 0 0 0 0 42.950926244427137 16.021074734964202 0 16.021074734964202 5.8721974364414109 0 0 0 0 0.29088115155675709 1.1632169493050029 0 1.1632169493050029 2.7507101618020382 0 0 0 0 19.260374072069681 9.5598136889682337 0 9.5598136889682337 5.1257790638561573 0 0 0 0 -41.827614394214606 -1.5198982436879067 0 -1.5198982436879067 3.8810236818586077 0 0 0 0 4.1095910340554838 23.144878711064678 0 23.144878711064678 10.049748371401847 0 0 0 0 2.7427841738126517 23.565271651096111 0 23.565271651096111 14.700998925939075 0 0 0 0 18.320586477042525 22.70234890435006 0 22.70234890435006 18.809015639661766 0 0 0 0 14.243881715028692 18.746463102795019 0 18.746463102795019 15.191467386619379 0 0 0 0 6.1164246517837455 29.123080935324253 0 29.123080935324253 17.393190353326986 0 0 0 0 12.167826599326872 33.806631344626489 0 33.806631344626489 30.548256415202729 0 0 0 0 -6.5835682441338577 22.267203745677364 0 22.267203745677364 24.060014552219513 0 0 0 0 21.9890150586034 17.359892744718721 0 17.359892744718721 18.575945693299445 0 0 0 0 -51.11018150018208 9.5696997559172843 0 9.5696997559172843 102.1067626765921 0 0 0 0 -8.7515321293758461 5.9807086513371104 0 5.9807086513371104 34.227083303224198 0 0 0 0 -9.2293786362533865 11.160623208089675 0 11.160623208089675 10.103582333591451 0 0 0 0 -7.1734699513344822 21.96881449982962 0 21.96881449982962 12.411351320313798 0 0 0 0 -6.4766582369902608 20.862050228656358 0 20.862050228656358 13.743564634263294 0 0 0 0 4.4977827412221814 23.683213060647027 0 23.683213060647027 2.4687177389925523 0 0 0 0 0.00115663446013059 23.866280124459593 0 23.866280124459593 10.889813064237188 0 0 0 0 -7.2318087385410763 22.032235406252596 0 22.032235406252596 12.675755473339109 0 0 0 0 -6.2303298836250178 20.88200166796463 0 20.88200166796463 4.9017672464441375 0 0 0 0 -0.0012737196229863912 24.687222176945852 0 24.687222176945852 7.0033871433790864 0 0 0 0 -7.2008824716604067 26.769075819505034 0 26.769075819505034 11.434912676885915 0 0 0 0 -6.73077789078161 27.976425249927757 0 27.976425249927757 5.4125564153463301 0 0 0 0 -0.0087019433394743828 28.173369476601806 0 28.173369476601806 3.9592431812634459 0 0 0 0 -8.3237419743327337 23.859602416307212 0 23.859602416307212 18.058995926237685 0 0 0 0 -8.4456221112995991 25.157844857148689 0 25.157844857148689 10.134245673452256 0 0 0 0 -6.9449173546927341 28.224452171086341 0 28.224452171086341 8.0984031096481885 0 0 0 0 -7.7932893191591575 24.756083642433964 0 24.756083642433964 16.967520536736856 0 0 0 0 -8.8416562119600712 29.263876817178584 0 29.263876817178584 13.293552411477435 0 0 0 0 -8.7900772184566449 30.833190885173053 0 30.833190885173053 8.3941658809759332 0 0 0 0 -13.035108962408231 35.567059855559933 0 35.567059855559933 3.1364959886307133 0 0 0 0 0.0056859095057006925 31.280550998647982 0 31.280550998647982 -5.8556094437793718 0 0 0 0 -6.1806823823669674 35.075417146097976 0 35.075417146097976 -2.4594829863171981 0 0 0 0 7.7560028213338228 27.380116029923784 0 27.380116029923784 -3.9254496947532971 0 0 0 0 0.014225043161786743 27.193181096227136 0 27.193181096227136 -2.294402559268292 0 0 0 0 -39.775857294132948 35.740909073987041 0 35.740909073987041 3.5201476027478122 0 0 0 0 -26.9992271606543 15.036013677437893 0 15.036013677437893 -11.896147718031898 0 0 0 0 -4.2675147206050497 52.402209335878126 0 52.402209335878126 -23.19730141393029 0 0 0 0 38.131521311349388 25.095690567965789 0 25.095690567965789 -19.948983766925949 0 0 0 0 -45.540367288862399 46.821172747480659 0 46.821172747480659 -30.083788522556461 0 0 0 0 -28.880510247978236 22.278174157474496 0 22.278174157474496 -0.50664918656184454 0 0 0 0 -26.969467381095455 19.15710371135242 0 19.15710371135242 1.4290162246838918 0 0 0 0 -7.5905343454196554 11.529319610421908 0 11.529319610421908 -7.5375347332396814 0 0 0 0 -8.2419325070254672 10.137504479481834 0 10.137504479481834 1.0521217358182184 0 0 0 0 -26.409364033464954 22.993369903094845 0 22.993369903094845 -3.9393768260825937 0 0 0 0 -11.699432238882764 16.499202953389954 0 16.499202953389954 -5.2306612434385897 0 0 0 0 -10.194842619755491 10.005075667594895 0 10.005075667594895 5.2292355847803265 0 0 0 0 7.0854264242370846 9.113593808995347 0 9.113593808995347 -5.9441193051161463 0 0 0 0 8.3791575853811082 17.295908624270169 0 17.295908624270169 -0.058518032677966403 0 0 0 0 23.105670767654374 49.235589191258441 0 49.235589191258441 3.4973651542231892 0 0 0 0 -4.3883072403596231 9.634697654585624 0 9.634697654585624 -6.8988509822046726 0 0 0 0 14.56385371991928 61.335785653855055 0 61.335785653855055 30.94452548181107 0 0 0 0 -22.672001091154016 7.7315256756756128 0 7.7315256756756128 28.021862199182578 0 0 0 0 -21.951616234771791 26.825183637186456 0 26.825183637186456 72.549377233913219 0 0 0 0 2.9836178953755734 49.812090525112566 0 49.812090525112566 12.820624667660582 0 0 0 0 -5.2087372014326672 18.163614055495611 0 18.163614055495611 22.127329371375058 0 0 0 0 0.97346774775360245 11.160798037879204 0 11.160798037879204 -2.1172782319370071 0 0 0 0 1.0274623324221466 10.449266414516842 0 10.449266414516842 3.7202697354565544 0 0 0 0 0.71993059899796208 7.6772553065036391 0 7.6772553065036391 3.5690686175785231 0 0 0 0 1.5253424772818107 7.5404880774567573 0 7.5404880774567573 -0.57485098439531157 0 0 0 0 -0.005619158338959096 8.7688280044798148 0 8.7688280044798148 1.9897802338446127 0 0 0 0 -4.301350859704975 3.0314367163170672 0 3.0314367163170672 6.2105027804217166 0 0 0 0 -31.896713576903494 24.031645405683378 0 24.031645405683378 8.6940240936551731 0 0 0 0 0.8756760568581079 1.581898575635158 0 1.581898575635158 4.6644379063702086 0 0 0 0 -52.985954526702699 11.276594977538622 0 11.276594977538622 17.01907761064831 0 0 0 0 3.9285399736581894 11.050634442554156 0 11.050634442554156 5.6524381809548458 0 0 0 0 12.218421311711609 5.0074574763214628 0 5.0074574763214628 3.2675320121793447 0 0 0 0 6.3194252257890184 11.48660864728356 0 11.48660864728356 3.7482199126338855 0 0 0 0 -18.028157443600776 18.270556620872242 0 18.270556620872242 8.1342354367434382 0 0 0 0 -7.5573511691800377 23.826985109264115 0 23.826985109264115 10.032782466777775 0 0 0 0 -4.5450149078969844 17.024483354399081 0 17.024483354399081 0.81548224977274231 0 0 0 0 -8.5450370243543148 14.943939967811957 0 14.943939967811957 3.0997999766643716 0 0 0 0 3.7136490918267668 42.542083607378117 0 42.542083607378117 -29.372275392230222 0 0 0 0 40.327374616473961 19.336289783741449 0 19.336289783741449 -17.976789667119647 0 0 0 0 -12.481319462232108 38.468577315290077 0 38.468577315290077 -2.5533109179818894 0 0 0 0 -35.246441282331588 70.83925136707694 0 70.83925136707694 -28.80561987951387 0 0 0 0 -41.468839549774671 71.369885527777114 0 71.369885527777114 -14.492300131651973 0 0 0 0 -23.972044646910547 41.966185414236861 0 41.966185414236861 13.465540858025179 0 0 0 0 36.235725913134942 23.081918530568146 0 23.081918530568146 8.818754036043174 0 0 0 0 78.348877632172474 36.216823222560379 0 36.216823222560379 9.0488280269755705 0 0 0 0 72.377977243859121 59.957953433473449 0 59.957953433473449 -2.4862465312694439 0 0 0 0 -0.19375040152320996 0.64909732533022613 0 0.64909732533022613 -0.79997617661090814 0 0 0 0 64.771925991856008 30.086545858012187 0 30.086545858012187 15.259433553761482 0 0 0 0 58.6659247760592 41.67691189924335 0 41.67691189924335 11.091629850849131 0 0 0 0 57.63704077232061 41.234283597796548 0 41.234283597796548 14.916899213655654 0 0 0 0 -0.16195862142324668 0.60015021283794567 0 0.60015021283794567 -0.86421268362654757 0 0 0 0 85.657708620672352 31.266254299911679 0 31.266254299911679 -14.462308849421788 0 0 0 0 39.335690801736412 27.059959882192743 0 27.059959882192743 21.958797986967966 0 0 0 0 39.630438501361567 7.3088306470081079 0 7.3088306470081079 -0.54123126217473327 0 0 0 0 44.32144068475327 19.384219982314789 0 19.384219982314789 -64.743219548577144 0 0 0 0 61.462507167458966 -7.1139171499521581 0 -7.1139171499521581 -49.201442352944468 0 0 0 0 -0.099653114824271971 0.28917771966862826 0 0.28917771966862826 -0.3397214929155794 0 0 0 0 55.645684280147599 1.5112055901449821 0 1.5112055901449821 -47.88943109509546 0 0 0 0 36.201756587781638 6.2273009552168332 0 6.2273009552168332 -47.594222226413876 0 0 0 0 45.068603586778977 -1.3256229058415556 0 -1.3256229058415556 -42.430668612243949 0 0 0 0 47.306118142255578 13.051684894040136 0 13.051684894040136 -44.293486096937045 0 0 0 0 28.762144246515717 4.929254681508155 0 4.929254681508155 -30.693287253106064 0 0 0 0 7.7975144592398919 27.06632176607809 0 27.06632176607809 -51.115317737250734 0 0 0 0 13.511212355256362 10.304214757982209 0 10.304214757982209 -49.168264501355225 0 0 0 0 33.920743676531401 1.6125648654115139 0 1.6125648654115139 -56.859690205686093 0 0 0 0 16.69228920937087 12.109933780317988 0 12.109933780317988 -81.493593563226113 0 0 0 0 -12.634095652534199 35.11193063403698 0 35.11193063403698 -65.700025104296856 0 0 0 0 -35.582591973193615 26.519169347704519 0 26.519169347704519 -83.816246323244741 0 0 0 0 -7.7330393724641908 43.407567266303886 0 43.407567266303886 -112.03414195457208 0 0 0 0 -26.20496111384314 66.448316195969369 0 66.448316195969369 -89.368153562580119 0 0 0 0 -48.068442336593137 67.709538352899472 0 67.709538352899472 -77.357897574991512 0 0 0 0 -28.771420906863227 56.799009054554517 0 56.799009054554517 -43.669499483105028 0 0 0 0 10.682271600913623 28.76811278523428 0 28.76811278523428 -72.660322819512658 0 0 0 0 -68.230006746607671 93.707977612495597 0 93.707977612495597 -163.89109168001232 0 0 0 0 -103.00705769448956 114.44882335366765 0 114.44882335366765 -165.84326549983962 0 0 0 0 -113.82233289757602 90.15884695845034 0 90.15884695845034 -134.69095209923034 0 0 0 0 -150.46517424348301 115.60068588162176 0 115.60068588162176 -140.40351787677537 0 0 0 0 -69.462539464033284 51.599224308997691 0 51.599224308997691 -112.71387472593142 0 0 0 0 -35.38448662483205 33.250878564714185 0 33.250878564714185 -138.1860037932488 0 0 0 0 -76.083207644680783 61.411443214117753 0 61.411443214117753 -126.77165004939434 0 0 0 0 -46.079592976188849 49.139334265494199 0 49.139334265494199 -161.41436387455269 0 0 0 0 -48.569533650688328 62.992557018256775 0 62.992557018256775 -109.37042855292566 0 0 0 0 -72.506866025143154 87.618398002995036 0 87.618398002995036 -128.41747606119134 0 0 0 0 -97.073772653737393 68.423678348353405 0 68.423678348353405 -125.75614958612459 0 0 0 0 -176.74393165803139 69.874093213103151 0 69.874093213103151 -164.26687249258282 0 0 0 0 -134.92390962130588 108.57296297460152 0 108.57296297460152 -134.55025493295761 0 0 0 0 -184.51941576387662 129.27342946241606 0 129.27342946241606 -69.067967902554301 0 0 0 0 -177.24038532351733 158.96432657243213 0 158.96432657243213 -173.88504050653864 0 0 0 0 -113.44649785922206 121.19381444847841 0 121.19381444847841 -122.71345043072915 0 0 0 0 -132.92881077042267 101.11706271325374 0 101.11706271325374 -101.8533224519324 0 0 0 0 -83.693925822839105 106.8834766877244 0 106.8834766877244 -87.010148334552241 0 0 0 0 -92.870417374383976 91.33626937571762 0 91.33626937571762 -82.665768783163003 0 0 0 0 -78.531828537290181 107.48380805115585 0 107.48380805115585 -95.062503813016519 0 0 0 0 -123.88890011649454 100.07732497751795 0 100.07732497751795 -55.780845412478811 0 0 0 0 -83.626746940390504 105.20081670586376 0 105.20081670586376 -59.079886522997185 0 0 0 0 -123.74586597846076 92.757063493291795 0 92.757063493291795 -48.762719715883577 0 0 0 0 -141.79523121269403 85.369108465265526 0 85.369108465265526 -40.064516681557052 0 0 0 0 -21.763643440496224 66.891324090294802 0 66.891324090294802 -59.657033156130638 0 0 0 0 -57.512599207624191 90.52687636927476 0 90.52687636927476 -51.950356265000664 0 0 0 0 -56.928016797538419 92.017149608137515 0 92.017149608137515 -86.134838032021435 0 0 0 0 -65.25899028368184 108.13857598560844 0 108.13857598560844 -66.455618920274901 0 0 0 0 -65.061798273901616 112.4012005408722 0 112.4012005408722 -25.946561765306797 0 0 0 0 -55.95741769181663 78.407026767018124 0 78.407026767018124 -14.930507192540063 0 0 0 0 -53.66089244019193 95.692872585940677 0 95.692872585940677 -61.298130829781257 0 0 0 0 -82.217475913493047 98.494398407435696 0 98.494398407435696 -6.6107214292160279 0 0 0 0 -81.547007512186397 124.2862110491547 0 124.2862110491547 -31.560424623534345 0 0 0 0 -64.068282326915082 129.56385146865955 0 129.56385146865955 -52.593704736291329 0 0 0 0 -66.686786471814628 139.15904112883163 0 139.15904112883163 -17.298147337286537 0 0 0 0 -131.07021093556779 146.40198573294037 0 146.40198573294037 -17.78875980187172 0 0 0 0 -60.507711961994062 182.21673051322455 0 182.21673051322455 -19.807083801770204 0 0 0 0 -27.047811550585521 139.85075265899764 0 139.85075265899764 -49.97004037215811 0 0 0 0 -131.41668778228041 111.49572697908388 0 111.49572697908388 -14.913225382337714 0 0 0 0 -112.8722165398174 100.9377871621549 0 100.9377871621549 -8.9248971448614611 0 0 0 0 -128.90248506522209 83.520546208291307 0 83.520546208291307 -40.669918321870682 0 0 0 0 -1.3946986526750607 2.3499086722254106 0 2.3499086722254106 -45.045813866727258 0 0 0 0 0.016987409131708597 -0.1817293488907179 0 -0.1817293488907179 -1.0036343765613225 0 0 0 0 -60.728166456006932 88.523853674044403 0 88.523853674044403 -64.159002580964625 0 0 0 0 -117.27784071059401 52.128703572917516 0 52.128703572917516 -72.217586905051576 0 0 0 0 -63.95076821022036 123.75761462049104 0 123.75761462049104 -44.854832191853347 0 0 0 0 92.768895442124744 85.724220478311508 0 85.724220478311508 -104.84850147712496 0 0 0 0 2.7050282650082522 194.50649811271705 0 194.50649811271705 48.314217890429063 0 0 0 0 -53.116416097608351 -25.832672702228137 0 -25.832672702228137 89.979569731568517 0 0 0 0 12.078770878929845 -14.585216475482866 0 -14.585216475482866 -45.834853235666742 0 0 0 0 38.029590785850587 98.87159481202707 0 98.87159481202707 108.54534098809779 0 0 0 0 61.640878501850693 86.625143676742937 0 86.625143676742937 13.241582216197457 0 0 0 0 -12.271946664828647 35.350765546736056 0 35.350765546736056 35.290120260725416 0 0 0 0 129.18830272221118 104.83120340608957 0 104.83120340608957 28.261899702844858 0 0 0 0 63.1495369582085 80.838511343366008 0 80.838511343366008 19.689351628319855 0 0 0 0 113.40283002525447 22.567401464798365 0 22.567401464798365 -3.0637289054348003 0 0 0 0 1.784414507387281 0.80233873573465075 0 0.80233873573465075 0.1851428262318322 0 0 0 0 -49.469801070586414 76.555963606614569 0 76.555963606614569 72.248758428924475 0 0 0 0 48.010815745663422 20.279938955368834 0 20.279938955368834 10.641924785755691 0 0 0 0 6.688339804431223 -16.105821003408437 0 -16.105821003408437 2.1546659851328513 0 0 0 0 13.776767468535127 55.807464336656722 0 55.807464336656722 132.35135711712337 0 0 0 0 2.1664081878956267 21.507833611656679 0 21.507833611656679 35.419364949846567 0 0 0 0 31.849052071904055 53.790465997219144 0 53.790465997219144 57.422189481325404 0 0 0 0 -111.06488641728549 168.56616962258659 0 168.56616962258659 -125.42822970131783 0 0 0 0 -239.8206755822406 60.192493552106043 0 60.192493552106043 -38.395174040151687 0 0 0 0 -46.14184513941359 84.743663769616433 0 84.743663769616433 -22.733418280225095 0 0 0 0 -6.4788399464574695 8.8947450305631719 0 8.8947450305631719 5.2938207656025043 0 0 0 0 -3.4335100732915862 12.283217415269291 0 12.283217415269291 -1.6558960314923752 0 0 0 0 2.5717284204297162 3.4503789720704692 0 3.4503789720704692 1.4312177513714595 0 0 0 0 -154.60803108636617 99.597336434491353 0 99.597336434491353 -46.237262965167702 0 0 0 0 0.13114153113178872 3.1168561244721786 0 3.1168561244721786 -118.39379507193357 0 0 0 0 -294.37707903715443 136.89899785411876 0 136.89899785411876 -54.851611639604926 0 0 0 0 -0.61817118700776452 1.3336584096201838 0 1.3336584096201838 -0.38172917125821471 0 0 0 0 -123.43207671129892 137.82483688893899 0 137.82483688893899 -105.55655891644665 0 0 0 0 -80.034067185815502 92.559506459066142 0 92.559506459066142 -101.34599676892765 0 0 0 0 -104.95674116488334 62.015401791779823 0 62.015401791779823 -86.036449164120313 0 0 0 0 -82.501319440082312 92.836712446001002 0 92.836712446001002 -65.598611838481702 0 0 0 0 -8.9711578761064104 79.391854326589964 0 79.391854326589964 -108.4159579905172 0 0 0 0 -23.146254069046854 83.020908678994601 0 83.020908678994601 -83.05548396514223 0 0 0 0 -69.930052780425171 68.008225640948694 0 68.008225640948694 -28.020003879393698 0 0 0 0 -18.488516316758179 101.63814614889566 0 101.63814614889566 -9.1902115787652292 0 0 0 0 -121.24791259940093 107.3336574359455 0 107.3336574359455 -68.257674345558371 0 0 0 0 -114.8598464956811 130.35126858748436 0 130.35126858748436 -229.28733814700081 0 0 0 0 -68.768964269278001 81.382190451611677 0 81.382190451611677 -110.96454036229261 0 0 0 0 -65.435444878449943 77.581494752442268 0 77.581494752442268 -23.297024998882989 0 0 0 0 -134.79493790434003 44.935403005417953 0 44.935403005417953 -34.709128634427543 0 0 0 0 -25.799639286412244 65.74343189303363 0 65.74343189303363 -53.915503497289137 0 0 0 0 -15.414415940507482 36.223986298463615 0 36.223986298463615 -7.820314386721293 0 0 0 0 -59.159930198053388 39.288515692851433 0 39.288515692851433 -25.588960910883543 0 0 0 0 -47.749599624100156 65.440474746180371 0 65.440474746180371 15.295015540403256 0 0 0 0 -0.30393416691102004 73.765687647303366 0 73.765687647303366 -10.854648626592279 0 0 0 0 -52.21981127455112 55.752312852283467 0 55.752312852283467 -5.7017387090977536 0 0 0 0 -83.972669042349892 104.18580094051367 0 104.18580094051367 -13.078629038123836 0 0 0 0 70.279066518757858 47.664528519128083 0 47.664528519128083 21.244469227543959 0 0 0 0 69.67362453981643 35.36988352295738 0 35.36988352295738 11.150573360460839 0 0 0 0 -0.192871926557796 0.39752011749476246 0 0.39752011749476246 -0.21028317779799721 0 0 0 0 90.244137821488991 49.498335739388494 0 49.498335739388494 19.19005474505002 0 0 0 0 69.082390210083133 10.503681740126922 0 10.503681740126922 -1.4381239380927582 0 0 0 0 0.34051502663441191 -0.37816497651902559 0 -0.37816497651902559 0.62808215745775442 0 0 0 0 110.07131165188895 143.81566257286249 0 143.81566257286249 106.01926074199127 0 0 0 0 146.91233138817154 110.2908414221838 0 110.2908414221838 -55.102684400697854 0 0 0 0 2.6048717306909728 -1.5546294826725902 0 -1.5546294826725902 -2.478607383415973 0 0 0 0 67.156468755899667 47.210169476512192 0 47.210169476512192 27.009171692538075 0 0 0 0 69.894707448897691 39.768308786743546 0 39.768308786743546 39.360802160450476 0 0 0 0 0.43886890147336999 41.768310805520059 0 41.768310805520059 -51.080927066055665 0 0 0 0 7.7601072476512094 -15.332130027898245 0 -15.332130027898245 -123.3100502288853 0 0 0 0 4.8453162525206608 -3.6209881237853665 0 -3.6209881237853665 -40.844964907653775 0 0 0 0 80.657964222233318 77.288816001256691 0 77.288816001256691 -98.893057825413962 0 0 0 0 56.607248407609632 27.399125250236466 0 27.399125250236466 -98.482840238206336 0 0 0 0 46.054381410539975 43.856754202419779 0 43.856754202419779 -116.27026030017259 0 0 0 0 -14.213382349032898 60.273053622298562 0 60.273053622298562 -99.285876632708096 0 0 0 0 11.15544175783964 49.188541668621838 0 49.188541668621838 -97.485607499113939 0 0 0 0 49.50387336480577 65.22475189613715 0 65.22475189613715 -91.537743019364143 0 0 0 0 -46.30595458686139 68.333264072551401 0 68.333264072551401 -52.602988144163646 0 0 0 0 0.23257102599440466 0.55090288396330922 0 0.55090288396330922 -10.852349153693178 0 0 0 0 9.6084912841549226 11.008133184661801 0 11.008133184661801 -15.572254011647487 0 0 0 0 25.93004817800454 13.161222244742589 0 13.161222244742589 -8.9205835817865591 0 0 0 0 35.328855810245955 12.356001006374072 0 12.356001006374072 -16.073073389814112 0 0 0 0 11.499905809978941 18.628599332443173 0 18.628599332443173 -10.170082989403909 0 0 0 0 27.671017800722126 21.701878517831574 0 21.701878517831574 -15.24571732057575 0 0 0 0 -3.8484220197009051 30.791980524025348 0 30.791980524025348 3.7191325809599221 0 0 0 0 24.825991969581054 21.523378495222232 0 21.523378495222232 -23.656330807078348 0 0 0 0 2.9937850991581172 12.226808751578801 0 12.226808751578801 -18.142752245952124 0 0 0 0 21.08376551208454 23.871070910441802 0 23.871070910441802 -10.03341588949479 0 0 0 0 -0.32973954558708884 0.15626647462190313 0 0.15626647462190313 0.63843524289009856 0 0 0 0 -16.864472231789932 12.99969920715057 0 12.99969920715057 2.3085832282338288 0 0 0 0 0.50399090751329823 25.301000085155465 0 25.301000085155465 2.2372649797557642 0 0 0 0 14.815018891295395 24.646880245301986 0 24.646880245301986 -13.473648626610384 0 0 0 0 13.975571639514271 2.9926248694283686 0 2.9926248694283686 -23.868271172030632 0 0 0 0 -1.0791315808074842 10.641842558500684 0 10.641842558500684 -0.63428511378447183 0 0 0 0 0.16627338058424357 -2.1527798483639344 0 -2.1527798483639344 -24.587858658119103 0 0 0 0 1.0754810688611876 7.4925046233846544 0 7.4925046233846544 -12.170677172292329 0 0 0 0 17.722525661126383 21.258946579294388 0 21.258946579294388 5.2291923584798496 0 0 0 0 -4.0779114564943342 33.720196910998084 0 33.720196910998084 39.427278267074144 0 0 0 0 56.564948839298097 45.482861412380771 0 45.482861412380771 26.73469092149935 0 0 0 0 1.0578774874099763 3.5007091290985257 0 3.5007091290985257 -0.92954654437750861 0 0 0 0 7.5040243890064176 1.8998134857129116 0 1.8998134857129116 -34.422256934071811 0 0 0 0 4.8948581037910088 11.552134367351272 0 11.552134367351272 -11.099099810523512 0 0 0 0 1.2295875940307373 0.734780188545894 0 0.734780188545894 -16.463356815781037 0 0 0 0 52.860313616372196 64.990675778320679 0 64.990675778320679 31.330893521306052 0 0 0 0 28.408847990021741 13.783389376722539 0 13.783389376722539 8.2349765541420084 0 0 0 0 59.629383507322018 70.829955006856608 0 70.829955006856608 43.442630378820581 0 0 0 0 23.360539298527783 23.458956728051078 0 23.458956728051078 -10.058821375660955 0 0 0 0 -13.190665372037984 16.663217661586145 0 16.663217661586145 -7.856676643105402 0 0 0 0 1.0710417831396626 -5.2001599916834493 0 -5.2001599916834493 13.720426924257254 0 0 0 0 60.451285642833454 23.324891793729648 0 23.324891793729648 -26.61283149861174 0 0 0 0 -21.004526422235017 30.861241989155587 0 30.861241989155587 -4.7597288021805753 0 0 0 0 -7.9779976663653542 24.410084320814349 0 24.410084320814349 -6.0428197961088017 0 0 0 0 -0.23287222890187387 0.37913202781444522 0 0.37913202781444522 0.95363953769664889 0 0 0 0 -12.124204394628293 6.8536969931103613 0 6.8536969931103613 -2.0334663339870076 0 0 0 0 -9.1591350790440629 14.12127592596778 0 14.12127592596778 -10.466569500608784 0 0 0 0 -1.1326116936993458 25.253458816156808 0 25.253458816156808 -11.245556130927014 0 0 0 0 -8.6793661110933726 14.311025736374404 0 14.311025736374404 -15.053312137300964 0 0 0 0 3.0970573759195759 10.525883831799206 0 10.525883831799206 -21.84413820241889 0 0 0 0 -8.6819404254360961 11.315038833392919 0 11.315038833392919 -19.398462165953333 0 0 0 0 -12.015278527735063 25.167692875055081 0 25.167692875055081 -30.889374449054003 0 0 0 0 -7.4469471530051123 4.1129609419465396 0 4.1129609419465396 -5.5412127837914795 0 0 0 0 1.4242902576782512 13.507690395691952 0 13.507690395691952 -9.3317562392812761 0 0 0 0 9.164931243314868 10.626811910812307 0 10.626811910812307 -36.154921948754577 0 0 0 0 8.4147517756427401 4.3400269208334858 0 4.3400269208334858 2.5149981949115023 0 0 0 0 9.2572478477077311 48.40949933314937 0 48.40949933314937 -45.730293432054623 0 0 0 0 11.058053824649278 40.457805138132471 0 40.457805138132471 -39.470716679770021 0 0 0 0 -18.868335280067186 17.569543333338515 0 17.569543333338515 8.5002076282617054 0 0 0 0 -15.927326046359667 20.687076141431135 0 20.687076141431135 2.8355694629208017 0 0 0 0 6.6494937288869345 38.998075037188237 0 38.998075037188237 4.0053581131496685 0 0 0 0 -13.386659978344596 20.544989226538974 0 20.544989226538974 -12.593433031751601 0 0 0 0 -5.837368377265193 31.407455714277603 0 31.407455714277603 -15.061631171776753 0 0 0 0 10.738678273333088 8.2959529209317573 0 8.2959529209317573 2.3816211534175751 0 0 0 0 5.8958397575422623 24.252362012459685 0 24.252362012459685 -40.82643119673844 0 0 0 0 -11.340180316654369 29.651088150279065 0 29.651088150279065 -8.7984714188960425 0 0 0 0 -8.0008713575152797 24.230135917113785 0 24.230135917113785 -1.1249245399521897 0 0 0 0 -13.744993325864925 15.943965436531471 0 15.943965436531471 -3.5415995076227773 0 0 0 0 -6.3405985244626208 19.87584987887476 0 19.87584987887476 -1.9530690011396246 0 0 0 0 -0.96819675081263101 14.078539988006437 0 14.078539988006437 -9.9240431326258616 0 0 0 0 31.072590238081887 77.37673684172978 0 77.37673684172978 17.301196400003391 0 0 0 0 4.2705750892400829 20.49635461584171 0 20.49635461584171 -10.880491299563801 0 0 0 0 0.1662202505398227 8.9201597137589488 0 8.9201597137589488 -8.0312900025137424 0 0 0 0 -2.8027082221396995 12.059478869425675 0 12.059478869425675 -8.7145487148627581 0 0 0 0 -1.9273992791131604 26.091848428232879 0 26.091848428232879 -13.145984169816074 0 0 0 0 1.2407245983345092 20.489704186286644 0 20.489704186286644 -42.130952793081633 0 0 0 0 -25.067422689869915 35.660967281697694 0 35.660967281697694 -13.633239933425102 0 0 0 0 0.34248590065462409 4.1819456713009089 0 4.1819456713009089 0.71404656068332528 0 0 0 0 -1.0003424359324526 25.795619843081909 0 25.795619843081909 -15.109438954278318 0 0 0 0 -9.2764171740856227 22.918199778261624 0 22.918199778261624 -8.7794914830257653 0 0 0 0 -5.9607509286831579 21.441603747436893 0 21.441603747436893 -14.202824865442835 0 0 0 0 -5.9357795858848021 22.239785746487314 0 22.239785746487314 -31.69416245477214 0 0 0 0 0.16622025054061851 8.9201597137557656 0 8.9201597137557656 -8.0312900025237468 0 0 0 0 0.16622025053834477 8.9201597137612225 0 8.9201597137612225 -8.0312900025219278 0 0 0 0 -2.6449100781154078 1.9770044344854671 0 1.9770044344854671 1.322760133157864 0 0 0 0 -3.9032357105806534 9.3495365846179777 0 9.3495365846179777 5.7067742311804697 0 0 0 0 -77.516131872162077 -30.641447160029202 0 -30.641447160029202 19.932412628837483 0 0 0 0 -4.438874996912773 2.9655237850674894 0 2.9655237850674894 -21.018568189958387 0 0 0 0 0.27717877810979985 2.8453702149736273 0 2.8453702149736273 -49.040915689894973 0 0 0 0 -9.9134898133399929 38.382252873416292 0 38.382252873416292 -47.318383527810511 0 0 0 0 0.08212698219278991 25.191660341210081 0 25.191660341210081 -31.725534811095713 0 0 0 0 3.3648827216832871 38.684596252331289 0 38.684596252331289 -2.8627117525811627 0 0 0 0 4.6557792472910933 34.856673985697853 0 34.856673985697853 -8.7380986028497318 0 0 0 0 -7.6410099559983564 38.295063928576383 0 38.295063928576383 -9.1047764380091394 0 0 0 0 -2.5455288995044416 12.360874583450594 0 12.360874583450594 -12.401347583508308 0 0 0 0 0.63813038862303983 34.00814443694253 0 34.00814443694253 -4.7714499139347026 0 0 0 0 0.36744521814512154 26.670099665166163 0 26.670099665166163 -27.981892086911103 0 0 0 0 57.814132212609024 -25.441749189741586 0 -25.441749189741586 -78.408283574517554 0 0 0 0 -6.5765422065526309 14.308550537668111 0 14.308550537668111 -12.682089693518719 0 0 0 0 -4.0802621909273284 26.284920250828691 0 26.284920250828691 9.4902910417858948 0 0 0 0 -167.47836769005039 -297.32238650467298 0 -297.32238650467298 -236.71254095008771 0 0 0 0 -8.0996238322059071 12.556758856168926 0 12.556758856168926 -7.5843847391083727 0 0 0 0 -62.255913587688838 26.248624818437747 0 26.248624818437747 -27.852876364395115 0 0 0 0 -246.6777308512701 148.52953106613677 0 148.52953106613677 255.59362002507987 0 0 0 0 -5.5615918316871102 11.839426224759336 0 11.839426224759336 -7.4681035351077298 0 0 0 0 -15.136370009142865 13.698920396314634 0 13.698920396314634 -5.529243132485135 0 0 0 0 -5.5331714679011696 14.78726538891782 0 14.78726538891782 -8.081144607753231 0 0 0 0 -14.949428422169603 15.225706762600566 0 15.225706762600566 -6.3853899791938602 0 0 0 0 -12.311094843204955 11.655329546299072 0 11.655329546299072 -11.223095501893113 0 0 0 0 -8.615658490349233 15.310741309174773 0 15.310741309174773 -8.0086652883319402 0 0 0 0 -6.7708720126447588 13.685130107996883 0 13.685130107996883 -14.675959993341166 0 0 0 0 -17.319428588186383 11.249485607711904 0 11.249485607711904 -10.549768380599744 0 0 0 0 -26.749967972893273 20.200773419834945 0 20.200773419834945 -3.7473479565005618 0 0 0 0 0.83409941434508639 0.27641116747927441 0 0.27641116747927441 0.14737251376415728 0 0 0 0 -20.362972078736675 22.780554458255665 0 22.780554458255665 -17.491181650519934 0 0 0 0 -13.528079055749913 10.805525715978547 0 10.805525715978547 -19.332406035147073 0 0 0 0 -22.518427185943096 7.0018463285797452 0 7.0018463285797452 -7.9319774675223016 0 0 0 0 21.776455638696703 45.191609266504884 0 45.191609266504884 18.276861614088375 0 0 0 0 23.593624325281326 46.649346140513444 0 46.649346140513444 16.155504043929341 0 0 0 0 57.019665028999512 39.244699135751944 0 39.244699135751944 9.5028089246407035 0 0 0 0 41.910142999287359 31.385843225705685 0 31.385843225705685 12.866502909936571 0 0 0 0 29.260642254962136 41.48381130882035 0 41.48381130882035 17.356632057068055 0 0 0 0 45.618068555980358 34.813878550010486 0 34.813878550010486 16.182168222516339 0 0 0 0 46.509461288164985 38.280672347181735 0 38.280672347181735 6.1264390100714081 0 0 0 0 26.984198434981124 34.086797584111991 0 34.086797584111991 7.1631819039325819 0 0 0 0 11.691271508561762 38.462885843785784 0 38.462885843785784 15.689923470261419 0 0 0 0 17.246214619518497 17.76116174435225 0 17.76116174435225 -12.940143332416483 0 0 0 0 -0.77515930049045956 9.2399746007576375 0 9.2399746007576375 -11.899103693134249 0 0 0 0 -1.4379253614909713 20.074518222533417 0 20.074518222533417 -14.914073738617162 0 0 0 0 7.6618829924065039 19.472206977784424 0 19.472206977784424 -15.615398304242262 0 0 0 0 15.249859331411244 4.7635278453349201 0 4.7635278453349201 -14.37027385467718 0 0 0 0 0.069206346011232212 1.1901524736130344 0 1.1901524736130344 -2.4260729412598678 0 0 0 0 -3.1456579878034354 11.437337943882827 0 11.437337943882827 -10.114158894115516 0 0 0 0 31.498080034557745 40.508924759566071 0 40.508924759566071 -0.76118847568386627 0 0 0 0 1.9124837164435462 19.799997858479401 0 19.799997858479401 22.628121671704321 0 0 0 0 32.943570827252699 51.916720427706878 0 51.916720427706878 -0.29096215135814418 0 0 0 0 15.081209130280286 38.897068999895964 0 38.897068999895964 -12.09391558115658 0 0 0 0 17.821862368281273 35.90024902386449 0 35.90024902386449 -13.756673663497168 0 0 0 0 47.7964550063774 34.018928652008981 0 34.018928652008981 -21.956361928150727 0 0 0 0 37.889897160182187 34.712688859820901 0 34.712688859820901 -21.9105368626158 0 0 0 0 32.411771913699781 30.724199475204841 0 30.724199475204841 13.213732462284497 0 0 0 0 11.182702845651036 48.093658073852566 0 48.093658073852566 13.141549654305763 0 0 0 0 32.869773293944405 30.038839459565224 0 30.038839459565224 13.497584306682256 0 0 0 0 33.146299826095238 46.338864616354613 0 46.338864616354613 -34.108876585870348 0 0 0 0 11.49911183262256 12.729049368008852 0 12.729049368008852 -30.948785742561085 0 0 0 0 23.556981559770264 15.125866557405516 0 15.125866557405516 -30.493267342589206 0 0 0 0 14.617201857591681 16.348060217605507 0 16.348060217605507 -24.266246533701633 0 0 0 0 26.439686764707687 19.0818987711923 0 19.0818987711923 -21.472078330029035 0 0 0 0 26.559355634924117 18.09742741437185 0 18.09742741437185 -27.942938635645987 0 0 0 0 33.59836809177736 18.25667190220247 0 18.25667190220247 -45.782780209074872 0 0 0 0 29.243629175882518 28.237597933545203 0 28.237597933545203 -26.75964926179131 0 0 0 0 29.537323910477681 33.462457110914301 0 33.462457110914301 -15.099274511028852 0 0 0 0 20.102854689279212 26.136940279539203 0 26.136940279539203 -17.043443889690025 0 0 0 0 25.7297221581386 20.924504125126987 0 20.924504125126987 -24.650906433003001 0 0 0 0 24.746491905360955 21.031916118316076 0 21.031916118316076 -18.102238681134622 0 0 0 0 23.567721562087009 14.665264834502864 0 14.665264834502864 -24.921058983720286 0 0 0 0 23.592461008901992 15.705917586795181 0 15.705917586795181 -13.413347490539309 0 0 0 0 16.059424472593776 8.9252753751543423 0 8.9252753751543423 -18.621352649000073 0 0 0 0 -2.2789789651266688 12.736211252156863 0 12.736211252156863 -20.698782342104892 0 0 0 0 18.572434038769714 13.527820898392974 0 13.527820898392974 -20.930113937307397 0 0 0 0 28.068428957472975 5.9770803051824259 0 5.9770803051824259 -23.898406318216075 0 0 0 0 21.52679998774164 6.9547429261738216 0 6.9547429261738216 -22.806559356230082 0 0 0 0 37.015210357782166 25.10796533192115 0 25.10796533192115 -20.427073774568271 0 0 0 0 34.409715208154736 16.70354432633394 0 16.70354432633394 -32.592664921130563 0 0 0 0 32.781723900645787 13.414863189099378 0 13.414863189099378 -25.062930623389548 0 0 0 0 21.314981323605906 26.46412600065787 0 26.46412600065787 -0.16503006803577591 0 0 0 0 15.738887378514743 16.060676377301206 0 16.060676377301206 -18.537089109489898 0 0 0 0 25.725285380396194 21.530153372230416 0 21.530153372230416 -25.098454807019152 0 0 0 0 19.29407092164643 17.854592993251572 0 17.854592993251572 -17.837127207990761 0 0 0 0 24.866177780517063 17.466619485714546 0 17.466619485714546 -24.609343473107401 0 0 0 0 15.072869002515347 20.634775014638763 0 20.634775014638763 -23.24846213494493 0 0 0 0 21.885254301284164 19.085134522584781 0 19.085134522584781 -23.360137254308938 0 0 0 0 21.592960545835268 16.110753822274887 0 16.110753822274887 -24.627896238318499 0 0 0 0 27.239979360196145 12.893350420067691 0 12.893350420067691 -24.356764715387726 0 0 0 0 28.709772762126988 16.616979881356201 0 16.616979881356201 -25.737033189520844 0 0 0 0 -9.6266718407568987 12.812762391379238 0 12.812762391379238 -30.40796021979304 0 0 0 0 -17.149116261497511 10.710622342056922 0 10.710622342056922 -7.0180812117359892 0 0 0 0 -2.1216601467804139 26.367322432563469 0 26.367322432563469 -24.931299615173884 0 0 0 0 2.0241618199793265 -2.959052446944952 0 -2.959052446944952 -6.3263547878350437 0 0 0 0 -15.636501441881592 14.922858449913974 0 14.922858449913974 -13.108892217039511 0 0 0 0 -2.2122738379638296 1.8666916890548091 0 1.8666916890548091 -1.4885079703494206 0 0 0 0 2.8626017370442902 3.8679455273792893 0 3.8679455273792893 -1.6827314760739744 0 0 0 0 -16.244384465024723 11.950269969927149 0 11.950269969927149 -8.5146453501456563 0 0 0 0 -15.619810060929012 9.4657884393263885 0 9.4657884393263885 -6.8202634546935315 0 0 0 0 -2.5094316734393942 9.4025045018352102 0 9.4025045018352102 -14.950087496992637 0 0 0 0 -1.9840900325395183 4.6979291264381082 0 4.6979291264381082 -2.3078686944300664 0 0 0 0 20.965195127275308 16.934128599752057 0 16.934128599752057 -20.783204710920472 0 0 0 0 12.804686713219404 10.680683077375136 0 10.680683077375136 -26.189939901091748 0 0 0 0 21.545908091643241 15.908438462862705 0 15.908438462862705 -23.487924682271114 0 0 0 0 -7.093932547047201 15.440455507237044 0 15.440455507237044 -10.750051241974727 0 0 0 0 13.340527920163993 10.193565014703836 0 10.193565014703836 -13.424093577641543 0 0 0 0 13.850898462280099 12.47898274224417 0 12.47898274224417 -3.5194043034298375 0 0 0 0 -0.31678112265401581 12.110903541698963 0 12.110903541698963 -11.592997949644392 0 0 0 0 9.6601397631659438 16.16955297354707 0 16.16955297354707 7.7066187050349981 0 0 0 0 7.4738701770354226 23.767093640558301 0 23.767093640558301 -11.208441152159139 0 0 0 0 11.057076982555429 29.203894978058997 0 29.203894978058997 -4.6560854947756525 0 0 0 0 19.947651190054046 28.225456749242539 0 28.225456749242539 -5.6115289878252952 0 0 0 0 24.225556915244624 24.929288429474127 0 24.929288429474127 -11.473788152386874 0 0 0 0 15.362048259300195 9.812195747282658 0 9.812195747282658 -6.0944493689872701 0 0 0 0 19.691103137784893 33.826676009546304 0 33.826676009546304 -6.0396517983881495 0 0 0 0 9.9474386526146645 24.651443243335962 0 24.651443243335962 -14.571377266200216 0 0 0 0 4.6573061835619001 17.503371016189249 0 17.503371016189249 -16.240033510039666 0 0 0 0 -4.0002036269947894 30.856898139786608 0 30.856898139786608 16.015368282454801 0 0 0 0 -12.905359531745376 20.964860258354292 0 20.964860258354292 5.6138351403405977 0 0 0 0 -2.8693478449629786 14.183217489741077 0 14.183217489741077 -8.6063226736172567 0 0 0 0 2.8537077497270502 18.761352632979253 0 18.761352632979253 -18.357650873424973 0 0 0 0 -11.801717421060857 15.480845327125735 0 15.480845327125735 0.51374855363724237 0 0 0 0 -4.1188158070453937 16.784334783610575 0 16.784334783610575 -4.6846369086647428 0 0 0 0 -8.5129350012557552 25.229253478211376 0 25.229253478211376 -3.8132495669176478 0 0 0 0 -5.7396270366380122 12.17513330048223 0 12.17513330048223 -5.8862766867323444 0 0 0 0 6.1628785604575569 15.793288377634781 0 15.793288377634781 -17.218226486372259 0 0 0 0 -2.5458457781545505 3.4181359510734595 0 3.4181359510734595 -1.3858146950178067 0 0 0 0 -6.069242343027895 19.953847921078591 0 19.953847921078591 3.9239635820604235 0 0 0 0 -2.5399738690252311 13.977279460924168 0 13.977279460924168 -7.2712910419728125 0 0 0 0 -2.2810638712336941 11.530075182621816 0 11.530075182621816 -6.1757638525088474 0 0 0 0 14.296605773148258 10.32640986141314 0 10.32640986141314 -13.918800751117487 0 0 0 0 7.7108100030968103 2.1221753210093084 0 2.1221753210093084 -16.246379827191916 0 0 0 0 -22.684878034642963 3.1331051402121375 0 3.1331051402121375 13.147396909368581 0 0 0 0 1.7083933284305408 3.8661852471824201 0 3.8661852471824201 -1.7435844788971238 0 0 0 0 11.629584655461137 19.423385445207089 0 19.423385445207089 -22.079245200168771 0 0 0 0 10.362162273292597 9.7327048657880368 0 9.7327048657880368 -49.21716416824529 0 0 0 0 1.5076676791036541 -0.27369629825990671 0 -0.27369629825990671 0.096665949510501392 0 0 0 0 5.6151453008881234 26.766124466302102 0 26.766124466302102 31.539838281943048 0 0 0 0 0.14402873883455164 0.14166348307237087 0 0.14166348307237087 -0.17682301991967364 0 0 0 0 21.449690958546583 67.077485904083517 0 67.077485904083517 75.310194703992238 0 0 0 0 26.300101164025737 37.696463400711025 0 37.696463400711025 -1.8618108892296732 0 0 0 0 11.61038160530461 8.656936186405801 0 8.656936186405801 -8.0102652759951525 0 0 0 0 -2.0374874369564102 11.358357002032999 0 11.358357002032999 -5.8599403078486425 0 0 0 0 0.71950696606034903 22.85008878383951 0 22.85008878383951 -5.0679510529271283 0 0 0 0 -7.9439513690185777 15.942436149460264 0 15.942436149460264 -4.024133467552133 0 0 0 0 1.0569717114358355 8.1261564919686862 0 8.1261564919686862 -3.7575327087379264 0 0 0 0 0.82285275092846177 3.4991484199708793 0 3.4991484199708793 0.45163960336958553 0 0 0 0 0.92623493182751349 0.21023612346210641 0 0.21023612346210641 -0.63193762122557828 0 0 0 0 59.662832254435884 4.7779925184722742 0 4.7779925184722742 31.588951270503912 0 0 0 0 1.116648132105297 0.6321015358821569 0 0.6321015358821569 1.4846198252980685 0 0 0 0 2.047389549777165 0.86775980650770634 0 0.86775980650770634 -0.39896409228094853 0 0 0 0 8.8326779672868945 14.270864460721668 0 14.270864460721668 1.4496321309870837 0 0 0 0 0.95309424599126613 0.24604539175370554 0 0.24604539175370554 -0.673128425156996 0 0 0 0 5.6191413236577645 18.279381983695203 0 18.279381983695203 2.3838516779960628 0 0 0 0 63.047215838859699 43.805335925345389 0 43.805335925345389 -10.092323038677932 0 0 0 0 20.278671230694698 40.857676506333064 0 40.857676506333064 37.083452974129614 0 0 0 0 0.60973327287753842 0.32304857626950501 0 0.32304857626950501 0.0070392120629061417 0 0 0 0 60.013102948156416 8.517512233755042 0 8.517512233755042 -57.969667263509109 0 0 0 0 40.442261292815715 -7.1893058543769257 0 -7.1893058543769257 -70.188455327946031 0 0 0 0 8.9524453832547692 -10.821699789081322 0 -10.821699789081322 -41.252276355193317 0 0 0 0 10.363824209417604 12.270233738929164 0 12.270233738929164 10.412941523823065 0 0 0 0 38.382166128751876 68.669774308335036 0 68.669774308335036 57.097270357327943 0 0 0 0 22.610041915370104 52.956398739112046 0 52.956398739112046 94.0454141513558 0 0 0 0 0.62155808313078142 0.27417878054740896 0 0.27417878054740896 -0.51598152342474179 0 0 0 0 3.7699110901646833 2.9605461481990005 0 2.9605461481990005 -13.096205115116391 0 0 0 0 4.036429771468903 3.0529394361992672 0 3.0529394361992672 -17.857889512942165 0 0 0 0 29.892126826032268 62.449472308524491 0 62.449472308524491 56.722984813794824 0 0 0 0 52.912597106572633 36.912913003026006 0 36.912913003026006 28.090616796108861 0 0 0 0 0.95049368300371384 -16.993952738783264 0 -16.993952738783264 -62.933356753761473 0 0 0 0 8.6099203914830014 2.7872725742608964 0 2.7872725742608964 -18.604528607435441 0 0 0 0 7.076512085047284 10.145895645586279 0 10.145895645586279 -31.334062564670603 0 0 0 0 6.4945135658038282 11.408194453386386 0 11.408194453386386 -13.892595310155059 0 0 0 0 -2.1552925885611955 3.3605864472915528 0 3.3605864472915528 0.51027778236857557 0 0 0 0 -0.65791307178861302 0.62014305411275927 0 0.62014305411275927 -0.30084320664900588 0 0 0 0 -0.13724577318949222 0.48865803413329711 0 0.48865803413329711 0.13248333830608772 0 0 0 0 -2.7840492818956761 6.0557094022706224 0 6.0557094022706224 -5.053181546857104 0 0 0 0 35.129698583669409 8.7458332836911268 0 8.7458332836911268 8.2258611285033112 0 0 0 0 68.678531570397297 27.680434457733099 0 27.680434457733099 3.5622967640474599 0 0 0 0 31.945492694471461 17.318897796577289 0 17.318897796577289 1.7371602559542225 0 0 0 0 32.803892233836677 17.664293487995565 0 17.664293487995565 0.10103594651036474 0 0 0 0 32.682792422658849 20.477940280626171 0 20.477940280626171 10.982502489347326 0 0 0 0 14.309551891027212 9.8069175872133201 0 9.8069175872133201 -4.4335755136758053 0 0 0 0 2.2807128102892307 2.2990228439912244 0 2.2990228439912244 0.35480770090816804 0 0 0 0 14.237084466549618 11.70366876917069 0 11.70366876917069 5.9600753626409642 0 0 0 0 4.5378756013990369 10.440800685865725 0 10.440800685865725 2.4852152485327679 0 0 0 0 3.2180189675724833 4.4672683183134723 0 4.4672683183134723 -8.0615706797070743 0 0 0 0 19.883144381989695 13.263609916220958 0 13.263609916220958 -7.6473102255231424 0 0 0 0 22.551497327682824 20.300917168399792 0 20.300917168399792 -2.0949542617654515 0 0 0 0 20.256169487986973 16.605115935622337 0 16.605115935622337 5.9561491398053477 0 0 0 0 22.709137266277779 20.549627826178039 0 20.549627826178039 -3.7976426758796151 0 0 0 0 26.31286366826609 25.432273419892226 0 25.432273419892226 -6.6993680004015914 0 0 0 0 14.636068756173415 7.272654478771301 0 7.272654478771301 -9.4008894841017536 0 0 0 0 4.7590834286806967 2.2974451374388991 0 2.2974451374388991 -11.903129338238159 0 0 0 0 55.700477973411125 18.500600368109644 0 18.500600368109644 0.453679136624487 0 0 0 0 -0.20383125055062479 0.57794770303270004 0 0.57794770303270004 0.53420956766494498 0 0 0 0 25.693532756909889 24.030632593769951 0 24.030632593769951 0.21984649300657111 0 0 0 0 28.705823838386436 15.43205484720238 0 15.43205484720238 6.1402637358878565 0 0 0 0 2.0307692134812569 26.921484740392771 0 26.921484740392771 7.7324017462051415 0 0 0 0 34.751644430893698 23.725535937353925 0 23.725535937353925 -2.9690121124558573 0 0 0 0 1.4586516460906296 1.8431139088042983 0 1.8431139088042983 1.5352797661252282 0 0 0 0 -0.24443836684636241 0.67228031117425102 0 0.67228031117425102 1.0309518234434414 0 0 0 0 8.9694019255514092 9.0372962469828053 0 9.0372962469828053 1.55831937781889 0 0 0 0 13.460625376775774 -11.962324965948937 0 -11.962324965948937 -28.50157975671209 0 0 0 0 0.23596289670928969 0.39484850110415071 0 0.39484850110415071 0.0036868661553910442 0 0 0 0 1.0153049073542348 26.06310072278302 0 26.06310072278302 -22.604411559241271 0 0 0 0 19.088499425773492 22.03719682198971 0 22.03719682198971 -38.729083305111544 0 0 0 0 17.287573444473086 17.439408534587528 0 17.439408534587528 -22.154715730318458 0 0 0 0 15.09499775708548 19.520493045851254 0 19.520493045851254 -19.584952556048847 0 0 0 0 18.057680708316809 10.346018631623338 0 10.346018631623338 -16.737220441249519 0 0 0 0 27.825986118666208 10.585935025713297 0 10.585935025713297 -20.173091711587404 0 0 0 0 22.368493845247002 8.3369430918228318 0 8.3369430918228318 -16.850287073471918 0 0 0 0 15.766876875695857 15.74076923888606 0 15.74076923888606 -16.140838149603724 0 0 0 0 30.52592149543662 16.125043765983719 0 16.125043765983719 -26.745612976914344 0 0 0 0 20.203665634285841 9.0751185543877 0 9.0751185543877 -30.5158844321777 0 0 0 0 7.999703900839215 7.8698949257131972 0 7.8698949257131972 -20.972919511830696 0 0 0 0 26.476529168736079 26.203314896174561 0 26.203314896174561 -29.154005745936956 0 0 0 0 36.247392713258762 17.226554512515577 0 17.226554512515577 -18.067490075817659 0 0 0 0 30.734477303674176 14.478790919045764 0 14.478790919045764 -14.696499097541164 0 0 0 0 23.782347407750478 8.3431942199927107 0 8.3431942199927107 -7.1441832357331805 0 0 0 0 35.945824966850779 19.794376529775889 0 19.794376529775889 -1.1122471235521516 0 0 0 0 0.64538075711680576 0.36938437011587766 0 0.36938437011587766 -0.62671394691449755 0 0 0 0 3.2507085574411292 -0.28445998890629198 0 -0.28445998890629198 5.8766475964912388 0 0 0 0 55.365744589569886 0.3729118332021244 0 0.3729118332021244 -11.872616024830677 0 0 0 0 25.421139449295936 -15.866915979595433 0 -15.866915979595433 -1.4231748588772462 0 0 0 0 43.372668721871207 11.370791708868637 0 11.370791708868637 -19.086204082258519 0 0 0 0 48.96983210103113 19.007848787124203 0 19.007848787124203 -9.5878070009312069 0 0 0 0 33.915464460859056 11.499502404213217 0 11.499502404213217 0.51925740325714287 0 0 0 0 29.088513406378411 6.0001956921587407 0 6.0001956921587407 -5.1919467723892012 0 0 0 0 38.594840877975315 3.5487629705012296 0 3.5487629705012296 -35.824041688281795 0 0 0 0 47.801741584962713 -12.616240400453535 0 -12.616240400453535 -13.187215449827818 0 0 0 0 0.32643205189245161 0.23411552923785095 0 0.23411552923785095 -0.47958027800116865 0 0 0 0 5.1911501799228859 4.8454714180825249 0 4.8454714180825249 -8.3037667485477868 0 0 0 0 26.749277549325939 20.561088481424122 0 20.561088481424122 3.1334263971566543 0 0 0 0 65.409672946028451 11.001952488591087 0 11.001952488591087 -29.051636537489685 0 0 0 0 37.406895198658333 -2.7551957438772661 0 -2.7551957438772661 -34.788946705211856 0 0 0 0 36.823418312878843 11.971197629123481 0 11.971197629123481 -31.02311358434963 0 0 0 0 15.003140891475653 -1.788994907678898 0 -1.788994907678898 -39.643872799693781 0 0 0 0 32.851360057603017 5.3899498851278622 0 5.3899498851278622 -38.977540287838565 0 0 0 0 33.495945858043697 4.857691133868002 0 4.857691133868002 -53.698235363604908 0 0 0 0 46.938439189464553 -3.3997818523107526 0 -3.3997818523107526 -47.374337085826483 0 0 0 0 44.812886828740837 -0.59490581758154804 0 -0.59490581758154804 -36.123595622746507 0 0 0 0 41.890843055847085 5.5531564713928674 0 5.5531564713928674 -49.043899444101498 0 0 0 0 11.990422335021389 29.56964509211646 0 29.56964509211646 -41.846493520191871 0 0 0 0 27.921165479780441 15.710116011790433 0 15.710116011790433 -30.965237488783714 0 0 0 0 15.692724365009191 19.784092710948585 0 19.784092710948585 -24.473958440505157 0 0 0 0 27.307647714788622 11.957266749461155 0 11.957266749461155 -33.818967557706856 0 0 0 0 34.29238200718197 2.2052988402638221 0 2.2052988402638221 -22.415179689316574 0 0 0 0 23.136968299220442 12.146152571474886 0 12.146152571474886 -20.020920531252159 0 0 0 0 -2.8499739922486924 1.7323449440536933 0 1.7323449440536933 1.5092108087114866 0 0 0 0 -15.922848207470366 -1.3331552815111536 0 -1.3331552815111536 3.8618355708022136 0 0 0 0 -1.8792466270668089 1.043114344040875 0 1.043114344040875 -0.16972240911215941 0 0 0 0 3.5344798322272482 3.167664643497119 0 3.167664643497119 -8.3690840593080793 0 0 0 0 -0.96022630622945826 2.7142810083983022 0 2.7142810083983022 -1.0910791645965219 0 0 0 0 -1.1213032984474012 0.32195313913689461 0 0.32195313913689461 -0.106338362704264 0 0 0 0 -1.6405466704032388 1.0790433223473883 0 1.0790433223473883 -0.53592309578577924 0 0 0 0 -0.43677388984513466 -0.032854675594196081 0 -0.032854675594196081 -0.96801699989137902 0 0 0 0 -2.7199574877716657 -0.21223274807948656 0 -0.21223274807948656 1.1180824095072239 0 0 0 0 1.3821996753543715 4.8470806828559034 0 4.8470806828559034 -3.0630053836384832 0 0 0 0 -34.371983346713591 20.629074154008777 0 20.629074154008777 -104.03115093775659 0 0 0 0 -1.6087538268577921 0.89034965634485275 0 0.89034965634485275 -0.37721958352749141 0 0 0 0 -52.235327546300056 86.979174687926388 0 86.979174687926388 -159.80184240002745 0 0 0 0 -40.899972011725907 94.828433404556563 0 94.828433404556563 -155.77246431518324 0 0 0 0 -7.4972026145966879 -5.4998865717980152 0 -5.4998865717980152 -5.9055147619960735 0 0 0 0 -0.093796186307397278 -0.18328119157636991 0 -0.18328119157636991 -0.27310345852961859 0 0 0 0 -22.110105688328943 45.435033401044848 0 45.435033401044848 -161.60121000916479 0 0 0 0 4.1519166685540085 23.294775615354411 0 23.294775615354411 -112.63152071664263 0 0 0 0 -25.078806555551438 -35.752552537303472 0 -35.752552537303472 -47.079627205308498 0 0 0 0 -4.4594237520647511 7.1016387232596117 0 7.1016387232596117 -53.840739906900126 0 0 0 0 12.190614794129431 1.3269398106840526 0 1.3269398106840526 -59.343588524860024 0 0 0 0 9.8902729761395847 5.8365118082097069 0 5.8365118082097069 -35.026028590629721 0 0 0 0 -1.8635310360724335 1.1591918073249037 0 1.1591918073249037 -0.30233024821667653 0 0 0 0 -5.7676868718582739 -1.9947160805540989 0 -1.9947160805540989 -6.3412215463158645 0 0 0 0 -0.099223606732380176 -9.9108494756455912 0 -9.9108494756455912 -28.167843760408687 0 0 0 0 -6.2171970130815879 -6.9027746496797135 0 -6.9027746496797135 -8.4139097697661782 0 0 0 0 5.0561440870144674 -1.2195758505097842 0 -1.2195758505097842 -16.548758347667899 0 0 0 0 -7.5198581408796485 -19.373967024481317 0 -19.373967024481317 -29.960493989849965 0 0 0 0 -0.38218543923755988 6.1943940881765229 0 6.1943940881765229 -22.202306876974035 0 0 0 0 -2.1471844514056784 2.4248896764402161 0 2.4248896764402161 -1.0773977760418347 0 0 0 0 -2.8777869905199367 0.42959074789973783 0 0.42959074789973783 0.2786185541535815 0 0 0 0 -1.8785765004682844 2.0279549921679063 0 2.0279549921679063 -0.50570458980473632 0 0 0 0 -1.268237203430516 1.7683148941832769 0 1.7683148941832769 -1.2556799626572683 0 0 0 0 -1.390358348447819 1.9918292523889249 0 1.9918292523889249 -1.664374371982376 0 0 0 0 -0.1142733920708901 1.4076711395662127 0 1.4076711395662127 -1.6093437692299339 0 0 0 0 -3.0629846093754716 2.1783142199557179 0 2.1783142199557179 -1.2571568599093723 0 0 0 0 -23.920840293218589 -14.385436976489473 0 -14.385436976489473 -16.428248254819664 0 0 0 0 -21.214803343619224 -23.747513877555321 0 -23.747513877555321 8.9876219226753165 0 0 0 0 11.866568115859195 -9.4596453421172555 0 -9.4596453421172555 -20.616525491924222 0 0 0 0 -12.170183394744186 -34.646206775974861 0 -34.646206775974861 -32.062079531022391 0 0 0 0 -2.5683850581827885 1.1566468411349504 0 1.1566468411349504 -0.61118459414692339 0 0 0 0 -1.8040252233563479 0.34053910040711344 0 0.34053910040711344 -1.6499493258197617 0 0 0 0 8.625761346083749 4.0514606822234782 0 4.0514606822234782 -26.457230081528905 0 0 0 0 2.5800978302313524 -15.147777414332722 0 -15.147777414332722 -41.435678726435981 0 0 0 0 41.0277514718764 -11.405476470460599 0 -11.405476470460599 -19.40045936810975 0 0 0 0 0.0020002623988943924 -5.0781487203973938 0 -5.0781487203973938 15.248822744501012 0 0 0 0 75.264766600778955 -8.2893691132899221 0 -8.2893691132899221 12.043267739861221 0 0 0 0 3.0587880056520547 -9.8550711802303681 0 -9.8550711802303681 12.608086552396344 0 0 0 0 2.0725450960641645 2.1341063959292228 0 2.1341063959292228 75.039876929049569 0 0 0 0 44.775067608830909 42.724285772515941 0 42.724285772515941 38.620909145409769 0 0 0 0 0.51252738793665431 3.7563577911192834 0 3.7563577911192834 -3.8208090501598235 0 0 0 0 -41.613775782201031 -6.600020652212379 0 -6.600020652212379 4.1511732606559235 0 0 0 0 -25.620259346523881 3.1052586317146051 0 3.1052586317146051 15.679640204501311 0 0 0 0 -27.655816730910828 -4.4911988248222769 0 -4.4911988248222769 -9.1729522711557365 0 0 0 0 1.0800379558702238 3.7171071945693335 0 3.7171071945693335 -4.6438460389032699 0 0 0 0 -65.895929579098492 15.505553353443247 0 15.505553353443247 22.326224294902204 0 0 0 0 -7.2725620954539067 9.1183068972873116 0 9.1183068972873116 -0.14573907589328883 0 0 0 0 -19.119760449357386 36.040487351266165 0 36.040487351266165 37.092474160717757 0 0 0 0 -23.566737425386009 14.058044716609857 0 14.058044716609857 -16.252174932050366 0 0 0 0 -32.455308027709179 33.779557397790995 0 33.779557397790995 8.5201014737767764 0 0 0 0 4.8315415910289801 35.645910533037522 0 35.645910533037522 -59.350506881817637 0 0 0 0 4.9055366050685336 34.126907376803956 0 34.126907376803956 -28.974386231731842 0 0 0 0 -3.2755305415814746 1.6534522995825682 0 1.6534522995825682 -8.0376922126524732 0 0 0 0 1.0152786632990209 3.3954772225784762 0 3.3954772225784762 -5.8293239973126632 0 0 0 0 -12.255302587629387 6.8493678519330388 0 6.8493678519330388 -1.479422458182853 0 0 0 0 48.225709321622531 12.93844568628765 0 12.93844568628765 169.09160003423494 0 0 0 0 5.4337053859007938 18.050538444404538 0 18.050538444404538 39.570491756798219 0 0 0 0 35.021088352453603 82.412114183001904 0 82.412114183001904 10.465864395408062 0 0 0 0 60.987490330184187 67.863595212979817 0 67.863595212979817 -10.199004908099596 0 0 0 0 116.48660399314019 103.94040912266837 0 103.94040912266837 -29.534140830692195 0 0 0 0 91.107156891946147 103.81506076093228 0 103.81506076093228 1.8684444373811857 0 0 0 0 -0.52934792453019863 0.17582642969771101 0 0.17582642969771101 0.36905862375492759 0 0 0 0 91.732163769805069 86.795824508171194 0 86.795824508171194 40.907714248634875 0 0 0 0 123.33042975953771 47.789399592123345 0 47.789399592123345 12.757946475441713 0 0 0 0 133.18405342227663 83.08859286772531 0 83.08859286772531 1.5349881498637075 0 0 0 0 88.628011726510522 62.939753662802104 0 62.939753662802104 20.013599389038063 0 0 0 0 109.82670115827523 96.307416715396812 0 96.307416715396812 17.449150661339445 0 0 0 0 120.24397965167356 80.661642312958065 0 80.661642312958065 19.465926916354874 0 0 0 0 167.73459795255405 144.14607534416132 0 144.14607534416132 102.76258451463582 0 0 0 0 202.58984518865563 37.412966478035969 0 37.412966478035969 7.7159673310907237 0 0 0 0 14.485715974693505 29.662624115717335 0 29.662624115717335 -21.073679523740793 0 0 0 0 17.16801206937923 19.602645082622075 0 19.602645082622075 -8.1529170935209549 0 0 0 0 0.53839374059356593 0.84850789278140537 0 0.84850789278140537 2.6846792135301101 0 0 0 0 427.69159455537101 132.13320027582449 0 132.13320027582449 33.360011989438135 0 0 0 0 -75.429463615636735 -0.53109778673388064 0 -0.53109778673388064 53.261614360576459 0 0 0 0 114.80296162941454 54.28578582701266 0 54.28578582701266 25.120712749316226 0 0 0 0 0.18236168413579207 3.9828134598935856 0 3.9828134598935856 6.9462708116164791 0 0 0 0 126.64083181380272 41.091602776865329 0 41.091602776865329 14.006151655294161 0 0 0 0 -25.121926471209264 40.474683901524259 0 40.474683901524259 1.323243499498858 0 0 0 0 -12.706277644958561 22.237036403344973 0 22.237036403344973 9.3053917607812764 0 0 0 0 22.971564872398815 23.772314348427244 0 23.772314348427244 -16.834110907111608 0 0 0 0 -7.4308740969726159 3.8353905302210478 0 3.8353905302210478 -16.847362809070546 0 0 0 0 -1.5881781453919075 2.4265734981427158 0 2.4265734981427158 -16.551805599881845 0 0 0 0 -0.9578730422631625 8.1938305567630412 0 8.1938305567630412 -12.422014055109816 0 0 0 0 1.1372551544623453 1.200988941062068 0 1.200988941062068 -0.37750913586355139 0 0 0 0 81.955876057160822 17.061883027577096 0 17.061883027577096 2.1836102716542882 0 0 0 0 6.3554811847228905 6.2740365794579702 0 6.2740365794579702 -10.93397555827687 0 0 0 0 6.99563809164124 -2.0297858205549346 0 -2.0297858205549346 -25.475324639932751 0 0 0 0 7.2015375295345621 -3.8834983395008749 0 -3.8834983395008749 -72.530244210664932 0 0 0 0 1.0362002134048565 4.6125303214580491 0 4.6125303214580491 -7.7107412485397546 0 0 0 0 -10.745810074160573 5.5007070401456986 0 5.5007070401456986 -9.0724057212391926 0 0 0 0 3.2956690473717458 -1.1284498138793424 0 -1.1284498138793424 -12.289313526189744 0 0 0 0 -0.37130145411879312 6.9045396865712974 0 6.9045396865712974 -7.213487084956796 0 0 0 0 11.348774117445743 2.9746770812189425 0 2.9746770812189425 -9.4640541256958386 0 0 0 0 3.8984292180236935 2.2619064890996015 0 2.2619064890996015 -7.7132937050191686 0 0 0 0 9.5143351010491415 -2.0118956407131918 0 -2.0118956407131918 -24.929391896607967 0 0 0 0 7.6185432394812658 -4.4424970158488577 0 -4.4424970158488577 -24.550616993730728 0 0 0 0 -1.4412890267976763 5.003223672495551 0 5.003223672495551 -20.226149455935229 0 0 0 0 -4.7287094318302678 13.735107354660613 0 13.735107354660613 -21.761102083193691 0 0 0 0 7.5260341336326064 4.3199607776805351 0 4.3199607776805351 -20.296098361593977 0 0 0 0 84.073945666326296 26.819283402228393 0 26.819283402228393 -14.707638923115155 0 0 0 0 27.112868540772475 13.026396100687577 0 13.026396100687577 10.85028501045781 0 0 0 0 10.052056500029835 7.1895571374925566 0 7.1895571374925566 5.8398629243388314 0 0 0 0 28.576631309690413 6.5030267586903392 0 6.5030267586903392 -7.8545485441209166 0 0 0 0 5.4988537846522281 9.1044715478723219 0 9.1044715478723219 -6.0844123982515157 0 0 0 0 -4.8696673093061236 -7.502237665683424 0 -7.502237665683424 -18.810928808839435 0 0 0 0 22.416596591820607 22.547625835767121 0 22.547625835767121 -29.661103451641793 0 0 0 0 7.1856824582680758 23.09789244708918 0 23.09789244708918 -8.2012659601041378 0 0 0 0 0.54457751822923006 0.19811644256537519 0 0.19811644256537519 -0.074450611208033535 0 0 0 0 6.8999663563990907 9.8494439713767861 0 9.8494439713767861 -34.869853449461516 0 0 0 0 18.930454735914083 12.212727023971638 0 12.212727023971638 -40.549949290441873 0 0 0 0 1.4454065667833618 8.6199296562771224 0 8.6199296562771224 4.5026706043900049 0 0 0 0 2.8708982440099149 3.4134950567766964 0 3.4134950567766964 -23.630162839919649 0 0 0 0 1.4451326836454719 7.0718153087017299 0 7.0718153087017299 -17.089030458424531 0 0 0 0 1.8196178567092147 13.817782498686029 0 13.817782498686029 -17.521060536915684 0 0 0 0 -67.546789649145012 76.376121965397033 0 76.376121965397033 -9.8028446995740524 0 0 0 0 -1.208999450341806 6.4573119181951739 0 6.4573119181951739 -13.766961111831279 0 0 0 0 23.328828751829633 22.387435888389518 0 22.387435888389518 -12.433164857087831 0 0 0 0 41.863732804979009 2.055392033267708 0 2.055392033267708 2.6253579661570257 0 0 0 0 18.439759793641656 24.304030814246289 0 24.304030814246289 -17.479953459784156 0 0 0 0 19.019363984394317 10.583697089723501 0 10.583697089723501 -45.354479934885603 0 0 0 0 12.400403181010574 3.2824450612515648 0 3.2824450612515648 -29.433085740452952 0 0 0 0 20.877046168526874 14.559449840025081 0 14.559449840025081 -36.954226353802369 0 0 0 0 11.967041058043662 0.77040906424281275 0 0.77040906424281275 -38.958974916371517 0 0 0 0 5.1218890914526582 16.185729231676305 0 16.185729231676305 13.153972991451155 0 0 0 0 20.360213346379624 -1.4044698853158479 0 -1.4044698853158479 -55.917335785173293 0 0 0 0 0.2846145376764202 0.056277181590314029 0 0.056277181590314029 -0.03649159916350464 0 0 0 0 -18.571258269721511 38.416817297551461 0 38.416817297551461 17.945524670790405 0 0 0 0 8.4131974887812362 -12.671943541944074 0 -12.671943541944074 -47.030082607341683 0 0 0 0 22.686017756571573 19.371961118951731 0 19.371961118951731 9.8248028785455972 0 0 0 0 13.266915553823161 9.6621340113742917 0 9.6621340113742917 2.7093232345578144 0 0 0 0 11.535355146459416 24.919280740208308 0 24.919280740208308 9.9437212515840656 0 0 0 0 26.788379327956477 15.493567240191624 0 15.493567240191624 -58.572079827703419 0 0 0 0 -0.5294991245026901 5.7965657410651605 0 5.7965657410651605 -13.623165811263071 0 0 0 0 11.715173045875758 23.153519537207103 0 23.153519537207103 -21.9188084839152 0 0 0 0 0.56763575866122118 -0.69820739646072028 0 -0.69820739646072028 -2.6654377498154176 0 0 0 0 22.049234758470639 12.299582228726649 0 12.299582228726649 6.0387069779244484 0 0 0 0 9.5013065313230172 18.81172217409221 0 18.81172217409221 4.3956361807104258 0 0 0 0 11.800199370405394 26.264340226124659 0 26.264340226124659 1.2318324035804835 0 0 0 0 23.738722269841148 24.484442204204242 0 24.484442204204242 1.4963930905087182 0 0 0 0 -2.0390358721986814 1.8143213546419545 0 1.8143213546419545 2.9782738379803533 0 0 0 0 19.284488879424771 25.372364001386813 0 25.372364001386813 1.5221912701017573 0 0 0 0 24.398674620439351 25.669871144034914 0 25.669871144034914 -12.934757968050235 0 0 0 0 28.78486132586383 22.90675362643924 0 22.90675362643924 1.7434084801033123 0 0 0 0 20.402344924766609 18.347200860888734 0 18.347200860888734 21.922861003218713 0 0 0 0 32.643164057024904 61.821509272616822 0 61.821509272616822 35.020120638269873 0 0 0 0 21.309381969836643 42.68280822898123 0 42.68280822898123 46.452710857782222 0 0 0 0 33.063165489659795 31.984700208429786 0 31.984700208429786 -2.4288955092779361 0 0 0 0 20.900165289866152 18.902706455839507 0 18.902706455839507 16.101815891153819 0 0 0 0 24.317315966788271 14.798608089256959 0 14.798608089256959 -9.9481374465976842 0 0 0 0 30.575075491522924 26.900602819034248 0 26.900602819034248 -10.212412045890233 0 0 0 0 -0.27307536059111759 4.7131295622457543 0 4.7131295622457543 -14.786793620052187 0 0 0 0 -6.3695048643418772 -13.933905663006954 0 -13.933905663006954 21.371747991801385 0 0 0 0 32.405708289315328 46.392983505573284 0 46.392983505573284 17.170734142660876 0 0 0 0 27.746487737932757 23.334001103507262 0 23.334001103507262 -0.99055268405209063 0 0 0 0 42.319579914937052 49.369634291357215 0 49.369634291357215 5.6814377356677142 0 0 0 0 62.123151169920675 41.280772730479384 0 41.280772730479384 -17.437264778607641 0 0 0 0 75.154302706518195 62.093773928007067 0 62.093773928007067 0.53686223982003867 0 0 0 0 86.171960687720173 77.644886512864105 0 77.644886512864105 10.432924119257223 0 0 0 0 49.486154375079636 63.281263106699953 0 63.281263106699953 23.089123750811268 0 0 0 0 57.94632349545877 105.90909223292329 0 105.90909223292329 34.638375259043642 0 0 0 0 42.129039206840645 77.566938542530636 0 77.566938542530636 55.378388723798707 0 0 0 0 0.78647518178746623 12.8652890291105 0 12.8652890291105 -14.461825502810825 0 0 0 0 0.29167386439266352 10.215483163684667 0 10.215483163684667 -7.7799818521179986 0 0 0 0 2.5783580400277799 14.089025613900958 0 14.089025613900958 -7.7102720262773801 0 0 0 0 14.054798688179574 16.221687790846772 0 16.221687790846772 -8.2726274468504926 0 0 0 0 10.72565964139892 26.228824569805511 0 26.228824569805511 9.1929500613855453 0 0 0 0 10.74424139134652 11.566730203112456 0 11.566730203112456 -8.5375728380740838 0 0 0 0 7.812057850553856 8.5524997353013532 0 8.5524997353013532 -13.744439765951029 0 0 0 0 10.390749792334645 4.8670621516539541 0 4.8670621516539541 -33.907430106089123 0 0 0 0 7.2952657065111453 8.6784069236632604 0 8.6784069236632604 -4.2523435641451215 0 0 0 0 4.2427349651103441 12.83818492757382 0 12.83818492757382 -6.4338072786632665 0 0 0 0 4.3725514832825638 11.268506533361688 0 11.268506533361688 -6.3535563339228247 0 0 0 0 2.9641876189159575 11.35823435039174 0 11.35823435039174 -6.4008331458971952 0 0 0 0 2.9988748435183652 12.894196407927666 0 12.894196407927666 -7.7616657316284545 0 0 0 0 2.4375554471127079 5.7057065592724179 0 5.7057065592724179 -4.5090022828139329 0 0 0 0 38.642372263780004 -2.1817594926687889 0 -2.1817594926687889 -18.229297623805905 0 0 0 0 0.011950785493142546 5.6630300740436166 0 5.6630300740436166 -13.399055805092694 0 0 0 0 0.30961551403880838 0.40128104261759745 0 0.40128104261759745 -3.2257926907635799 0 0 0 0 143.02720356304451 43.592920788962147 0 43.592920788962147 -30.567032454052878 0 0 0 0 125.17975936269346 -13.755771615956291 0 -13.755771615956291 -0.6347039055544883 0 0 0 0 2.0598065536830434 1.2540940480882661 0 1.2540940480882661 0.20187145725839706 0 0 0 0 -1.0053794316793963 4.0283786276857398 0 4.0283786276857398 -2.6688904800883932 0 0 0 0 1.835750708552041 6.288733860589673 0 6.288733860589673 -3.8866858802975912 0 0 0 0 -21.534312512754013 -12.612337618723359 0 -12.612337618723359 18.653457490461733 0 0 0 0 118.04923134140464 137.50817565060061 0 137.50817565060061 35.859526017267399 0 0 0 0 71.468742053767073 110.70522468764284 0 110.70522468764284 31.061759880212776 0 0 0 0 104.17283313194945 81.719383604421182 0 81.719383604421182 2.9180662296203081 0 0 0 0 67.151133902732482 66.567635441725542 0 66.567635441725542 9.4608849432879651 0 0 0 0 111.5114618777805 86.339242824318717 0 86.339242824318717 5.4414420458542736 0 0 0 0 250.33479660635896 139.28829139040317 0 139.28829139040317 1.3228105481076113 0 0 0 0 101.88504439546981 148.19805596336164 0 148.19805596336164 168.76326385400171 0 0 0 0 78.40986956770756 136.71416598757787 0 136.71416598757787 60.883000940473721 0 0 0 0 95.138944163987787 114.3950570689758 0 114.3950570689758 33.041559545517885 0 0 0 0 78.512877212326842 117.48309879242549 0 117.48309879242549 35.631801676185205 0 0 0 0 59.88407542438258 104.07540814923232 0 104.07540814923232 31.225883766210245 0 0 0 0 137.43196928910564 127.06753657737863 0 127.06753657737863 31.644963680152301 0 0 0 0 140.08892925493052 84.610242493175974 0 84.610242493175974 -1.43254763018831 0 0 0 0 91.040994399871863 48.610398622461162 0 48.610398622461162 -18.293911931523326 0 0 0 0 6.7861641254201999 39.992974749809946 0 39.992974749809946 10.899854618839527 0 0 0 0 112.81893576375582 29.978408490999982 0 29.978408490999982 -25.45692924449213 0 0 0 0 0.035482102396532211 0.12674018892196148 0 0.12674018892196148 0.41119260136556335 0 0 0 0 -0.82008567416380984 18.328216936921308 0 18.328216936921308 26.70615145773354 0 0 0 0 25.595131473682784 -0.2034847533723223 0 -0.2034847533723223 69.052062777953324 0 0 0 0 126.29620085449972 -29.555725652693582 0 -29.555725652693582 64.279483186466678 0 0 0 0 -0.091746720793817321 0.35221324735236514 0 0.35221324735236514 1.2339278292364142 0 0 0 0 -12.956256460804823 48.907643436219587 0 48.907643436219587 23.881756452566151 0 0 0 0 89.557803918446751 42.727456181924026 0 42.727456181924026 -31.641437593652881 0 0 0 0 -0.1367593247703329 0.50443668755743509 0 0.50443668755743509 0.96042088534674264 0 0 0 0 125.95626147086644 128.8691168228379 0 128.8691168228379 126.14934105912198 0 0 0 0 0.1267595770332548 33.906580065017579 0 33.906580065017579 36.841168538610873 0 0 0 0 215.29940886322726 210.03229063012031 0 210.03229063012031 142.55588280011034 0 0 0 0 -31.112883397485263 53.956522518991278 0 53.956522518991278 118.97496349817084 0 0 0 0 62.902839314085384 158.9953162974416 0 158.9953162974416 155.822469355257 0 0 0 0 72.574895579040685 150.8307779602294 0 150.8307779602294 93.664955715266842 0 0 0 0 9.5753345926398197 91.303438310561887 0 91.303438310561887 76.975494409969542 0 0 0 0 91.770289294592231 91.371032228893455 0 91.371032228893455 24.869261068815831 0 0 0 0 322.1821500952384 142.237183416481 0 142.237183416481 35.73869791085599 0 0 0 0 -2.8843951252729312 28.668905832112614 0 28.668905832112614 -2.3913839125775667 0 0 0 0 0.22352547697141745 21.616916412293904 0 21.616916412293904 -0.97568024480278837 0 0 0 0 18.729589821795315 6.1681328259774091 0 6.1681328259774091 -2.2586652772766911 0 0 0 0 26.290392386429545 16.410926483391279 0 16.410926483391279 -3.8025754538357432 0 0 0 0 -1.9551578434342376 11.321900670261019 0 11.321900670261019 -5.0786181239269332 0 0 0 0 24.355685683725369 20.357801925086733 0 20.357801925086733 -17.953255450543111 0 0 0 0 7.5884343685120257 18.334178565761249 0 18.334178565761249 -1.7653897113359562 0 0 0 0 7.3406826943264605 26.451591969603214 0 26.451591969603214 -4.7749953179600197 0 0 0 0 8.1713301528352531 15.543235267064574 0 15.543235267064574 -1.8504368939138658 0 0 0 0 -0.63961281090359989 -3.1989725826563244 0 -3.1989725826563244 -14.322024841082566 0 0 0 0 16.60065838797982 12.557596377456775 0 12.557596377456775 -6.9306749719720528 0 0 0 0 -2.0508244592890401 11.400423181521907 0 11.400423181521907 -5.5650504556002964 0 0 0 0 21.048683101503521 21.385458337640102 0 21.385458337640102 -10.202888104161502 0 0 0 0 15.706521410059224 21.154564957645562 0 21.154564957645562 -4.8803175431874024 0 0 0 0 20.605431258509043 15.713623869011371 0 15.713623869011371 -57.193102783813629 0 0 0 0 13.285856710618024 29.389870450468493 0 29.389870450468493 -23.837424156736233 0 0 0 0 15.311315410617524 11.318337310660354 0 11.318337310660354 -17.718399466695701 0 0 0 0 17.289851007448725 15.79022164532671 0 15.79022164532671 -8.7288225562815569 0 0 0 0 19.62339492876179 10.598899028937012 0 10.598899028937012 -5.92983273355253 0 0 0 0 19.486229784980765 11.25445556795421 0 11.25445556795421 -5.2432352465875738 0 0 0 0 20.550572691505153 10.145441531704819 0 10.145441531704819 -7.3321667460377284 0 0 0 0 20.452564255230381 9.3207320341807645 0 9.3207320341807645 -13.818838197246805 0 0 0 0 15.511468863192846 16.614645965294358 0 16.614645965294358 -7.3250556610055355 0 0 0 0 17.661914004920334 24.995713139519012 0 24.995713139519012 -7.7336269067081957 0 0 0 0 14.014183182203055 22.791747572719032 0 22.791747572719032 -3.2669049004380213 0 0 0 0 26.330136721738 14.703838355027074 0 14.703838355027074 -10.756798889853144 0 0 0 0 7.8999697772582351 16.884717890089178 0 16.884717890089178 -6.8212727844986603 0 0 0 0 17.190435831792655 17.685889480293099 0 17.685889480293099 -7.543152568543519 0 0 0 0 9.485651660164109 16.572986826263786 0 16.572986826263786 -20.629919188758322 0 0 0 0 16.592295767701614 23.891802495751563 0 23.891802495751563 -17.629910417435894 0 0 0 0 7.7431159769777196 21.417276679275801 0 21.417276679275801 -24.893673153457712 0 0 0 0 -13.922116162087903 45.166597904449645 0 45.166597904449645 -6.5464478187386703 0 0 0 0 -3.2233531055923947 19.991318940335532 0 19.991318940335532 -20.753571435474441 0 0 0 0 15.389327427661073 23.635435564700401 0 23.635435564700401 -20.054925253018155 0 0 0 0 -5.9321698427369753 7.6791318013454202 0 7.6791318013454202 -1.0749902497664152 0 0 0 0 -52.582069973847553 18.918223401665273 0 18.918223401665273 0.075895228204899468 0 0 0 0 -0.051415803607533617 0.22174531294435207 0 0.22174531294435207 -0.0014924839195273876 0 0 0 0 7.7450766384386895 21.845715136427316 0 21.845715136427316 -6.9249039161330188 0 0 0 0 3.6416934584795229 12.331210533189733 0 12.331210533189733 -16.905399977305024 0 0 0 0 0.25853172563872096 0.094302068414190643 0 0.094302068414190643 -0.029434239873492696 0 0 0 0 6.8928203544857496 43.209001017590253 0 43.209001017590253 26.154090073653606 0 0 0 0 18.061984784787313 22.044647102550243 0 22.044647102550243 -25.494304439547705 0 0 0 0 7.8784953428597078 0.14546298909044708 0 0.14546298909044708 -53.209026022384421 0 0 0 0 -3.3952135431381976 13.161104066016378 0 13.161104066016378 -21.095841529290738 0 0 0 0 -3.823565703753161 10.814656276693313 0 10.814656276693313 -7.4951423061320384 0 0 0 0 12.407407362011611 13.761791486062066 0 13.761791486062066 -9.9155515298489263 0 0 0 0 4.6541864690682928 6.0918131573121173 0 6.0918131573121173 -17.029163863357098 0 0 0 0 2.2060157274468679 10.603522448627245 0 10.603522448627245 -5.2235114234463254 0 0 0 0 3.1190019332436947 8.0215270026903909 0 8.0215270026903909 -1.4071117164912721 0 0 0 0 -0.9082212208876399 11.492157036067965 0 11.492157036067965 -6.1372557597624109 0 0 0 0 1.7272621846894936 9.4031130460907661 0 9.4031130460907661 -7.3025946418042622 0 0 0 0 2.7545061764998948 7.5457185491117116 0 7.5457185491117116 -2.3261619476361375 0 0 0 0 2.5799944782938269 9.3112626977926993 0 9.3112626977926993 -8.514020038437593 0 0 0 0 2.926823238506131 5.4679232638063695 0 5.4679232638063695 -6.8284566517431813 0 0 0 0 1.5517207346922133 5.7946423070306174 0 5.7946423070306174 2.4013067545906406 0 0 0 0 49.642089664040213 -29.863844086046811 0 -29.863844086046811 28.290532257800805 0 0 0 0 3.4496177560710035 6.3756271833192066 0 6.3756271833192066 -0.57221652896195785 0 0 0 0 -21.05736417873868 -6.1537863475950871 0 -6.1537863475950871 63.515314285948989 0 0 0 0 3.4223941662164634 6.5567174164857533 0 6.5567174164857533 -11.641057640834333 0 0 0 0 4.8807723319295091 5.9301126345415227 0 5.9301126345415227 -1.6360514464763742 0 0 0 0 3.9494714251430878 7.5949077416953514 0 7.5949077416953514 -2.7594587386392959 0 0 0 0 2.0235864475143686 -0.2216019521448267 0 -0.2216019521448267 -4.9006481640059896 0 0 0 0 7.033250479747835 6.5687889057144275 0 6.5687889057144275 -3.78490433488696 0 0 0 0 5.937820706045045 8.6350661409724125 0 8.6350661409724125 -2.3099981664611278 0 0 0 0 5.8513048335381654 5.9302796333322476 0 5.9302796333322476 -1.6979003584435759 0 0 0 0 3.1032458763197042 3.9418452980253278 0 3.9418452980253278 1.2240449486644138 0 0 0 0 5.8609782876028476 57.191414919467206 0 57.191414919467206 -8.5321515481191454 0 0 0 0 2.4855506276471715 31.084272390544356 0 31.084272390544356 34.260053184549179 0 0 0 0 11.49585278273398 10.893651054329549 0 10.893651054329549 -2.5533447242032494 0 0 0 0 -3.0785439612686787 39.976975241961554 0 39.976975241961554 22.745353375164996 0 0 0 0 16.482736534111154 -7.531002633371827 0 -7.531002633371827 -52.240440138634767 0 0 0 0 28.941324307703326 83.344933709429824 0 83.344933709429824 15.182704768920303 0 0 0 0 5.4962863836315279 21.629699587314974 0 21.629699587314974 35.727486803994907 0 0 0 0 -11.761946605337243 -26.51380222091575 0 -26.51380222091575 7.1662648317087587 0 0 0 0 0.34051135423955148 0.31984784249190668 0 0.31984784249190668 0.15983464320694374 0 0 0 0 40.157422755131648 32.087113574380965 0 32.087113574380965 7.7072031855259411 0 0 0 0 17.73353865302391 18.35193948544088 0 18.35193948544088 0.21898803796284483 0 0 0 0 17.463945724317085 20.565299773568768 0 20.565299773568768 0.11689600353156493 0 0 0 0 4.7079012859280169 10.421108758743685 0 10.421108758743685 8.6801877330899515 0 0 0 0 12.039346104765976 15.111024729558608 0 15.111024729558608 -5.3666460870954324 0 0 0 0 21.473301178727013 20.373606510470381 0 20.373606510470381 -11.41876295887414 0 0 0 0 22.46781570611752 22.565314982828568 0 22.565314982828568 -6.6057019917334401 0 0 0 0 27.182951026838964 14.531649588856453 0 14.531649588856453 -6.952944344381649 0 0 0 0 24.735714503380763 15.825332250855354 0 15.825332250855354 -7.44197440110554 0 0 0 0 22.828118339100392 9.8513568817577379 0 9.8513568817577379 -8.7140170320762991 0 0 0 0 20.031722465513795 10.856429219785127 0 10.856429219785127 -3.5965127835734165 0 0 0 0 20.465091382206111 13.759977032529605 0 13.759977032529605 -4.9898220801551361 0 0 0 0 29.217051625185974 7.186694295012785 0 7.186694295012785 -0.19071367424658092 0 0 0 0 15.801954761559632 12.520647203058388 0 12.520647203058388 4.2423942649129458 0 0 0 0 15.642711760096603 12.054738736939726 0 12.054738736939726 8.7668831403952936 0 0 0 0 47.814033449535088 7.7640154942719164 0 7.7640154942719164 -0.6702681987262622 0 0 0 0 28.148237127750207 16.869776024228202 0 16.869776024228202 -3.9753075090811762 0 0 0 0 27.566834856541931 0.88613846125599594 0 0.88613846125599594 18.232666188559961 0 0 0 0 16.935658474946266 9.1815243958413113 0 9.1815243958413113 -3.8427346625027781 0 0 0 0 62.809386833931633 26.320495328797051 0 26.320495328797051 -46.061983592584511 0 0 0 0 68.058506281710834 -13.130875169254068 0 -13.130875169254068 -109.08400705409258 0 0 0 0 10.42722234573089 24.646309531894786 0 24.646309531894786 0.65489463008452731 0 0 0 0 11.148672089854159 14.863964283125824 0 14.863964283125824 19.494614243780234 0 0 0 0 14.206751672335798 16.776876683484261 0 16.776876683484261 11.39670138380734 0 0 0 0 14.674149151382636 13.859683612877689 0 13.859683612877689 3.2520733815381391 0 0 0 0 20.877469977918203 8.8371192642627463 0 8.8371192642627463 -3.7257202289632785 0 0 0 0 22.803454028673578 18.203206671113549 0 18.203206671113549 -0.41348299469291305 0 0 0 0 29.207732931441569 -33.014550902556948 0 -33.014550902556948 -101.21047954593632 0 0 0 0 20.7354556128806 18.190476699746796 0 18.190476699746796 -5.6271352195917643 0 0 0 0 24.165923595916666 8.5227912346053927 0 8.5227912346053927 7.9876431656557543 0 0 0 0 3.1037696696896351 6.9026604768306772 0 6.9026604768306772 1.5634066548851919 0 0 0 0 2.0204163931202048 7.9569656283927941 0 7.9569656283927941 1.8875087083608832 0 0 0 0 4.5843204224586316 5.529361733042947 0 5.529361733042947 1.0927567559992895 0 0 0 0 13.67235864786926 9.8616171723879233 0 9.8616171723879233 1.9197305773104745 0 0 0 0 5.1154246271885482 11.302886417885544 0 11.302886417885544 -1.5845669909870495 0 0 0 0 2.3038121806421259 7.3742060603544815 0 7.3742060603544815 -2.808393528117449 0 0 0 0 9.4571576575851228 9.8105038265163582 0 9.8105038265163582 -1.7563864473162614 0 0 0 0 6.956260014189664 13.511576109234262 0 13.511576109234262 1.3258974368720686 0 0 0 0 2.668883543060474 10.529626357589677 0 10.529626357589677 0.17677863052267639 0 0 0 0 8.3753872669294651 7.801535620354116 0 7.801535620354116 0.2763156041864363 0 0 0 0 -2.784715772237881 7.3158237581096675 0 7.3158237581096675 0.54422179246980562 0 0 0 0 -2.4668321346351263 10.681350943241853 0 10.681350943241853 -3.7145347623845737 0 0 0 0 -1.8568284888444566 6.1776199042422197 0 6.1776199042422197 -2.6945543343840974 0 0 0 0 9.3046472154900037 12.44776411526982 0 12.44776411526982 5.7522982919199421 0 0 0 0 13.087845139666459 12.763851444064017 0 12.763851444064017 -1.2274122460621584 0 0 0 0 12.921405455908641 13.18336432047272 0 13.18336432047272 4.590869517599458 0 0 0 0 31.913666862563897 15.614801794380583 0 15.614801794380583 -18.166701011139594 0 0 0 0 9.6255685754341105 10.85020720167131 0 10.85020720167131 -1.5627674817533261 0 0 0 0 -2.6569757037251316 11.279626511102663 0 11.279626511102663 -4.282835630360303 0 0 0 0 14.053153250960023 16.372593114627307 0 16.372593114627307 -8.6588057338667568 0 0 0 0 5.3827563268365441 1.2170473539886508 0 1.2170473539886508 -1.5672168368262476 0 0 0 0 -1.753353497731041 17.680130187944997 0 17.680130187944997 5.6831393296643 0 0 0 0 -4.1779066253996007 11.890145015591543 0 11.890145015591543 -3.7851704999975482 0 0 0 0 -170.42955108301794 103.30580820492469 0 103.30580820492469 -44.454373260236025 0 0 0 0 30.399793886500447 4.7091950704079863 0 4.7091950704079863 -85.281815560018003 0 0 0 0 31.849166520814833 21.388251524446787 0 21.388251524446787 -8.5407907497810811 0 0 0 0 -0.14470546975439724 0.57913783718363732 0 0.57913783718363732 -2.2265575220739677 0 0 0 0 48.953485230327715 65.904320595103854 0 65.904320595103854 -20.214725576905039 0 0 0 0 47.147188012757397 51.660694111132216 0 51.660694111132216 -118.83140768388694 0 0 0 0 31.269269548212833 73.073551696972572 0 73.073551696972572 -15.474588493041665 0 0 0 0 47.798388057106422 48.569587949149536 0 48.569587949149536 -2.7495176511292811 0 0 0 0 43.481623965026301 60.69740579196332 0 60.69740579196332 -25.064593186769343 0 0 0 0 12.098796605017924 29.881573527380169 0 29.881573527380169 16.488316982186006 0 0 0 0 32.90957765125313 46.29194182408537 0 46.29194182408537 27.389525939917803 0 0 0 0 3.9469276845907189 9.4681147652172513 0 9.4681147652172513 45.098041838424251 0 0 0 0 -22.530306083709547 12.370939668253413 0 12.370939668253413 26.48719297855132 0 0 0 0 -0.46760267019930035 0.97916525743887561 0 0.97916525743887561 -6.6920224190500548 0 0 0 0 -26.647730837573363 27.704231638226702 0 27.704231638226702 -17.834485584318827 0 0 0 0 13.720888976504966 23.658537378746814 0 23.658537378746814 4.290696115756873 0 0 0 0 2.903237193174391 2.251923701493979 0 2.251923701493979 -2.6394275538623333 0 0 0 0 3.4351220775436295 2.606527392493728 0 2.606527392493728 -10.958192060721672 0 0 0 0 -17.56625171467681 -13.671885729307633 0 -13.671885729307633 -11.623654680559412 0 0 0 0 15.050459432381103 11.878496649567751 0 11.878496649567751 -17.537415429670546 0 0 0 0 -10.423897687895078 -14.235832960208427 0 -14.235832960208427 -33.566847713371317 0 0 0 0 13.361257777043647 23.228447874153062 0 23.228447874153062 -5.4299040415498894 0 0 0 0 5.5517757389257767 2.295188498066846 0 2.295188498066846 -4.9968660017408268 0 0 0 0 -2.5996109065654309 -8.221598314565199 0 -8.221598314565199 -64.106325820468555 0 0 0 0 -31.914747183651343 6.5682195867120754 0 6.5682195867120754 -53.416403986928344 0 0 0 0 -4.5677325197993923 -25.302642829386969 0 -25.302642829386969 -0.823954043109552 0 0 0 0 0.91842029836425354 20.891517745320016 0 20.891517745320016 7.2761366879640264 0 0 0 0 -11.596116301007896 -22.735756145400956 0 -22.735756145400956 0.096600504522939445 0 0 0 0 16.05402436931945 -3.5030523299164997 0 -3.5030523299164997 -4.7504118751057831 0 0 0 0 41.300759988202117 38.412225782201858 0 38.412225782201858 43.430624328141903 0 0 0 0 68.300908724090732 14.495943083918064 0 14.495943083918064 58.28838131082739 0 0 0 0 83.614606557446677 56.036183192150929 0 56.036183192150929 73.995434567372286 0 0 0 0 8.5299723715779692 -13.218245395997656 0 -13.218245395997656 49.02831761624725 0 0 0 0 20.132708624219958 -56.378616320294896 0 -56.378616320294896 -71.518622598727234 0 0 0 0 -20.379783916512224 -26.631352105550832 0 -26.631352105550832 16.663273756203125 0 0 0 0 84.625123239202367 20.574125580370492 0 20.574125580370492 8.8066546933041536 0 0 0 0 74.515510657310642 58.076235196010657 0 58.076235196010657 -48.492886628089764 0 0 0 0 180.2926861198348 -15.82428905526649 0 -15.82428905526649 -11.722614470902045 0 0 0 0 209.7807068915572 103.02108427534404 0 103.02108427534404 72.017033829221873 0 0 0 0 0.01131573156358523 -0.05398691214193363 0 -0.05398691214193363 1.5008096779399906 0 0 0 0 -8.1026018929243833 -4.4136834992353897 0 -4.4136834992353897 28.621500937919336 0 0 0 0 44.668397792327141 35.210954485834009 0 35.210954485834009 118.91605768370573 0 0 0 0 257.56594894498539 78.980832893061233 0 78.980832893061233 25.365532959538541 0 0 0 0 -0.052564429410757896 0.84328098369829618 0 0.84328098369829618 0.57292194348054615 0 0 0 0 179.05660951141726 79.545378752864053 0 79.545378752864053 38.402960286985035 0 0 0 0 233.35242207358715 -56.638546340123867 0 -56.638546340123867 -8.8788652494176858 0 0 0 0 117.83046802595345 51.771335373323382 0 51.771335373323382 86.379738866446132 0 0 0 0 260.8506982156614 80.533418221060856 0 80.533418221060856 25.115284314379096 0 0 0 0 238.83989343095709 34.050326288137057 0 34.050326288137057 57.469923930464574 0 0 0 0 112.79756303779868 37.103611609807558 0 37.103611609807558 43.792003651658888 0 0 0 0 71.829803383872786 60.869789867170766 0 60.869789867170766 53.412752763338176 0 0 0 0 81.02865331501016 50.917006686366221 0 50.917006686366221 7.1599392850839649 0 0 0 0 37.010664587340216 36.532768964462775 0 36.532768964462775 45.768957130625495 0 0 0 0 135.1322855906883 35.266274585259453 0 35.266274585259453 1.8279400815335975 0 0 0 0 86.381119111480075 65.064198937971014 0 65.064198937971014 42.171140525762667 0 0 0 0 95.103888039650883 44.739973757304142 0 44.739973757304142 -0.41244531270422158 0 0 0 0 52.69333408843886 56.922007470098833 0 56.922007470098833 11.46674124501078 0 0 0 0 95.410174902021026 42.075538436889474 0 42.075538436889474 -10.977378570791188 0 0 0 0 53.230572832182588 51.336521240476941 0 51.336521240476941 -6.135741316414169 0 0 0 0 132.6281231929097 1.1012024069659674 0 1.1012024069659674 -7.9239486808232868 0 0 0 0 116.93237712201352 -4.1684022155837965 0 -4.1684022155837965 3.7137715493518044 0 0 0 0 1.6666070794559573 2.0850637581871752 0 2.0850637581871752 -0.3122096044025966 0 0 0 0 0.47496720676198789 1.1068507705596691 0 1.1068507705596691 -0.42143078702228109 0 0 0 0 3.1661399390684437 2.5300350202637674 0 2.5300350202637674 -0.82029231972410344 0 0 0 0 0.88711161949910444 1.3297009023578585 0 1.3297009023578585 -2.3562737560755949 0 0 0 0 2.7867425938766246 1.5145279917333028 0 1.5145279917333028 -1.0413182651536772 0 0 0 0 7.680251222401921 8.4690304893601933 0 8.4690304893601933 1.6684489585768461 0 0 0 0 6.3738326343882363 6.9696885552384629 0 6.9696885552384629 0.65433871412597 0 0 0 0 18.192910501340975 2.0261802166587586 0 2.0261802166587586 -12.998073006112463 0 0 0 0 4.7404735930487245 5.304130943756455 0 5.304130943756455 1.5982300029288972 0 0 0 0 2.5293509899094033 8.496378499849925 0 8.496378499849925 -6.5898046754500683 0 0 0 0 0.14932180981553778 0.93200168340749023 0 0.93200168340749023 0.80561446177929952 0 0 0 0 7.8861575559531047 8.6397401081812859 0 8.6397401081812859 -11.882138316936107 0 0 0 0 9.6424815464561107 5.1147036279235181 0 5.1147036279235181 -8.6151299530483811 0 0 0 0 2.3246528907038737 2.4540156084203772 0 2.4540156084203772 -0.44424699908631737 0 0 0 0 1.7137182916910412 2.4568212473147959 0 2.4568212473147959 0.60191452194866457 0 0 0 0 3.535175313212676 8.4363201133983239 0 8.4363201133983239 -9.6941244559566258 0 0 0 0 0.35017098835669458 8.720116904569295 0 8.720116904569295 -4.7087377589232347 0 0 0 0 -1.3907116182417667 0.83910599097180238 0 0.83910599097180238 -18.872404359324719 0 0 0 0 9.4845577036885516 7.2282514087692107 0 7.2282514087692107 -11.295202089782833 0 0 0 0 -19.269630828835943 24.578524209413445 0 24.578524209413445 83.484811084110333 0 0 0 0 -4.6392309589846263 35.819590532754773 0 35.819590532754773 9.4148484900360927 0 0 0 0 2.1609146412120026 4.2603379315733036 0 4.2603379315733036 4.2363269343295542 0 0 0 0 -12.519289671607112 80.077076544539523 0 80.077076544539523 31.237067310266866 0 0 0 0 50.720828798426737 130.81718863551578 0 130.81718863551578 91.08251204465887 0 0 0 0 -7.3155537639208887 70.419065660766137 0 70.419065660766137 28.326135353385325 0 0 0 0 -83.8609960750548 68.252399040085038 0 68.252399040085038 48.608001168089686 0 0 0 0 -17.782372265999584 46.185945283988985 0 46.185945283988985 55.144712580698979 0 0 0 0 -28.161110320357693 62.737558636437825 0 62.737558636437825 29.671472436562908 0 0 0 0 -31.024876451983573 96.404428085302698 0 96.404428085302698 10.130058727647338 0 0 0 0 1.3794553610528055 35.186075022898876 0 35.186075022898876 -32.163975884097454 0 0 0 0 0.51744427626580602 14.84113451430477 0 14.84113451430477 -17.532292702799168 0 0 0 0 -55.670420971140629 18.351265438183873 0 18.351265438183873 13.200369705878074 0 0 0 0 -16.48586067215092 119.69545083371486 0 119.69545083371486 -58.717597788809144 0 0 0 0 -49.66663802528592 52.651872336084125 0 52.651872336084125 85.452964056767087 0 0 0 0 -10.799420461582486 -13.931135950799217 0 -13.931135950799217 68.837451769381005 0 0 0 0 -7.0354202428421786 -40.707843452030602 0 -40.707843452030602 126.6152349192962 0 0 0 0 -47.629889493939288 25.634762438153984 0 25.634762438153984 150.73188355856109 0 0 0 0 86.043776186881814 38.728672022902174 0 38.728672022902174 43.532579484737653 0 0 0 0 -22.448700550433841 39.540980110476994 0 39.540980110476994 -44.255075670815131 0 0 0 0 -8.1126129143278831 92.535274060781376 0 92.535274060781376 52.020168089564322 0 0 0 0 -22.664914377448781 65.622271788301077 0 65.622271788301077 -130.20449745050973 0 0 0 0 0.080229668028778178 104.19434498737246 0 104.19434498737246 -68.099691831885139 0 0 0 0 0.51754103319514844 -0.11791732758895179 0 -0.11791732758895179 -1.1740200441960056 0 0 0 0 -105.50614573090797 108.33799328120767 0 108.33799328120767 -38.69587272390163 0 0 0 0 2.7398481199272036 3.043100949178438 0 3.043100949178438 1.4310985688740132 0 0 0 0 3.1761388073991839 7.9189960116955262 0 7.9189960116955262 2.4085747421395354 0 0 0 0 2.1100206157973203 2.9204000143777193 0 2.9204000143777193 0.88572016505740336 0 0 0 0 2.0856102635348179 3.8757003946120676 0 3.8757003946120676 -2.1195176500868911 0 0 0 0 1.8857070102349098 2.207516653186758 0 2.207516653186758 1.5531697798742243 0 0 0 0 3.575636849989337 3.8382611458732754 0 3.8382611458732754 2.1594969650432176 0 0 0 0 1.3951297138276928 2.4105138020150783 0 2.4105138020150783 1.9972891231747312 0 0 0 0 1.2484778600617812 0.76120965436708943 0 0.76120965436708943 -0.39190149736900537 0 0 0 0 1.0715679411105157 4.4403071832512069 0 4.4403071832512069 1.4841269573134923 0 0 0 0 -1.7915391743467808 5.3966196987121293 0 5.3966196987121293 2.8615923922207003 0 0 0 0 -2.7669449847721808 0.52279728917983448 0 0.52279728917983448 1.7386706785373462 0 0 0 0 0.27543305408877394 1.1441870470900817 0 1.1441870470900817 -0.84200716755240279 0 0 0 0 139.57953176604133 62.941006706194003 0 62.941006706194003 23.031087335892153 0 0 0 0 0.59727692816635081 1.5263815518373534 0 1.5263815518373534 2.2352572221227973 0 0 0 0 1.8512334056690634 1.1254410707417719 0 1.1254410707417719 -12.641325067146681 0 0 0 0 43.974635417150921 -30.080931706834235 0 -30.080931706834235 1.0779399832790659 0 0 0 0 -72.679362300755201 55.614880268863089 0 55.614880268863089 137.2986231591276 0 0 0 0 43.331846768028072 48.108296228575455 0 48.108296228575455 36.1903723751293 0 0 0 0 181.68637258300487 75.395523353507997 0 75.395523353507997 -0.027966196779743768 0 0 0 0 327.53685012526785 248.15057394638825 0 248.15057394638825 198.37404269841136 0 0 0 0 47.561919598233544 33.917433514653567 0 33.917433514653567 82.731425253423367 0 0 0 0 424.83386097931816 217.27613244408167 0 217.27613244408167 72.91057579565279 0 0 0 0 41.898590215290369 79.369798291805637 0 79.369798291805637 86.024994741354931 0 0 0 0 -0.98944469189973461 0.69557119476849039 0 0.69557119476849039 -1.4396130154638058 0 0 0 0 -2.7435758620308661 5.6449064999762868 0 5.6449064999762868 0.14952064191311365 0 0 0 0 0.14851774011863306 0.096346480503973098 0 0.096346480503973098 -0.61752665859110323 0 0 0 0 -32.984713792448929 -5.1031085874892597 0 -5.1031085874892597 -1.0462005329227395 0 0 0 0 -13.515858437863244 67.789137172429037 0 67.789137172429037 -0.12427604647200496 0 0 0 0 -28.822448620941032 44.623497450208561 0 44.623497450208561 -29.669268013345572 0 0 0 0 24.217879840526621 5.777560961265408 0 5.777560961265408 -1.6710985211593652 0 0 0 0 -8.4993311178882323 3.5505343008767341 0 3.5505343008767341 11.208645735692699 0 0 0 0 8.813405962916022 29.297970972289022 0 29.297970972289022 19.454734629674931 0 0 0 0 19.646253710266592 8.0054908205738684 0 8.0054908205738684 4.042047802482557 0 0 0 0 48.767336261805212 19.589455761145473 0 19.589455761145473 -0.57272343627846567 0 0 0 0 9.0903151669690487 15.990391257477313 0 15.990391257477313 13.500733364260213 0 0 0 0 0.7349541877001684 4.5324826640162428 0 4.5324826640162428 4.4022119826204289 0 0 0 0 -2.4545603339529407 4.5252789699512164 0 4.5252789699512164 6.8546910886107071 0 0 0 0 11.703774274505122 6.7221395652213687 0 6.7221395652213687 1.5524648606385654 0 0 0 0 4.5367090940503658 9.6678762876654218 0 9.6678762876654218 5.9544010409590555 0 0 0 0 0.72863678403897314 -0.19098565154247282 0 -0.19098565154247282 -1.7616727540757893 0 0 0 0 4.9771138848363989 1.5908630165513387 0 1.5908630165513387 -1.1046390491351303 0 0 0 0 15.413046318469696 10.916456732445567 0 10.916456732445567 2.9967539418739761 0 0 0 0 93.542767160852236 13.459095963643449 0 13.459095963643449 -16.889361287490829 0 0 0 0 0.11194826200405306 1.3355307532686531 0 1.3355307532686531 -1.238405529743865 0 0 0 0 76.39682237893885 17.485757873251714 0 17.485757873251714 -5.9712596947285874 0 0 0 0 87.061203716852106 35.946641748603724 0 35.946641748603724 -24.369289074762492 0 0 0 0 54.811892777575849 49.31095933976485 0 49.31095933976485 -20.311148276916356 0 0 0 0 23.870172095560747 78.005479613500711 0 78.005479613500711 -27.136073076344474 0 0 0 0 32.128097263014752 37.634721173513753 0 37.634721173513753 -9.2459923554197303 0 0 0 0 54.885940700465653 36.696686030612909 0 36.696686030612909 -22.859566967348655 0 0 0 0 -3.9665723750640609 57.950697523634517 0 57.950697523634517 -6.3156739607911732 0 0 0 0 -0.88219891951302998 77.722548237785304 0 77.722548237785304 -30.955811169333174 0 0 0 0 1.9692428339167236 63.70514574066965 0 63.70514574066965 -2.4942101307715348 0 0 0 0 -0.0045919842515962372 0.096664700785325408 0 0.096664700785325408 0.33257426662791545 0 0 0 0 -4.2057929043957074 8.2107428713982245 0 8.2107428713982245 3.4193641310630483 0 0 0 0 50.176698988188036 24.724193728589853 0 24.724193728589853 -3.118304959822126 0 0 0 0 48.584050639633688 14.988505659751127 0 14.988505659751127 10.584388335479161 0 0 0 0 0.25247727799905384 0.94363179914902684 0 0.94363179914902684 -2.4911420205877093 0 0 0 0 60.377106026922775 38.82975405695106 0 38.82975405695106 -4.9161945850737538 0 0 0 0 15.309127181172698 7.4875993770510831 0 7.4875993770510831 -2.1162241491783789 0 0 0 0 -32.638487602705936 34.583242870881804 0 34.583242870881804 24.482016267133076 0 0 0 0 -123.47200129086286 75.369789063256576 0 75.369789063256576 6.1943086072787992 0 0 0 0 -0.04160756848070335 0.28149594138661538 0 0.28149594138661538 -0.95122134957337323 0 0 0 0 35.658027675420385 56.583214213946803 0 56.583214213946803 -89.89293013828501 0 0 0 0 -48.982895380465379 115.7820927048615 0 115.7820927048615 -65.045129058222756 0 0 0 0 97.332053172664018 100.38205028321681 0 100.38205028321681 -129.91083266054011 0 0 0 0 -68.408638610291518 105.16012645683077 0 105.16012645683077 0.157964969135719 0 0 0 0 -64.677157313783027 149.37323370449849 0 149.37323370449849 -67.240623981886529 0 0 0 0 -37.469750948742217 99.597321703544367 0 99.597321703544367 -25.587261997716269 0 0 0 0 8.6526677848287363 104.33695956218799 0 104.33695956218799 -40.395446897320653 0 0 0 0 8.2111905757414192 52.845708159511254 0 52.845708159511254 -26.022897121318238 0 0 0 0 0.10696784282922955 0.3525215690672745 0 0.3525215690672745 0.73950187702699566 0 0 0 0 24.471039924130309 16.802825148202828 0 16.802825148202828 -0.12732551166300254 0 0 0 0 -137.39268025512047 26.351994232992183 0 26.351994232992183 99.386487876548927 0 0 0 0 137.71067307216663 19.031639835894111 0 19.031639835894111 -93.680252675530937 0 0 0 0 187.67432868136257 -72.979217417267137 0 -72.979217417267137 9.9162219720165012 0 0 0 0 267.80116573027954 94.963834340849644 0 94.963834340849644 -22.180502677267214 0 0 0 0 -32.156384191053348 -82.440569482171668 0 -82.440569482171668 111.63701090567884 0 0 0 0 44.360107466676709 96.215734186500413 0 96.215734186500413 20.162929899201117 0 0 0 0 121.94133428716304 126.39203948855538 0 126.39203948855538 -10.799846347214043 0 0 0 0 -119.59327108177763 152.40687080948305 0 152.40687080948305 -9.8418664281853125 0 0 0 0 0.18037181601761709 0.56969875239204981 0 0.56969875239204981 0.58510508360102875 0 0 0 0 -93.936506617353189 66.998639527577325 0 66.998639527577325 0.86994688880440663 0 0 0 0 -63.712099647113064 53.314338045354816 0 53.314338045354816 -20.562627573135615 0 0 0 0 -60.602273148582753 97.126423909079676 0 97.126423909079676 -18.879070837625477 0 0 0 0 22.39913176855589 148.6794840261382 0 148.6794840261382 -66.237640230978286 0 0 0 0 10.957655616008196 68.836795825576701 0 68.836795825576701 -28.848345798122864 0 0 0 0 -14.269251298658673 105.62894057224548 0 105.62894057224548 -26.89184335178652 0 0 0 0 40.10460076444997 82.885485968128705 0 82.885485968128705 -47.972824967691849 0 0 0 0 102.09674689920575 112.95248670569526 0 112.95248670569526 -60.386554341970623 0 0 0 0 96.811532521654954 70.319026987481266 0 70.319026987481266 -229.13872194924988 0 0 0 0 -36.564284352376262 218.10482158287368 0 218.10482158287368 -29.666748047351575 0 0 0 0 11.684431656879378 29.684930648956652 0 29.684930648956652 -36.444154261351287 0 0 0 0 -3.6381934856315041 41.479282170977058 0 41.479282170977058 -19.969669426831388 0 0 0 0 13.401317653688334 34.975584200200501 0 34.975584200200501 -25.726071316268644 0 0 0 0 13.485685648398237 11.442172396617025 0 11.442172396617025 -17.956091846442177 0 0 0 0 2.9518941408617851 28.674460714723182 0 28.674460714723182 -29.416510079578075 0 0 0 0 7.2968034887261553 8.0451202339227166 0 8.0451202339227166 -50.007360821411112 0 0 0 0 10.800941287065598 32.567476367908057 0 32.567476367908057 -39.631224509976164 0 0 0 0 17.254607208414303 25.89155653750322 0 25.89155653750322 -95.017391283417965 0 0 0 0 -0.26843141367398715 23.501094131200261 0 23.501094131200261 -35.317436288019962 0 0 0 0 -12.497917559480271 44.537278567097019 0 44.537278567097019 -36.397770811354349 0 0 0 0 13.512652844899513 3.7003441983556513 0 3.7003441983556513 -8.5616179030294006 0 0 0 0 42.40118755881597 43.589684617558305 0 43.589684617558305 -30.943265822180365 0 0 0 0 -12.413959840923127 12.240608195476852 0 12.240608195476852 8.6721796757055927 0 0 0 0 39.270106235236128 44.151789396704771 0 44.151789396704771 -1.0070986032442306 0 0 0 0 4.8790973375481901 50.470888432795618 0 50.470888432795618 -1.8535283945439005 0 0 0 0 -7.9734945965843131 33.75041539398444 0 33.75041539398444 -20.52431637166228 0 0 0 0 1.987725640819658 75.985138765622651 0 75.985138765622651 35.395806068061326 0 0 0 0 48.879050238938206 132.24015033252363 0 132.24015033252363 56.595069854458416 0 0 0 0 237.11544138285342 8.6622545868594898 0 8.6622545868594898 121.21793381609132 0 0 0 0 364.43785569008901 34.459860220284099 0 34.459860220284099 39.699239008610675 0 0 0 0 234.46579248717126 -38.455759861104525 0 -38.455759861104525 -0.43680001313259709 0 0 0 0 -136.60897158727627 67.599545847921945 0 67.599545847921945 35.089014442068219 0 0 0 0 0.17334204409368753 0.51516875922539163 0 0.51516875922539163 -0.12005720511522355 0 0 0 0 6.9570700503268199 31.529862121095903 0 31.529862121095903 209.64218155208437 0 0 0 0 3.5888331511159777 27.25380802539803 0 27.25380802539803 208.07487120573387 0 0 0 0 1.0542426820304507 0.45469331228646759 0 0.45469331228646759 1.1783679311096407 0 0 0 0 18.303675382883966 57.158202549120688 0 57.158202549120688 262.2749978977381 0 0 0 0 257.58161291918134 116.5118591434624 0 116.5118591434624 151.06403286762725 0 0 0 0 65.9183472414677 24.377127259509507 0 24.377127259509507 110.18533451472013 0 0 0 0 209.50327373633058 85.395999735492296 0 85.395999735492296 39.392840312531916 0 0 0 0 89.815606401082391 64.90577045811915 0 64.90577045811915 81.426826414262905 0 0 0 0 37.765919312870437 36.457234093266379 0 36.457234093266379 68.243226563879944 0 0 0 0 94.628358784909096 83.279017347187619 0 83.279017347187619 -34.155430551913014 0 0 0 0 68.381798319857353 50.123094428021432 0 50.123094428021432 -44.653641246494772 0 0 0 0 -0.73803607935742832 27.82979910086118 0 27.82979910086118 -144.39482534208582 0 0 0 0 49.210636349138213 104.01271169464417 0 104.01271169464417 -60.333002913004748 0 0 0 0 22.421951165004998 25.905715620988303 0 25.905715620988303 -72.500012772725313 0 0 0 0 67.042229193715002 100.18186739762405 0 100.18186739762405 -191.99586930395708 0 0 0 0 55.621003114469033 -7.6900492577115074 0 -7.6900492577115074 -16.600590363705123 0 0 0 0 22.707701458790041 70.819184034048249 0 70.819184034048249 -52.225718173609494 0 0 0 0 90.631510285099012 175.1743209850938 0 175.1743209850938 270.7203600325638 0 0 0 0 26.615124356915203 -11.823243815945716 0 -11.823243815945716 9.0808202945445373 0 0 0 0 1.9361501960190175 0.97478747198615778 0 0.97478747198615778 -0.099204941726084073 0 0 0 0 -3.4637333705798028 -43.034722883887298 0 -43.034722883887298 -305.71005163088194 0 0 0 0 0.65447826696361178 1.2844781296356267 0 1.2844781296356267 -0.48491268432725576 0 0 0 0 3.2326057394561509 2.2920039416046443 0 2.2920039416046443 0.2216430392720028 0 0 0 0 4.2210227593304808 4.5438105654984611 0 4.5438105654984611 -0.36659902636438346 0 0 0 0 64.490023137294656 49.103274852736831 0 49.103274852736831 -206.13496888276677 0 0 0 0 -31.0162789488557 32.534540394918622 0 32.534540394918622 -9.1935092341664131 0 0 0 0 0.23396037737296099 1.6302202082181665 0 1.6302202082181665 -0.0624604992718929 0 0 0 0 313.86748173569924 79.046202131125938 0 79.046202131125938 -108.23141767917514 0 0 0 0 291.85463214172228 61.031572388796121 0 61.031572388796121 -35.722374541268891 0 0 0 0 179.54011220449445 -77.823406272415923 0 -77.823406272415923 -186.55021969219524 0 0 0 0 196.09560143847557 -5.5093759311894246 0 -5.5093759311894246 135.90033493757983 0 0 0 0 327.10329979803987 177.91210270366855 0 177.91210270366855 15.712395521164581 0 0 0 0 422.08703562530377 129.3624720683074 0 129.3624720683074 -300.36258772588826 0 0 0 0 3.4594584648541966 15.246490300360477 0 15.246490300360477 -1.0594148001000576 0 0 0 0 0.027582005170474683 2.0155363126477424 0 2.0155363126477424 0.023256962352810717 0 0 0 0 19.567383688411859 5.7044344377500238 0 5.7044344377500238 -12.569153303080384 0 0 0 0 91.822121852284894 96.449978715593474 0 96.449978715593474 48.497541927026759 0 0 0 0 126.10177164949062 128.04710726326948 0 128.04710726326948 38.042959602575138 0 0 0 0 -2.1573511472807922 28.820577036724899 0 28.820577036724899 35.842420853272415 0 0 0 0 164.24882946349499 -12.442778928079861 0 -12.442778928079861 -19.206132909028838 0 0 0 0 14.075530506639957 -3.6221298595128246 0 -3.6221298595128246 -4.7513812136785418 0 0 0 0 10.464067673621045 -3.2410909901518608 0 -3.2410909901518608 3.4978697579244908 0 0 0 0 0.52224481409250689 2.0843106199549628 0 2.0843106199549628 -0.81240924789990032 0 0 0 0 57.684016085349867 64.648109926688448 0 64.648109926688448 58.518934337964311 0 0 0 0 0.76295406090787399 0.96873183943342767 0 0.96873183943342767 -0.45528949110488526 0 0 0 0 119.06540774697532 121.81476341649432 0 121.81476341649432 70.663927326776502 0 0 0 0 171.3392258771687 122.77861061592375 0 122.77861061592375 15.341799030402854 0 0 0 0 310.41277100144555 193.92409786796588 0 193.92409786796588 31.240476196508098 0 0 0 0 171.92692869399343 154.39175420478659 0 154.39175420478659 52.319049198440553 0 0 0 0 170.86703332710954 121.29690873894174 0 121.29690873894174 12.072426532267855 0 0 0 0 73.994565867869824 32.031450483054869 0 32.031450483054869 19.637816062560887 0 0 0 0 166.16293405213924 58.806118092151337 0 58.806118092151337 -5.1393960379300552 0 0 0 0 219.28317666367502 132.47085271008473 0 132.47085271008473 13.060917166907984 0 0 0 0 555.92167844301821 126.87811189977947 0 126.87811189977947 2.8868088737360722 0 0 0 0 197.3983717038318 253.30204530419451 0 253.30204530419451 240.68956043293838 0 0 0 0 0.26871404421022937 0.37696928833229748 0 0.37696928833229748 1.133241766868565 0 0 0 0 -13.681806583485923 81.818390354401345 0 81.818390354401345 108.54973168299239 0 0 0 0 -24.027865965226511 15.889009223375979 0 15.889009223375979 -0.073060777927821619 0 0 0 0 140.11340700819346 -6.681020091069513 0 -6.681020091069513 -101.38387029314072 0 0 0 0 390.24588736432815 183.86197348341739 0 183.86197348341739 250.25038438071533 0 0 0 0 1.6572519168490718 0.56711275577909603 0 0.56711275577909603 -0.32813531674677243 0 0 0 0 9.5697758671858217 -5.1449146310633296 0 -5.1449146310633296 10.247861097856003 0 0 0 0 10.399800172613457 -2.5472265588572611 0 -2.5472265588572611 1.4162267256469931 0 0 0 0 0.94021104631670238 0.79818140672403715 0 0.79818140672403715 -0.22709939515350541 0 0 0 0 5.2744423284950761 -1.3654917768379775 0 -1.3654917768379775 -0.45017875256423068 0 0 0 0 1.134897849038881 2.8298414418674454 0 2.8298414418674454 0.036575609567925937 0 0 0 0 3.3226266021628685 1.3173539231775457 0 1.3173539231775457 -0.90413783484777177 0 0 0 0 3.217310837297191 7.6442624891515152 0 7.6442624891515152 -15.197664694318519 0 0 0 0 83.619335424262772 18.306621410355092 0 18.306621410355092 1.52766698906089 0 0 0 0 -10.401021948551715 21.930840819471996 0 21.930840819471996 -8.4565878174748832 0 0 0 0 -6.7382016400451903 14.078001628010952 0 14.078001628010952 5.2624938413646305 0 0 0 0 5.5381071687334043 3.4782237382096355 0 3.4782237382096355 7.0984287174251222 0 0 0 0 1.18943789093374 0.71081717393627031 0 0.71081717393627031 -0.38302961593363349 0 0 0 0 34.440942565659498 23.985507099208917 0 23.985507099208917 19.615400168873748 0 0 0 0 19.223302398853775 8.6861512625237083 0 8.6861512625237083 0.020302459259255556 0 0 0 0 13.960909871469283 8.315266024298694 0 8.315266024298694 13.812776440710877 0 0 0 0 11.625150847067289 -2.1366181075827626 0 -2.1366181075827626 -3.8221709340032248 0 0 0 0 0.75192627521518962 -0.044852231026839551 0 -0.044852231026839551 0.00014321953531037934 0 0 0 0 28.228527773726455 20.434424641774967 0 20.434424641774967 21.010135140670172 0 0 0 0 36.78650614389062 23.104873593330922 0 23.104873593330922 11.923710918239522 0 0 0 0 34.512878309275038 19.960206403429765 0 19.960206403429765 7.6275265761250921 0 0 0 0 36.747867167990535 23.070889577782509 0 23.070889577782509 16.07176782210081 0 0 0 0 50.214645324222602 26.246331833305703 0 26.246331833305703 0.017203646806592587 0 0 0 0 58.891089973830844 37.188591793516935 0 37.188591793516935 12.782935668066784 0 0 0 0 3.6112181471814253 -0.84515770726020989 0 -0.84515770726020989 -0.54374861804344121 0 0 0 0 58.803469156280244 53.979281417389757 0 53.979281417389757 41.389707494772665 0 0 0 0 39.953323392051971 28.348136465454445 0 28.348136465454445 28.836672256062229 0 0 0 0 -26.210655656300929 34.983958190532576 0 34.983958190532576 0.95243030243182147 0 0 0 0 44.622226910119124 -42.386537170119482 0 -42.386537170119482 16.410521331246855 0 0 0 0 37.336121232236565 22.4826890479344 0 22.4826890479344 15.989600689371628 0 0 0 0 16.77942030221719 -12.760916061339231 0 -12.760916061339231 4.2832611067169637 0 0 0 0 6.9830613751135324 10.165492593470844 0 10.165492593470844 -13.504874113103142 0 0 0 0 29.615648839602571 -0.49614488380484545 0 -0.49614488380484545 -17.259398511721884 0 0 0 0 -3.5497853680122482 1.2187645267277958 0 1.2187645267277958 -20.799924324059248 0 0 0 0 10.496563233264229 16.9353887590255 0 16.9353887590255 -27.395060440776433 0 0 0 0 10.347181234651284 11.394022366905119 0 11.394022366905119 -12.794361793303324 0 0 0 0 18.919028681683322 -4.665624196490171 0 -4.665624196490171 -6.1173711522296799 0 0 0 0 40.021278839483152 192.10277210304776 0 192.10277210304776 110.54602295176392 0 0 0 0 0.65238756989240532 0.16249982198048585 0 0.16249982198048585 -0.37644471169887339 0 0 0 0 -2.9487730663988287 -29.282381251418428 0 -29.282381251418428 -102.18794704569882 0 0 0 0 8.5664664443427512 -0.84168943423719611 0 -0.84168943423719611 -32.484274584079685 0 0 0 0 -2.4549702427281277 -4.6672007234706143 0 -4.6672007234706143 -33.650833916202828 0 0 0 0 2.1046939474629536 -0.064543219429502585 0 -0.064543219429502585 -0.78257955569472415 0 0 0 0 75.851676415045404 90.453822011730153 0 90.453822011730153 79.615913147506944 0 0 0 0 85.399052020627835 54.286225333536322 0 54.286225333536322 -0.24884972604559152 0 0 0 0 9.1408461564214747 16.0614689335207 0 16.0614689335207 43.903230723484739 0 0 0 0 30.92188774887746 -1.2101264064344832 0 -1.2101264064344832 -1.626381780988595 0 0 0 0 60.949610850826886 36.310582819911474 0 36.310582819911474 17.103794359283711 0 0 0 0 49.692296942042191 40.075609537421769 0 40.075609537421769 16.081718380954044 0 0 0 0 59.328727654290581 33.546735303237654 0 33.546735303237654 -0.015409775855005137 0 0 0 0 -12.520446835283451 41.255384795524151 0 41.255384795524151 -0.014521892056090379 0 0 0 0 -112.35444321078171 46.978178916848719 0 46.978178916848719 0.078721176099861623 0 0 0 0 -173.74450444447666 -1.5211315905416996 0 -1.5211315905416996 15.33385676788339 0 0 0 0 -48.832226293885952 0.48233393691225501 0 0.48233393691225501 9.7541007765521499 0 0 0 0 -35.459647036434149 52.823354664246381 0 52.823354664246381 -0.041940741324651754 0 0 0 0 -59.130437610981971 41.092084825206257 0 41.092084825206257 16.995579248413833 0 0 0 0 -81.075143353009366 83.092833243472342 0 83.092833243472342 10.35014143598346 0 0 0 0 -109.21377022164074 68.160915541785471 0 68.160915541785471 7.5764038772856566 0 0 0 0 0.01562304504951606 -0.27516021330257212 0 -0.27516021330257212 0.23759390663034452 0 0 0 0 47.416790197509044 49.512845453068621 0 49.512845453068621 12.618588859570082 0 0 0 0 79.363157023941596 33.928708172641109 0 33.928708172641109 2.3131514977867482 0 0 0 0 37.989234993696073 19.391072937944955 0 19.391072937944955 -2.5636460844834801 0 0 0 0 -145.82698976515479 101.65259306687676 0 101.65259306687676 -23.034600520322783 0 0 0 0 -6.3525677262257538 15.278372304184757 0 15.278372304184757 -55.372254128231361 0 0 0 0 -1.3890152499021182 1.3379385834881852 0 1.3379385834881852 -0.50493847549989113 0 0 0 0 -175.33071041607866 -36.380022568480854 0 -36.380022568480854 -2.0557737319313674 0 0 0 0 5.1108081734045641 23.879764489540321 0 23.879764489540321 13.731835963393678 0 0 0 0 -1.1155471539121051 0.57409843999917531 0 0.57409843999917531 0.78153620996019413 0 0 0 0 37.614192629958325 10.263583517473307 0 10.263583517473307 0.031689578482655634 0 0 0 0 22.863867265940272 3.1169497543814941 0 3.1169497543814941 -84.397170326219566 0 0 0 0 -153.6122481250095 139.78339448001771 0 139.78339448001771 -23.085416841306142 0 0 0 0 -3.9162352636301279 47.650592353264983 0 47.650592353264983 -8.5661019315430167 0 0 0 0 -18.151799983243443 68.693677086544312 0 68.693677086544312 -12.446509101961055 0 0 0 0 -30.280342979221409 24.179003764667868 0 24.179003764667868 8.0641895994403967 0 0 0 0 -83.925787283524699 42.472540826742261 0 42.472540826742261 2.2843532127349135 0 0 0 0 -53.390801491096994 1.1864733452603105 0 1.1864733452603105 9.4598926836397368 0 0 0 0 -3.8381492147783547 4.2303351127380928 0 4.2303351127380928 -3.422612367426396 0 0 0 0 -1.1522314852288282 0.73506896926333232 0 0.73506896926333232 3.4245687633742534 0 0 0 0 3.8355666862487396 4.9457103999920946 0 4.9457103999920946 -2.1151823160835193 0 0 0 0 -41.364442820107342 32.452360705796309 0 32.452360705796309 -6.7866362306594965 0 0 0 0 0.17762985230069717 9.3270174826675429 0 9.3270174826675429 -1.0877694897972106 0 0 0 0 -23.318274554468644 10.347215405516181 0 10.347215405516181 3.8528996314353208 0 0 0 0 -11.478079113112642 14.689558469289295 0 14.689558469289295 -1.6588193027673697 0 0 0 0 -6.818180733255609 6.134094955866658 0 6.134094955866658 2.6261325455488986 0 0 0 0 -73.623976916375938 7.4771859382815364 0 7.4771859382815364 9.4862891338761983 0 0 0 0 0.013390274651304053 0.043050393173154067 0 0.043050393173154067 2.1767903621354918 0 0 0 0 -38.017280695924867 15.57095875395953 0 15.57095875395953 8.6822710641126832 0 0 0 0 -62.746539653156788 19.647009479927874 0 19.647009479927874 13.580426767770405 0 0 0 0 -17.132322748729109 4.8546093366039713 0 4.8546093366039713 -2.1600468973265379 0 0 0 0 -15.521693057912785 12.998070807822842 0 12.998070807822842 0.052796358042542124 0 0 0 0 -25.993156680229703 16.023474654368329 0 16.023474654368329 28.123960744256692 0 0 0 0 -40.685139850487587 2.5512881119784652 0 2.5512881119784652 16.022672677503579 0 0 0 0 8.128019208328924 45.442302002684698 0 45.442302002684698 19.693326794100358 0 0 0 0 -0.033413206833731598 0.052662870660515004 0 0.052662870660515004 0.75618158510489764 0 0 0 0 -28.825348240966022 1.0358743947426774 0 1.0358743947426774 27.087374083477698 0 0 0 0 -14.393060220619631 15.988567749191134 0 15.988567749191134 1.9278390277653941 0 0 0 0 -29.27147565777954 22.104247394902814 0 22.104247394902814 1.9116144850959245 0 0 0 0 -62.547480050647557 20.783491372113531 0 20.783491372113531 16.208069288364641 0 0 0 0 -20.562156061856513 9.0848636204000286 0 9.0848636204000286 10.211305999384422 0 0 0 0 3.0822505295603833 11.343480195560232 0 11.343480195560232 -1.9468760819399904 0 0 0 0 -0.81611085221424329 0.56981962184736901 0 0.56981962184736901 0.6619800017446309 0 0 0 0 -5.1426036832028252 5.8547611659636836 0 5.8547611659636836 -4.6262087054971275 0 0 0 0 0.56713526660581692 16.796514662925802 0 16.796514662925802 7.5632790664749336 0 0 0 0 6.1505534307298149 1.8480340692731261 0 1.8480340692731261 -7.2618713962783659 0 0 0 0 3.0759869810790406 12.884607333147869 0 12.884607333147869 -1.0918180949747693 0 0 0 0 2.8226019323547007 6.7660482096398482 0 6.7660482096398482 0.85336806564373546 0 0 0 0 -2.6351940451919122 5.0424038401652513 0 5.0424038401652513 -1.1815390246291315 0 0 0 0 0.16020954199447246 3.1691760470517636 0 3.1691760470517636 -3.4292912085301559 0 0 0 0 0.9029853379583983 5.3451221483992413 0 5.3451221483992413 -0.15837760982685722 0 0 0 0 -0.15293717836811993 11.651977804896433 0 11.651977804896433 -0.35363854631577851 0 0 0 0 5.3735250611391621 9.6769591736592702 0 9.6769591736592702 0.30346539595484501 0 0 0 0 3.0736331975874691 12.6860332510023 0 12.6860332510023 -1.956553724125996 0 0 0 0 2.5267415571267975 13.71034466877245 0 13.71034466877245 -1.7585446530320041 0 0 0 0 2.5895421994240451 13.416947219121539 0 13.416947219121539 -1.3417587073199684 0 0 0 0 3.2938398435264844 11.469002956615441 0 11.469002956615441 0.038248686425504275 0 0 0 0 3.3772325518036723 13.507126909529688 0 13.507126909529688 -1.7521164052268432 0 0 0 0 4.4130024015582876 13.801813171839967 0 13.801813171839967 -1.9318483947936329 0 0 0 0 0.68848180762029187 14.205983760135041 0 14.205983760135041 -1.1651188803080004 0 0 0 0 2.4084648109119371 15.221465261962294 0 15.221465261962294 -1.9047412686368261 0 0 0 0 -4.829781550892676 14.514930493496649 0 14.514930493496649 0.37935734644270269 0 0 0 0 0.10076673516550727 15.808993377246225 0 15.808993377246225 -0.80710674898000434 0 0 0 0 0.06595818325683922 12.842496037912497 0 12.842496037912497 0.59115293308241235 0 0 0 0 -3.0564269051315023 12.211361696012318 0 12.211361696012318 0.96927540219621733 0 0 0 0 2.0411696321472164 13.627629293043356 0 13.627629293043356 -0.96750879493265529 0 0 0 0 1.455319093644448 14.482934332416335 0 14.482934332416335 -1.0976596959899325 0 0 0 0 -20.020287961973281 11.074061658417122 0 11.074061658417122 7.6460018653360748 0 0 0 0 -11.961402166816015 16.342039290235334 0 16.342039290235334 10.198850821052474 0 0 0 0 -4.7933408261545054 14.164673298942716 0 14.164673298942716 3.5810216740246688 0 0 0 0 -11.255060438311148 16.446265926697379 0 16.446265926697379 2.7925772684266121 0 0 0 0 -10.983538937440585 12.678745641978821 0 12.678745641978821 3.7983864248708414 0 0 0 0 -3.7317431643713235 10.425362330039206 0 10.425362330039206 3.4026690003483964 0 0 0 0 -11.021000466362693 10.794345927257382 0 10.794345927257382 6.1039813194638555 0 0 0 0 -14.728772522080249 9.9229963256207157 0 9.9229963256207157 5.9879589028314513 0 0 0 0 -9.1314048464457755 8.4600230671003374 0 8.4600230671003374 3.6683287558589655 0 0 0 0 -7.626121485032229 10.85879957020552 0 10.85879957020552 3.7013090291620756 0 0 0 0 -3.1009116659381561 8.0010358600411564 0 8.0010358600411564 4.8089162458891224 0 0 0 0 -8.8587044647455286 8.9712094017158961 0 8.9712094017158961 8.587622582061158 0 0 0 0 -6.08685379339272 10.738032151617517 0 10.738032151617517 5.0709084876732504 0 0 0 0 -14.608376470570022 10.818433469406045 0 10.818433469406045 5.108041688468802 0 0 0 0 -11.596549708788871 12.697857577926698 0 12.697857577926698 4.2736193590017137 0 0 0 0 2.2214845054024863 13.223226569695726 0 13.223226569695726 -0.57543750240074587 0 0 0 0 4.2146268760441217 13.830218087849062 0 13.830218087849062 -0.39081752682614024 0 0 0 0 3.0250588500439335 10.16122669325523 0 10.16122669325523 1.0731701638142113 0 0 0 0 1.7849611108899808 11.047507452618447 0 11.047507452618447 1.2461543844055996 0 0 0 0 -2.4007608701635945 10.6311697631063 0 10.6311697631063 2.5073688343036338 0 0 0 0 3.0073972106138172 7.3478592310602835 0 7.3478592310602835 3.6410984942049254 0 0 0 0 -3.6132768554974746 7.7154447416796756 0 7.7154447416796756 7.7472238672453386 0 0 0 0 8.2565930697448948 12.139661873268778 0 12.139661873268778 0.24689146658784011 0 0 0 0 8.301075357019954 6.9380187381921132 0 6.9380187381921132 3.4311809182327124 0 0 0 0 2.8146417914477979 10.472540844924765 0 10.472540844924765 1.5039389587473124 0 0 0 0 -1.8557665960638587 12.380995756328048 0 12.380995756328048 13.718839329987532 0 0 0 0 -5.0678801154743471 4.4180323284338137 0 4.4180323284338137 -3.7233974004105974 0 0 0 0 -4.9036127572488937 5.2400467484747217 0 5.2400467484747217 -5.1516379334320668 0 0 0 0 -1.0636728544085514 20.309314245485496 0 20.309314245485496 -0.57120809558909968 0 0 0 0 1.3056860593055717 4.8377915556666267 0 4.8377915556666267 9.429032521253248 0 0 0 0 0.62232417215118174 0.4456315797133783 0 0.4456315797133783 -1.2386702670418259 0 0 0 0 31.573245516377256 -20.725247103589936 0 -20.725247103589936 -5.0141132605858729 0 0 0 0 -8.8054030437720598 12.114135112977237 0 12.114135112977237 11.537751849680262 0 0 0 0 -11.537799002260726 16.046559795213398 0 16.046559795213398 2.2937156142970707 0 0 0 0 -11.598979336299749 15.732924542080582 0 15.732924542080582 6.8556004381121056 0 0 0 0 7.2410009711234125 -2.3415606813341583 0 -2.3415606813341583 7.9273833216248022 0 0 0 0 1.3440733811460746 30.874156667646048 0 30.874156667646048 14.341389587934827 0 0 0 0 7.6290061392774078 18.339814852133713 0 18.339814852133713 -0.24118310708490753 0 0 0 0 -6.9098819395926512 17.373152353344267 0 17.373152353344267 11.834961533750175 0 0 0 0 -4.7852582813343361 16.107937778282576 0 16.107937778282576 36.289570136086695 0 0 0 0 0.70258240987800491 17.102153335314142 0 17.102153335314142 11.585292395593569 0 0 0 0 -25.265603663391175 -2.4660915036711231 0 -2.4660915036711231 -3.2611887792645575 0 0 0 0 0.25652458900386765 -0.51066584372790125 0 -0.51066584372790125 0.092140024322262093 0 0 0 0 -56.989479656261665 -3.0111595544121883 0 -3.0111595544121883 24.950068671025292 0 0 0 0 -39.156837279895171 14.811747974935315 0 14.811747974935315 34.177893321388183 0 0 0 0 0.20331560724116571 13.5156691375214 0 13.5156691375214 -7.0268265508639161 0 0 0 0 6.2942416704808011 6.3586331863780288 0 6.3586331863780288 4.8046043856738834 0 0 0 0 17.941766369572179 -2.484570777431145 0 -2.484570777431145 10.868887711298157 0 0 0 0 8.966045793487865 65.017133332561571 0 65.017133332561571 104.06428711327681 0 0 0 0 48.928290361697691 40.010376173375334 0 40.010376173375334 27.28181501817744 0 0 0 0 56.201295866070723 60.883543590326553 0 60.883543590326553 67.150620956093917 0 0 0 0 58.144585902126835 83.237313642511026 0 83.237313642511026 92.227903622097074 0 0 0 0 50.292677088588334 72.301125228716046 0 72.301125228716046 77.652536795137166 0 0 0 0 54.994435037784569 58.601077181883966 0 58.601077181883966 70.197329765791437 0 0 0 0 32.240599579511809 41.399273202112454 0 41.399273202112454 29.380175972886718 0 0 0 0 -20.616710676973526 68.347093170979861 0 68.347093170979861 68.365215792075105 0 0 0 0 19.518128098673969 74.307775579455665 0 74.307775579455665 54.689525615325692 0 0 0 0 78.530822745182832 57.763139041994691 0 57.763139041994691 55.291239529085942 0 0 0 0 87.668972340193022 82.756646498415193 0 82.756646498415193 45.653172849200928 0 0 0 0 9.6763358593289013 42.906874325833996 0 42.906874325833996 42.808004018051179 0 0 0 0 90.457763672329293 50.393893672480772 0 50.393893672480772 11.794149492898214 0 0 0 0 0.14979686684911631 -0.12047408781593205 0 -0.12047408781593205 -0.11377691776743148 0 0 0 0 -77.357154047264885 6.3916120152935036 0 6.3916120152935036 43.400473604058789 0 0 0 0 16.482223323066137 50.687588975312792 0 50.687588975312792 22.652847887054577 0 0 0 0 0.086926190089574806 0.062878540235418612 0 0.062878540235418612 -0.053185581074501442 0 0 0 0 35.446555151393056 29.048108697792941 0 29.048108697792941 23.325316765054595 0 0 0 0 34.784279861762116 36.098453598619017 0 36.098453598619017 15.96628154586142 0 0 0 0 27.566341099499596 59.029680369194239 0 59.029680369194239 28.225388464132266 0 0 0 0 60.606634974732287 56.515751419277422 0 56.515751419277422 28.324632382007621 0 0 0 0 103.33954970100331 75.434941603238258 0 75.434941603238258 -0.0012309135963732842 0 0 0 0 0.20840076399316931 -0.091092323428590305 0 -0.091092323428590305 -0.15936753281515337 0 0 0 0 61.969802449171993 59.282063572250991 0 59.282063572250991 39.921636769551696 0 0 0 0 37.586117820539926 91.236319755970271 0 91.236319755970271 0.10006014541795594 0 0 0 0 -0.069977170834590652 67.31306641071933 0 67.31306641071933 42.052235103056319 0 0 0 0 123.19623841985185 60.463957828319508 0 60.463957828319508 0.064447239250512212 0 0 0 0 0.31441343907849806 0.10736610989049922 0 0.10736610989049922 -0.47823684835094582 0 0 0 0 100.49970894713874 43.735142283892856 0 43.735142283892856 22.25954638525036 0 0 0 0 118.25748357635803 82.231650131730021 0 82.231650131730021 25.771625042310802 0 0 0 0 16.962785855865604 29.346225963053257 0 29.346225963053257 24.978422039435827 0 0 0 0 97.149651374539644 47.207235733321795 0 47.207235733321795 6.6381495894529507 0 0 0 0 78.919713100314766 71.342234590672433 0 71.342234590672433 -0.032522356592380675 0 0 0 0 81.387269648860638 29.142400725423613 0 29.142400725423613 -35.476948811436159 0 0 0 0 0.26054139589393266 -0.16601404668675812 0 -0.16601404668675812 -0.31417616961149264 0 0 0 0 -4.1134428417490199 43.591125472685235 0 43.591125472685235 0.16696778864882497 0 0 0 0 -0.12186014667082246 -0.18066547850829551 0 -0.18066547850829551 0.14907992302133266 0 0 0 0 -4.1129400771042128 43.605409193964761 0 43.605409193964761 -0.15807925614899432 0 0 0 0 -98.707557997245658 13.395889051394988 0 13.395889051394988 35.359584536713555 0 0 0 0 -13.581968780830721 21.981236109130805 0 21.981236109130805 -40.033524042033605 0 0 0 0 -11.057666577687087 4.9417063789578606 0 4.9417063789578606 57.076506076582518 0 0 0 0 26.459584590742452 41.750820519160698 0 41.750820519160698 -20.343137580199254 0 0 0 0 0.18080054757890718 -0.057447584566830301 0 -0.057447584566830301 -0.24367562213961236 0 0 0 0 81.895001963605864 42.535805631329367 0 42.535805631329367 20.15862847594326 0 0 0 0 86.36097586816436 56.067558295968865 0 56.067558295968865 26.41535471190582 0 0 0 0 -0.056030403054145861 0.15153106599882626 0 0.15153106599882626 0.30540078988578756 0 0 0 0 -54.239371776067401 26.978019085006963 0 26.978019085006963 30.12453215777532 0 0 0 0 3.1130816025238346 -12.222457951613251 0 -12.222457951613251 -29.343801356943004 0 0 0 0 73.017112266809818 45.897123701850433 0 45.897123701850433 8.5935858200264192 0 0 0 0 113.08896615629601 61.922122471545663 0 61.922122471545663 -9.3683999460408813 0 0 0 0 76.245181038844748 91.596893276788251 0 91.596893276788251 57.557195250108634 0 0 0 0 107.82763456942121 78.8649296590429 0 78.8649296590429 41.593902332793732 0 0 0 0 88.477691168322963 74.761685160077832 0 74.761685160077832 48.162535773259151 0 0 0 0 124.53856871892094 71.428574022959765 0 71.428574022959765 44.3286005131813 0 0 0 0 100.68934737286963 75.176961114017104 0 75.176961114017104 42.344642951375135 0 0 0 0 99.165729786514021 59.163394374249037 0 59.163394374249037 15.752340434341022 0 0 0 0 0.32614807144009106 0.16534219936343675 0 0.16534219936343675 -0.41493249883993144 0 0 0 0 148.83938863139508 128.00512991424671 0 128.00512991424671 74.500473200190754 0 0 0 0 135.54556181261796 79.870346974512358 0 79.870346974512358 59.13526330894274 0 0 0 0 0.20066247081256527 0.37429664879432067 0 0.37429664879432067 -0.6465905000431178 0 0 0 0 89.814374512998256 58.066477471016697 0 58.066477471016697 40.332977733452935 0 0 0 0 90.513143744565696 47.641482839877426 0 47.641482839877426 25.135082446609886 0 0 0 0 92.890469590826797 55.137296376024096 0 55.137296376024096 12.933749528894623 0 0 0 0 -170.11877395914416 98.321753623282348 0 98.321753623282348 11.076779649623859 0 0 0 0 -117.17807345876645 92.780597932945966 0 92.780597932945966 -14.181097831487932 0 0 0 0 -116.39697956397868 61.695366602930335 0 61.695366602930335 -2.717461432213895 0 0 0 0 -43.894440322248556 38.77610978953453 0 38.77610978953453 0.035453180483289659 0 0 0 0 -93.107955915009825 94.524934143021255 0 94.524934143021255 17.901275663867636 0 0 0 0 20.055855119578609 68.428018183696622 0 68.428018183696622 -31.480414185889458 0 0 0 0 -111.82849246721617 24.044106340837061 0 24.044106340837061 22.286583333590897 0 0 0 0 -240.68350510193295 45.60086319819402 0 45.60086319819402 45.833884261124695 0 0 0 0 -197.17371660216531 -5.1596671127153968 0 -5.1596671127153968 20.092240625315753 0 0 0 0 -0.18845215346729086 0.10689862084938717 0 0.10689862084938717 0.2069397806180362 0 0 0 0 -118.68172501233312 89.720787003819169 0 89.720787003819169 -32.430540228127938 0 0 0 0 -154.78689320941112 38.025509277763376 0 38.025509277763376 15.199959436122299 0 0 0 0 -92.044532571664604 53.418643607707054 0 53.418643607707054 4.277078303251983 0 0 0 0 27.53358074184041 21.789792540025019 0 21.789792540025019 -32.855969698204717 0 0 0 0 -80.360172338962002 54.491635477013915 0 54.491635477013915 0.028067457841205477 0 0 0 0 -93.741542583454248 32.881449492639149 0 32.881449492639149 19.035153801211891 0 0 0 0 -64.262422472713297 -12.241810891697241 0 -12.241810891697241 1.9618227106329869 0 0 0 0 -32.482776977284516 19.061274334807536 0 19.061274334807536 -20.545403355585222 0 0 0 0 -70.049055891257012 24.874316867437301 0 24.874316867437301 -1.6309042238453912 0 0 0 0 -94.461290335260855 20.53642707833751 0 20.53642707833751 1.6074614629815187 0 0 0 0 -98.369733951249714 -1.4315530770380747 0 -1.4315530770380747 -1.1541098457382759 0 0 0 0 -85.694378379987029 2.4544745769362635 0 2.4544745769362635 -6.2414337387672276 0 0 0 0 -150.43644185658695 27.434895338115894 0 27.434895338115894 5.4757315594470128 0 0 0 0 -99.247284882671124 2.2647648943878949 0 2.2647648943878949 -30.715452632186498 0 0 0 0 -0.33774892368878967 0.55413384194574533 0 0.55413384194574533 0.44966182759205964 0 0 0 0 -172.55393838505373 64.724039698269394 0 64.724039698269394 -1.8749209288798738 0 0 0 0 -157.36543472627136 71.734077545153923 0 71.734077545153923 -12.761940825430429 0 0 0 0 -266.72807055154954 63.916781559136325 0 63.916781559136325 -4.4689835209928788 0 0 0 0 -184.17105460816947 69.098129730148685 0 69.098129730148685 6.0281675635778811 0 0 0 0 -28.461610840787216 200.41455590475744 0 200.41455590475744 -26.848528118172908 0 0 0 0 -325.30534103731861 154.4790693733521 0 154.4790693733521 -18.362583005009583 0 0 0 0 -187.31524752800215 120.51702577166452 0 120.51702577166452 -30.417484308713028 0 0 0 0 -158.63425369189372 111.48570873142762 0 111.48570873142762 -38.816119208911914 0 0 0 0 -330.82152112717495 86.834322087492183 0 86.834322087492183 3.73634912540183 0 0 0 0 -313.81659543589137 64.99172023463376 0 64.99172023463376 -56.315872876601134 0 0 0 0 -114.94340049694711 98.452422644982107 0 98.452422644982107 -37.187674560444066 0 0 0 0 -92.486956355150909 34.931927411474589 0 34.931927411474589 31.225016095422689 0 0 0 0 -74.526513268839153 31.740919679600665 0 31.740919679600665 0.48239146792570864 0 0 0 0 -0.33765312693211724 0.25057740898653336 0 0.25057740898653336 0.24322640927602635 0 0 0 0 -85.949113911107816 39.704963268081883 0 39.704963268081883 63.263663299459949 0 0 0 0 12.342495825181686 92.347195654575444 0 92.347195654575444 33.375060170241341 0 0 0 0 -80.547239474634807 23.931606694204675 0 23.931606694204675 47.555205530015883 0 0 0 0 4.2280943215464504 69.495463493628904 0 69.495463493628904 72.934991011035891 0 0 0 0 -8.5211886514689468 105.49473907976471 0 105.49473907976471 -5.7040730966546107 0 0 0 0 -76.079108092938441 71.777165878947017 0 71.777165878947017 244.84450032099812 0 0 0 0 -101.8475543375007 173.44037984659735 0 173.44037984659735 35.712764494946896 0 0 0 0 -268.06489610250719 199.49584594512635 0 199.49584594512635 27.267169694740915 0 0 0 0 -177.91424595572425 75.391278707413221 0 75.391278707413221 101.2194187249097 0 0 0 0 -286.76883046493458 55.34232773704116 0 55.34232773704116 31.364565187819608 0 0 0 0 -207.78098466309098 156.6353500934199 0 156.6353500934199 -43.343696662566799 0 0 0 0 -425.50450792665561 259.539406462638 0 259.539406462638 -91.708747658044558 0 0 0 0 -793.54205702758327 82.165085780206937 0 82.165085780206937 99.200423675794809 0 0 0 0 -413.16633884019575 142.72125928474998 0 142.72125928474998 64.140296969728297 0 0 0 0 -276.62892386205385 98.29092462666631 0 98.29092462666631 -13.151427794569827 0 0 0 0 -402.29770644564576 17.437794874566066 0 17.437794874566066 -42.4529416078949 0 0 0 0 28.623981015547542 139.05931187217993 0 139.05931187217993 -18.912471790790732 0 0 0 0 4.8713390358361721 -44.069415516864865 0 -44.069415516864865 40.172329102699223 0 0 0 0 -0.72968031462047334 1.6761183805417854 0 1.6761183805417854 -1.2199112021830842 0 0 0 0 289.59543952807599 108.89617881225672 0 108.89617881225672 -83.577578362186614 0 0 0 0 -91.48513715548421 -21.735607192677151 0 -21.735607192677151 83.229805216502427 0 0 0 0 138.93074607779363 207.2202651915959 0 207.2202651915959 216.99888685748942 0 0 0 0 -0.072933934268404776 0.095075927966490781 0 0.095075927966490781 1.1280773693127699 0 0 0 0 312.06047427821977 223.43601918875902 0 223.43601918875902 82.50054414728038 0 0 0 0 87.125647147518066 51.796079836655736 0 51.796079836655736 22.16194291679858 0 0 0 0 -67.513924388209489 15.454085842438872 0 15.454085842438872 52.577020094224281 0 0 0 0 0.11864273467120889 -0.43338226593428075 0 -0.43338226593428075 0.56722065710963676 0 0 0 0 -31.768533158114224 -4.6673691983032768 0 -4.6673691983032768 4.5517345367643429 0 0 0 0 -38.350656017697474 49.415176557574341 0 49.415176557574341 83.198088264321996 0 0 0 0 24.894117868760532 29.66060060654263 0 29.66060060654263 25.311355865458609 0 0 0 0 -82.727973080134689 142.43435848493027 0 142.43435848493027 183.52641376805332 0 0 0 0 74.183445246580959 90.413196502664505 0 90.413196502664505 101.56490125202254 0 0 0 0 89.717225003035765 130.23890480399132 0 130.23890480399132 162.60767214335647 0 0 0 0 58.606137636157655 99.047183789891278 0 99.047183789891278 98.380726249331019 0 0 0 0 74.677613933265093 81.493705661094282 0 81.493705661094282 87.055535307788887 0 0 0 0 93.867450654338427 124.81167054497564 0 124.81167054497564 109.22120704712142 0 0 0 0 121.74698260877176 112.13453691795348 0 112.13453691795348 87.543808558551973 0 0 0 0 193.05806616256814 136.725728641366 0 136.725728641366 95.97766683988084 0 0 0 0 107.29520021453254 70.321752952098905 0 70.321752952098905 236.86095377416132 0 0 0 0 104.5667030876848 100.81115230469641 0 100.81115230469641 89.76772448315387 0 0 0 0 135.00968859251407 120.70538612659948 0 120.70538612659948 86.437941134128778 0 0 0 0 120.39769289619016 113.64042134848205 0 113.64042134848205 93.169359408488162 0 0 0 0 124.53082863029647 78.160384643892598 0 78.160384643892598 61.037281860593794 0 0 0 0 121.41040443784755 90.028622104058286 0 90.028622104058286 146.22561680368381 0 0 0 0 84.267206871789654 69.986068742831776 0 69.986068742831776 53.683970239508199 0 0 0 0 80.705633872637918 59.277160681398527 0 59.277160681398527 80.061764220311943 0 0 0 0 -0.00033799484409202663 0.086004531905878423 0 0.086004531905878423 0.21011794886720736 0 0 0 0 -73.4761809373299 16.750091221068942 0 16.750091221068942 20.103139806438776 0 0 0 0 92.00804168641389 125.34983739274685 0 125.34983739274685 90.591578574257483 0 0 0 0 44.229076875066767 54.264609235407988 0 54.264609235407988 58.21566179695219 0 0 0 0 139.26120554690715 87.278939867599547 0 87.278939867599547 104.01733312331271 0 0 0 0 197.09920166777192 175.60079520941144 0 175.60079520941144 108.16516222317205 0 0 0 0 150.5662695501378 149.85922592402312 0 149.85922592402312 59.471066908688954 0 0 0 0 203.41138890915045 96.124199058820523 0 96.124199058820523 81.712959553871769 0 0 0 0 116.10080569859201 123.0045985559791 0 123.0045985559791 28.509400779500538 0 0 0 0 124.32601289621289 106.51641675667724 0 106.51641675667724 60.088930430239998 0 0 0 0 177.26549575024728 170.46957911136269 0 170.46957911136269 64.537601669506671 0 0 0 0 106.7446445255764 149.05881185388625 0 149.05881185388625 210.55251729722477 0 0 0 0 1.4533225314446199 0.98256126529526355 0 0.98256126529526355 0.91811648061828954 0 0 0 0 182.73471787264498 61.236133572103427 0 61.236133572103427 37.456879130977541 0 0 0 0 95.336915647121714 109.72221658756644 0 109.72221658756644 87.093091895950238 0 0 0 0 -14.023783729446222 5.534058565433952 0 5.534058565433952 8.5182202326486731 0 0 0 0 -0.42922063132794541 0.70408559480087618 0 0.70408559480087618 3.6260187456397475 0 0 0 0 18.809596148452783 7.5766082072286736 0 7.5766082072286736 -5.1471579778699379 0 0 0 0 -1.237153107982067 3.3042153131939358 0 3.3042153131939358 5.6271144195088709 0 0 0 0 -5.0169452757227191 12.882040158809104 0 12.882040158809104 8.2019721817159734 0 0 0 0 12.8276511172553 -35.970313593921674 0 -35.970313593921674 -10.507641981701454 0 0 0 0 0.69771018559413278 25.276565945076072 0 25.276565945076072 -20.244270086066535 0 0 0 0 6.2046151586513361 2.2533487158925709 0 2.2533487158925709 -20.08638543971756 0 0 0 0 3.1075291159910989 13.221195599021826 0 13.221195599021826 -14.883695935455762 0 0 0 0 -16.423651941423486 9.9545181247458459 0 9.9545181247458459 6.1778708736383123 0 0 0 0 -0.58491492202186346 0.65137572716684922 0 0.65137572716684922 1.9576150634833454 0 0 0 0 -2.1114471505847625 4.0046505545233444 0 4.0046505545233444 -3.3288440970542368 0 0 0 0 0.44869322107297194 6.8359842930985906 0 6.8359842930985906 -0.80565187139291083 0 0 0 0 -0.21295386208839773 6.5526563124303721 0 6.5526563124303721 -0.81959517354880518 0 0 0 0 -1.8063926894051292 7.4111975898294986 0 7.4111975898294986 1.5102155740478338 0 0 0 0 -0.33940530028454496 4.331336377984222 0 4.331336377984222 2.117256437009198 0 0 0 0 -1.4737448369769481 6.7427590855277231 0 6.7427590855277231 -0.56560542690021975 0 0 0 0 -1.2892207834852929 4.5745412031193649 0 4.5745412031193649 0.45548337706591013 0 0 0 0 6.5314022216367107 8.6331756665691728 0 8.6331756665691728 -8.6020389180230268 0 0 0 0 3.574687382157208 13.129749026245008 0 13.129749026245008 -14.703693328077861 0 0 0 0 0.44459621539408622 3.4161197801817247 0 3.4161197801817247 -4.2970721721565823 0 0 0 0 0.61737898595924889 4.9494085401647681 0 4.9494085401647681 -2.9778940543510544 0 0 0 0 1.2051440342952446 4.7147973100381932 0 4.7147973100381932 -5.3993833387794439 0 0 0 0 0.35323016175356514 2.2852803266565545 0 2.2852803266565545 -0.74274430921929735 0 0 0 0 0.25626038491418512 3.7452174126233331 0 3.7452174126233331 -2.9189235933117743 0 0 0 0 0.78902556296898751 3.7988671829585563 0 3.7988671829585563 -1.0363297632994666 0 0 0 0 -0.13388314288113179 3.7679935860869591 0 3.7679935860869591 0.15244733666986576 0 0 0 0 -0.58999876715290611 5.5067601986228283 0 5.5067601986228283 0.8696367651791661 0 0 0 0 -1.0849295270192343 3.8173997784634253 0 3.8173997784634253 -0.63417074354039116 0 0 0 0 0.41141214502840739 4.3349302613396503 0 4.3349302613396503 2.3280698998837579 0 0 0 0 -1.9814055176187209 3.0268006303837396 0 3.0268006303837396 1.9576228000316576 0 0 0 0 0.55643479221072312 4.3740106648619239 0 4.3740106648619239 0.52675916092609043 0 0 0 0 -0.64537583057713022 2.667498159852439 0 2.667498159852439 -0.86142610951757348 0 0 0 0 -26.293639083090966 -2.6142416389102436 0 -2.6142416389102436 24.228188189299544 0 0 0 0 116.40483812659659 3.6784754554937535 0 3.6784754554937535 -12.506534245093462 0 0 0 0 209.46173897019389 196.33957696736297 0 196.33957696736297 81.149194482575695 0 0 0 0 -63.624682442711901 165.79591622474527 0 165.79591622474527 -440.17477211992082 0 0 0 0 36.054807361421808 76.918859493740911 0 76.918859493740911 111.15305185870784 0 0 0 0 -4.0650032187562744 -4.3405779680580849 0 -4.3405779680580849 104.89904827081409 0 0 0 0 -22.443875191256666 -13.973719635316229 0 -13.973719635316229 -11.392194843254401 0 0 0 0 1.0131984091663924 0.67501331470251813 0 0.67501331470251813 -0.62243468475608665 0 0 0 0 -2.7089794402424214 3.3183599730829201 0 3.3183599730829201 0.67134765580780709 0 0 0 0 -5.0316991432518989 10.529176407628256 0 10.529176407628256 -1.0394838581778458 0 0 0 0 44.81233868709387 56.539558895622577 0 56.539558895622577 -256.54172898393699 0 0 0 0 -1.0903612860690197 0.84502048374544358 0 0.84502048374544358 0.79075133193273928 0 0 0 0 0.82263914878421929 3.7288868752198141 0 3.7288868752198141 -2.5428945753810694 0 0 0 0 -0.24467441970970505 2.0102704378209637 0 2.0102704378209637 0.22722905350032718 0 0 0 0 -0.75767559197174705 5.3320755240811195 0 5.3320755240811195 -0.12159741425330139 0 0 0 0 -47.526223077933537 66.826979854540696 0 66.826979854540696 -84.549125638883197 0 0 0 0 11.195564184360592 42.055424486740776 0 42.055424486740776 -96.198466153566187 0 0 0 0 -83.740999661703427 144.13325722476111 0 144.13325722476111 -121.74371108106789 0 0 0 0 -81.79661652437062 93.089543330297602 0 93.089543330297602 -69.780291406703327 0 0 0 0 -64.788132597285312 103.94393595190468 0 103.94393595190468 -75.543637016085995 0 0 0 0 -106.08978886227396 115.79337679925175 0 115.79337679925175 -219.87768317565497 0 0 0 0 -131.29532079953788 180.67658548404506 0 180.67658548404506 -190.43193902103667 0 0 0 0 -115.66091023629724 104.49384987087706 0 104.49384987087706 -146.12866678865612 0 0 0 0 -108.31591919800849 123.4657369396682 0 123.4657369396682 -109.02625229725163 0 0 0 0 -117.6356894833807 159.14051866441332 0 159.14051866441332 -135.60277101805377 0 0 0 0 -108.30611404977481 136.93627893038865 0 136.93627893038865 -89.550282198302739 0 0 0 0 -161.63181938818889 169.19591626340298 0 169.19591626340298 -89.410065116102487 0 0 0 0 -125.91969349421015 145.72802798809153 0 145.72802798809153 -132.99377673101117 0 0 0 0 -136.22032373741376 159.02612943779786 0 159.02612943779786 -59.937030192038947 0 0 0 0 -113.63452420260455 142.47558064875193 0 142.47558064875193 -61.969440885925906 0 0 0 0 -127.30106224011433 162.48975110884203 0 162.48975110884203 -88.715305432564946 0 0 0 0 -122.70689521381064 163.90267593644603 0 163.90267593644603 -83.848535179314922 0 0 0 0 -147.1593006406365 151.98634277211568 0 151.98634277211568 -58.225979527485833 0 0 0 0 -112.59613642421141 140.65731516660298 0 140.65731516660298 -57.725241177682619 0 0 0 0 -135.89478532574458 77.812945835746177 0 77.812945835746177 -24.097131910747066 0 0 0 0 -39.987832445858658 43.466708951027613 0 43.466708951027613 -44.297559918471961 0 0 0 0 -3.7693693823393914 21.787002517219662 0 21.787002517219662 12.050414848897276 0 0 0 0 -4.6206899603297984 14.527534497811757 0 14.527534497811757 9.6252178832255595 0 0 0 0 2.2193262590217273 19.46396819759957 0 19.46396819759957 12.195762218844834 0 0 0 0 -13.416367248759343 -14.366725895779382 0 -14.366725895779382 -11.432567722347812 0 0 0 0 2.4941136575257179 1.105471656816281 0 1.105471656816281 -0.75325404144377472 0 0 0 0 7.1033933662720301 9.2529961148111397 0 9.2529961148111397 5.4870062052905269 0 0 0 0 13.739363379698432 14.156637124364806 0 14.156637124364806 9.0264283975266153 0 0 0 0 0.7362704721646196 12.687954317753793 0 12.687954317753793 19.973188218616997 0 0 0 0 -41.006375552003817 43.73306505140431 0 43.73306505140431 -41.755368234018533 0 0 0 0 -42.616858173383662 12.995533450188304 0 12.995533450188304 1.9999903228017502 0 0 0 0 0.36716717145277933 1.1437909063519189 0 1.1437909063519189 -2.5763019557331006 0 0 0 0 39.585748314239027 64.991796583196447 0 64.991796583196447 -30.975644061480125 0 0 0 0 0.42419620832399785 6.6663135531265461 0 6.6663135531265461 -3.5405598540126064 0 0 0 0 11.16285333259566 16.868352950775261 0 16.868352950775261 -2.4064532364573097 0 0 0 0 13.107314125901894 91.795114254508235 0 91.795114254508235 -5.7913252998841926 0 0 0 0 -0.74094595811120811 14.594743885329486 0 14.594743885329486 21.508472784873298 0 0 0 0 10.517413401681551 22.319668571242801 0 22.319668571242801 16.174323912066029 0 0 0 0 23.517740148394296 22.729052843042155 0 22.729052843042155 -16.740560901736899 0 0 0 0 -32.490430990814275 26.99512703986511 0 26.99512703986511 113.69538043026114 0 0 0 0 -36.263419894287836 -9.9529795881317114 0 -9.9529795881317114 -125.11362316712621 0 0 0 0 -60.350052493409748 -39.098289531730188 0 -39.098289531730188 72.609073306033679 0 0 0 0 -60.744737594834078 -42.740829352307628 0 -42.740829352307628 50.649751389380981 0 0 0 0 149.39241500636786 67.421114885442876 0 67.421114885442876 -24.744919299409958 0 0 0 0 -289.76981988465991 86.84406223110841 0 86.84406223110841 -9.8660059403191553 0 0 0 0 -1.3202080273774977 3.8761807504879435 0 3.8761807504879435 -3.310848879651104 0 0 0 0 -229.28165541996077 57.631187047305502 0 57.631187047305502 -21.047118357848376 0 0 0 0 -330.84422472976166 139.51816075505667 0 139.51816075505667 -1.4587898879726708 0 0 0 0 -252.21448497525159 153.00482933573358 0 153.00482933573358 0.76469446135524777 0 0 0 0 0.23746345814052927 1.6630000163270244 0 1.6630000163270244 -0.27646605119591072 0 0 0 0 30.363579400514027 13.08069248008178 0 13.08069248008178 -10.074835197116045 0 0 0 0 -231.22362706573495 105.11623662905095 0 105.11623662905095 -37.764084363723669 0 0 0 0 -201.88751149017571 171.16419578480964 0 171.16419578480964 -39.589104236356434 0 0 0 0 -190.63356317421403 128.16427868142819 0 128.16427868142819 -70.764016852615896 0 0 0 0 -183.94718716138232 126.43061884742929 0 126.43061884742929 -51.628126763127511 0 0 0 0 -171.88624650185011 117.07766109783006 0 117.07766109783006 -64.969806346040059 0 0 0 0 -257.22651903987185 209.92198513582935 0 209.92198513582935 -104.31727388248328 0 0 0 0 -196.01917176104234 136.40286625230419 0 136.40286625230419 -99.277058467208462 0 0 0 0 -188.54757515079655 153.06822165918993 0 153.06822165918993 -65.383440136498393 0 0 0 0 -206.31543165978746 200.59971451892488 0 200.59971451892488 -126.2532038620725 0 0 0 0 -239.20214177168396 149.52456000862094 0 149.52456000862094 97.304575163279878 0 0 0 0 -214.74888624735831 291.68039906077865 0 291.68039906077865 29.72418092233238 0 0 0 0 -105.60884854659889 142.9154363007292 0 142.9154363007292 80.606633448900538 0 0 0 0 -124.26703675789668 266.34579761833447 0 266.34579761833447 -356.72090089035282 0 0 0 0 -239.6062769600876 260.22355846784558 0 260.22355846784558 -147.40434807781639 0 0 0 0 -2.1842756048258423 0.43359053350939902 0 0.43359053350939902 0.0014207738642610934 0 0 0 0 -161.98234675437743 199.60822472317523 0 199.60822472317523 -189.81002276154868 0 0 0 0 -142.95735157641957 160.5494178686331 0 160.5494178686331 -92.792963643076291 0 0 0 0 -151.47514122619145 105.47323301116626 0 105.47323301116626 -48.795194617912784 0 0 0 0 -158.5244470948146 188.40573059383132 0 188.40573059383132 -138.16361339256764 0 0 0 0 -166.70900977502242 144.82186951779295 0 144.82186951779295 -102.78099535601177 0 0 0 0 -145.0923547905395 128.42634725234939 0 128.42634725234939 -46.351547925682098 0 0 0 0 -119.84524481757671 140.30998982277742 0 140.30998982277742 -40.850020911006141 0 0 0 0 -82.983104961430399 72.028378036422509 0 72.028378036422509 -47.363084354939929 0 0 0 0 -117.74305208949045 121.45457951100252 0 121.45457951100252 -44.656617961458323 0 0 0 0 -69.80227367934549 102.34218542996132 0 102.34218542996132 -16.633783904797383 0 0 0 0 -100.25759025321463 85.431642296670589 0 85.431642296670589 -24.819280317926314 0 0 0 0 -28.207786875404054 65.252646159000506 0 65.252646159000506 -30.522734975307685 0 0 0 0 -62.680781128127819 59.027049402577177 0 59.027049402577177 6.3444751510141941 0 0 0 0 -88.803235669361129 72.201525896222847 0 72.201525896222847 -23.754676699354604 0 0 0 0 -111.34552012600943 72.940006265504962 0 72.940006265504962 -46.213121556764236 0 0 0 0 -132.18488078722658 139.53233227910277 0 139.53233227910277 -96.413034085533582 0 0 0 0 -151.12552290850363 115.05779176578289 0 115.05779176578289 -43.475925824830028 0 0 0 0 -187.38376630173639 136.62375690307681 0 136.62375690307681 -75.413551405337785 0 0 0 0 -146.07293424025193 137.22637074586964 0 137.22637074586964 -82.902060621714554 0 0 0 0 -117.328862984843 88.732937772845617 0 88.732937772845617 -5.9875186739127457 0 0 0 0 -142.75576960556941 77.783076861771065 0 77.783076861771065 -10.354930642948602 0 0 0 0 -161.08694687645493 45.165917840057773 0 45.165917840057773 -28.442776979922201 0 0 0 0 -141.83304391199044 54.787193169106104 0 54.787193169106104 104.56223294405208 0 0 0 0 -0.060256964983299355 0.23435367662031936 0 0.23435367662031936 1.1540979687465658 0 0 0 0 -96.857084105242393 -6.2931613157488755 0 -6.2931613157488755 66.540565975205027 0 0 0 0 -127.93933200458378 69.980993525501617 0 69.980993525501617 -18.303568963787257 0 0 0 0 -80.858956566980851 27.726771335554076 0 27.726771335554076 3.0676326222537682 0 0 0 0 0.0039259670696880633 1.2366232614545734 0 1.2366232614545734 6.0663167041295551 0 0 0 0 -34.566031079073582 32.879118162318264 0 32.879118162318264 -34.161295796656304 0 0 0 0 2.6166771171660912 5.8533497552712106 0 5.8533497552712106 -28.572794608673576 0 0 0 0 -18.49357696819925 27.375710437526777 0 27.375710437526777 10.150200724319802 0 0 0 0 -16.555074733105357 53.173977925136114 0 53.173977925136114 -28.184370292585299 0 0 0 0 -34.996475312714665 52.1732110161945 0 52.1732110161945 14.504382936174807 0 0 0 0 -0.17276648451206711 4.5655115003387436 0 4.5655115003387436 -1.0239332050950907 0 0 0 0 -25.949659621944193 26.170778813137076 0 26.170778813137076 -15.524290962878695 0 0 0 0 -1.6555909180218196 0.87426007542411677 0 0.87426007542411677 1.4437520009022151 0 0 0 0 -65.930873041052109 25.898080604085408 0 25.898080604085408 -0.85873017459198309 0 0 0 0 -1.5447876842460597 0.68746886918545158 0 0.68746886918545158 0.044981879053288765 0 0 0 0 20.115645696178035 -4.6675916113090352 0 -4.6675916113090352 10.628151385026285 0 0 0 0 -21.277975486817013 18.869675463382009 0 18.869675463382009 48.033818976393377 0 0 0 0 10.184664179610536 10.816832092707955 0 10.816832092707955 4.4253327747719595 0 0 0 0 11.056682299961267 10.226522614749229 0 10.226522614749229 4.4192398778905044 0 0 0 0 -17.620548310165759 25.952771977137672 0 25.952771977137672 41.327308639094554 0 0 0 0 -15.430156593607535 22.003745485856143 0 22.003745485856143 34.538040766652557 0 0 0 0 -16.113131937147955 28.097051196338953 0 28.097051196338953 22.981691542903718 0 0 0 0 -21.051656282521435 30.82484608211962 0 30.82484608211962 29.360044541252137 0 0 0 0 -16.783732606563717 26.73324986390071 0 26.73324986390071 30.556106125030055 0 0 0 0 -16.107260788023268 22.789731112695335 0 22.789731112695335 30.844023548794212 0 0 0 0 -4.6376401515444741 7.5427737997306394 0 7.5427737997306394 29.14086855779351 0 0 0 0 -13.074335461528195 19.941196379666767 0 19.941196379666767 19.723187987843282 0 0 0 0 2.8890444054762838 5.1551935313035457 0 5.1551935313035457 -0.74446205749073968 0 0 0 0 13.450788419806486 7.9954083222546615 0 7.9954083222546615 5.2712988085222605 0 0 0 0 18.98962857233073 6.6457793818135542 0 6.6457793818135542 4.8788632021023659 0 0 0 0 -2.9467545444976331 13.987864334329156 0 13.987864334329156 21.793155604134892 0 0 0 0 -26.175715786230285 27.701128290318593 0 27.701128290318593 31.24275815517467 0 0 0 0 4.2147242456412641 18.245557943027052 0 18.245557943027052 17.313359833038703 0 0 0 0 -0.69505928941362072 15.903955663692614 0 15.903955663692614 16.200238901725243 0 0 0 0 -27.217921406976529 20.948530663232305 0 20.948530663232305 29.249442125394125 0 0 0 0 -8.54322221314942 21.346890122120385 0 21.346890122120385 24.524057491733402 0 0 0 0 -22.516175069322344 15.542425727360751 0 15.542425727360751 22.266305167046085 0 0 0 0 -12.350589640263934 24.922122327574471 0 24.922122327574471 28.886574825140997 0 0 0 0 -18.96162603452467 20.909937207910843 0 20.909937207910843 26.914792567171389 0 0 0 0 -20.50216240653026 26.110377325736408 0 26.110377325736408 30.46548105601687 0 0 0 0 -21.527781348544522 25.362666419838206 0 25.362666419838206 31.232920689115417 0 0 0 0 -53.37528940186985 20.011000692193193 0 20.011000692193193 79.999620335893269 0 0 0 0 -54.588690182453547 43.102815363030913 0 43.102815363030913 -61.682129711953166 0 0 0 0 2.1106450294919341 10.461732491216026 0 10.461732491216026 10.109117395932117 0 0 0 0 -67.657286020327774 -9.6313659838560852 0 -9.6313659838560852 82.850166881449695 0 0 0 0 -89.974596461413512 -50.666582458406083 0 -50.666582458406083 12.908737494912202 0 0 0 0 -84.043766504551968 -39.948289882824611 0 -39.948289882824611 73.961804392001341 0 0 0 0 -34.693766108521231 -25.474884879051842 0 -25.474884879051842 54.467118085849506 0 0 0 0 -0.13975531267855423 -0.30412977703423927 0 -0.30412977703423927 0.7293368374214424 0 0 0 0 38.898200235109471 -33.845335155553585 0 -33.845335155553585 -44.560835494510684 0 0 0 0 -3.9115173224863611 6.6089239804132376 0 6.6089239804132376 42.578412357393063 0 0 0 0 11.353656371579063 -21.845160412820633 0 -21.845160412820633 71.794363648270519 0 0 0 0 0.1251721902926477 0.090425775865748292 0 0.090425775865748292 2.1068841205535023 0 0 0 0 1.268370435162069 -26.023619333480383 0 -26.023619333480383 91.204622511217167 0 0 0 0 139.91880164718532 23.487345211914089 0 23.487345211914089 -4.4789791674547814 0 0 0 0 59.106858041657233 93.745123267767667 0 93.745123267767667 48.772191538964762 0 0 0 0 8.6102790097388606 57.569806025665457 0 57.569806025665457 -9.5282580133280135 0 0 0 0 -60.508174356027666 70.83222989935166 0 70.83222989935166 2.1943381754272195 0 0 0 0 3.7095013961929908 40.336247823958729 0 40.336247823958729 21.651210790536425 0 0 0 0 -38.222122540707005 87.450369043545834 0 87.450369043545834 12.148885037535365 0 0 0 0 -89.0445391024532 86.261343586462317 0 86.261343586462317 12.569996378612814 0 0 0 0 -86.561117918666241 118.44538510476923 0 118.44538510476923 -7.7144488125668431 0 0 0 0 -125.46715330554207 139.23806814668842 0 139.23806814668842 -27.443426562374952 0 0 0 0 -99.859701595397382 106.31998876986836 0 106.31998876986836 -18.717815299135509 0 0 0 0 -83.816226348750661 105.66993003953849 0 105.66993003953849 -18.838888177673653 0 0 0 0 -44.874016026570189 95.362688438595796 0 95.362688438595796 5.6511396379573853 0 0 0 0 -71.394963558029986 89.690058221135587 0 89.690058221135587 -26.670299893356059 0 0 0 0 -44.938597712609408 42.583270041740434 0 42.583270041740434 32.882119908182631 0 0 0 0 -36.348843510638289 24.929670656375492 0 24.929670656375492 -7.8654911932037521 0 0 0 0 -32.700616876351432 24.564691687867708 0 24.564691687867708 -14.703896205674027 0 0 0 0 -4.8401106160840754 -15.020229908280271 0 -15.020229908280271 -22.86377563710812 0 0 0 0 -11.856727070441593 -14.080638729546081 0 -14.080638729546081 -21.431278987072801 0 0 0 0 7.9474554115795399 -10.00219609265605 0 -10.00219609265605 -26.761195172553926 0 0 0 0 -7.1067997870050021 -7.0894166509060597 0 -7.0894166509060597 -26.634384428372869 0 0 0 0 5.6119630341543143 -3.4948526605078314 0 -3.4948526605078314 -7.8748941361009202 0 0 0 0 8.6364959092097706 -16.82657154210483 0 -16.82657154210483 -23.190580120334744 0 0 0 0 37.04608034516059 -3.4743471598467295 0 -3.4743471598467295 -9.7813326124523883 0 0 0 0 -6.7425413780927101 38.61088619479392 0 38.61088619479392 132.91098385207806 0 0 0 0 -11.434661314258847 -11.904563711399533 0 -11.904563711399533 47.797434764395803 0 0 0 0 -8.878255945042838 55.941544000388603 0 55.941544000388603 26.005653114407323 0 0 0 0 66.830019569595606 -51.943324533927807 0 -51.943324533927807 69.092028308783938 0 0 0 0 125.98854602895835 60.968934090606126 0 60.968934090606126 -11.91304815093099 0 0 0 0 -13.973967287186497 69.134576504502547 0 69.134576504502547 112.50183663332064 0 0 0 0 5.2310432190079155 25.502184627686802 0 25.502184627686802 -10.129023783488265 0 0 0 0 7.3982002691100206 36.148679132969846 0 36.148679132969846 -21.008761447978031 0 0 0 0 6.5267353425099941 39.091411164986255 0 39.091411164986255 -26.644386220932574 0 0 0 0 -102.25567933394223 33.567432221789204 0 33.567432221789204 44.481276590577181 0 0 0 0 -131.03982715215352 78.813143824737381 0 78.813143824737381 44.76167306136449 0 0 0 0 -15.197320216515322 55.354806194309731 0 55.354806194309731 8.2964655700379808 0 0 0 0 -176.48475618520433 92.653090786282974 0 92.653090786282974 -34.184160249567867 0 0 0 0 -52.741924236765954 86.897297149873339 0 86.897297149873339 -43.696671862455332 0 0 0 0 -161.61525765672809 117.51369243747149 0 117.51369243747149 -40.766301839319567 0 0 0 0 -27.077449865855669 101.01311931259806 0 101.01311931259806 -91.629391595623019 0 0 0 0 57.421239894011705 11.745386259812221 0 11.745386259812221 -40.763599937829895 0 0 0 0 21.779492075745111 54.367366737295924 0 54.367366737295924 -85.14796816839953 0 0 0 0 -267.05844866833803 152.33771096476056 0 152.33771096476056 -48.819799339911697 0 0 0 0 -140.21702658554068 110.82882039477954 0 110.82882039477954 -104.57943412364375 0 0 0 0 -0.20192593659266211 0.35356130888728643 0 0.35356130888728643 -1.0084522386567372 0 0 0 0 -118.62697002756613 141.57044440585923 0 141.57044440585923 -87.338406254587426 0 0 0 0 -110.84606803034876 130.61270700675777 0 130.61270700675777 -35.110521948422502 0 0 0 0 -116.69191040449709 128.36048401823098 0 128.36048401823098 -33.467902794076508 0 0 0 0 -91.970035198898586 81.946334452360134 0 81.946334452360134 -16.99140486177248 0 0 0 0 -140.48512921467682 111.29183418764387 0 111.29183418764387 -41.431490328983273 0 0 0 0 -113.27275258710188 117.84141862455272 0 117.84141862455272 -53.477513374849877 0 0 0 0 -136.36022192662494 125.55920004553627 0 125.55920004553627 -72.015097322924703 0 0 0 0 -112.95599530410004 86.242658071656933 0 86.242658071656933 -41.557946519471443 0 0 0 0 -64.410227957081588 80.676095436918331 0 80.676095436918331 -90.930660722424363 0 0 0 0 -5.1636101917665655 3.8090153290249873 0 3.8090153290249873 -58.900696938062083 0 0 0 0 -27.889963206358516 8.4334404889868892 0 8.4334404889868892 -35.254862290482379 0 0 0 0 -1.1923651431385576 0.76886865199904619 0 0.76886865199904619 -0.28068900879261705 0 0 0 0 -49.592367173797811 107.99840645200584 0 107.99840645200584 -247.83427753907836 0 0 0 0 -200.25014628499684 175.1381943883971 0 175.1381943883971 -92.889890994656525 0 0 0 0 -214.60127728675587 102.88320754771269 0 102.88320754771269 -38.538366655262507 0 0 0 0 -189.17364255614757 110.34242454554987 0 110.34242454554987 -31.361930051679792 0 0 0 0 -137.90679313798137 94.523616546971425 0 94.523616546971425 -48.38094236672805 0 0 0 0 -134.67742447858973 104.56811085395293 0 104.56811085395293 -20.687561717224526 0 0 0 0 -115.46576502891639 100.3784255523733 0 100.3784255523733 -71.836763458294627 0 0 0 0 -81.581441772680591 66.123457850446357 0 66.123457850446357 -23.53575075999106 0 0 0 0 -59.921238548350175 106.03318367821885 0 106.03318367821885 -56.502855213338989 0 0 0 0 -116.28966416320941 100.66153593185572 0 100.66153593185572 -33.072613201091372 0 0 0 0 -56.92997132671303 56.809252253114209 0 56.809252253114209 -30.774148958429578 0 0 0 0 -2.1246627751803864 2.5580762199364049 0 2.5580762199364049 0.12873855693862524 0 0 0 0 -13.888984354004606 84.86714099220535 0 84.86714099220535 -31.842902496839088 0 0 0 0 -41.444203252026909 32.444172849317965 0 32.444172849317965 -17.247671675730089 0 0 0 0 -41.207808642273449 -6.1519469772974844 0 -6.1519469772974844 8.0205062585519045 0 0 0 0 -56.900468833193372 67.685220483670491 0 67.685220483670491 82.671836989280564 0 0 0 0 -37.563751141093235 33.241337963410842 0 33.241337963410842 21.139445406044615 0 0 0 0 -66.304802580742034 77.826179691203833 0 77.826179691203833 -13.287634852120391 0 0 0 0 -30.05647148474533 35.091416251951131 0 35.091416251951131 -28.09057062724969 0 0 0 0 -7.1636469338127426 43.002446456452162 0 43.002446456452162 -43.093424567990951 0 0 0 0 -6.4037159969575441 31.511175036730492 0 31.511175036730492 -15.511445920010374 0 0 0 0 24.784170962983808 34.986697956792341 0 34.986697956792341 -28.139239804779208 0 0 0 0 23.526030620633719 60.824694834598631 0 60.824694834598631 -1.6620248365870793 0 0 0 0 0.12838444186534792 0.097199147582667678 0 0.097199147582667678 -0.24771032519775815 0 0 0 0 -80.091922696168695 11.156518125809271 0 11.156518125809271 32.502009127132624 0 0 0 0 20.909912057869406 17.181166494377976 0 17.181166494377976 -12.384800277934119 0 0 0 0 1.3558277386659938 17.40700772109949 0 17.40700772109949 -5.3580853477906203 0 0 0 0 -5.8082556459562511 37.98103513957949 0 37.98103513957949 -19.446735466568498 0 0 0 0 11.630357234669646 24.584500648083122 0 24.584500648083122 -10.425505959065049 0 0 0 0 9.6629970433455128 31.314051653867864 0 31.314051653867864 -27.744258320260997 0 0 0 0 8.9099299104682359 22.871075846414897 0 22.871075846414897 -9.1754761833326484 0 0 0 0 19.653667699552898 16.083838809810914 0 16.083838809810914 -13.153689612046037 0 0 0 0 17.310602332911003 14.948638191397549 0 14.948638191397549 3.6739905078429729 0 0 0 0 14.89737756552131 10.404005620834141 0 10.404005620834141 -1.1660876720634406 0 0 0 0 21.745314314274765 12.803180555889412 0 12.803180555889412 -3.7262406893569278 0 0 0 0 26.43464725038757 4.1998933544691681 0 4.1998933544691681 -0.84137284636381082 0 0 0 0 14.158649026542662 21.053104497781533 0 21.053104497781533 -12.731566252450648 0 0 0 0 -17.00600637952175 17.960441136936424 0 17.960441136936424 -10.071452772142038 0 0 0 0 1.028294783632191 17.593535625392178 0 17.593535625392178 -11.622630617383038 0 0 0 0 4.8614381795887311 30.87874444298177 0 30.87874444298177 -36.809925634126557 0 0 0 0 -22.98374803188608 10.815983413369395 0 10.815983413369395 12.815417306857853 0 0 0 0 -26.216662200527935 10.440901487085284 0 10.440901487085284 13.133616316563348 0 0 0 0 -25.906397406660005 4.1007957607912431 0 4.1007957607912431 12.433093305480725 0 0 0 0 -23.885109684337294 6.8510081296517455 0 6.8510081296517455 15.879459664178285 0 0 0 0 -23.893547504250819 7.2565540578725631 0 7.2565540578725631 7.8646338202852348 0 0 0 0 -22.401960647643136 11.505115296044096 0 11.505115296044096 4.3557340027346072 0 0 0 0 27.192899873995884 5.1153196275463415 0 5.1153196275463415 -1.7400874847771775 0 0 0 0 34.669136517027027 0.53351739450306468 0 0.53351739450306468 1.0615835319476901 0 0 0 0 -2.3735187888727114 -0.71423528385439816 0 -0.71423528385439816 0.041606866336152848 0 0 0 0 22.787977243104251 9.9805070566144423 0 9.9805070566144423 -3.1210838298702583 0 0 0 0 25.111817997712933 3.6775705767722684 0 3.6775705767722684 9.1930339078971883 0 0 0 0 3.0839574893206105 1.2207220677314758 0 1.2207220677314758 -0.38746417980423331 0 0 0 0 21.075618962951012 18.091738892189824 0 18.091738892189824 -7.5120906749034475 0 0 0 0 18.969123969984139 11.347142323811568 0 11.347142323811568 7.6958013274124824 0 0 0 0 -22.879242231742865 11.275312971594758 0 11.275312971594758 6.6089272827703098 0 0 0 0 -23.359521831122038 12.397012646488292 0 12.397012646488292 6.4164683382950898 0 0 0 0 -23.406641143823947 12.891750125868498 0 12.891750125868498 9.9082825849181972 0 0 0 0 -2.0000871340079578 9.5955754135916749 0 9.5955754135916749 4.2336360454949471 0 0 0 0 -22.685412145722694 13.39537200506129 0 13.39537200506129 7.7724678310441959 0 0 0 0 21.473222614175938 13.612408141118976 0 13.612408141118976 7.5371512445890403 0 0 0 0 -22.852479866655813 14.043292847830344 0 14.043292847830344 5.9424961855111178 0 0 0 0 -23.14536220861919 14.621909093813883 0 14.621909093813883 8.9911804054790991 0 0 0 0 38.429979079594887 9.6439836424060559 0 9.6439836424060559 -7.0190038132859627 0 0 0 0 -19.800480858330047 16.460378062267409 0 16.460378062267409 5.8002111867472195 0 0 0 0 -24.850794079569596 20.084160258253178 0 20.084160258253178 8.2506053424331185 0 0 0 0 -23.222110213295821 15.413712509487709 0 15.413712509487709 11.667769114264956 0 0 0 0 -24.819354373516944 13.480762399036394 0 13.480762399036394 9.7560028531624994 0 0 0 0 -24.971288250691032 13.690443214936749 0 13.690443214936749 17.324189130205923 0 0 0 0 -25.739947034680654 16.85050832853176 0 16.85050832853176 12.413620628523859 0 0 0 0 -25.054408244139637 19.660875127005056 0 19.660875127005056 14.801397209259449 0 0 0 0 -18.309940131960957 34.994818971922086 0 34.994818971922086 -18.730305386945474 0 0 0 0 -28.682770867057343 33.388091585368784 0 33.388091585368784 -2.0482098127929476 0 0 0 0 -31.884934713504208 27.064184702388047 0 27.064184702388047 7.288387119599065 0 0 0 0 -19.376789082800315 19.882275602356458 0 19.882275602356458 3.1160241151774244 0 0 0 0 15.700240731565373 14.217443183727482 0 14.217443183727482 7.7859428470128478 0 0 0 0 -6.7967197635675802 20.300741400933475 0 20.300741400933475 -3.5989411876089434 0 0 0 0 1.8634878385128992 10.452034055206612 0 10.452034055206612 1.6156378433714735 0 0 0 0 1.4755622512840234 6.2618413516363853 0 6.2618413516363853 -5.2892268479548932 0 0 0 0 -71.606663791688788 47.535336321114755 0 47.535336321114755 -24.311420034458024 0 0 0 0 3.0094932113719892 12.27541845738142 0 12.27541845738142 -8.6933876499565486 0 0 0 0 5.2884872076850673 6.1417400625889549 0 6.1417400625889549 2.6281954723596392 0 0 0 0 -33.611643333706866 64.472569166444373 0 64.472569166444373 -32.657302658739809 0 0 0 0 -5.8678905766299749 22.489545133812499 0 22.489545133812499 -21.227234201161991 0 0 0 0 15.788145649934279 47.090629603026628 0 47.090629603026628 6.4332202021123521 0 0 0 0 -22.542416517819902 19.332199499391209 0 19.332199499391209 7.5414241488396669 0 0 0 0 -30.01612396398923 22.957219522986634 0 22.957219522986634 7.355704250792769 0 0 0 0 -23.30888367663124 25.953134991568731 0 25.953134991568731 3.6093684957795631 0 0 0 0 124.13855189506123 92.34870985724956 0 92.34870985724956 -14.555085470168933 0 0 0 0 103.66399702384797 67.531896383698495 0 67.531896383698495 -37.705257387007805 0 0 0 0 112.85587966609077 53.628040164127924 0 53.628040164127924 -22.815510443891526 0 0 0 0 23.337696420833538 35.582973135445172 0 35.582973135445172 -5.5060420385452744 0 0 0 0 93.707619757299327 74.691970707512155 0 74.691970707512155 -11.518259433974436 0 0 0 0 79.969236299620491 80.965238840507027 0 80.965238840507027 24.29853382168767 0 0 0 0 70.470351815573508 112.72614537929257 0 112.72614537929257 85.380437066107334 0 0 0 0 5.7043757621573548 51.173608296291604 0 51.173608296291604 32.626639619834805 0 0 0 0 10.842465113906144 44.00638827674652 0 44.00638827674652 35.324012229491927 0 0 0 0 -18.153137765159336 33.43129952176605 0 33.43129952176605 88.008848993012435 0 0 0 0 -27.337781293846888 17.075003578673659 0 17.075003578673659 30.362152612622594 0 0 0 0 -16.01337177780465 27.176296882777024 0 27.176296882777024 16.843490487002782 0 0 0 0 -27.069582005050961 17.756262704740948 0 17.756262704740948 19.996104636731843 0 0 0 0 -15.929569510785086 26.240288820204114 0 26.240288820204114 24.56908093847187 0 0 0 0 -29.190713387396841 19.491570125232101 0 19.491570125232101 51.73664819278747 0 0 0 0 -24.465077739465301 9.2660359553810849 0 9.2660359553810849 24.705851939586864 0 0 0 0 -25.874272743040365 9.1364362932017684 0 9.1364362932017684 26.840930314355319 0 0 0 0 -25.676562926975066 9.4197150514373789 0 9.4197150514373789 19.661692239187687 0 0 0 0 -26.171587838928161 9.8011843055477357 0 9.8011843055477357 21.171274657008325 0 0 0 0 -26.317668395663077 4.8687830682865751 0 4.8687830682865751 21.802156734470373 0 0 0 0 -28.561596419661328 0.032652438965669717 0 0.032652438965669717 16.092535239286008 0 0 0 0 -23.730138860646548 0.56811025300885376 0 0.56811025300885376 10.948717998668144 0 0 0 0 -27.973353154874815 3.6131217573844197 0 3.6131217573844197 30.085565122220942 0 0 0 0 -18.810689008077588 -1.8758191887445719 0 -1.8758191887445719 10.260426803673909 0 0 0 0 -39.949806596083363 -11.47412494846867 0 -11.47412494846867 18.660883906525669 0 0 0 0 -39.175675185389302 8.0259824517610241 0 8.0259824517610241 38.690589237130553 0 0 0 0 -13.086730415087573 -6.4172132694611719 0 -6.4172132694611719 0.25780765398417316 0 0 0 0 -20.072374794786128 -10.38145619234092 0 -10.38145619234092 0.87653072662214981 0 0 0 0 -15.727546851949 -2.0590446239020821 0 -2.0590446239020821 4.0332344576600008 0 0 0 0 -21.93246000824638 -5.8622971438780951 0 -5.8622971438780951 5.1745552384891198 0 0 0 0 -14.474988779775202 47.170254729832777 0 47.170254729832777 42.008561925473259 0 0 0 0 -26.527706361616936 7.7783899351079526 0 7.7783899351079526 34.805843690810434 0 0 0 0 -51.595962168200209 53.435373892115422 0 53.435373892115422 17.900273771469074 0 0 0 0 -62.819284426303795 -10.555845754168331 0 -10.555845754168331 24.407304477117577 0 0 0 0 -16.218474244103845 26.97848404758679 0 26.97848404758679 30.101304323020941 0 0 0 0 2.1952813692148503 18.417282984401936 0 18.417282984401936 -110.16125171137628 0 0 0 0 -114.53635740212232 53.165358154050409 0 53.165358154050409 19.532977400052005 0 0 0 0 -127.59924302652493 -7.4040036824198978 0 -7.4040036824198978 26.997379441603243 0 0 0 0 -108.82769558611972 55.246928161243886 0 55.246928161243886 38.408553817301254 0 0 0 0 -115.60883390798435 -23.548023063155512 0 -23.548023063155512 21.542733506243167 0 0 0 0 -4.9242497658353352 1.9848722301084685 0 1.9848722301084685 1.7546253267578615 0 0 0 0 7.2311321656258087 17.758052982053414 0 17.758052982053414 -52.518201327960924 0 0 0 0 -15.426639187343881 -0.95205402550527651 0 -0.95205402550527651 4.551471240563842 0 0 0 0 -14.810630232213498 -1.1404316641514924 0 -1.1404316641514924 4.3521950033609755 0 0 0 0 -1.8166229645506349 -0.1471612082459437 0 -0.1471612082459437 -0.30449471822005147 0 0 0 0 -47.835978094821542 -47.049159790390149 0 -47.049159790390149 -33.78532043062296 0 0 0 0 18.890950266710707 19.213412478804457 0 19.213412478804457 -128.18989597413929 0 0 0 0 -17.660912938267586 33.229483388433437 0 33.229483388433437 25.042374400644121 0 0 0 0 1.0236538887834428 55.119036907207828 0 55.119036907207828 -18.487191054160576 0 0 0 0 -13.901618846178167 23.82044955960373 0 23.82044955960373 8.369785017387585 0 0 0 0 -3.6955966009402346 21.046101312830615 0 21.046101312830615 -1.8382806280169461 0 0 0 0 -7.5680894874771525 26.472794561486808 0 26.472794561486808 -8.0211037203189335 0 0 0 0 -3.0198735995476795 21.205194491112707 0 21.205194491112707 -7.8708013051000307 0 0 0 0 -4.9375589627753698 23.738942603620671 0 23.738942603620671 -11.07595585017043 0 0 0 0 -0.73255311029924997 22.549179534289578 0 22.549179534289578 -10.411699299191241 0 0 0 0 3.9945846012842594 18.156842733933445 0 18.156842733933445 -11.650492489112366 0 0 0 0 -17.443757413417643 32.018729531866484 0 32.018729531866484 -5.8132792031865392 0 0 0 0 -4.7430373100841905 23.922884806264392 0 23.922884806264392 -25.207269754282606 0 0 0 0 -7.1106281145107459 12.213260321495909 0 12.213260321495909 -21.160432812809631 0 0 0 0 -17.775308399091955 12.980420835723635 0 12.980420835723635 -14.662363033814472 0 0 0 0 4.635363412030074 12.957322972382826 0 12.957322972382826 -0.64724597223539604 0 0 0 0 -1.4371445105552993 16.886466321589978 0 16.886466321589978 -17.647800825568993 0 0 0 0 -8.9827378238176152 15.606122863184282 0 15.606122863184282 -9.788153595829499 0 0 0 0 -1.0481981980080093 20.065393989281802 0 20.065393989281802 -10.822490973339882 0 0 0 0 5.9880985960326143 14.599242725933436 0 14.599242725933436 -11.662774022348458 0 0 0 0 5.2475708453814605 16.369496146649908 0 16.369496146649908 -9.9700584633392282 0 0 0 0 6.2325843750759304 16.920827272508177 0 16.920827272508177 -13.209804190089926 0 0 0 0 -2.6027771958001722 19.621458022960724 0 19.621458022960724 -13.11822950305941 0 0 0 0 6.3871709857193082 12.82982532699134 0 12.82982532699134 -7.3347752392874099 0 0 0 0 15.353077966938599 5.3691324727769825 0 5.3691324727769825 -12.818051289776122 0 0 0 0 -0.60980613567426922 1.8151822805230449 0 1.8151822805230449 1.2626899374336986 0 0 0 0 -15.130604673696325 -0.70653979469898331 0 -0.70653979469898331 4.6880339610397641 0 0 0 0 10.201566947592084 5.6731618408439211 0 5.6731618408439211 1.3002587909808998 0 0 0 0 0.21747673991414551 1.2226595573878107 0 1.2226595573878107 1.5396720366435952 0 0 0 0 44.876817655650484 4.3917256990653186 0 4.3917256990653186 -72.830285648704375 0 0 0 0 9.8730738971814844 6.0502006000842812 0 6.0502006000842812 1.4024548582237912 0 0 0 0 10.185534009040566 15.729672980749456 0 15.729672980749456 2.9542031724777189 0 0 0 0 -37.032224706539637 7.1361034218134591 0 7.1361034218134591 -19.742444840504504 0 0 0 0 19.343452066641476 11.394670395849971 0 11.394670395849971 4.566901066347782 0 0 0 0 11.694793006405433 7.8595321501429503 0 7.8595321501429503 0.73794310637089389 0 0 0 0 -1.8700564294649666 28.446497042976262 0 28.446497042976262 -7.3732826606101298 0 0 0 0 -28.725676923695573 50.550200334972033 0 50.550200334972033 -7.0399537407647585 0 0 0 0 0.91557511064929464 -1.3863406275778623 0 -1.3863406275778623 -1.4656182141822214 0 0 0 0 17.848835130667112 10.266954771039309 0 10.266954771039309 -6.3578314303886145 0 0 0 0 12.913905675897695 11.925744645865052 0 11.925744645865052 -6.5802593381249608 0 0 0 0 12.598115163543298 11.736066892801318 0 11.736066892801318 -6.679118290237966 0 0 0 0 6.489375965616091 13.872613630985143 0 13.872613630985143 -5.2572515938900324 0 0 0 0 13.171215670492984 14.498248032854463 0 14.498248032854463 -5.2226408404167159 0 0 0 0 9.9361569450693423 15.450426266717841 0 15.450426266717841 -7.3078702361235628 0 0 0 0 6.4207482109866305 14.299356292303855 0 14.299356292303855 -7.656878608147963 0 0 0 0 9.2958238392452586 15.469532592243922 0 15.469532592243922 -9.7624478718134924 0 0 0 0 11.811878361669415 12.480489704026695 0 12.480489704026695 -7.7604223089729203 0 0 0 0 8.5988353962013093 13.787515089009503 0 13.787515089009503 -6.9739084691973403 0 0 0 0 9.4606434812008047 10.471889320291666 0 10.471889320291666 -3.9100924847958254 0 0 0 0 10.406248228799654 9.5730883396499848 0 9.5730883396499848 -3.2971674724467448 0 0 0 0 13.855970164477895 7.2959237185518759 0 7.2959237185518759 -3.8597979632686474 0 0 0 0 16.459876264915238 6.7013713969463424 0 6.7013713969463424 -4.9750234346574871 0 0 0 0 9.151531976575825 7.9929557068080612 0 7.9929557068080612 -0.49352438971254742 0 0 0 0 8.3124561788357596 9.5843942806823179 0 9.5843942806823179 -0.98921334159240359 0 0 0 0 9.2896364662302631 11.343558964701515 0 11.343558964701515 -4.43470935622463 0 0 0 0 7.7272217125514544 12.631922993899934 0 12.631922993899934 -3.2928602156534907 0 0 0 0 6.3397269588244853 14.314424977394083 0 14.314424977394083 -4.6384991910017561 0 0 0 0 7.0660034159495808 11.479740117109486 0 11.479740117109486 -1.0014793978916714 0 0 0 0 7.0209094338292886 16.775938500159782 0 16.775938500159782 -9.5492661448515719 0 0 0 0 3.7748463299226387 17.328689611407754 0 17.328689611407754 -8.3452056693458871 0 0 0 0 7.4901101018815837 15.316615945425383 0 15.316615945425383 -7.0537404458445963 0 0 0 0 6.7961798881628965 14.501485166816565 0 14.501485166816565 -5.9711799510114361 0 0 0 0 3.0459660948122291 17.098323790516588 0 17.098323790516588 -4.8039448273702874 0 0 0 0 1.4821483338050712 18.909797360378434 0 18.909797360378434 -7.1468006029172102 0 0 0 0 3.7801656442547937 18.66775334810518 0 18.66775334810518 -7.4981418691240833 0 0 0 0 -0.040230607855392009 15.722027640036686 0 15.722027640036686 -0.73281079697153473 0 0 0 0 -2.5191888657928985 18.392118101350206 0 18.392118101350206 -0.24738632606749889 0 0 0 0 4.5696664165291168 14.392675542236248 0 14.392675542236248 -2.2004144056954829 0 0 0 0 5.470999652021419 14.797735644060594 0 14.797735644060594 -3.1282222176159848 0 0 0 0 1.6978506361022028 16.977073168922288 0 16.977073168922288 -3.5482289757128456 0 0 0 0 3.8486103067309614 13.326283274094749 0 13.326283274094749 -0.97015553920209641 0 0 0 0 7.3940998466885048 12.466974325543561 0 12.466974325543561 -2.6255544500909309 0 0 0 0 7.1601006478601903 9.8540569832694018 0 9.8540569832694018 -0.18373074958071811 0 0 0 0 8.9880348404794859 8.9069838266095758 0 8.9069838266095758 -0.56900202506585629 0 0 0 0 6.8588038474777022 8.5941279668186326 0 8.5941279668186326 0.068442518283518439 0 0 0 0 7.0925705394524812 11.153487437059084 0 11.153487437059084 -1.2338411573000485 0 0 0 0 10.423408683447178 6.5179636631164612 0 6.5179636631164612 2.3124136948454179 0 0 0 0 7.5448245918921089 10.635441811506098 0 10.635441811506098 1.0107125894937781 0 0 0 0 8.8489459022553092 9.5490021485238685 0 9.5490021485238685 -1.4414448210509363 0 0 0 0 -0.25331999975845143 5.1602301717708983 0 5.1602301717708983 0.57331673336119593 0 0 0 0 -0.76029942363993541 6.2400593278835004 0 6.2400593278835004 -0.54844904178480647 0 0 0 0 9.05999368319533 9.8475124059532391 0 9.8475124059532391 3.4633222777119954 0 0 0 0 11.985237510913521 2.6919976414228586 0 2.6919976414228586 -27.839090656203552 0 0 0 0 -9.105444436570906 14.666628788214439 0 14.666628788214439 -2.8284029395190373 0 0 0 0 0.85769314418611486 2.4766259598568396 0 2.4766259598568396 0.64044359875849466 0 0 0 0 21.801078107289868 23.101719647456775 0 23.101719647456775 -42.007472143815903 0 0 0 0 0.048723024466653442 -8.403575344967976 0 -8.403575344967976 -31.336830552158062 0 0 0 0 7.3770931988442499 6.4604491473710368 0 6.4604491473710368 5.1184057306418254 0 0 0 0 8.0267412892187266 6.6653491433906566 0 6.6653491433906566 2.4217227923513036 0 0 0 0 5.9152305690549838 32.305161722884804 0 32.305161722884804 18.841428852335412 0 0 0 0 8.6832448437577341 9.6974159836736362 0 9.6974159836736362 -0.28452502951404313 0 0 0 0 8.2151284127567124 9.2217448896699352 0 9.2217448896699352 0.63257126319331292 0 0 0 0 24.152080204570666 -3.3037242259670165 0 -3.3037242259670165 -25.966093474107765 0 0 0 0 11.312033958345637 1.1121429222621373 0 1.1121429222621373 -26.51497249900558 0 0 0 0 81.428019590850454 30.042903525467409 0 30.042903525467409 -63.63455241763404 0 0 0 0 -4.445582180569545 27.90485546040145 0 27.90485546040145 -33.919273462790443 0 0 0 0 77.023380549562717 9.640302885298297 0 9.640302885298297 -34.553016552802092 0 0 0 0 0.84769457977742668 0.10974122105866968 0 0.10974122105866968 0.15121008552017123 0 0 0 0 -0.64661985272141465 14.10033955448489 0 14.10033955448489 74.522955449265282 0 0 0 0 6.2144087225278781 1.1510220605241557 0 1.1510220605241557 -5.6569197047756461 0 0 0 0 20.135975609930028 35.174950657103182 0 35.174950657103182 56.719787572797941 0 0 0 0 1.0249915155236522 -0.084455695676297182 0 -0.084455695676297182 12.762438476533134 0 0 0 0 8.1683694828016087 12.062556970351579 0 12.062556970351579 -9.6950438074272824 0 0 0 0 -0.9686660341485549 -2.9169391461309715 0 -2.9169391461309715 45.30385430735987 0 0 0 0 -0.36147537018587172 19.943481921905914 0 19.943481921905914 47.693595398493244 0 0 0 0 0.17356872188702255 15.040216943716587 0 15.040216943716587 24.284843444627768 0 0 0 0 -0.29837440528308434 -2.2514493653093268 0 -2.2514493653093268 23.221224310931575 0 0 0 0 -2.8607693630710855 9.388137964408088 0 9.388137964408088 16.946515322373671 0 0 0 0 -2.9332636191629717 10.018813927461451 0 10.018813927461451 33.564178090107816 0 0 0 0 -2.9247293996377266 17.118182444422928 0 17.118182444422928 25.877237717219032 0 0 0 0 -1.4144241209287429 18.651846903885598 0 18.651846903885598 12.548713333271735 0 0 0 0 6.279270425852701 18.901391047761535 0 18.901391047761535 22.727610437632393 0 0 0 0 8.6157985153763548 19.58641516832995 0 19.58641516832995 8.3376707740171696 0 0 0 0 -1.504168575364929 22.114325475983605 0 22.114325475983605 9.1445681029726984 0 0 0 0 4.4970949436228693 22.410331444601979 0 22.410331444601979 -9.1546082478398603 0 0 0 0 49.985011761310972 31.439252988223132 0 31.439252988223132 16.616821688723576 0 0 0 0 15.750949514919739 22.868403328964632 0 22.868403328964632 23.664678314940829 0 0 0 0 8.1915619176747896 10.663757399885981 0 10.663757399885981 -2.234920854527445 0 0 0 0 21.496244146244862 20.7534915750457 0 20.7534915750457 4.6623000005674839 0 0 0 0 19.467774356042355 13.953375433751717 0 13.953375433751717 14.160551853341531 0 0 0 0 26.346467778656915 16.782116963415319 0 16.782116963415319 -4.7763793155281746 0 0 0 0 -7.2295981077789691 8.1634602732765416 0 8.1634602732765416 6.1709464615778415 0 0 0 0 -2.1247401160958361 1.7973538993182956 0 1.7973538993182956 8.2874563239502095 0 0 0 0 -4.3921103543760225 9.0196349121606865 0 9.0196349121606865 5.823251335192829 0 0 0 0 -21.093009596253069 6.0962782933747803 0 6.0962782933747803 7.1186937411380313 0 0 0 0 19.650613915808037 -10.241396693662523 0 -10.241396693662523 10.857346308372144 0 0 0 0 -21.337029956851438 4.7440369828509574 0 4.7440369828509574 10.250880270645212 0 0 0 0 -21.782620620287162 2.5766388314641517 0 2.5766388314641517 12.650139737709651 0 0 0 0 -21.84856074768777 3.5462087333444288 0 3.5462087333444288 7.7740237554280611 0 0 0 0 -5.7177376249103151 8.0248964152798088 0 8.0248964152798088 7.893717363557478 0 0 0 0 -20.237454655426063 0.75164188589315017 0 0.75164188589315017 5.525389536840521 0 0 0 0 -14.041343375921883 0.64821598340313358 0 0.64821598340313358 4.3275611157368985 0 0 0 0 -15.140109287088535 0.76167718628857983 0 0.76167718628857983 5.0906784503295057 0 0 0 0 -17.390443473312189 -0.52704962618190621 0 -0.52704962618190621 5.1700935285225569 0 0 0 0 -12.092307008758326 18.978319340272719 0 18.978319340272719 18.931939778658489 0 0 0 0 8.2409564770623547 14.864883948041097 0 14.864883948041097 -20.873298640139183 0 0 0 0 55.677600883222794 64.985539398228866 0 64.985539398228866 15.447929684381961 0 0 0 0 1.6991347228340601 14.447317300991926 0 14.447317300991926 -12.244161499831534 0 0 0 0 -13.678362466192993 25.477620325408679 0 25.477620325408679 57.232183824859021 0 0 0 0 52.311670906254079 -7.494834526995021 0 -7.494834526995021 5.2488564844115899 0 0 0 0 60.01156454816055 161.08988559249906 0 161.08988559249906 219.44586856726528 0 0 0 0 0.23005214419845288 247.0466867971636 0 247.0466867971636 98.550035640558463 0 0 0 0 97.870639754934018 271.10584962473365 0 271.10584962473365 167.21213872744374 0 0 0 0 164.02828994696938 202.74065356587653 0 202.74065356587653 229.14260962439766 0 0 0 0 422.26050282517281 390.64823363028518 0 390.64823363028518 157.23753963893751 0 0 0 0 205.19036994521775 236.98956247972819 0 236.98956247972819 53.158517325585308 0 0 0 0 32.663412137071646 364.41455055054894 0 364.41455055054894 160.97277864641183 0 0 0 0 136.19105682673307 262.18505264794749 0 262.18505264794749 -112.22652913559523 0 0 0 0 98.849303008011702 335.70917574295527 0 335.70917574295527 2.8590029626939213 0 0 0 0 -17.857603671174729 239.57044230652446 0 239.57044230652446 53.217624946755848 0 0 0 0 -23.489224943625914 349.74691197965103 0 349.74691197965103 -110.47747251171313 0 0 0 0 -17.384550024920827 276.16550425524656 0 276.16550425524656 -9.3978899646899663 0 0 0 0 11.583014600962997 126.49734997202813 0 126.49734997202813 -254.24895981512418 0 0 0 0 131.59023726586838 266.07598953009301 0 266.07598953009301 73.075216946873297 0 0 0 0 -0.01722132497570783 347.2609065372344 0 347.2609065372344 34.707563265042609 0 0 0 0 74.700809109970578 457.75059924331117 0 457.75059924331117 143.55698462282635 0 0 0 0 261.00507498037405 419.7262863222968 0 419.7262863222968 -0.26974809981268427 0 0 0 0 388.77351800684892 341.24744284136023 0 341.24744284136023 134.46361084404089 0 0 0 0 377.86792671826697 421.85353440865856 0 421.85353440865856 116.05662753592351 0 0 0 0 368.41267282865101 295.03727858236334 0 295.03727858236334 113.61632497527717 0 0 0 0 359.71539966686578 414.34120158015276 0 414.34120158015276 408.70030737623165 0 0 0 0 170.81576510155628 303.76050394780623 0 303.76050394780623 141.2781632321803 0 0 0 0 0.23128017014241919 3.0098034020699735 0 3.0098034020699735 -2.9557646899156964 0 0 0 0 2.861838589301648 0.29415357814799492 0 0.29415357814799492 -0.3713807833999283 0 0 0 0 -9.3081561724320636 15.98896138463374 0 15.98896138463374 -9.2159189146987046 0 0 0 0 257.10759282331492 563.39691485327694 0 563.39691485327694 -184.5443758591864 0 0 0 0 7.2370073977672291 -65.598278220380962 0 -65.598278220380962 -278.6027934253143 0 0 0 0 86.979683472123725 240.84852772806153 0 240.84852772806153 -335.81275992370888 0 0 0 0 26.077731013629773 42.985850658818777 0 42.985850658818777 -20.255287177829814 0 0 0 0 -82.114526952100277 67.574460683689722 0 67.574460683689722 -13.231729705261387 0 0 0 0 11.765898065071724 27.694234993591522 0 27.694234993591522 -23.760007728915298 0 0 0 0 -16.670549400711025 27.504144005206399 0 27.504144005206399 -2.8811448549022316 0 0 0 0 30.291833623561843 23.268792189425426 0 23.268792189425426 -41.049774609837186 0 0 0 0 20.092610485498881 8.0958585357675474 0 8.0958585357675474 -53.246851140767831 0 0 0 0 4.916455114912381 5.8945376443365092 0 5.8945376443365092 -5.5870206087283929 0 0 0 0 523.15967328854458 295.41535702921647 0 295.41535702921647 0.52448300396645209 0 0 0 0 380.47441332419749 315.77760095086705 0 315.77760095086705 150.50584163346139 0 0 0 0 0.45863936477144307 9.4510462177049703 0 9.4510462177049703 13.037579606654617 0 0 0 0 -0.00059943269922868581 1.9579154290693168 0 1.9579154290693168 3.1182523881420039 0 0 0 0 7.3725428550624201 14.345752104643907 0 14.345752104643907 4.5872174475334759 0 0 0 0 5.7546048562198848 13.885864116558878 0 13.885864116558878 16.550243420144398 0 0 0 0 3.9800035976137806 6.4158300100180341 0 6.4158300100180341 -3.6048100778806624 0 0 0 0 8.3682447156706985 5.4104875972457194 0 5.4104875972457194 11.716277392530174 0 0 0 0 9.4233879885832721 5.1820685389884602 0 5.1820685389884602 -1.7102615543844877 0 0 0 0 -42.893113045049176 -0.7565180128767679 0 -0.7565180128767679 13.959530916940821 0 0 0 0 59.204854064852952 25.342638360877572 0 25.342638360877572 -17.728704622983059 0 0 0 0 0.40911433438897005 0.79396004079298166 0 0.79396004079298166 -0.38214643198892162 0 0 0 0 -9.9160457780963043 75.811576003554364 0 75.811576003554364 0.058216042063577333 0 0 0 0 0.16428379256608849 0.37385419148905896 0 0.37385419148905896 0.52945648525471256 0 0 0 0 466.02924010549248 209.06019199633835 0 209.06019199633835 -243.79713362951406 0 0 0 0 -2.6494320576130121 189.32110050234041 0 189.32110050234041 0.022090808807210781 0 0 0 0 -150.09018727759576 77.731151383741235 0 77.731151383741235 -82.139021855829924 0 0 0 0 0.23343952679964275 1.6460856770075374 0 1.6460856770075374 -0.0023978256900889505 0 0 0 0 61.027619858985418 43.749870078549066 0 43.749870078549066 -279.6148571644635 0 0 0 0 395.71332089689349 304.72359698051605 0 304.72359698051605 217.20001191953088 0 0 0 0 474.9941852573329 259.20237099664973 0 259.20237099664973 29.69448684231611 0 0 0 0 468.36579352504305 233.54929739864747 0 233.54929739864747 52.778749795006661 0 0 0 0 442.85383026322421 196.05663364013375 0 196.05663364013375 19.678010018953501 0 0 0 0 0.68447452741071624 3.6213187727824661 0 3.6213187727824661 6.5240424461784983 0 0 0 0 226.59907152539381 160.99850730490834 0 160.99850730490834 122.00454584613817 0 0 0 0 443.20504454101683 184.61480758890866 0 184.61480758890866 10.685648161390418 0 0 0 0 741.18665843543204 267.76529524643593 0 267.76529524643593 21.306575494418212 0 0 0 0 0.44693907427770752 0.62526199672236515 0 0.62526199672236515 2.4184519995541365 0 0 0 0 428.83285924092343 190.62326359312465 0 190.62326359312465 50.16841520108801 0 0 0 0 280.46536373888557 104.57649017338099 0 104.57649017338099 75.468428789528843 0 0 0 0 367.49000237349901 134.65400885642339 0 134.65400885642339 42.714277447281347 0 0 0 0 249.49148753315967 152.6507974456199 0 152.6507974456199 76.56584581354582 0 0 0 0 199.94746735374065 82.156710247303636 0 82.156710247303636 49.306262326801061 0 0 0 0 230.67614892432175 69.743885315452189 0 69.743885315452189 -24.182497492511175 0 0 0 0 275.64802972808411 203.1500464381993 0 203.1500464381993 -23.601900290650519 0 0 0 0 319.19832826750053 259.89368057381921 0 259.89368057381921 228.25874723827292 0 0 0 0 335.0918689656537 141.16717614708978 0 141.16717614708978 34.155771775182075 0 0 0 0 244.55181878265284 388.8062796878994 0 388.8062796878994 28.939717671671588 0 0 0 0 78.228057496911788 281.99352780290246 0 281.99352780290246 132.59120168519348 0 0 0 0 58.759941376330971 365.62358073562064 0 365.62358073562064 -7.6756883869149988 0 0 0 0 21.45493228043415 176.95598187835094 0 176.95598187835094 -52.730426026075293 0 0 0 0 46.842138589787282 337.30436028970325 0 337.30436028970325 69.691628535194468 0 0 0 0 42.465110241140792 324.15333175638443 0 324.15333175638443 30.528657506362833 0 0 0 0 140.78758609998022 308.23761320116955 0 308.23761320116955 17.357387492209455 0 0 0 0 92.084929965111769 310.81871173889022 0 310.81871173889022 28.899601318600617 0 0 0 0 31.531778380933247 267.59409090405279 0 267.59409090405279 0.76288558285159525 0 0 0 0 6.3324563114983903 307.08229546529947 0 307.08229546529947 68.637289092000799 0 0 0 0 -0.95808790322152859 0.82581272904824488 0 0.82581272904824488 0.50973807874221322 0 0 0 0 -323.1617472791404 46.917663175533562 0 46.917663175533562 23.660038848896875 0 0 0 0 -80.284880347539001 275.67955589416579 0 275.67955589416579 6.5968476917091721 0 0 0 0 13.544625090013142 169.21016883822131 0 169.21016883822131 -62.365302077687375 0 0 0 0 34.906397101833136 169.99866208697313 0 169.99866208697313 -67.686671284321164 0 0 0 0 99.480878209918956 167.217752597242 0 167.217752597242 -86.989132146871725 0 0 0 0 80.336680285083276 147.96482451976544 0 147.96482451976544 -61.693126625592413 0 0 0 0 32.145867607012406 143.63449449004565 0 143.63449449004565 -93.320567177293015 0 0 0 0 61.082297558299615 140.77156830958484 0 140.77156830958484 -110.25396185190675 0 0 0 0 38.525642491276813 70.751922537723658 0 70.751922537723658 -90.925741857224011 0 0 0 0 122.25489592401573 121.13674755906686 0 121.13674755906686 -103.99937904981107 0 0 0 0 86.771883468260967 91.506462818221735 0 91.506462818221735 -58.769057427531152 0 0 0 0 161.91883457637459 79.250045480178187 0 79.250045480178187 -56.792450063874639 0 0 0 0 176.69278935139596 170.08352041884689 0 170.08352041884689 -57.214303854772879 0 0 0 0 117.35164415938561 178.89622224258437 0 178.89622224258437 -24.810573052391646 0 0 0 0 153.40439885162778 207.33251572478616 0 207.33251572478616 -39.495472775191956 0 0 0 0 44.419575625464859 201.37461838615127 0 201.37461838615127 -36.771621910835165 0 0 0 0 118.21354094176968 -8.9649129183208061 0 -8.9649129183208061 -24.828686772176752 0 0 0 0 156.51015932396149 29.453463027258294 0 29.453463027258294 -47.707661988930454 0 0 0 0 79.720038724841288 46.844609419971675 0 46.844609419971675 -49.473151796881893 0 0 0 0 131.98588142469271 85.902407098052208 0 85.902407098052208 -26.595991497175419 0 0 0 0 99.025403864108739 36.669852036400698 0 36.669852036400698 -75.012908689692267 0 0 0 0 86.804373015131205 60.846557479063449 0 60.846557479063449 -131.31581045981693 0 0 0 0 114.15992417373491 83.229537931282721 0 83.229537931282721 -89.209921520810894 0 0 0 0 62.394879946148649 71.277047257386585 0 71.277047257386585 -91.865450170108488 0 0 0 0 59.109727115326677 17.289861352862317 0 17.289861352862317 -73.236586202190665 0 0 0 0 91.660694206729431 34.621283418378994 0 34.621283418378994 -112.82823633432963 0 0 0 0 112.50757191161483 14.614290491892916 0 14.614290491892916 -75.286126184841123 0 0 0 0 71.351807291110163 30.198630154629427 0 30.198630154629427 -42.791232393245764 0 0 0 0 85.917051555185026 1.8662762765761727 0 1.8662762765761727 -35.436457902245365 0 0 0 0 89.220369666651095 30.494846387749931 0 30.494846387749931 -54.371230755707074 0 0 0 0 54.969062020928504 6.0430393294158193 0 6.0430393294158193 1.0734313729153655 0 0 0 0 55.118686931884668 5.5363287836360087 0 5.5363287836360087 -13.441227257622813 0 0 0 0 78.460424827106181 14.631711935450767 0 14.631711935450767 -33.123814499047512 0 0 0 0 86.279230900948278 -1.7193693314625307 0 -1.7193693314625307 7.6184535203319683 0 0 0 0 90.775956138289985 -11.863512791929679 0 -11.863512791929679 -7.1106308903649733 0 0 0 0 134.07535937476496 -7.2698675564879522 0 -7.2698675564879522 8.0836436382905958 0 0 0 0 30.470652994151578 10.616403752618339 0 10.616403752618339 15.108912068462814 0 0 0 0 38.288584805046412 -21.288056543210587 0 -21.288056543210587 27.178701367298345 0 0 0 0 0.19813457726559136 -9.1624521492403801 0 -9.1624521492403801 24.613737972656509 0 0 0 0 -0.41609992461330592 -0.050072875813548023 0 -0.050072875813548023 0.46393378493768722 0 0 0 0 11.263991951345815 20.886527412810437 0 20.886527412810437 6.1611158309824532 0 0 0 0 130.9705592086375 -11.982710956424853 0 -11.982710956424853 -4.517666585970801 0 0 0 0 83.404655815758815 -27.416902952126293 0 -27.416902952126293 9.936089970962712 0 0 0 0 136.17792531237501 18.289593383692591 0 18.289593383692591 32.900840510483931 0 0 0 0 134.51204191451325 -13.918746536846811 0 -13.918746536846811 24.740042780280419 0 0 0 0 117.45809016555864 31.269215057293962 0 31.269215057293962 -9.288764103945141 0 0 0 0 168.63915230328712 54.804910731791097 0 54.804910731791097 31.973481750426799 0 0 0 0 194.06670914972892 25.497037419911976 0 25.497037419911976 -10.149809588640892 0 0 0 0 270.08181631174239 62.922359517164409 0 62.922359517164409 10.709714923668798 0 0 0 0 284.2618982480144 110.7955675812882 0 110.7955675812882 52.730268036925736 0 0 0 0 245.44116818889188 -4.3215419686322321 0 -4.3215419686322321 5.6874771583497932 0 0 0 0 175.91139300843861 18.887303595106459 0 18.887303595106459 35.076843495450703 0 0 0 0 410.05300563807032 -1.4090352773928316 0 -1.4090352773928316 -12.394611957191955 0 0 0 0 358.20073906283687 136.92798611344006 0 136.92798611344006 19.268820502542439 0 0 0 0 490.38168103254065 163.70245074523882 0 163.70245074523882 -57.192424879616738 0 0 0 0 504.81456436645021 296.90554380744061 0 296.90554380744061 -15.855704583664192 0 0 0 0 674.99601014062137 224.13161179914459 0 224.13161179914459 -38.480993271557963 0 0 0 0 532.07292024714889 -117.95578459772969 0 -117.95578459772969 -14.53069508995759 0 0 0 0 144.22285150361313 -13.316414944161806 0 -13.316414944161806 37.802714138057127 0 0 0 0 1002.0072979975357 -186.43450220236991 0 -186.43450220236991 -17.004410415515395 0 0 0 0 61.737054769370843 135.08011133775085 0 135.08011133775085 35.24550116266073 0 0 0 0 4.0855780496503549 2.0010597841733464 0 2.0010597841733464 1.0379545462706652 0 0 0 0 1168.6574788781581 48.204814137436188 0 48.204814137436188 0.10883952048083299 0 0 0 0 469.38788037642149 281.04000416904023 0 281.04000416904023 175.38260093320787 0 0 0 0 898.00376967279044 322.58651413875123 0 322.58651413875123 -62.708469913030967 0 0 0 0 11.466307395717195 -10.217155061649919 0 -10.217155061649919 -9.3756699334207951 0 0 0 0 2.0943871196570853 -23.087883484184658 0 -23.087883484184658 -25.166442896248554 0 0 0 0 4.7405759097000555 -5.3867361147977135 0 -5.3867361147977135 0.073183012810616954 0 0 0 0 10.002948509230919 18.791923832988687 0 18.791923832988687 -38.788475411238778 0 0 0 0 139.06332811327911 29.425290848218083 0 29.425290848218083 -5.7614174343507329 0 0 0 0 8.906576284518593 5.7950095191829547 0 5.7950095191829547 3.597078363190743 0 0 0 0 9.4202977110557811 7.7886958319174937 0 7.7886958319174937 -4.1710449343536311 0 0 0 0 23.51643121073721 5.5827628666493183 0 5.5827628666493183 -14.605002656244324 0 0 0 0 4.9597927305853773 32.17907360670381 0 32.17907360670381 9.9812181877241528 0 0 0 0 22.610940903588926 9.6313276127029894 0 9.6313276127029894 -7.4931259642798977 0 0 0 0 13.147812126070558 8.1587622156219233 0 8.1587622156219233 4.1982221832805351 0 0 0 0 28.617512162352796 -31.530660107750919 0 -31.530660107750919 31.918843248945905 0 0 0 0 172.83665230771248 -5.6541990707937657 0 -5.6541990707937657 0.14981334033109306 0 0 0 0 33.188532952117384 9.175139024227974 0 9.175139024227974 18.736721972851228 0 0 0 0 1.9707075638079843 1.2781990424220808 0 1.2781990424220808 0.95494390679026964 0 0 0 0 7.413719960749404 -13.803993006084966 0 -13.803993006084966 14.009961803796614 0 0 0 0 2.5165066303507331 -0.29897608635408002 0 -0.29897608635408002 -0.81596054340207402 0 0 0 0 7.1467007197716157 -8.2935514834425703 0 -8.2935514834425703 -1.4063587994933187 0 0 0 0 9.2134510100204352 9.3981350488438693 0 9.3981350488438693 24.920665124216612 0 0 0 0 63.765133059028813 0.92364146641375555 0 0.92364146641375555 -8.3547953874685845 0 0 0 0 51.332852065059342 -19.103755833908508 0 -19.103755833908508 2.4476136110001789 0 0 0 0 38.501163748139334 8.2152973532247415 0 8.2152973532247415 -10.450530753802013 0 0 0 0 32.703152162337574 10.783792647001519 0 10.783792647001519 -5.9448650614249345 0 0 0 0 24.863517755777139 -14.891944229682849 0 -14.891944229682849 2.1052566928071883 0 0 0 0 23.123704023798382 12.718467695594882 0 12.718467695594882 3.5876661070669797 0 0 0 0 12.055869622573884 -3.0316722123386128 0 -3.0316722123386128 -4.7772720297592599 0 0 0 0 24.405694296803631 2.368052545174578 0 2.368052545174578 -3.036667832011517 0 0 0 0 30.303106584911802 4.6006701143169266 0 4.6006701143169266 -5.5402641334076179 0 0 0 0 31.046053855074206 3.4900764393187274 0 3.4900764393187274 -6.1793254972162686 0 0 0 0 13.56709622316658 -5.8991701808853065 0 -5.8991701808853065 -3.6296755828463034 0 0 0 0 31.132678486339955 4.0948245860470252 0 4.0948245860470252 -1.9682172406210157 0 0 0 0 3.8621609426775123 0.59145571337155545 0 0.59145571337155545 -1.5480070496484757 0 0 0 0 35.672227184884832 -2.0820211238606134 0 -2.0820211238606134 0.13289485278619395 0 0 0 0 41.451187436219698 -4.510586900340968 0 -4.510586900340968 -4.715463455662757 0 0 0 0 -239.44002327017915 119.18291046654485 0 119.18291046654485 -51.277496743265147 0 0 0 0 39.090105228925495 -0.49493308204955611 0 -0.49493308204955611 -6.1752016198151978 0 0 0 0 3.3715722315811849 -0.27801680317665145 0 -0.27801680317665145 -0.21052870088175268 0 0 0 0 25.322635178830751 1.330924576444886 0 1.330924576444886 -0.031857307210754554 0 0 0 0 -180.44058628570565 92.590803601518928 0 92.590803601518928 0.0030308777404570719 0 0 0 0 -230.76285838107287 65.421541008121494 0 65.421541008121494 2.8788329844865075 0 0 0 0 -283.72968544060177 82.078871149883071 0 82.078871149883071 -0.0066207824856974185 0 0 0 0 -232.65273966002133 73.236142992529494 0 73.236142992529494 -26.992283067433164 0 0 0 0 -237.00735735566923 106.10081548185372 0 106.10081548185372 -36.838664469985815 0 0 0 0 -264.32448225614644 102.39989108477585 0 102.39989108477585 4.1011134530926938 0 0 0 0 -344.52933076071804 73.651821265444596 0 73.651821265444596 -0.83963797794240236 0 0 0 0 -185.79154109619412 78.855083844362071 0 78.855083844362071 -6.783052586908525 0 0 0 0 -235.57078992819879 98.358225770170975 0 98.358225770170975 -0.051476519194693537 0 0 0 0 -195.11452922932915 110.86942010588245 0 110.86942010588245 -11.283258246658079 0 0 0 0 -220.9638515352799 97.979628467703151 0 97.979628467703151 -10.069881499521216 0 0 0 0 -227.65287520667016 77.681631231929259 0 77.681631231929259 -28.308976896958484 0 0 0 0 7.0825183625414008 12.174175032479051 0 12.174175032479051 3.9104549247657872 0 0 0 0 13.63453106957877 53.581686994662505 0 53.581686994662505 34.200632200960172 0 0 0 0 6.4097607495329916 13.881232142807676 0 13.881232142807676 7.6268203542725033 0 0 0 0 -211.86219410242848 96.955184636482954 0 96.955184636482954 -8.2123877903650282 0 0 0 0 -183.22090401272544 106.47922326778644 0 106.47922326778644 -17.223836738001864 0 0 0 0 -164.96807725750364 81.137123003941838 0 81.137123003941838 -16.19464233405597 0 0 0 0 -207.09957447659872 93.320359844387895 0 93.320359844387895 -17.043643231232636 0 0 0 0 -156.03401168347136 71.26337999865973 0 71.26337999865973 -36.167886347326203 0 0 0 0 7.1394180971536194 15.23579835897231 0 15.23579835897231 10.733842596884308 0 0 0 0 0.85927997424369096 6.6754551950348286 0 6.6754551950348286 13.646784567320537 0 0 0 0 57.03445453321001 -22.448754142244979 0 -22.448754142244979 7.8197355718571089 0 0 0 0 28.762597365726833 33.920145097794375 0 33.920145097794375 23.839666484623308 0 0 0 0 18.34787465210502 12.554943041452134 0 12.554943041452134 15.934064381397548 0 0 0 0 37.344042411901682 16.795946337976602 0 16.795946337976602 1.6282284534681821 0 0 0 0 37.005017051033064 14.729085870964809 0 14.729085870964809 4.7827539697591419 0 0 0 0 64.918809349848743 27.435546058422005 0 27.435546058422005 5.0461438915172039 0 0 0 0 40.8554030397936 15.131050896399756 0 15.131050896399756 1.9128131481456876 0 0 0 0 35.092027256613662 16.309951569496029 0 16.309951569496029 3.5737250924175896 0 0 0 0 42.753405126615689 16.933574890878845 0 16.933574890878845 -8.5992178625147062 0 0 0 0 53.39979762503026 25.728447245043753 0 25.728447245043753 -9.323162541810234 0 0 0 0 44.348901102614036 22.530592568127759 0 22.530592568127759 -9.6327235172077508 0 0 0 0 41.204857675182211 24.200264445159974 0 24.200264445159974 -0.88178692850488005 0 0 0 0 33.338295328134336 18.516680652501464 0 18.516680652501464 4.3335863284319203 0 0 0 0 33.154653988021892 19.534519897955761 0 19.534519897955761 -0.59094049624673062 0 0 0 0 23.239606082406681 21.097870909191442 0 21.097870909191442 3.6740050299640643 0 0 0 0 16.113955473319947 16.947732337501293 0 16.947732337501293 10.764592024637295 0 0 0 0 14.196729912542651 16.60704314184477 0 16.60704314184477 10.705339343362539 0 0 0 0 -133.93631639246041 83.419092490836192 0 83.419092490836192 54.311859706724135 0 0 0 0 -55.311143214955905 26.394872930334941 0 26.394872930334941 -19.409627338507562 0 0 0 0 7.4309670545578079 16.20824335160011 0 16.20824335160011 13.368697477582607 0 0 0 0 35.095451506090662 7.589249195910952 0 7.589249195910952 8.269353461697392 0 0 0 0 19.484569964758521 11.811960283967892 0 11.811960283967892 7.5584664626485392 0 0 0 0 11.470536542456102 23.296024285253225 0 23.296024285253225 12.830602392918081 0 0 0 0 14.380031675626014 26.877315652115158 0 26.877315652115158 14.1592292135756 0 0 0 0 9.6642458792121033 25.553150302762333 0 25.553150302762333 14.288160770609466 0 0 0 0 10.175730219169054 23.064086672417034 0 23.064086672417034 13.645630694462625 0 0 0 0 -5.9254915853347043 8.9687721361191279 0 8.9687721361191279 -1.964822318809393 0 0 0 0 9.7781966967158951 23.442396347364593 0 23.442396347364593 13.552308898752017 0 0 0 0 6.6598136876673379 32.934524697208872 0 32.934524697208872 16.426069753326374 0 0 0 0 11.875693733214575 27.498481162392636 0 27.498481162392636 16.369185980642214 0 0 0 0 -3.9322042092971969 -7.4868039140610563 0 -7.4868039140610563 -13.422233945719199 0 0 0 0 28.646102137601702 29.09154793673224 0 29.09154793673224 14.840644264571893 0 0 0 0 7.5586452890493092 22.473798897692177 0 22.473798897692177 12.763881674742152 0 0 0 0 -0.46018431045831676 22.099180768863107 0 22.099180768863107 19.12732871438493 0 0 0 0 8.5813014417062732 29.162870721781246 0 29.162870721781246 17.094914086090284 0 0 0 0 6.3232629597041523 30.158638321718172 0 30.158638321718172 17.688323726409294 0 0 0 0 11.790014057565713 28.426110829641402 0 28.426110829641402 17.501843102370913 0 0 0 0 11.902040823057177 27.764836734200799 0 27.764836734200799 17.428557122620987 0 0 0 0 9.9924294178854325 29.143036126093648 0 29.143036126093648 17.727551377634654 0 0 0 0 11.658298547619779 27.136947832732403 0 27.136947832732403 17.21027238505485 0 0 0 0 7.7642071840709832 24.716216538670778 0 24.716216538670778 13.265607662957791 0 0 0 0 10.469886486829637 23.947945028485265 0 23.947945028485265 13.570477359265738 0 0 0 0 9.7408312633560854 21.87017881022075 0 21.87017881022075 14.403838953141531 0 0 0 0 -81.899404874709944 92.615471976643676 0 92.615471976643676 78.384467247877183 0 0 0 0 4.896245548974548 23.990211437258949 0 23.990211437258949 14.851717703248141 0 0 0 0 7.9825634362387063 18.885335821135413 0 18.885335821135413 12.370967682363698 0 0 0 0 5.0072955539967552 22.945691234432957 0 22.945691234432957 14.332897130319907 0 0 0 0 8.7791109498446058 17.84868193815133 0 17.84868193815133 13.966182246131517 0 0 0 0 21.12022247189816 26.44228868486698 0 26.44228868486698 10.451459621070171 0 0 0 0 15.433738579547935 23.870505451654935 0 23.870505451654935 12.211963687866955 0 0 0 0 15.990969720708563 22.946499596314879 0 22.946499596314879 8.4315437707737146 0 0 0 0 20.964003342006436 22.711265205197833 0 22.711265205197833 8.3233639877089445 0 0 0 0 33.507146715297495 26.971783338717614 0 26.971783338717614 -1.3764161744013563 0 0 0 0 32.545247590462168 27.388427672468424 0 27.388427672468424 5.0802403596007935 0 0 0 0 21.020916353210851 28.646641812662892 0 28.646641812662892 5.5802718886779985 0 0 0 0 41.826972597349595 33.404061335713322 0 33.404061335713322 -6.1146941929855529 0 0 0 0 31.735608757313457 40.364920051501031 0 40.364920051501031 -3.2878065664936003 0 0 0 0 38.130952789399089 47.893213083409137 0 47.893213083409137 5.3247511942190613 0 0 0 0 24.740492793021986 39.611008226101148 0 39.611008226101148 9.7990600350185559 0 0 0 0 21.7704922596713 40.336043772470475 0 40.336043772470475 14.210034478997841 0 0 0 0 21.508276137948428 46.347254540894397 0 46.347254540894397 11.946646094336757 0 0 0 0 24.107955845796823 33.139646140109107 0 33.139646140109107 10.888967140897876 0 0 0 0 13.25433479757703 31.328198269373388 0 31.328198269373388 14.333077230950039 0 0 0 0 10.873893071850489 30.729015780908639 0 30.729015780908639 19.388016155060541 0 0 0 0 10.076665775181027 32.378373924952029 0 32.378373924952029 21.586681941188544 0 0 0 0 14.434716019572079 34.218876242828628 0 34.218876242828628 19.556449319567037 0 0 0 0 14.476231807309887 48.299738426210752 0 48.299738426210752 18.844613083472723 0 0 0 0 11.645581678603776 39.448080802311779 0 39.448080802311779 19.277896735486138 0 0 0 0 12.656270848721761 43.013306149220625 0 43.013306149220625 29.135591849917546 0 0 0 0 3.1422663258672401 37.428272370280865 0 37.428272370280865 27.500694814277267 0 0 0 0 -5.780467791182673 26.394216212371248 0 26.394216212371248 27.029375242565493 0 0 0 0 -9.4444999719868292 7.2784850800796335 0 7.2784850800796335 -4.1906861989246096 0 0 0 0 -6.6538410618145463 32.927932508942376 0 32.927932508942376 33.735139541789977 0 0 0 0 -0.88665178460723837 22.891675686064445 0 22.891675686064445 22.415386597677184 0 0 0 0 3.4641562036886171 35.14650766529121 0 35.14650766529121 31.668254800853902 0 0 0 0 94.25623264636306 120.50490419206653 0 120.50490419206653 -10.1081957285096 0 0 0 0 7.1042673696601923 30.12572174422121 0 30.12572174422121 21.258205608997741 0 0 0 0 26.955174034685115 26.683173335215542 0 26.683173335215542 -112.45874605339759 0 0 0 0 104.2638291093499 38.518383334961982 0 38.518383334961982 196.75588659352707 0 0 0 0 -17.866463382442056 1.8044425185855495 0 1.8044425185855495 7.6255977578230514 0 0 0 0 -11.554239270608377 -1.6851970085785979 0 -1.6851970085785979 43.573119430722727 0 0 0 0 -2.9912688241776095 0.025779065172228499 0 0.025779065172228499 1.1161170358273864 0 0 0 0 -13.11227855438301 -17.738742642856778 0 -17.738742642856778 121.07683357225505 0 0 0 0 93.673401806721813 10.541066219804634 0 10.541066219804634 125.02243486415682 0 0 0 0 -8.7194824157263255 6.3868398867169915 0 6.3868398867169915 -5.4296163046613373 0 0 0 0 13.53067701821783 30.037038448060912 0 30.037038448060912 19.430210336124219 0 0 0 0 -16.728832749189678 62.958101806280183 0 62.958101806280183 33.540599534597277 0 0 0 0 -15.80162336986541 71.970380745244256 0 71.970380745244256 120.59062866128306 0 0 0 0 -4.3224585257921717 33.097897954354266 0 33.097897954354266 21.218400704412488 0 0 0 0 -6.0325853261820157 30.289169892308564 0 30.289169892308564 29.357492811686825 0 0 0 0 -7.5177865073928842 25.941863628107967 0 25.941863628107967 24.293097467631014 0 0 0 0 -12.249697312452554 25.417174635525498 0 25.417174635525498 30.146637397498125 0 0 0 0 -8.5764369105593232 24.276455557829649 0 24.276455557829649 22.828197502538387 0 0 0 0 -1.4591146844977629 25.933593827485311 0 25.933593827485311 19.42708553866396 0 0 0 0 -4.0905928976280848 27.151753060490591 0 27.151753060490591 21.157794411778013 0 0 0 0 -5.7307347784153535 25.417625329568182 0 25.417625329568182 20.435306699233479 0 0 0 0 2.6598294700743281 25.257178101952377 0 25.257178101952377 19.547831885349296 0 0 0 0 4.0472764278238174 25.646810611735418 0 25.646810611735418 19.277884033948794 0 0 0 0 -3.9203586604853626 25.662980192901159 0 25.662980192901159 19.426154621512978 0 0 0 0 5.1975149371064617 31.956701873374186 0 31.956701873374186 18.891308629132254 0 0 0 0 0.9978454650445201 29.294779225343518 0 29.294779225343518 17.312310172681464 0 0 0 0 0.43788578327530558 31.646779489067285 0 31.646779489067285 21.263535020563722 0 0 0 0 -0.39490633070818149 46.072539563307146 0 46.072539563307146 12.166521666156314 0 0 0 0 2.1930488410580438 36.360331688192673 0 36.360331688192673 14.21007217024453 0 0 0 0 4.3839976562740048 34.450966275842802 0 34.450966275842802 15.418893436410144 0 0 0 0 -0.68216859086896875 39.555694828635751 0 39.555694828635751 31.344056590725813 0 0 0 0 -16.850298002769705 36.407931420151726 0 36.407931420151726 37.81827640851543 0 0 0 0 -14.637096948648832 33.468661242089183 0 33.468661242089183 41.532092457287035 0 0 0 0 -18.200151409753744 31.922843476280832 0 31.922843476280832 46.880042740839258 0 0 0 0 -8.4409977683972102 34.773954387410413 0 34.773954387410413 37.406303997828218 0 0 0 0 -10.945789807956317 29.921989397929792 0 29.921989397929792 29.354494782826805 0 0 0 0 -13.32490401295945 25.782085318343889 0 25.782085318343889 30.178309998640543 0 0 0 0 -14.529015864187386 25.693136131496431 0 25.693136131496431 35.604211718913575 0 0 0 0 -11.448694147336937 28.76376236428041 0 28.76376236428041 34.899777883809293 0 0 0 0 -14.856829681753879 27.191029401186825 0 27.191029401186825 36.59122299811861 0 0 0 0 -15.063555568747688 26.177117221988738 0 26.177117221988738 35.466155646219704 0 0 0 0 -18.078846154896013 5.0219938332372891 0 5.0219938332372891 8.0668121762910214 0 0 0 0 -25.876255825054727 27.259713363762557 0 27.259713363762557 -39.639715956209329 0 0 0 0 23.298049765295218 -88.913449456412309 0 -88.913449456412309 -23.194428210528713 0 0 0 0 -18.950319780658901 35.782978594183987 0 35.782978594183987 77.03505824516651 0 0 0 0 51.271845455605217 71.620718229148224 0 71.620718229148224 -14.910009769581848 0 0 0 0 126.68120004740194 13.941759784352143 0 13.941759784352143 -92.424122732452815 0 0 0 0 -0.30876781467324799 0.063932050866158718 0 0.063932050866158718 2.2316655007989468 0 0 0 0 -68.401887366472693 30.06624153542748 0 30.06624153542748 90.48758972197902 0 0 0 0 -130.49238597009935 -25.74870059575278 0 -25.74870059575278 77.181338537069678 0 0 0 0 -84.466616512045931 3.4306973066687476 0 3.4306973066687476 81.522481578227598 0 0 0 0 -0.37788474597800814 13.10826041383234 0 13.10826041383234 12.815135780942001 0 0 0 0 -77.515332619305809 104.12438336868945 0 104.12438336868945 141.65755855837142 0 0 0 0 3.0214059933140245 11.492227163623182 0 11.492227163623182 16.61358433059517 0 0 0 0 -0.26948898519276554 12.631117932643974 0 12.631117932643974 14.782420057308627 0 0 0 0 1.3587672711328196 13.67957458010369 0 13.67957458010369 13.001847259165515 0 0 0 0 -2.1881686576198263 15.822396635111545 0 15.822396635111545 11.71993511654091 0 0 0 0 0.17131951421833946 16.876130385679971 0 16.876130385679971 12.13827038573163 0 0 0 0 -3.6771823465569469 18.128078900753962 0 18.128078900753962 12.243802782223611 0 0 0 0 7.3077282182574255 11.391230363019623 0 11.391230363019623 14.779699999917021 0 0 0 0 -24.088816005116314 27.257908863355624 0 27.257908863355624 96.233947204593278 0 0 0 0 2.8390207978585185 3.0615400806696087 0 3.0615400806696087 5.2979448641081319 0 0 0 0 50.68770373455709 8.2616683822816412 0 8.2616683822816412 -34.373189408483086 0 0 0 0 -7.3879073809021065 16.968566561577518 0 16.968566561577518 18.238561390098766 0 0 0 0 4.4912129747956566 9.4399445876682471 0 9.4399445876682471 14.497175866790762 0 0 0 0 -2.6932612875261839 12.260505828590794 0 12.260505828590794 13.038056685159972 0 0 0 0 -1.822195354446194 15.852466106987777 0 15.852466106987777 14.953814614229486 0 0 0 0 -0.86988780118554132 16.702377587931551 0 16.702377587931551 10.311444238283002 0 0 0 0 -0.0098924494668608531 14.47824258010769 0 14.47824258010769 14.06080253437176 0 0 0 0 1.8214212721677541 7.423015277701893 0 7.423015277701893 22.526414124749863 0 0 0 0 -2.6191546537838803 14.062979894809359 0 14.062979894809359 22.55184064441346 0 0 0 0 -2.8473646443180769 13.454534180673818 0 13.454534180673818 18.887695251469268 0 0 0 0 3.8473139718771563 7.3416547685774276 0 7.3416547685774276 22.050500862264926 0 0 0 0 0.14501315603547482 12.449517582633916 0 12.449517582633916 17.597634520741849 0 0 0 0 3.9702629711537156 6.859819319768576 0 6.859819319768576 21.236788733785033 0 0 0 0 10.812181304492697 -2.4389108061013758 0 -2.4389108061013758 28.407216774046674 0 0 0 0 -0.22140545890215435 9.8445789632914966 0 9.8445789632914966 21.787753849883757 0 0 0 0 0.38698180677783967 16.166458913771748 0 16.166458913771748 15.774798199657198 0 0 0 0 -9.7735106650367243 0.52681167317234667 0 0.52681167317234667 49.432247815238952 0 0 0 0 -13.442413199061775 -1.2407502086625755 0 -1.2407502086625755 48.776921217120616 0 0 0 0 -12.418936156235986 6.0788535114423894 0 6.0788535114423894 82.47411456417467 0 0 0 0 -7.8604255316822673 -11.904393682964837 0 -11.904393682964837 56.143974457558215 0 0 0 0 -6.6266914265579544 -7.3515708151880972 0 -7.3515708151880972 36.190544884367227 0 0 0 0 -0.74701050491057686 -8.1805011945898514 0 -8.1805011945898514 32.157396416746451 0 0 0 0 -4.0675347747219348 6.2318980224781626 0 6.2318980224781626 26.157185269844604 0 0 0 0 -3.7138740811024036 0.84964497438522812 0 0.84964497438522812 39.530221416194081 0 0 0 0 -9.2223541280363861 6.4596371141115014 0 6.4596371141115014 33.824268555050367 0 0 0 0 -13.0184249024569 17.940486887256156 0 17.940486887256156 33.397485229372251 0 0 0 0 -3.6629602310586051 17.48083625937943 0 17.48083625937943 16.734888539831445 0 0 0 0 -3.6849870395326434 15.5767462833428 0 15.5767462833428 22.504677692656514 0 0 0 0 -36.5759711147075 13.158204088639195 0 13.158204088639195 31.921854301326675 0 0 0 0 -0.45113629175648384 8.0479918262708452 0 8.0479918262708452 32.644694463665473 0 0 0 0 -14.07139969330774 12.591564290672807 0 12.591564290672807 44.395611528274458 0 0 0 0 -9.3388358393312956 20.087179093589839 0 20.087179093589839 28.959174454259482 0 0 0 0 -28.75953644423862 53.339983395777381 0 53.339983395777381 0.75412463534485141 0 0 0 0 3.9384754285274539 20.969631627023773 0 20.969631627023773 -17.834203440783313 0 0 0 0 -32.495424931063098 62.906147881078141 0 62.906147881078141 -23.680592212074771 0 0 0 0 -11.033525754723087 44.76967719568438 0 44.76967719568438 -42.094251083441122 0 0 0 0 0.11433908987237373 17.050258118560805 0 17.050258118560805 15.541073669402977 0 0 0 0 -0.73642708207262331 20.96579433136867 0 20.96579433136867 7.26618388217139 0 0 0 0 -5.0441658093150181 22.155907793782717 0 22.155907793782717 20.214114666626301 0 0 0 0 -9.1262077591205184 29.633969191307841 0 29.633969191307841 8.2196005271653121 0 0 0 0 2.5699027150221809 19.559483561103661 0 19.559483561103661 -1.0033011180985341 0 0 0 0 4.1503392289669137 23.66923797257914 0 23.66923797257914 -6.0560807914516772 0 0 0 0 1.197711788349352 14.93714034524595 0 14.93714034524595 6.2994912201593252 0 0 0 0 3.3515516509323788 16.854669215779722 0 16.854669215779722 7.9901810179585482 0 0 0 0 -1.284677512707276 10.906799241380213 0 10.906799241380213 19.605287172409589 0 0 0 0 -2.0051801423182809 3.45987391558835 0 3.45987391558835 1.0490417688783076 0 0 0 0 168.14732149767951 241.8817173883599 0 241.8817173883599 80.615359008497762 0 0 0 0 3.3994772444566479 9.5219492211035686 0 9.5219492211035686 10.626116932080549 0 0 0 0 3.9170487642149965 9.8974584249590407 0 9.8974584249590407 6.1107167179252428 0 0 0 0 4.7401821286912309 1.864940080375618 0 1.864940080375618 -1.1169372647818818 0 0 0 0 8.090987052393757 8.4709956878541561 0 8.4709956878541561 -8.926784682809739 0 0 0 0 1.7366512630396755 1.5765330081503635 0 1.5765330081503635 15.083663466270082 0 0 0 0 -31.873790547862882 61.825675859974581 0 61.825675859974581 380.82498918449346 0 0 0 0 -0.4442091101714567 -0.20474584601043233 0 -0.20474584601043233 0.35440911791268093 0 0 0 0 4.0530962018910941 12.414889873195989 0 12.414889873195989 -36.577126147478339 0 0 0 0 -0.77501204995641615 0.55467243900502794 0 0.55467243900502794 -0.39574652028904289 0 0 0 0 69.960377121957208 164.65170589538525 0 164.65170589538525 212.49016504598239 0 0 0 0 94.831394411994552 60.400485780077361 0 60.400485780077361 228.66560798946739 0 0 0 0 3.1074200680141075 29.269847473477512 0 29.269847473477512 1.3541700425557792 0 0 0 0 0.96154936384412792 1.6660307734513324 0 1.6660307734513324 -1.6113389037077264 0 0 0 0 -1.955413742478413 12.578514508711123 0 12.578514508711123 12.060220888125968 0 0 0 0 -8.6439206502812311 7.9776918945798805 0 7.9776918945798805 -4.557787629689054 0 0 0 0 -3.0825923706106551 30.905441454835454 0 30.905441454835454 21.123489231901658 0 0 0 0 -29.738223476208077 15.95527663314715 0 15.95527663314715 44.190218052807722 0 0 0 0 -5.6521521734030102 31.050388881147228 0 31.050388881147228 39.517148893142064 0 0 0 0 -24.101956706537749 244.96215271234587 0 244.96215271234587 65.655020168738702 0 0 0 0 -1.8425933560236842 -0.071248700318172098 0 -0.071248700318172098 3.0738208958431219 0 0 0 0 -4.1442958610678033 40.0619212447873 0 40.0619212447873 58.187524399457288 0 0 0 0 2.7632358487826423 21.073038184276811 0 21.073038184276811 45.577043544343724 0 0 0 0 -17.184737282190326 10.369379772671891 0 10.369379772671891 38.823803169197106 0 0 0 0 -14.839190222960724 30.929496825588046 0 30.929496825588046 40.280461423788438 0 0 0 0 -2.6669693281719447 -58.214484336546434 0 -58.214484336546434 -3.7401366157846496 0 0 0 0 0.32826845344419908 0.18695228088393989 0 0.18695228088393989 -0.35264155033276978 0 0 0 0 -43.695324175221685 57.522521883940499 0 57.522521883940499 35.234878625065903 0 0 0 0 148.50535565796235 88.825318778660403 0 88.825318778660403 26.343400327090421 0 0 0 0 43.238328124760301 98.223279281354735 0 98.223279281354735 28.095330980693234 0 0 0 0 -57.155403788961848 63.423999767131136 0 63.423999767131136 79.500273912975899 0 0 0 0 -1.063798927130847 -10.870977632490394 0 -10.870977632490394 176.29251039534574 0 0 0 0 -28.605932437596493 -5.0826665493214023 0 -5.0826665493214023 65.161842598412022 0 0 0 0 -1.6130585755199718 42.497351796183466 0 42.497351796183466 128.95869817528728 0 0 0 0 7.7269189362523321 20.062812907302941 0 20.062812907302941 50.175028924517392 0 0 0 0 -23.064153844406974 24.946727192823801 0 24.946727192823801 169.30093407649929 0 0 0 0 -0.27968758765695867 0.63089780748227398 0 0.63089780748227398 -0.081623092955022791 0 0 0 0 20.327941284544067 2.1855902752463408 0 2.1855902752463408 -30.568954532153839 0 0 0 0 -43.860434321162757 7.9286459089680648 0 7.9286459089680648 44.550275210212931 0 0 0 0 7.8507635389396455 -4.6099224155605043 0 -4.6099224155605043 141.12038896381728 0 0 0 0 -10.165423747352179 17.958657540522836 0 17.958657540522836 130.14498903384492 0 0 0 0 6.2791282816397143 1.1225087911436162 0 1.1225087911436162 93.285020492969124 0 0 0 0 3.3810679054770389 28.361868148219969 0 28.361868148219969 113.85845156171672 0 0 0 0 -0.074089866298891138 10.545374512363196 0 10.545374512363196 67.466054900578456 0 0 0 0 -16.892141167296359 6.1496020029726424 0 6.1496020029726424 92.448598529485707 0 0 0 0 -5.6363670063055906 -0.31527703231040505 0 -0.31527703231040505 65.423223014353425 0 0 0 0 -17.851557726298779 -18.327267531455163 0 -18.327267531455163 67.14616856098246 0 0 0 0 -9.7834094745949187 -7.9990646756832575 0 -7.9990646756832575 61.201114229281302 0 0 0 0 -22.367311821570183 -3.9519511081116434 0 -3.9519511081116434 87.519971543612428 0 0 0 0 -5.3548943931209578 3.0215574630952915 0 3.0215574630952915 84.126875972713606 0 0 0 0 -3.0705551527644275 -1.112881458290758 0 -1.112881458290758 156.49301415152422 0 0 0 0 -4.6864569673125516 40.412016781708189 0 40.412016781708189 112.93858802032355 0 0 0 0 55.283286278212472 9.7397882563241183 0 9.7397882563241183 89.502608437351228 0 0 0 0 -1.0546724642554182 43.44429805125128 0 43.44429805125128 78.315322947391905 0 0 0 0 19.387304408421187 36.646641233478476 0 36.646641233478476 57.315796617353044 0 0 0 0 -2.3459881306407624 17.077758079880368 0 17.077758079880368 98.641689495627361 0 0 0 0 6.1849209307765705 41.445271134293762 0 41.445271134293762 93.435387204214521 0 0 0 0 -12.457710039241647 33.306268617393471 0 33.306268617393471 92.489087248721148 0 0 0 0 6.8619494622180355 13.662766726873997 0 13.662766726873997 93.32493742212182 0 0 0 0 -12.850873041781597 23.191424578795704 0 23.191424578795704 90.250889865899353 0 0 0 0 46.857815886418393 19.372387236994655 0 19.372387236994655 115.69837625725768 0 0 0 0 16.381560439636814 57.911363313543006 0 57.911363313543006 137.87885710226203 0 0 0 0 -11.034719083316304 25.954382423932657 0 25.954382423932657 131.42862042519846 0 0 0 0 58.355905229633208 71.603189229149848 0 71.603189229149848 109.97940548545375 0 0 0 0 -18.680592778891878 40.893725225295384 0 40.893725225295384 179.313583183226 0 0 0 0 -38.599125248689234 58.509102430290113 0 58.509102430290113 115.54499807637876 0 0 0 0 29.855004015884333 60.663986382564872 0 60.663986382564872 9.5009755773553479 0 0 0 0 34.309850003919564 55.53613958337337 0 55.53613958337337 -33.512141686804171 0 0 0 0 0.34379128475820409 0.68490738458623035 0 0.68490738458623035 0.31939877311342507 0 0 0 0 32.267676196697721 17.674859502926665 0 17.674859502926665 -69.542344030609456 0 0 0 0 -1.0497664100334845 1.3815417294992489 0 1.3815417294992489 -0.15668093661870719 0 0 0 0 -9.8466628947535355 5.6448199606975322 0 5.6448199606975322 168.04802553545505 0 0 0 0 -0.12208888181703514 -15.515442181151229 0 -15.515442181151229 -39.494578234728579 0 0 0 0 -25.995962859324209 -32.653422787528143 0 -32.653422787528143 7.6439604486887447 0 0 0 0 24.114905024320251 16.579422865037941 0 16.579422865037941 2.7395975325462132 0 0 0 0 -10.937662201271451 19.282704718351852 0 19.282704718351852 13.692101153948897 0 0 0 0 -4.0297297532442755 6.3611535276342934 0 6.3611535276342934 -3.7461778650322373 0 0 0 0 16.868202129753627 31.27776063858164 0 31.27776063858164 -12.209873721358235 0 0 0 0 4.794914051923115 4.9010877837308726 0 4.9010877837308726 45.150822085820892 0 0 0 0 -23.787629634634868 35.058569364930008 0 35.058569364930008 60.576580650445976 0 0 0 0 8.4362039247898792 6.7672783703728783 0 6.7672783703728783 9.8328593998267024 0 0 0 0 -6.6630056250707028 6.959615515603792 0 6.959615515603792 -3.6864686266204849 0 0 0 0 27.899678090896487 22.694334421832536 0 22.694334421832536 15.890751275323737 0 0 0 0 28.509282289051043 26.98253019357071 0 26.98253019357071 -21.219870411820921 0 0 0 0 -11.768077528351569 43.514972068083807 0 43.514972068083807 52.987488611496701 0 0 0 0 -13.816307862776739 2.5466498813129874 0 2.5466498813129874 52.605653084347068 0 0 0 0 9.539211847280967 25.787744071355519 0 25.787744071355519 82.121030654103379 0 0 0 0 12.5718288511016 34.52327426876036 0 34.52327426876036 52.694906181916707 0 0 0 0 -4.8941142867715826 24.123606737795853 0 24.123606737795853 68.464868317765649 0 0 0 0 17.519296239504911 57.326448386476841 0 57.326448386476841 68.394640341333343 0 0 0 0 25.713223223217938 41.474617989592844 0 41.474617989592844 91.127130550805305 0 0 0 0 15.736748837698542 23.323981130219181 0 23.323981130219181 67.61614231695421 0 0 0 0 21.769424533467827 54.119572070369031 0 54.119572070369031 81.952382069726355 0 0 0 0 25.246884612658505 41.931211147759768 0 41.931211147759768 106.19500429793334 0 0 0 0 39.841135282124014 74.500440553667431 0 74.500440553667431 103.59775992096729 0 0 0 0 44.329304563004683 64.259472368380955 0 64.259472368380955 118.38047831014774 0 0 0 0 46.64859428334421 82.946453938103332 0 82.946453938103332 148.78870498690958 0 0 0 0 64.435883905884111 93.020840072225838 0 93.020840072225838 128.22351797127249 0 0 0 0 59.767107500538259 90.335527945432659 0 90.335527945432659 150.19402757424177 0 0 0 0 58.171553450127249 73.544288385599884 0 73.544288385599884 106.88892763787953 0 0 0 0 74.314627594056219 88.369941196095169 0 88.369941196095169 139.05475457571265 0 0 0 0 87.844962915774886 120.91731078054863 0 120.91731078054863 165.03275708999354 0 0 0 0 79.173541246913373 124.77717389561076 0 124.77717389561076 173.68836253857626 0 0 0 0 118.04677996103055 122.51945675213392 0 122.51945675213392 167.47697123406215 0 0 0 0 94.957643852429101 148.11003462909775 0 148.11003462909775 230.98471576221345 0 0 0 0 58.098617643243415 103.31201328869065 0 103.31201328869065 184.75163161327146 0 0 0 0 91.316046629810444 98.664936651346579 0 98.664936651346579 176.058968379617 0 0 0 0 126.29521674289572 174.2968644016637 0 174.2968644016637 210.00819167170812 0 0 0 0 104.89643361782691 131.61692015863491 0 131.61692015863491 310.5397224993867 0 0 0 0 137.46396081779858 175.58661532380347 0 175.58661532380347 257.39445720943695 0 0 0 0 28.566770366666788 99.693842836581553 0 99.693842836581553 85.397852324407722 0 0 0 0 36.635132004754269 124.20653353581383 0 124.20653353581383 159.15208074868133 0 0 0 0 92.58743972996308 105.35023311069563 0 105.35023311069563 144.34711708694704 0 0 0 0 74.207921201647878 76.982303795956341 0 76.982303795956341 123.10623440226482 0 0 0 0 12.193843102295432 53.677825499842584 0 53.677825499842584 88.297330024222902 0 0 0 0 27.864780651740148 74.697693961841196 0 74.697693961841196 107.13317873182314 0 0 0 0 28.287121310884686 48.308786417856027 0 48.308786417856027 124.16241384854584 0 0 0 0 21.743028049804707 83.102035659527246 0 83.102035659527246 134.40810702243652 0 0 0 0 22.549387278995709 61.37193382690657 0 61.37193382690657 97.08842500800165 0 0 0 0 11.297470785541009 40.291710738441907 0 40.291710738441907 86.828683780247957 0 0 0 0 8.6669473720103269 46.184149549657377 0 46.184149549657377 74.661225871399438 0 0 0 0 -0.38861121038826241 32.813762002113435 0 32.813762002113435 69.408203920484084 0 0 0 0 -2.176585693281595 47.0275796999249 0 47.0275796999249 59.203373786860539 0 0 0 0 -9.1918282424812787 25.687444872714195 0 25.687444872714195 51.999320759477996 0 0 0 0 -2.9319636608106521 44.766701145867046 0 44.766701145867046 66.581153679710042 0 0 0 0 5.1541120728797978 59.489451149536762 0 59.489451149536762 84.864740419371628 0 0 0 0 -3.4465116336505162 38.970759426523728 0 38.970759426523728 42.273161347722635 0 0 0 0 -8.5056048248443403 24.423885077327213 0 24.423885077327213 39.277240422215982 0 0 0 0 -6.1970348857685167 38.721531124891044 0 38.721531124891044 48.186594439783221 0 0 0 0 4.6626983738706258 43.852699599453899 0 43.852699599453899 38.384741969723109 0 0 0 0 -5.6013691171028768 32.287707793682785 0 32.287707793682785 34.015418138194946 0 0 0 0 1.2861795168428216 48.165765411332359 0 48.165765411332359 32.892940086983799 0 0 0 0 4.0522357357331202 56.289106927586545 0 56.289106927586545 53.555869977669317 0 0 0 0 2.5358632522747939 60.647670821070278 0 60.647670821070278 44.520824561741392 0 0 0 0 20.82686799725343 76.079234845162318 0 76.079234845162318 48.178216416424902 0 0 0 0 17.229738846875989 57.832038217829904 0 57.832038217829904 34.178262784322214 0 0 0 0 7.211637684091329 73.611545506628318 0 73.611545506628318 65.823769902079221 0 0 0 0 10.720927086178563 86.701483340168124 0 86.701483340168124 114.57048176299304 0 0 0 0 6.0918475676189701 71.060950860639423 0 71.060950860639423 74.349137924543356 0 0 0 0 24.586466055043275 103.53562420067828 0 103.53562420067828 76.930559139899742 0 0 0 0 32.392246763534786 125.91912307887742 0 125.91912307887742 10.883794738625511 0 0 0 0 50.740054183954726 95.391253160255133 0 95.391253160255133 11.861057297093794 0 0 0 0 20.597985150780005 86.804822587306717 0 86.804822587306717 14.408500860299682 0 0 0 0 94.094031438657112 120.92293116708061 0 120.92293116708061 -47.484767742864278 0 0 0 0 49.751242800742375 102.61539143410914 0 102.61539143410914 -11.536004925652378 0 0 0 0 37.050596078620856 54.193950067327137 0 54.193950067327137 -7.713724089506286 0 0 0 0 17.108766084240415 64.585260813785681 0 64.585260813785681 14.608953760071017 0 0 0 0 42.993015062984341 75.358838104401002 0 75.358838104401002 -21.91123681766112 0 0 0 0 44.164451383316191 68.233213582449025 0 68.233213582449025 14.109397326943736 0 0 0 0 61.23525540979972 35.123294504073328 0 35.123294504073328 -30.598772535578973 0 0 0 0 55.40242058968397 53.843115643589044 0 53.843115643589044 -15.905887089868884 0 0 0 0 63.817819870600943 64.751181742190965 0 64.751181742190965 -21.248978171008446 0 0 0 0 83.24423031223705 68.819312442681621 0 68.819312442681621 -75.354429835235351 0 0 0 0 76.89791633992354 64.059391488845904 0 64.059391488845904 -59.318504527607729 0 0 0 0 83.913003226101864 80.538042900926484 0 80.538042900926484 -104.18700858072953 0 0 0 0 60.289074442216588 71.756552993057085 0 71.756552993057085 -97.252464354933181 0 0 0 0 51.380927244092163 134.98418114849756 0 134.98418114849756 -295.70883514070556 0 0 0 0 -22.275718434135342 74.552803461846452 0 74.552803461846452 -130.59044628747142 0 0 0 0 -0.061227814868630048 0.72873708067096032 0 0.72873708067096032 -0.44699138107466041 0 0 0 0 -14.137457237318813 3.4212115554933007 0 3.4212115554933007 -232.07731382026759 0 0 0 0 43.697287135899387 -59.996845165941522 0 -59.996845165941522 -538.89600586198139 0 0 0 0 67.672106164336583 297.46849284833479 0 297.46849284833479 448.29268005496851 0 0 0 0 119.80725510232514 290.14458570494753 0 290.14458570494753 203.76007184367791 0 0 0 0 98.688916997922206 202.57016766292963 0 202.57016766292963 -76.347506580190384 0 0 0 0 35.562750551023782 149.69135024161369 0 149.69135024161369 118.47511926491916 0 0 0 0 89.916267555010563 94.403046714664242 0 94.403046714664242 -133.06984193851349 0 0 0 0 45.5296077643834 79.28915527944082 0 79.28915527944082 -96.036746213700098 0 0 0 0 45.411181923467666 72.123350558918901 0 72.123350558918901 -163.56060028727461 0 0 0 0 36.853225659051532 23.532679547541193 0 23.532679547541193 -135.34934687673012 0 0 0 0 32.037431275879499 52.337821732959128 0 52.337821732959128 -117.0976603849449 0 0 0 0 15.750589962655795 46.785132026299834 0 46.785132026299834 -76.562063602447779 0 0 0 0 29.897594231637413 56.786520558604025 0 56.786520558604025 -74.203166927545681 0 0 0 0 16.680419766336854 33.769084904011834 0 33.769084904011834 -53.525117383986071 0 0 0 0 19.001946202115505 7.7494567708708928 0 7.7494567708708928 -52.83872963306203 0 0 0 0 18.446149057293951 32.020486219611485 0 32.020486219611485 -85.683352810599899 0 0 0 0 31.181859075426473 32.97721240075407 0 32.97721240075407 -86.11454075587244 0 0 0 0 31.211187303276802 33.192497237123121 0 33.192497237123121 -108.18012654865743 0 0 0 0 21.594094172694895 0.52737427960164496 0 0.52737427960164496 -100.47243708401493 0 0 0 0 23.770518408193311 -10.080122136540012 0 -10.080122136540012 -68.135501644101168 0 0 0 0 37.602122512966162 -52.19571492923933 0 -52.19571492923933 -75.692854236869607 0 0 0 0 22.491987115121447 -12.821646207492449 0 -12.821646207492449 -133.02418395221321 0 0 0 0 -0.66606638075609226 6.5364534474538232 0 6.5364534474538232 -112.4304467098118 0 0 0 0 32.201223252006457 -2.5778645269820117 0 -2.5778645269820117 -122.43442293611588 0 0 0 0 55.445277206468745 -24.369055512193881 0 -24.369055512193881 -174.99887657375075 0 0 0 0 -10.568970044216258 -16.211441911051224 0 -16.211441911051224 -148.21429892925516 0 0 0 0 31.098566229164135 21.251533905127872 0 21.251533905127872 -199.21670408941645 0 0 0 0 33.115320397489995 31.691910071564052 0 31.691910071564052 -152.13373265091832 0 0 0 0 95.54371656256626 187.83674900819278 0 187.83674900819278 312.09965522675338 0 0 0 0 0.65428649310210574 3.064698445585865 0 3.064698445585865 -0.46370737325429445 0 0 0 0 16.220284195733257 -32.525277355452999 0 -32.525277355452999 -257.30133289620062 0 0 0 0 -26.798788391693961 -75.94894615735393 0 -75.94894615735393 -218.0546305526077 0 0 0 0 24.059645885383361 31.85248436826987 0 31.85248436826987 -225.88638929616536 0 0 0 0 14.793855207126398 44.182471346580314 0 44.182471346580314 -165.43009996868932 0 0 0 0 49.416568340187951 69.830956747764503 0 69.830956747764503 -211.3115710096281 0 0 0 0 48.076788276486695 114.79183371875638 0 114.79183371875638 -147.07384263327913 0 0 0 0 67.170464387745596 85.535030731567531 0 85.535030731567531 -270.71496064176199 0 0 0 0 63.301730682187554 109.78887737096102 0 109.78887737096102 -145.78181446427516 0 0 0 0 64.38204519973408 140.67057767190795 0 140.67057767190795 -120.24913999884302 0 0 0 0 57.369445975207782 96.047756189131178 0 96.047756189131178 -134.20857270186025 0 0 0 0 42.403236313244633 100.97332528651896 0 100.97332528651896 -127.31226099699779 0 0 0 0 30.663930777445785 99.279057915773592 0 99.279057915773592 -120.3063637794512 0 0 0 0 28.309967831159156 97.017650844496984 0 97.017650844496984 -76.201116790216474 0 0 0 0 -57.618514269688603 142.46602050714318 0 142.46602050714318 -69.263334127683265 0 0 0 0 11.610296183440369 105.23369849959272 0 105.23369849959272 -50.787000096419433 0 0 0 0 -44.388659821721376 35.218608117306303 0 35.218608117306303 21.895798407560505 0 0 0 0 -24.870012459301506 33.796754904944464 0 33.796754904944464 -10.566397971083461 0 0 0 0 -84.725586306187324 76.217986004262457 0 76.217986004262457 -12.702257900959012 0 0 0 0 -14.427109045291445 20.047763381929599 0 20.047763381929599 4.5770895880305034 0 0 0 0 -19.419649720046436 42.573896494130167 0 42.573896494130167 -7.826303835572844 0 0 0 0 -15.6937869912515 40.754357834536677 0 40.754357834536677 -14.928506946333073 0 0 0 0 -0.77392915130258189 22.933328985949629 0 22.933328985949629 -4.8661362259736052 0 0 0 0 0.46549392445376725 17.308161682156424 0 17.308161682156424 -1.8975563696512836 0 0 0 0 22.187588139477157 65.122617761416222 0 65.122617761416222 -80.798281579354807 0 0 0 0 -39.872499655819411 82.85076940376257 0 82.85076940376257 -44.067100348420354 0 0 0 0 8.9137365196293104 50.316105278830946 0 50.316105278830946 -25.374464032242031 0 0 0 0 -1.3806694263075769 43.49495789496541 0 43.49495789496541 -28.907552244574617 0 0 0 0 5.247623020739411 62.60042711625465 0 62.60042711625465 -56.836401058521005 0 0 0 0 12.039984740062209 46.035884175616502 0 46.035884175616502 -38.522255515130382 0 0 0 0 16.487500311734038 35.300721157902444 0 35.300721157902444 -39.569708739736825 0 0 0 0 17.885014140727435 27.407535968397497 0 27.407535968397497 -30.961737503297627 0 0 0 0 13.807012948258489 36.074350124823468 0 36.074350124823468 -28.175759727153491 0 0 0 0 0.85617228405681089 17.130604898031379 0 17.130604898031379 6.0908415491085179 0 0 0 0 24.858945578394923 17.354725461562339 0 17.354725461562339 -10.618022927514176 0 0 0 0 23.020652877806242 -11.456238986423955 0 -11.456238986423955 25.095971328730229 0 0 0 0 28.271682775597583 14.550028294959702 0 14.550028294959702 -16.861820987121973 0 0 0 0 8.7625642737511953 24.508223657654526 0 24.508223657654526 26.757168107123107 0 0 0 0 -3.6943903815790691 14.213037790344515 0 14.213037790344515 10.425313804698817 0 0 0 0 5.9491799319221172 16.118944890626153 0 16.118944890626153 10.671208025538363 0 0 0 0 6.3875042821891839 14.174885260346855 0 14.174885260346855 2.9138334163735635 0 0 0 0 1.5504874420294072 25.637893642235213 0 25.637893642235213 -2.171893101392925 0 0 0 0 -0.16197990853288502 11.35809631812208 0 11.35809631812208 29.999354256484366 0 0 0 0 40.289218915264428 23.665833607540208 0 23.665833607540208 -0.71633553760511859 0 0 0 0 -2.7502492382136552 20.511108785165561 0 20.511108785165561 43.12033819784574 0 0 0 0 5.577161760168849 3.4603086331752877 0 3.4603086331752877 -3.899411382271321 0 0 0 0 106.37229470430975 193.01118582115987 0 193.01118582115987 229.23665855736363 0 0 0 0 -3.74311796631455 0.90866696022375848 0 0.90866696022375848 0.98389867541047948 0 0 0 0 -5.2376296619477216 27.560317154749555 0 27.560317154749555 48.671997488089801 0 0 0 0 135.24024716235203 132.0291296048963 0 132.0291296048963 224.03396614372832 0 0 0 0 96.01599066365452 177.55539919673538 0 177.55539919673538 214.50088473335563 0 0 0 0 137.27404317304877 172.48446177641142 0 172.48446177641142 204.22958749594181 0 0 0 0 120.18858194688073 159.61100059445471 0 159.61100059445471 196.816852903361 0 0 0 0 92.28054216941382 144.03719859322155 0 144.03719859322155 208.55988089628227 0 0 0 0 98.402432387512818 139.09955575031927 0 139.09955575031927 193.45152180555488 0 0 0 0 80.587573203974898 133.34378868148997 0 133.34378868148997 214.42892920938175 0 0 0 0 101.39359173423145 147.65938327390541 0 147.65938327390541 199.3650389038994 0 0 0 0 97.485660833161091 153.8544406982146 0 153.8544406982146 211.5121105328617 0 0 0 0 70.685247940240515 123.56608185454388 0 123.56608185454388 188.59403008614572 0 0 0 0 70.931099796311173 129.72525645707265 0 129.72525645707265 171.65081831398493 0 0 0 0 77.117159124161844 141.38272631011569 0 141.38272631011569 198.03838185264613 0 0 0 0 75.466648323206755 145.30270489051509 0 145.30270489051509 205.15602169732847 0 0 0 0 81.415889312840591 141.2413806151817 0 141.2413806151817 207.92474817106267 0 0 0 0 77.323504777070411 146.02983964380201 0 146.02983964380201 226.85686844612064 0 0 0 0 82.128949385980377 163.46811772557339 0 163.46811772557339 232.0495746225024 0 0 0 0 80.758349808710591 161.54329770092363 0 161.54329770092363 234.93348863801657 0 0 0 0 78.109548838714545 149.91880614336333 0 149.91880614336333 219.93777229839179 0 0 0 0 82.902227831466007 156.30285434130201 0 156.30285434130201 217.85473351093242 0 0 0 0 79.464823683812938 155.05926439169616 0 155.05926439169616 223.89330971983145 0 0 0 0 86.786838803833234 165.06603626768992 0 165.06603626768992 227.6125666143671 0 0 0 0 84.646824601470144 154.35929652304912 0 154.35929652304912 226.18934692771109 0 0 0 0 79.04437449388206 163.34031053788203 0 163.34031053788203 258.94540092430907 0 0 0 0 87.080864495124843 149.01044257324793 0 149.01044257324793 232.95588250450965 0 0 0 0 88.019873806028045 143.20373658563039 0 143.20373658563039 268.43793955228466 0 0 0 0 94.852916509582428 175.6593105231841 0 175.6593105231841 250.78465323743148 0 0 0 0 4.3031303859097534 27.809841138465345 0 27.809841138465345 -24.854687317507342 0 0 0 0 -4.1609845766378868 0.95822080206859539 0 0.95822080206859539 3.036311326955353 0 0 0 0 27.242047802423258 26.873253188472063 0 26.873253188472063 24.505708288982078 0 0 0 0 5.5426393816350057 3.7622559836603457 0 3.7622559836603457 -4.1005677148574957 0 0 0 0 82.379640869792638 170.09456551730727 0 170.09456551730727 260.686458660874 0 0 0 0 86.908325098454952 177.27487897647734 0 177.27487897647734 245.63564480627974 0 0 0 0 81.311517788395577 164.72388793532264 0 164.72388793532264 239.90674737369409 0 0 0 0 85.774285801046062 172.67149503150358 0 172.67149503150358 241.95654926640691 0 0 0 0 84.398157117291703 162.04824726292463 0 162.04824726292463 233.0260505505139 0 0 0 0 95.551636920987221 165.61371363318358 0 165.61371363318358 228.61187351786066 0 0 0 0 101.44703778079929 163.74671059048615 0 163.74671059048615 238.75725802830129 0 0 0 0 97.08934768846666 174.6256634055535 0 174.6256634055535 236.98223846825567 0 0 0 0 94.152110299895867 169.52503290274035 0 169.52503290274035 234.18043421106995 0 0 0 0 -4.4880919864081079 0.33991043581409031 0 0.33991043581409031 -16.974413794374414 0 0 0 0 7.7269186426201486 28.069097874536965 0 28.069097874536965 -40.826732866966267 0 0 0 0 8.7457121465922683 30.117407055931835 0 30.117407055931835 -53.055617241036089 0 0 0 0 6.7809605781476421 37.018873358671044 0 37.018873358671044 -33.349783210360329 0 0 0 0 98.39588871653541 138.99780244006615 0 138.99780244006615 239.61594727690317 0 0 0 0 96.65917626076407 164.87155689934661 0 164.87155689934661 270.86930410869536 0 0 0 0 115.23732435097918 156.31311424433079 0 156.31311424433079 232.02517327413079 0 0 0 0 99.339116455266776 138.3190461490085 0 138.3190461490085 292.41266825474486 0 0 0 0 -0.07862436538560047 0.4627310967364977 0 0.4627310967364977 1.3876387571436659 0 0 0 0 14.830498642098974 -45.345332384400535 0 -45.345332384400535 -36.585678598952654 0 0 0 0 97.051712512897211 165.87338337139954 0 165.87338337139954 248.15936898533437 0 0 0 0 120.99708213144913 156.6056857687563 0 156.6056857687563 250.19291797598271 0 0 0 0 114.56520665749485 152.12879602892281 0 152.12879602892281 233.89942508958484 0 0 0 0 93.969603367555465 150.52498715806723 0 150.52498715806723 233.93305569603399 0 0 0 0 103.63051313684264 168.41012349200173 0 168.41012349200173 239.98844028744497 0 0 0 0 97.010156378542888 160.65277158700701 0 160.65277158700701 236.46538418636737 0 0 0 0 87.306191155854322 153.78562032115951 0 153.78562032115951 223.91797489749661 0 0 0 0 100.75004900552449 163.99849648087184 0 163.99849648087184 225.91640455461311 0 0 0 0 95.906970131283742 156.33735014322883 0 156.33735014322883 222.3203684665059 0 0 0 0 98.248928039578459 136.72373582361433 0 136.72373582361433 198.5379221550902 0 0 0 0 91.686390073118673 147.96357303411787 0 147.96357303411787 234.39830487313611 0 0 0 0 101.9414083106858 143.30716717375799 0 143.30716717375799 190.54073687522759 0 0 0 0 82.569532636989607 117.36342277260519 0 117.36342277260519 184.18247525811103 0 0 0 0 86.847555014381214 139.39451745555562 0 139.39451745555562 198.85421328319899 0 0 0 0 85.838555298738356 125.43441663629346 0 125.43441663629346 173.03674652994232 0 0 0 0 64.468737405491993 113.46746205198542 0 113.46746205198542 178.93595038580406 0 0 0 0 78.609059355963836 139.02802931821861 0 139.02802931821861 201.36039509439797 0 0 0 0 91.70809048605588 160.55954458070664 0 160.55954458070664 217.29470250404847 0 0 0 0 92.317711965901253 154.54973014167626 0 154.54973014167626 213.22342111892067 0 0 0 0 88.654652946097485 139.56263806909192 0 139.56263806909192 200.2017446215541 0 0 0 0 81.91060515026038 141.38237574066625 0 141.38237574066625 201.43970420731421 0 0 0 0 85.63863051757653 138.33571910407409 0 138.33571910407409 185.74289237803168 0 0 0 0 72.160493537492584 130.01763399901984 0 130.01763399901984 195.87683206185466 0 0 0 0 84.081583939590928 149.72508113181539 0 149.72508113181539 204.63047170380014 0 0 0 0 76.671920451437472 132.94812360740252 0 132.94812360740252 178.87578363253851 0 0 0 0 74.591148315037572 122.726366255014 0 122.726366255014 165.69144820433576 0 0 0 0 68.061815275272238 123.06260684374502 0 123.06260684374502 185.90294808197586 0 0 0 0 68.619886051277717 116.81123589202616 0 116.81123589202616 157.16715008216488 0 0 0 0 57.014170102200296 104.64261472627186 0 104.64261472627186 163.22737247982195 0 0 0 0 62.60173981981643 113.19752087390589 0 113.19752087390589 176.8820567084058 0 0 0 0 75.158062980488467 110.43006103191328 0 110.43006103191328 150.24579611559238 0 0 0 0 65.668782837841718 103.77172370300104 0 103.77172370300104 145.14469795831974 0 0 0 0 51.825411885736685 85.784542232962849 0 85.784542232962849 141.79535261451656 0 0 0 0 53.029136555334844 85.760674663502868 0 85.760674663502868 118.46181622368886 0 0 0 0 27.425453547890356 62.287778507976327 0 62.287778507976327 115.98380302432747 0 0 0 0 44.61176909780562 90.942598910313862 0 90.942598910313862 138.20899014190945 0 0 0 0 44.214336359818844 89.09910368474084 0 89.09910368474084 143.33260513756977 0 0 0 0 46.284458617315977 99.151438588956808 0 99.151438588956808 158.96084752218758 0 0 0 0 58.494368058865803 97.166502138768919 0 97.166502138768919 132.63614157839766 0 0 0 0 39.113825223859749 91.438716439735799 0 91.438716439735799 151.58350016375698 0 0 0 0 61.754894764053461 108.78994739587324 0 108.78994739587324 147.93862532325875 0 0 0 0 34.920391393978207 81.314972287837008 0 81.314972287837008 136.20696432254772 0 0 0 0 43.758998173940199 72.254634966472622 0 72.254634966472622 94.826844116583743 0 0 0 0 50.875998206432996 89.576498286684 0 89.576498286684 122.48815131864831 0 0 0 0 28.537840243101527 70.076922884869418 0 70.076922884869418 127.94513865057934 0 0 0 0 32.163961228897278 66.829021586552926 0 66.829021586552926 86.754204988035781 0 0 0 0 34.748933367733116 85.597734536535427 0 85.597734536535427 123.1234816628421 0 0 0 0 95.49903415072913 140.90647738900952 0 140.90647738900952 178.48106974867187 0 0 0 0 72.12132532892565 140.76073069908352 0 140.76073069908352 195.64823561013691 0 0 0 0 66.955062119464856 127.69592212086354 0 127.69592212086354 168.31922659225165 0 0 0 0 75.879257541315383 121.33539672380925 0 121.33539672380925 172.64758283823176 0 0 0 0 51.417112092036405 108.59531227572188 0 108.59531227572188 173.54900867944116 0 0 0 0 40.598501897529786 103.38854712075408 0 103.38854712075408 165.05881863598529 0 0 0 0 53.70528074242975 93.330035297955874 0 93.330035297955874 131.7889681962879 0 0 0 0 32.359634613596427 94.016691505546987 0 94.016691505546987 136.4225033496823 0 0 0 0 57.756727090676577 121.80925650987228 0 121.80925650987228 180.02138899904094 0 0 0 0 66.196829574337244 126.48163335300887 0 126.48163335300887 161.53104077802709 0 0 0 0 3.2016549667478102 12.001689124517725 0 12.001689124517725 66.236888370917768 0 0 0 0 -6.3935478574678655 68.06092280666428 0 68.06092280666428 160.85410035881796 0 0 0 0 24.72864847429264 93.589108798914822 0 93.589108798914822 153.28046815345624 0 0 0 0 43.883685715689353 85.391739250289902 0 85.391739250289902 118.82594088540645 0 0 0 0 30.135684561257222 69.341418557430188 0 69.341418557430188 115.77875188871258 0 0 0 0 22.449551691064698 57.198669362009241 0 57.198669362009241 125.5461098149849 0 0 0 0 -21.365570821959409 36.423744783571237 0 36.423744783571237 85.396814675654241 0 0 0 0 22.446409971566027 29.2571717078863 0 29.2571717078863 72.112248515985812 0 0 0 0 13.263051211572019 44.274374771137445 0 44.274374771137445 85.409936816664413 0 0 0 0 5.1759932800459865 63.259252031620235 0 63.259252031620235 104.72089697710544 0 0 0 0 29.927423584267672 73.175370936052786 0 73.175370936052786 107.26522748977732 0 0 0 0 24.430081581307604 51.948353041144401 0 51.948353041144401 30.335022831848619 0 0 0 0 16.933144611944044 33.979508781609638 0 33.979508781609638 73.282191873746342 0 0 0 0 -7.1575162963599723 63.843407934514289 0 63.843407934514289 69.62603021306677 0 0 0 0 0.7857193081647651 1.6752969162743412 0 1.6752969162743412 -2.0231083178126452 0 0 0 0 2.3360900821635369 20.856135071761855 0 20.856135071761855 -28.176160395348234 0 0 0 0 -1.4696430356287919 6.1303689140228244 0 6.1303689140228244 -2.9521502092186189 0 0 0 0 4.2252273235717439 20.522740159961472 0 20.522740159961472 93.8236639154984 0 0 0 0 -0.84575210207367491 40.848584788064272 0 40.848584788064272 106.99872509549459 0 0 0 0 35.865692535757262 21.013938474957286 0 21.013938474957286 22.426066469909756 0 0 0 0 31.197937397429996 -17.296669885053234 0 -17.296669885053234 -49.474019351691823 0 0 0 0 -47.208340994846367 -4.7071731903865839 0 -4.7071731903865839 97.828040458791293 0 0 0 0 -1.4779931171786345 1.7104507294607103 0 1.7104507294607103 -0.33093343482206583 0 0 0 0 -16.52504857794338 55.202553499390888 0 55.202553499390888 75.45969140388479 0 0 0 0 -4.63015843319954 58.044981201862356 0 58.044981201862356 29.579816125820798 0 0 0 0 -34.129512845989666 50.537081960645992 0 50.537081960645992 125.09866444970112 0 0 0 0 24.22386542582899 46.172244579614016 0 46.172244579614016 35.548742535573183 0 0 0 0 28.507110283906513 62.821437715051616 0 62.821437715051616 76.651153226875977 0 0 0 0 -36.358901969506405 57.927996797272499 0 57.927996797272499 124.44689076278064 0 0 0 0 23.596244426447811 54.483780216989999 0 54.483780216989999 -206.82500475196866 0 0 0 0 -82.501389130324242 80.962421660000473 0 80.962421660000473 -95.086074207500133 0 0 0 0 40.710836878992268 122.80929611671309 0 122.80929611671309 -184.82879946704907 0 0 0 0 -0.62971152416666598 1.1605601020902974 0 1.1605601020902974 -0.37738770277391787 0 0 0 0 -11.187377553425904 27.961939175233965 0 27.961939175233965 -5.906228759131352 0 0 0 0 12.807778802285384 0.49684739076491269 0 0.49684739076491269 99.705280876312827 0 0 0 0 -2.3821453852536507 5.1248555347054463 0 5.1248555347054463 -2.327238957559242 0 0 0 0 3.7811262788756039 1.8751555677376164 0 1.8751555677376164 -2.1837383795372931 0 0 0 0 40.17716637777994 60.779621577328726 0 60.779621577328726 114.53388412708685 0 0 0 0 1.4624595102279443 0.63212965759106154 0 0.63212965759106154 0.51022207646978746 0 0 0 0 33.411073870091059 160.57995724345483 0 160.57995724345483 499.27445333473042 0 0 0 0 45.925410648404068 -16.481938271609124 0 -16.481938271609124 -53.344361622756878 0 0 0 0 67.122995559901028 175.18569224548082 0 175.18569224548082 287.52616798137933 0 0 0 0 -2.5137283372459933 57.838113100961891 0 57.838113100961891 314.00526900129262 0 0 0 0 124.00339009714662 179.83768350416449 0 179.83768350416449 214.1963258490232 0 0 0 0 44.061281169084396 117.13021270458557 0 117.13021270458557 204.7811548282566 0 0 0 0 25.245772051363019 28.721159994029222 0 28.721159994029222 169.75347270685597 0 0 0 0 37.692939329137516 119.91969034439308 0 119.91969034439308 205.83112416804397 0 0 0 0 33.011030339534045 74.034009944548416 0 74.034009944548416 141.1214176893227 0 0 0 0 62.583012684237474 124.96476762495149 0 124.96476762495149 163.12056530188238 0 0 0 0 80.239739488526538 152.70399350644948 0 152.70399350644948 192.89010362273166 0 0 0 0 53.830706241347798 120.86836361078713 0 120.86836361078713 178.16310297172095 0 0 0 0 78.387830416766519 159.86080354673322 0 159.86080354673322 205.04275426878439 0 0 0 0 86.93825426816602 159.12766739369727 0 159.12766739369727 208.68606343157808 0 0 0 0 92.129064347202075 175.49380574519364 0 175.49380574519364 207.66269954316158 0 0 0 0 95.373757376899448 154.75333252161636 0 154.75333252161636 187.56349538953509 0 0 0 0 78.495007595520292 151.17669644556736 0 151.17669644556736 200.53663246757333 0 0 0 0 115.85811112704141 165.81883931093807 0 165.81883931093807 208.61813138204889 0 0 0 0 99.294235744701382 168.22298273415549 0 168.22298273415549 211.54809680235485 0 0 0 0 92.423559437902441 150.26037442708366 0 150.26037442708366 207.36039149101998 0 0 0 0 93.482829395492445 163.04024680917792 0 163.04024680917792 234.21625463633973 0 0 0 0 -2.6350026767309274 0.869020069002989 0 0.869020069002989 0.69039479152086614 0 0 0 0 143.48491307848599 133.95703644055175 0 133.95703644055175 194.44048049509001 0 0 0 0 -8.003249292520195 40.756825554691204 0 40.756825554691204 62.266157638590812 0 0 0 0 -32.817379962896666 24.146421336090498 0 24.146421336090498 63.062600299456903 0 0 0 0 47.837576145358071 9.5602087330848917 0 9.5602087330848917 -18.63010657281211 0 0 0 0 -1.7185529516042166 0.58445664038808687 0 0.58445664038808687 0.64142571688360661 0 0 0 0 106.17796872366262 104.90796236898495 0 104.90796236898495 245.30977881643594 0 0 0 0 141.81131822082807 232.79150513518175 0 232.79150513518175 355.50306202342472 0 0 0 0 193.55045634873932 208.45120832505063 0 208.45120832505063 187.74378041183115 0 0 0 0 151.17716134316652 128.60905728196803 0 128.60905728196803 64.29347524207833 0 0 0 0 113.04974368947478 202.50121782398355 0 202.50121782398355 272.06125487706004 0 0 0 0 52.188126697176813 159.08344228625083 0 159.08344228625083 330.55986516645044 0 0 0 0 82.089320120394405 34.895793031212634 0 34.895793031212634 -220.55117637627245 0 0 0 0 0.22557473977636988 3.3088139141416697 0 3.3088139141416697 -2.2642451816405753 0 0 0 0 168.01781829428364 291.40476507201311 0 291.40476507201311 202.22130476042196 0 0 0 0 64.811158113732745 282.42478132278984 0 282.42478132278984 403.49424823843947 0 0 0 0 0.67569493163738059 1.1776920010659992 0 1.1776920010659992 -0.77010071188107965 0 0 0 0 87.695938697432211 139.72572787225272 0 139.72572787225272 187.58081979932899 0 0 0 0 -0.024893382649679552 66.774913571138313 0 66.774913571138313 63.848640114154932 0 0 0 0 -0.81207313670215342 0.25840093804638542 0 0.25840093804638542 0.62840530865914701 0 0 0 0 -9.4822553269841592 -11.454789164552494 0 -11.454789164552494 -24.936642196673347 0 0 0 0 3.0748469821609277 4.8642246919398318 0 4.8642246919398318 4.4637596731447786 0 0 0 0 55.408087337131292 14.935045276576602 0 14.935045276576602 -26.038122779897094 0 0 0 0 30.200582629680866 77.411498079256489 0 77.411498079256489 59.086882812039221 0 0 0 0 24.495985645640758 -29.40321619637416 0 -29.40321619637416 -33.059414387776201 0 0 0 0 5.0610709132925678 3.6083273395237185 0 3.6083273395237185 -3.0610749239386941 0 0 0 0 4.6774231694380433 11.01659344217569 0 11.01659344217569 21.956986509352646 0 0 0 0 77.18138014053693 42.838799823879526 0 42.838799823879526 35.811139835124777 0 0 0 0 -3.1321811103285384 0.028289220373807211 0 0.028289220373807211 7.6765757916283448 0 0 0 0 1.0146506220289666 78.262430470760364 0 78.262430470760364 144.14422505698349 0 0 0 0 108.34570308105685 133.66361487115864 0 133.66361487115864 167.10675615759646 0 0 0 0 18.448714384127925 127.1860365421378 0 127.1860365421378 173.96505233093558 0 0 0 0 0.1048951337534163 63.123086971763314 0 63.123086971763314 122.60057444606628 0 0 0 0 4.5858711665787268 1.2823180186014724 0 1.2823180186014724 9.5855788557350934 0 0 0 0 -2.8964254247682923 1.303514169991189 0 1.303514169991189 5.5367070280561883 0 0 0 0 -2.767283082150243 7.131127210743216 0 7.131127210743216 14.683999233934628 0 0 0 0 -4.1593574028949547 -0.27460825088728313 0 -0.27460825088728313 5.5715983911248834 0 0 0 0 0.61688809851199267 0.93260581638989848 0 0.93260581638989848 1.2672247244696777 0 0 0 0 50.813766752951778 49.865303521539317 0 49.865303521539317 44.822323726257309 0 0 0 0 11.709867857238464 6.8309187372275346 0 6.8309187372275346 12.494186314359467 0 0 0 0 5.4918401171325968 14.729537682962928 0 14.729537682962928 29.23715992884172 0 0 0 0 10.871541393578354 15.907225169638366 0 15.907225169638366 14.89030632383583 0 0 0 0 5.6021630832300673 3.2502944663077002 0 3.2502944663077002 -3.8443779650531624 0 0 0 0 15.022339131322951 4.2553483706724364 0 4.2553483706724364 20.129026591126603 0 0 0 0 19.599732670345475 16.988347828756559 0 16.988347828756559 18.31872041790848 0 0 0 0 6.0005097409630253 7.5574076388802496 0 7.5574076388802496 19.13867080089949 0 0 0 0 1.6958847137939301 11.917388996407681 0 11.917388996407681 19.647464391708581 0 0 0 0 11.723649642257442 9.0329733927146663 0 9.0329733927146663 8.7593823289207648 0 0 0 0 2.6503696714535181 6.1361775144468993 0 6.1361775144468993 19.06740523831877 0 0 0 0 7.8948502397624907 8.3289979733485779 0 8.3289979733485779 7.4200823746032256 0 0 0 0 181.42128933729327 231.38300488308414 0 231.38300488308414 231.87645306859849 0 0 0 0 7.2446629896494414 4.8701947448262217 0 4.8701947448262217 7.2002791395202621 0 0 0 0 -3.326091259657705 1.2044093819643216 0 1.2044093819643216 3.4086838933399761 0 0 0 0 7.1841018842433186 4.1999254520496834 0 4.1999254520496834 1.3065371039665479 0 0 0 0 -3.0499778855701152 8.3913308433584461 0 8.3913308433584461 8.7766528322162856 0 0 0 0 -2.6233233501130897 1.5270611206716502 0 1.5270611206716502 1.7944177373301997 0 0 0 0 -24.289461034217311 12.085473623473263 0 12.085473623473263 8.1890237364114 0 0 0 0 255.00262946976545 302.70889209855022 0 302.70889209855022 265.82362548134734 0 0 0 0 133.66093615228419 182.33969009645989 0 182.33969009645989 228.03018021128446 0 0 0 0 138.63577511442054 184.01950006448169 0 184.01950006448169 191.80224980283174 0 0 0 0 93.230782444132274 201.80826234872893 0 201.80826234872893 205.60739080848725 0 0 0 0 9.7375739071139833 27.372308540164113 0 27.372308540164113 14.333312688538172 0 0 0 0 8.9942147810506867 28.707040314342521 0 28.707040314342521 12.011363669965931 0 0 0 0 33.957558484504261 8.4041146383992782 0 8.4041146383992782 3.7923368228566687 0 0 0 0 18.138844862785845 25.729774857776192 0 25.729774857776192 -5.4663511822272994 0 0 0 0 54.31080066735376 23.156527838122202 0 23.156527838122202 -5.7291572980502679 0 0 0 0 36.00105565177364 8.7399108373738272 0 8.7399108373738272 -9.3923154401454667 0 0 0 0 18.692293079748197 61.58063787975334 0 61.58063787975334 -46.884223550076058 0 0 0 0 -4.0229726899924572 37.984314889929465 0 37.984314889929465 35.112456134043441 0 0 0 0 -11.985671633861784 51.603466288297113 0 51.603466288297113 12.097328568025034 0 0 0 0 0.031495591370912734 28.871302969200315 0 28.871302969200315 27.809931753619367 0 0 0 0 -0.22666015504885451 -0.2955076930161411 0 -0.2955076930161411 0.1954769418280744 0 0 0 0 -0.6258588750843046 29.205606673123611 0 29.205606673123611 29.946196534168621 0 0 0 0 -1.7158116717855592 23.441401022841092 0 23.441401022841092 42.409492909812116 0 0 0 0 9.6249081856840348 15.970497945218995 0 15.970497945218995 15.880766077336375 0 0 0 0 11.477479155948913 8.9677187062997632 0 8.9677187062997632 4.3750127913563119 0 0 0 0 -4.1150142255391984 28.984740192062418 0 28.984740192062418 9.4443123810087855 0 0 0 0 15.885994086820574 5.1593303840027147 0 5.1593303840027147 7.4539018436666993 0 0 0 0 -0.22677611040253964 0.22161253323560359 0 0.22161253323560359 0.29486092887678161 0 0 0 0 2.3189028051310743 2.4646095062921631 0 2.4646095062921631 -19.343089654233836 0 0 0 0 4.8514705591078382 21.936975753929801 0 21.936975753929801 -13.860302118218897 0 0 0 0 0.8323879040147979 1.874308560634784 0 1.874308560634784 0.72439925331852351 0 0 0 0 -2.3379380600354125 5.0779169999710803 0 5.0779169999710803 -2.2379502206781581 0 0 0 0 -0.37159341595906881 2.5460676991565379 0 2.5460676991565379 0.51190807269813376 0 0 0 0 2.5405534743339775 1.9838670535572902 0 1.9838670535572902 0.15503104209356344 0 0 0 0 0.14844253485824765 2.811724529456626 0 2.811724529456626 0.50763254331923235 0 0 0 0 -0.10238708390331608 1.8287634743522396 0 1.8287634743522396 0.73177143200396166 0 0 0 0 0.045083623444952536 1.9271030477393651 0 1.9271030477393651 0.31388646311188495 0 0 0 0 -0.33512995589982353 1.5735659548166723 0 1.5735659548166723 1.9759363191966157 0 0 0 0 0.098624259063079478 1.6701910934593522 0 1.6701910934593522 0.51328469623445372 0 0 0 0 -0.63991517712611312 1.7320661177900263 0 1.7320661177900263 0.72719447324016073 0 0 0 0 -0.56951077804465533 1.9333156726911795 0 1.9333156726911795 0.55729951693955826 0 0 0 0 -3.5318948246276705 -3.1223137967499497 0 -3.1223137967499497 -5.619728376761941 0 0 0 0 0.38375337156960398 1.1051057638217907 0 1.1051057638217907 0.6642793237583966 0 0 0 0 1.3138716883601198 1.2616822006580044 0 1.2616822006580044 0.10059573407185418 0 0 0 0 0.33463339335139608 1.7437915824889387 0 1.7437915824889387 -0.37042090998284039 0 0 0 0 5.917737033276353 9.5673035423008059 0 9.5673035423008059 -5.0732360847505333 0 0 0 0 -0.084219320098043227 1.9164759028602951 0 1.9164759028602951 1.5744464026445968 0 0 0 0 10.679112666664878 2.9006763203979062 0 2.9006763203979062 -5.1742874450337695 0 0 0 0 -17.354262298118556 13.070823554338858 0 13.070823554338858 8.6894250812547398 0 0 0 0 28.335583870953997 4.0114815466167784 0 4.0114815466167784 8.0267704502930428 0 0 0 0 3.2242710135142261 7.0103679800531609 0 7.0103679800531609 11.986365411861698 0 0 0 0 6.7690863697571331 3.8777799743584183 0 3.8777799743584183 -0.87090481965333311 0 0 0 0 49.408209942073881 -24.392968903738165 0 -24.392968903738165 4.7393463511282334 0 0 0 0 37.421084422443528 5.3532469292567839 0 5.3532469292567839 -1.7562093225988065 0 0 0 0 -12.744929827276792 7.278032335782882 0 7.278032335782882 9.7462335411819367 0 0 0 0 61.792623671644833 -15.484617872882154 0 -15.484617872882154 14.021251628590107 0 0 0 0 0.5014587030023705 0.28067978083111811 0 0.28067978083111811 -0.42179644743342415 0 0 0 0 35.954818848378636 -10.413032941758047 0 -10.413032941758047 22.914704790793621 0 0 0 0 22.696398540367227 -5.1570715304987971 0 -5.1570715304987971 12.734922332452697 0 0 0 0 -16.14621015056764 -24.776851329339479 0 -24.776851329339479 85.639281269611274 0 0 0 0 1.0938857890548874 0.57324327361150118 0 0.57324327361150118 0.25828527772615395 0 0 0 0 23.703103778156219 -20.145378932549647 0 -20.145378932549647 40.680065201595426 0 0 0 0 15.617440000904026 -13.369003726767914 0 -13.369003726767914 50.031776258107129 0 0 0 0 14.710775980798644 5.0768477206120224 0 5.0768477206120224 28.390815999211554 0 0 0 0 9.0081982132833218 2.4805643146937655 0 2.4805643146937655 28.937099301403578 0 0 0 0 10.326537212040421 15.874565579263617 0 15.874565579263617 22.369362033012294 0 0 0 0 -1.8358824386814376 3.4217396661788371 0 3.4217396661788371 55.401065238886531 0 0 0 0 -5.6898475290217903 26.030615090151514 0 26.030615090151514 17.048553112207628 0 0 0 0 6.5748191934726492 18.345375875438549 0 18.345375875438549 25.593350977622322 0 0 0 0 4.9303812020953046 21.85467399192612 0 21.85467399192612 18.219095710766851 0 0 0 0 -21.088727677739371 21.259380206721289 0 21.259380206721289 40.181281375711478 0 0 0 0 -20.511129141686297 11.927410268423927 0 11.927410268423927 55.693231406659834 0 0 0 0 -49.384975014640077 71.28828728278404 0 71.28828728278404 26.501482878687966 0 0 0 0 -0.24987952021822668 0.32755293482025749 0 0.32755293482025749 1.7059952320106895 0 0 0 0 6.853644621796775 6.1841607749315699 0 6.1841607749315699 9.1754866357696301 0 0 0 0 6.8946073614970373 6.0912889160888426 0 6.0912889160888426 9.3846233244748873 0 0 0 0 5.9406214267219184 5.7489613858770099 0 5.7489613858770099 12.547684917115475 0 0 0 0 11.66291337646544 14.157198653808337 0 14.157198653808337 19.352808884403203 0 0 0 0 8.9001228650668054 12.696043631318389 0 12.696043631318389 23.380202203337831 0 0 0 0 27.770898514307191 21.357589763589203 0 21.357589763589203 6.1234871299434417 0 0 0 0 9.3935065281166317 19.722217731313776 0 19.722217731313776 8.0839300207826454 0 0 0 0 25.767507563996332 8.2999223057904601 0 8.2999223057904601 8.246123212444445 0 0 0 0 26.006878503976623 37.023469127588442 0 37.023469127588442 13.129604838709383 0 0 0 0 0.055091177641673372 -0.084779786659431977 0 -0.084779786659431977 0.60719919958601665 0 0 0 0 62.212725338013115 19.758155724034168 0 19.758155724034168 -10.548870580509629 0 0 0 0 -0.3779049067091762 0.98482377552069167 0 0.98482377552069167 -1.5436818635445118 0 0 0 0 -14.100127021589287 -5.9159652352568628 0 -5.9159652352568628 -22.891142960029129 0 0 0 0 -2.3398577216685226 35.786020116323471 0 35.786020116323471 -38.074331646114842 0 0 0 0 15.352338239579694 32.772829323588667 0 32.772829323588667 -2.2105209275814559 0 0 0 0 -14.830529302806099 13.595165728756911 0 13.595165728756911 7.8476953842477997 0 0 0 0 55.146314547006114 68.261931076364817 0 68.261931076364817 87.389671447808155 0 0 0 0 95.207242190337638 119.85595010088082 0 119.85595010088082 106.37947581736717 0 0 0 0 62.102629976965545 78.210731979095726 0 78.210731979095726 83.315792412795872 0 0 0 0 -0.33721020827927362 0.37392720546445091 0 0.37392720546445091 -0.066224361741261006 0 0 0 0 111.91436327209522 -88.023340849231317 0 -88.023340849231317 120.89949793669803 0 0 0 0 -71.372666638444571 55.98203033942923 0 55.98203033942923 94.983669914443453 0 0 0 0 112.02028473033533 14.643400373801796 0 14.643400373801796 -93.982025776855153 0 0 0 0 -63.697906764744403 11.122157888323272 0 11.122157888323272 114.2966907842374 0 0 0 0 81.894482051855448 -18.28560984388514 0 -18.28560984388514 -31.87556766575517 0 0 0 0 48.437645337236972 37.70163439808266 0 37.70163439808266 26.948837981706674 0 0 0 0 0.031929584894896834 53.871926442205222 0 53.871926442205222 86.662523292821788 0 0 0 0 43.404493633461243 80.582352834223684 0 80.582352834223684 102.91423236374385 0 0 0 0 39.341822255046054 77.707040186140262 0 77.707040186140262 87.31920925905888 0 0 0 0 -0.0011239713167014997 80.911262425761834 0 80.911262425761834 116.47608896899328 0 0 0 0 26.23267538923028 114.13829196838287 0 114.13829196838287 143.1252136445637 0 0 0 0 -5.6590587342252547 55.249347325765029 0 55.249347325765029 92.146064567663529 0 0 0 0 0.0087454905115009751 95.573002231590635 0 95.573002231590635 3.2999498796980333 0 0 0 0 17.131237439076358 96.748858173211602 0 96.748858173211602 62.462771612776123 0 0 0 0 -12.411672116166301 38.42883341151537 0 38.42883341151537 -11.363724675354206 0 0 0 0 47.907454093670822 47.351479540632681 0 47.351479540632681 -15.872969946402691 0 0 0 0 98.105640366135049 -99.52242525910242 0 -99.52242525910242 -460.95177637024835 0 0 0 0 55.833853649364301 116.74282575823895 0 116.74282575823895 -250.94239434909832 0 0 0 0 0.23735088995272235 126.27674303900631 0 126.27674303900631 39.805704127255922 0 0 0 0 50.504942827496507 121.34529523731669 0 121.34529523731669 16.066575333738911 0 0 0 0 -27.264742854862561 66.540180962219438 0 66.540180962219438 -174.21300490076555 0 0 0 0 71.79225124642835 120.41903624998577 0 120.41903624998577 -27.753126548113414 0 0 0 0 80.479469083577754 96.209929713184522 0 96.209929713184522 -45.238790018558575 0 0 0 0 82.406987958133442 -15.228221275685158 0 -15.228221275685158 -118.98232891566659 0 0 0 0 -41.562924296033088 -97.583600321572703 0 -97.583600321572703 -183.40598897364362 0 0 0 0 57.995155185959447 71.023840016790018 0 71.023840016790018 -182.50851352133185 0 0 0 0 33.117097967377049 31.083289327850252 0 31.083289327850252 -15.397025968728485 0 0 0 0 20.640722873406048 52.598236076427384 0 52.598236076427384 82.302363106156918 0 0 0 0 86.190422008708993 118.58637606315642 0 118.58637606315642 34.768081491622524 0 0 0 0 169.24411787730423 198.49998140893058 0 198.49998140893058 152.14804905513029 0 0 0 0 95.600227666367573 92.538522254079453 0 92.538522254079453 102.19231293743178 0 0 0 0 105.83959424824525 160.41961326363787 0 160.41961326363787 228.26772232899293 0 0 0 0 102.86653364519589 80.595811415403659 0 80.595811415403659 22.818798710151896 0 0 0 0 197.6229868158639 244.24290881452123 0 244.24290881452123 147.30642324539622 0 0 0 0 -1.5956765435757632 1.3161756892120735 0 1.3161756892120735 1.6019881986393045 0 0 0 0 224.10877922747022 161.1389912474624 0 161.1389912474624 112.05231963108599 0 0 0 0 230.37898029513781 200.11350458087145 0 200.11350458087145 352.06460783901275 0 0 0 0 258.72758082291512 123.42149073049541 0 123.42149073049541 139.29372220969162 0 0 0 0 -0.2343374187497389 0.72778235782106382 0 0.72778235782106382 0.23408364824076244 0 0 0 0 28.067463513611074 65.445369586645029 0 65.445369586645029 120.23300980193289 0 0 0 0 85.80350255535086 109.46918888922937 0 109.46918888922937 98.655423867623313 0 0 0 0 127.10862784699566 154.49764780252553 0 154.49764780252553 141.20920206441042 0 0 0 0 82.675751757111357 101.38040351618019 0 101.38040351618019 187.94562578898513 0 0 0 0 130.6346084466204 96.615085138892937 0 96.615085138892937 168.04753101997994 0 0 0 0 114.08832186016662 103.04147678340314 0 103.04147678340314 103.55051100663968 0 0 0 0 129.01270765290792 179.48467495616933 0 179.48467495616933 166.76753789534087 0 0 0 0 -28.717762163583757 -23.944017955771642 0 -23.944017955771642 23.910937862539868 0 0 0 0 215.8209327423483 133.86014454885208 0 133.86014454885208 79.020706844699816 0 0 0 0 -0.044155298932857079 2.6918689364382296 0 2.6918689364382296 -2.2988420152428759 0 0 0 0 43.815993352030091 33.498326698001279 0 33.498326698001279 -22.495973777859035 0 0 0 0 2.9983336623275179 5.324275113059997 0 5.324275113059997 1.9054592097596688 0 0 0 0 -7.1517430768817576 -4.7023042861374051 0 -4.7023042861374051 15.118873629055088 0 0 0 0 -5.3235983777958609 13.582715682864091 0 13.582715682864091 2.1789794709734451 0 0 0 0 -12.256074125520172 12.526514965828028 0 12.526514965828028 14.800150377814134 0 0 0 0 4.0193256988303716 5.7477107389102295 0 5.7477107389102295 2.5718883932280989 0 0 0 0 5.0928402983324759 22.22171587787048 0 22.22171587787048 -15.754184798062852 0 0 0 0 -62.112558037328199 34.931926648309854 0 34.931926648309854 -3.4786267558720283 0 0 0 0 5.811254834266947 9.625697518769357 0 9.625697518769357 5.4089672366403647 0 0 0 0 5.2301889892260078 13.582531254511196 0 13.582531254511196 -7.2121615300816302 0 0 0 0 2.8014551168744219 -1.3263437411151244 0 -1.3263437411151244 12.716708247429779 0 0 0 0 8.2710825170174758 -6.3602862163921827 0 -6.3602862163921827 -3.2204627348164649 0 0 0 0 -7.308362342959299 6.7094097255976521 0 6.7094097255976521 -1.9789758688712027 0 0 0 0 -97.295427102999383 20.503290530803497 0 20.503290530803497 9.4592796082838504 0 0 0 0 -196.37367939072647 39.255187891064907 0 39.255187891064907 7.8371244049039888 0 0 0 0 -0.39231218405906176 0.62921134091948616 0 0.62921134091948616 -0.46998681839887624 0 0 0 0 9.238666471956094 213.55553342651092 0 213.55553342651092 7.675605423138677 0 0 0 0 263.76870376546867 252.87049428622777 0 252.87049428622777 -53.964062975457637 0 0 0 0 109.09948336013622 236.6413993426695 0 236.6413993426695 -119.26177584895231 0 0 0 0 50.244658787196386 5.0125432102463492 0 5.0125432102463492 -176.68462673280919 0 0 0 0 203.29828980106322 20.131127795861175 0 20.131127795861175 -8.1718748013390723 0 0 0 0 -5.8418667790697327 91.958650549148274 0 91.958650549148274 -32.072661393482122 0 0 0 0 0.15326283636386506 58.105790826453813 0 58.105790826453813 4.8823150292382707 0 0 0 0 -13.24913877079598 90.34852861759282 0 90.34852861759282 -26.132543689417616 0 0 0 0 -5.5198291490414704 68.439486154675251 0 68.439486154675251 27.920694356327658 0 0 0 0 -0.56437289528548717 96.831780638362034 0 96.831780638362034 -114.22265480328997 0 0 0 0 -7.1879954147880198 37.236809755466311 0 37.236809755466311 14.27648676985018 0 0 0 0 -128.87296081047498 153.34225255493925 0 153.34225255493925 -59.062109306255479 0 0 0 0 -35.064425498130731 108.63287366335862 0 108.63287366335862 -41.833496210432713 0 0 0 0 -34.209710479408386 92.345120667227093 0 92.345120667227093 -24.059026224895206 0 0 0 0 -96.987462828318215 116.81745688622138 0 116.81745688622138 -28.102450237507583 0 0 0 0 -45.703288037391758 92.404922848306342 0 92.404922848306342 -17.356665681343657 0 0 0 0 -45.896408357435575 94.71992036800475 0 94.71992036800475 -44.500954109272243 0 0 0 0 -27.253747062914044 104.72174745922985 0 104.72174745922985 -40.235056902961333 0 0 0 0 -21.090202033132755 81.514875556131415 0 81.514875556131415 -35.839786295497106 0 0 0 0 -28.909737027039228 92.523280994412744 0 92.523280994412744 -45.284036581583678 0 0 0 0 -20.550132116944951 82.945525781858123 0 82.945525781858123 -69.263439355760056 0 0 0 0 -33.546235479981988 75.04261330625377 0 75.04261330625377 -85.094133502318982 0 0 0 0 -10.64673578269867 75.763452907229293 0 75.763452907229293 -92.928829682483411 0 0 0 0 -12.700469825154869 86.579412654459247 0 86.579412654459247 -125.33219271991584 0 0 0 0 -35.491354436759138 75.392384714635227 0 75.392384714635227 -32.862257214450437 0 0 0 0 -43.123064325962332 84.319520305513834 0 84.319520305513834 -37.187683682792795 0 0 0 0 -38.945159358829187 84.121468716531126 0 84.121468716531126 -49.994858681657206 0 0 0 0 -19.211161910645387 11.018297651990451 0 11.018297651990451 6.0404878787649068 0 0 0 0 34.582048522348487 17.974573800803228 0 17.974573800803228 -67.131580430140957 0 0 0 0 1.0291708808583495 1.7968854585864555 0 1.7968854585864555 0.12644327808985523 0 0 0 0 1.1801280363847368 3.3146309035793244 0 3.3146309035793244 1.7700287459469459 0 0 0 0 -35.569522043868346 30.576831442588627 0 30.576831442588627 -22.723862365545756 0 0 0 0 -55.09848203033971 75.146845081782658 0 75.146845081782658 -71.089391961921137 0 0 0 0 0.46484428430085245 4.4328306952011189 0 4.4328306952011189 4.0591874677220403 0 0 0 0 1.43163672042283 3.6880325519600774 0 3.6880325519600774 1.8382695906641402 0 0 0 0 -1.0386068682952398 1.35466724060635 0 1.35466724060635 0.82599268610781351 0 0 0 0 1.8183469120261861 3.7678707554331368 0 3.7678707554331368 4.1213376696678097 0 0 0 0 0.23698520769427489 1.8417218859681412 0 1.8417218859681412 0.26236248334174217 0 0 0 0 2.5998150056075247 3.6082649629001935 0 3.6082649629001935 2.5523137638028857 0 0 0 0 2.1663769693586801 4.6862313518274732 0 4.6862313518274732 3.8664522494600533 0 0 0 0 -1.6956506088881724 3.3102418377136473 0 3.3102418377136473 4.7631123302371634 0 0 0 0 -0.67624239358581661 2.0475657989077511 0 2.0475657989077511 0.53975237563945022 0 0 0 0 1.9882814192122069 2.7174320283494211 0 2.7174320283494211 0.39964410979064713 0 0 0 0 1.8319283095770516 3.0897758509454434 0 3.0897758509454434 1.4207511654249174 0 0 0 0 -2.4660322056951509 1.6458642935600913 0 1.6458642935600913 2.8100314941007127 0 0 0 0 -0.23261084726310344 1.4100047574878083 0 1.4100047574878083 1.1558422172472742 0 0 0 0 -1.4513075499380648 2.9692375387214724 0 2.9692375387214724 4.4430480947394244 0 0 0 0 -0.62345561253410953 2.5655144706725679 0 2.5655144706725679 3.5700219625439722 0 0 0 0 -1.9640071148169227 7.3332913546259988 0 7.3332913546259988 7.8642498872477518 0 0 0 0 0.67567516534654715 2.9352587017967835 0 2.9352587017967835 2.6413571595503527 0 0 0 0 1.1838044799151248 5.958361359587002 0 5.958361359587002 4.5160645162559376 0 0 0 0 -9.2876901518693558 -4.2877168858481127 0 -4.2877168858481127 4.8121930166798847 0 0 0 0 -7.321816489140474 1.6835049166993485 0 1.6835049166993485 16.405095845253697 0 0 0 0 -7.8488780699026393 4.2010071955041894 0 4.2010071955041894 7.0385652807099177 0 0 0 0 -10.310049047769496 -0.9397450826121414 0 -0.9397450826121414 19.881334937125757 0 0 0 0 0.18135938760937265 -0.28769991504405823 0 -0.28769991504405823 -0.064598854892633284 0 0 0 0 -2.348886947698702 9.2287246980363307 0 9.2287246980363307 1.9612149732058697 0 0 0 0 13.151424736421177 2.0343291628032603 0 2.0343291628032603 -4.0951371664123144 0 0 0 0 -1.4081735225590819 1.6674096413562438 0 1.6674096413562438 0.042464002842280024 0 0 0 0 -1.1607206044718623 3.4554229609957474 0 3.4554229609957474 1.178974291234681 0 0 0 0 -2.1213920405061799 2.4227759832351694 0 2.4227759832351694 2.9991490274478565 0 0 0 0 -0.82360676191159854 1.5847596185410122 0 1.5847596185410122 -0.25349669520242379 0 0 0 0 1.0289960089685337 3.9600170497724321 0 3.9600170497724321 3.467130960974373 0 0 0 0 -1.5545987603781128 0.91830091472525766 0 0.91830091472525766 0.75993523882103453 0 0 0 0 -2.0967864780723175 4.0145594667164914 0 4.0145594667164914 4.1603462665948427 0 0 0 0 1.2111096028384054 3.6560100345395767 0 3.6560100345395767 2.1834084576967143 0 0 0 0 -0.73473730719160812 1.9953654850619387 0 1.9953654850619387 2.5305905430595885 0 0 0 0 -0.30499309877880698 0.033624540671151948 0 0.033624540671151948 0.41178168597555853 0 0 0 0 -6.6667833079482079 1.4397288697359443 0 1.4397288697359443 3.3193375809241843 0 0 0 0 -5.8115527508161904 1.1932268498583198 0 1.1932268498583198 3.9419215213074494 0 0 0 0 -1.900037449017951 1.4475086093487892 0 1.4475086093487892 -0.29405478700330345 0 0 0 0 -2.2115183128044009 2.8656965919344657 0 2.8656965919344657 2.3295381129182715 0 0 0 0 -1.3812206611692091 2.5892762270505045 0 2.5892762270505045 2.0966432614995938 0 0 0 0 -2.6188243029482692 2.4266270784260087 0 2.4266270784260087 2.0468671970374999 0 0 0 0 -1.7153280569495593 1.6618557935083835 0 1.6618557935083835 1.438355223049518 0 0 0 0 -1.4084196919648093 2.0873319463071311 0 2.0873319463071311 1.2509245229907719 0 0 0 0 -1.2842960346524706 2.1827731297057653 0 2.1827731297057653 1.0273110954367439 0 0 0 0 -0.68505656045729779 1.8640235946326165 0 1.8640235946326165 0.98615994208605073 0 0 0 0 0.36209767985126184 3.1070998668914669 0 3.1070998668914669 -0.096088194819710537 0 0 0 0 -2.2763078472174243 1.511761331477163 0 1.511761331477163 1.94502738528465 0 0 0 0 -0.48992610061009145 1.6262143186690423 0 1.6262143186690423 0.68543424900417449 0 0 0 0 -4.701854616178025 3.9483079513556731 0 3.9483079513556731 1.0802397634743102 0 0 0 0 -1.7121543932553323 2.7409833711508327 0 2.7409833711508327 1.6280114363939902 0 0 0 0 -1.9808131491658827 1.9918345961960329 0 1.9918345961960329 0.8572183953789434 0 0 0 0 -1.4186446923740732 3.0877834193852323 0 3.0877834193852323 1.7809583249727439 0 0 0 0 -4.1450951381921186 8.4912997927349352 0 8.4912997927349352 1.9610709546686849 0 0 0 0 -3.0241373389799264 5.282927263802776 0 5.282927263802776 1.0134711006958241 0 0 0 0 -7.3706088075632579 3.6016257904238955 0 3.6016257904238955 1.2015860149604123 0 0 0 0 -0.64875138055059267 0.2298085401550658 0 0.2298085401550658 0.92225094215567793 0 0 0 0 -4.7723155637031596 3.7851023973967131 0 3.7851023973967131 0.71266223317252297 0 0 0 0 -4.1345151339191943 5.0585319845376944 0 5.0585319845376944 1.7588413294124621 0 0 0 0 -3.7874611156876199 4.4050926063473526 0 4.4050926063473526 0.29306174169778387 0 0 0 0 0.91140814319442143 2.6053122577045542 0 2.6053122577045542 1.4358791173335703 0 0 0 0 0.27929564262376516 2.6839229298552709 0 2.6839229298552709 1.4348897917022896 0 0 0 0 -1.7327772147783982 1.2350176712659291 0 1.2350176712659291 0.68672377129389872 0 0 0 0 -1.4019854923681123 2.9762633892632948 0 2.9762633892632948 2.4966567011450422 0 0 0 0 0.44987476933557247 2.9938781289575722 0 2.9938781289575722 1.6242235141343855 0 0 0 0 1.5347383885255113 5.095738695309592 0 5.095738695309592 3.0075921262869088 0 0 0 0 2.9016131777734699 4.6823733870919568 0 4.6823733870919568 2.1177167467571962 0 0 0 0 -1.8683025712995533 3.1658977137208524 0 3.1658977137208524 2.9721567371564497 0 0 0 0 0.96700301461896743 3.4559828857420598 0 3.4559828857420598 2.1871541435393738 0 0 0 0 -0.79240114106879744 2.4542004405806175 0 2.4542004405806175 1.4019211363266137 0 0 0 0 -0.46154804013463036 3.6558471220646425 0 3.6558471220646425 3.3828866184940125 0 0 0 0 1.2801619454876345 3.3432217278623284 0 3.3432217278623284 1.7980269888234943 0 0 0 0 1.0694949955686752 3.5901377867276096 0 3.5901377867276096 2.2539206707069752 0 0 0 0 3.3352071223876294 2.1886260139201994 0 2.1886260139201994 -4.4806142023626307 0 0 0 0 -25.010664783485481 -6.1701180069526345 0 -6.1701180069526345 -5.1644382452805075 0 0 0 0 3.3683561661600834 0.68051028287800364 0 0.68051028287800364 3.4958920701228635 0 0 0 0 11.43730658068489 11.286670623405371 0 11.286670623405371 -4.7411238966337805 0 0 0 0 7.9596954481221474 3.6169633766151037 0 3.6169633766151037 5.191318142736236 0 0 0 0 -10.921841643879816 -1.6409371938784716 0 -1.6409371938784716 13.210435004527312 0 0 0 0 -0.6314947598514955 0.62628016858851154 0 0.62628016858851154 -0.25584415279512029 0 0 0 0 -215.85722247924969 40.753096376009353 0 40.753096376009353 10.068882197539097 0 0 0 0 -83.329360785368408 20.698147639737272 0 20.698147639737272 9.2911433061408388 0 0 0 0 -81.667486853331866 82.197891045542747 0 82.197891045542747 -71.87061552404748 0 0 0 0 -54.222320453845896 70.300383836276069 0 70.300383836276069 -32.45831788868054 0 0 0 0 36.736554528695706 36.366234581908884 0 36.366234581908884 -20.430570904504748 0 0 0 0 -101.47805650473583 7.5133569138281473 0 7.5133569138281473 52.702256799451789 0 0 0 0 -123.65996567539878 79.525942894122181 0 79.525942894122181 -42.334179018773284 0 0 0 0 -184.76403388975632 71.81352464314341 0 71.81352464314341 18.987252655048906 0 0 0 0 -163.07428564806742 101.49545828750115 0 101.49545828750115 -41.942757747185169 0 0 0 0 -135.77372843438661 62.124001524030746 0 62.124001524030746 -22.679571868487983 0 0 0 0 -87.987269383072999 69.175941450716891 0 69.175941450716891 -133.52484809895759 0 0 0 0 -91.766297095649406 67.94965759699744 0 67.94965759699744 -56.264268339391492 0 0 0 0 -164.71477523826979 101.63714584141053 0 101.63714584141053 -41.951300947780283 0 0 0 0 -134.81614778881158 75.163384470256005 0 75.163384470256005 -158.07949246776843 0 0 0 0 -126.36648400632112 51.560836724713226 0 51.560836724713226 -118.23668639403695 0 0 0 0 -180.85415244676551 18.391931065985773 0 18.391931065985773 -136.79341266584834 0 0 0 0 -121.55403410261351 20.179324334128978 0 20.179324334128978 -114.18175617411953 0 0 0 0 -88.773693052415183 36.914352355855954 0 36.914352355855954 -111.36570029169525 0 0 0 0 -131.05074744259218 60.907592203081549 0 60.907592203081549 -104.6046045939147 0 0 0 0 -169.56564067946056 141.83815420870269 0 141.83815420870269 -201.33504108041052 0 0 0 0 -563.22231119831849 -68.382438670781994 0 -68.382438670781994 274.87623388591601 0 0 0 0 -210.12644212097803 18.222684588703487 0 18.222684588703487 -190.41701570656869 0 0 0 0 -0.39541755509929288 0.036638405993246081 0 0.036638405993246081 0.16342213140035433 0 0 0 0 -388.34542893338948 492.19012229094369 0 492.19012229094369 -558.44867345819603 0 0 0 0 -346.90982711688775 47.413721551856725 0 47.413721551856725 -120.98105830139684 0 0 0 0 -197.755634929189 82.634537323510813 0 82.634537323510813 -133.79329186190807 0 0 0 0 -145.87942580719027 113.20435662646832 0 113.20435662646832 -161.6428944506315 0 0 0 0 -1.3259691942384961 1.9061542309632387 0 1.9061542309632387 2.2265085307290065 0 0 0 0 -0.86535235645536801 1.4901495806234655 0 1.4901495806234655 0.64069438113748234 0 0 0 0 -86.774776430531347 136.30040165702121 0 136.30040165702121 -200.08453851876675 0 0 0 0 -1.8138017175192047 -0.28870709598855981 0 -0.28870709598855981 0.51816177039536804 0 0 0 0 8.2209249966163043 14.634549747896472 0 14.634549747896472 -27.241575675425793 0 0 0 0 -2.8384077490832098 1.39311577463695 0 1.39311577463695 1.0159084566311982 0 0 0 0 -2.3899780707098675 3.178837966752635 0 3.178837966752635 3.4907423722435098 0 0 0 0 4.9627456327561958 18.043438214358503 0 18.043438214358503 17.903384280881255 0 0 0 0 -0.21951471474312712 3.0040173259565108 0 3.0040173259565108 3.4593314724061202 0 0 0 0 -1.075729662344358 1.5993404243734197 0 1.5993404243734197 1.942346930909121 0 0 0 0 -1.7565804255573312 2.1927081630351495 0 2.1927081630351495 3.3094180971820606 0 0 0 0 0.33196358558335248 3.3220878217188847 0 3.3220878217188847 1.9910464204017488 0 0 0 0 -5.4387841106399719 38.337419292085542 0 38.337419292085542 -90.006619193714869 0 0 0 0 32.589228518248092 51.880275669155026 0 51.880275669155026 -231.82360732949564 0 0 0 0 1.5583995484521438 46.476311269471807 0 46.476311269471807 -81.255557190906984 0 0 0 0 -86.30750920429 125.66174371761849 0 125.66174371761849 -188.93587594192468 0 0 0 0 -0.22088084806195063 1.0216654256957547 0 1.0216654256957547 0.12685123195372938 0 0 0 0 -90.493033851926157 63.739620250562439 0 63.739620250562439 -104.41443477165194 0 0 0 0 -74.322317130456213 106.35579338803018 0 106.35579338803018 -91.481789853653027 0 0 0 0 -65.322061368922732 83.724506929563177 0 83.724506929563177 -206.74394492213651 0 0 0 0 -87.720419299610512 82.996072544773142 0 82.996072544773142 -108.19954014821451 0 0 0 0 -86.685002216549037 99.504318496321048 0 99.504318496321048 -159.54040075520788 0 0 0 0 -98.066350446699289 64.432162775905908 0 64.432162775905908 -57.413264729339062 0 0 0 0 -65.512929334188811 73.809851631201127 0 73.809851631201127 -112.69690977439632 0 0 0 0 -88.239341824757503 67.466265489248144 0 67.466265489248144 -62.643912104742412 0 0 0 0 -51.316491031670012 76.583364433216047 0 76.583364433216047 -60.446351599171976 0 0 0 0 -84.517375320067003 54.256749600815965 0 54.256749600815965 -32.278509927769846 0 0 0 0 -61.500148901213834 51.35862357158112 0 51.35862357158112 -59.740750226799719 0 0 0 0 -29.780445937583863 97.441809261229537 0 97.441809261229537 -94.331206764450144 0 0 0 0 -54.382407745255477 89.961582750180241 0 89.961582750180241 -91.654643132917045 0 0 0 0 -54.435076311741796 82.931590488192342 0 82.931590488192342 -57.014962810717407 0 0 0 0 -29.270301797374486 94.629571301693886 0 94.629571301693886 -79.341723779380118 0 0 0 0 -39.32861411419799 75.925057339800333 0 75.925057339800333 -28.490594180748303 0 0 0 0 -9.7928227376396535 70.820829466075338 0 70.820829466075338 -29.194833079609907 0 0 0 0 -35.064311312467908 68.851957420192775 0 68.851957420192775 2.7797973239339626 0 0 0 0 -39.836562144399693 57.394271524321248 0 57.394271524321248 -41.447998689225642 0 0 0 0 -40.201042315668019 88.955714106608866 0 88.955714106608866 -54.489925854889407 0 0 0 0 -59.844496139900002 58.841822460266485 0 58.841822460266485 -13.237547092721798 0 0 0 0 -69.416440616616455 41.372618797208816 0 41.372618797208816 -5.3170691374270973 0 0 0 0 -43.073202012365073 51.509025804903104 0 51.509025804903104 -33.154347174333907 0 0 0 0 -34.933206371122651 35.702831305888139 0 35.702831305888139 -6.5459664126428834 0 0 0 0 -48.069279777986594 36.671858135989169 0 36.671858135989169 14.684625928490277 0 0 0 0 -31.263986283189297 43.42160508919369 0 43.42160508919369 8.6832416068718885 0 0 0 0 -28.299722795796697 54.804305145701619 0 54.804305145701619 -14.159502764954368 0 0 0 0 -28.67452988176592 30.514201648599737 0 30.514201648599737 37.854205005334734 0 0 0 0 -11.298659648451576 47.323507850287115 0 47.323507850287115 9.3687162367277779 0 0 0 0 -22.08347323750786 38.109537051548614 0 38.109537051548614 14.456198100504025 0 0 0 0 -39.197367044118437 25.311167625994585 0 25.311167625994585 42.362265055680837 0 0 0 0 -14.144644996689749 26.564313731493712 0 26.564313731493712 59.338159125187303 0 0 0 0 -21.539322150406861 13.955839312482567 0 13.955839312482567 46.939640121301636 0 0 0 0 -6.5491611422435199 12.58846111348339 0 12.58846111348339 66.751188619920867 0 0 0 0 -6.2183531311056868 22.236315009888131 0 22.236315009888131 60.761867617517055 0 0 0 0 -12.614464865708214 42.105600034865574 0 42.105600034865574 44.967677504810126 0 0 0 0 -8.7512449572204787 44.731799073888396 0 44.731799073888396 70.088651860749451 0 0 0 0 6.8932412161993852 35.521250011751363 0 35.521250011751363 36.121579395046865 0 0 0 0 -8.4187551757568144 50.425662805635511 0 50.425662805635511 55.838655275855444 0 0 0 0 10.184829908601387 47.326363052034139 0 47.326363052034139 18.955157565093032 0 0 0 0 -15.720127043992306 62.170492900051556 0 62.170492900051556 -3.2212679562999256 0 0 0 0 -10.261459804249171 71.798730334731772 0 71.798730334731772 8.7402782767771896 0 0 0 0 -3.7527897008226319 49.771447145872116 0 49.771447145872116 6.2404345619725063 0 0 0 0 -21.656035871270433 52.310965697794927 0 52.310965697794927 34.80375045165249 0 0 0 0 -17.46063617650816 -6.3189252142283294 0 -6.3189252142283294 43.325256550841004 0 0 0 0 -42.152835454980959 -5.6591777461217134 0 -5.6591777461217134 43.60288790215418 0 0 0 0 -26.244298171703122 -11.843736138757777 0 -11.843736138757777 43.438864315226965 0 0 0 0 -28.402053774756496 -20.531834667061958 0 -20.531834667061958 54.64222382886328 0 0 0 0 -30.637615743067727 -4.2272342840906276 0 -4.2272342840906276 65.131641473290301 0 0 0 0 -13.743570898899634 8.7918938197485659 0 8.7918938197485659 43.707240630003071 0 0 0 0 -25.411076006370422 6.0319506032701611 0 6.0319506032701611 67.027727910463909 0 0 0 0 -44.065385876907385 6.4617356865664988 0 6.4617356865664988 44.217974824024623 0 0 0 0 -30.091851862861404 -5.0417395105978358 0 -5.0417395105978358 20.470083839793006 0 0 0 0 -55.748356506494019 8.6134599511024135 0 8.6134599511024135 18.770952451137418 0 0 0 0 -55.587933647206228 15.046497144534442 0 15.046497144534442 18.304818310818519 0 0 0 0 -25.195240526514681 18.585794844555494 0 18.585794844555494 17.835493501821475 0 0 0 0 -60.1706525291047 31.094973391557915 0 31.094973391557915 1.5526760063621623 0 0 0 0 -53.938752419235243 23.967391074107582 0 23.967391074107582 -17.979989959777868 0 0 0 0 -51.873384625067956 1.8543764899978896 0 1.8543764899978896 0.22773367016816337 0 0 0 0 -43.598801920672486 -16.016022258195107 0 -16.016022258195107 11.839713044804739 0 0 0 0 -45.412516909655096 1.7698379610019401 0 1.7698379610019401 -0.17507318280331674 0 0 0 0 -43.013589080717793 -7.8047791290218811 0 -7.8047791290218811 26.46094657494541 0 0 0 0 -29.55708017334473 -20.532671578940153 0 -20.532671578940153 31.343886403381475 0 0 0 0 -26.337854292711199 -25.581682251765415 0 -25.581682251765415 17.272269852202953 0 0 0 0 -50.046204072356431 -18.149896169777776 0 -18.149896169777776 19.052090235265496 0 0 0 0 -65.664132681009505 -9.1531035137568324 0 -9.1531035137568324 -6.0067015772128798 0 0 0 0 -71.779891756194047 14.931051130798778 0 14.931051130798778 -24.887685172590864 0 0 0 0 -100.05074529971898 2.5236485462710334 0 2.5236485462710334 -29.98330624369919 0 0 0 0 -52.9993577216228 -19.657260587529208 0 -19.657260587529208 -8.8226473367358267 0 0 0 0 -88.270831371017266 41.986733124022066 0 41.986733124022066 -21.817363662367143 0 0 0 0 -65.31738715337633 23.860562363673125 0 23.860562363673125 -38.780526545226166 0 0 0 0 -80.31510373016863 27.027427966260802 0 27.027427966260802 -8.4109192827577317 0 0 0 0 -113.07186952836491 43.250637041594928 0 43.250637041594928 -36.882093563159174 0 0 0 0 -79.93290153235921 24.621975876557372 0 24.621975876557372 -52.812207927978307 0 0 0 0 -79.923617286629451 54.433401490337474 0 54.433401490337474 -84.519539788239854 0 0 0 0 -124.97106962126418 74.842733864348702 0 74.842733864348702 -81.010042046566923 0 0 0 0 -120.98256113554908 82.740005763862882 0 82.740005763862882 -109.83100843935244 0 0 0 0 -145.94707465867396 40.632910600219475 0 40.632910600219475 -62.18404751201524 0 0 0 0 -121.65601805602637 48.435444712817116 0 48.435444712817116 -61.272490519542771 0 0 0 0 -195.24585965443248 113.40320937040315 0 113.40320937040315 -107.17014147996997 0 0 0 0 -116.26096700450216 36.971046014091371 0 36.971046014091371 -92.590472233481705 0 0 0 0 -176.65746835444224 54.832324445845188 0 54.832324445845188 -88.312536729179556 0 0 0 0 -178.38877726075225 45.629043131857543 0 45.629043131857543 -109.74954350267581 0 0 0 0 -132.83757742557282 134.1833835435782 0 134.1833835435782 -158.58785967111908 0 0 0 0 -78.724975763521002 -11.799712004750518 0 -11.799712004750518 -41.852087852983459 0 0 0 0 -53.158685498794512 18.928671029607358 0 18.928671029607358 -56.199167705486616 0 0 0 0 -131.81728216625197 29.872736159395572 0 29.872736159395572 -59.194691071798843 0 0 0 0 -80.585208147425874 24.25994665581311 0 24.25994665581311 -42.399228317583948 0 0 0 0 -93.751517384488579 8.7785639129333504 0 8.7785639129333504 -59.473396395620512 0 0 0 0 -84.221442542995646 21.718824487358688 0 21.718824487358688 -89.565618714421362 0 0 0 0 -128.18280510229306 21.179829506821989 0 21.179829506821989 -112.08176995937538 0 0 0 0 -131.26998804109462 25.432385076282117 0 25.432385076282117 -81.647443637419201 0 0 0 0 -86.356678695901792 -1.3177603863576337 0 -1.3177603863576337 -66.521495793802387 0 0 0 0 -89.777675884575729 38.502982713965594 0 38.502982713965594 -66.367212257227948 0 0 0 0 -48.403926817536558 -6.3876893543792903 0 -6.3876893543792903 -39.998232449170246 0 0 0 0 8.024927662419941 16.165811925419803 0 16.165811925419803 -53.571921279048183 0 0 0 0 -6.0044842051538581 2.6474602065500221 0 2.6474602065500221 -62.701025682981708 0 0 0 0 -21.140326052449382 12.695664590564775 0 12.695664590564775 -27.000729038305508 0 0 0 0 69.616077780656269 -0.12498111411059654 0 -0.12498111411059654 -36.862339414748931 0 0 0 0 13.86155359379336 -10.804582093987392 0 -10.804582093987392 -11.02646155133516 0 0 0 0 12.568695344743901 -7.4005800645427371 0 -7.4005800645427371 -1.0084019087826164 0 0 0 0 39.014220801898773 3.8520897655189401 0 3.8520897655189401 2.8234136680812298 0 0 0 0 43.235524254918801 16.717549066426045 0 16.717549066426045 35.341378466175229 0 0 0 0 -20.151024460858025 -20.977150405392422 0 -20.977150405392422 -25.983969085235543 0 0 0 0 -38.274930067091191 7.4664053759288436 0 7.4664053759288436 -32.896056245847831 0 0 0 0 10.789249952314549 1.6084967855941841 0 1.6084967855941841 -12.377994224920258 0 0 0 0 -23.65995927115182 -24.712634297683508 0 -24.712634297683508 13.624959570675856 0 0 0 0 -24.675131395017161 -10.155639569740742 0 -10.155639569740742 -6.1946706346352585 0 0 0 0 -23.425561187183121 -17.268235485386867 0 -17.268235485386867 32.963147867439147 0 0 0 0 -12.881118521225289 -32.405051687598643 0 -32.405051687598643 34.912790367480738 0 0 0 0 1.7449926133322151 -11.456399874354702 0 -11.456399874354702 19.477718148373242 0 0 0 0 12.256313500538454 -23.027968626486654 0 -23.027968626486654 34.210128363290096 0 0 0 0 7.3619993507345498 -22.705374370485515 0 -22.705374370485515 34.188622107836636 0 0 0 0 15.211416736444335 -6.8811553545860988 0 -6.8811553545860988 65.7457037930144 0 0 0 0 24.612048786043488 -37.478039708625147 0 -37.478039708625147 46.428063089048919 0 0 0 0 -3.7777161247213371 -25.089522057153317 0 -25.089522057153317 35.345781700944826 0 0 0 0 19.212569030210943 -16.044653503370228 0 -16.044653503370228 32.539484992780672 0 0 0 0 -10.909247919315021 -20.270290555489964 0 -20.270290555489964 46.793893385027332 0 0 0 0 -10.395781788378372 -20.826720751931134 0 -20.826720751931134 47.073620853099783 0 0 0 0 -21.292290064282497 -29.799692185302774 0 -29.799692185302774 39.909492793834943 0 0 0 0 -4.8003952276058044 14.004502399805915 0 14.004502399805915 24.039495865742538 0 0 0 0 3.0015762681523483 7.3986397976614171 0 7.3986397976614171 28.71006506256299 0 0 0 0 8.0492281850583822 16.225886488839933 0 16.225886488839933 23.948347173138245 0 0 0 0 19.178587832975609 1.0064028190699901 0 1.0064028190699901 22.996296203239808 0 0 0 0 10.842204987764489 -4.6420688219245676 0 -4.6420688219245676 21.310714444894984 0 0 0 0 0.28706316767791407 -0.40143842830732623 0 -0.40143842830732623 0.3290017434342829 0 0 0 0 30.685968236371991 22.107757478461281 0 22.107757478461281 27.90253737884268 0 0 0 0 58.557425104832873 -11.901957266634327 0 -11.901957266634327 20.879109753796286 0 0 0 0 2.6289687732564744 2.8158719389332365 0 2.8158719389332365 3.1059101030574414 0 0 0 0 8.4283411791952858 2.8463762513100619 0 2.8463762513100619 28.614036371871407 0 0 0 0 2.5597824507012774 9.9671845417720988 0 9.9671845417720988 13.78060660074334 0 0 0 0 4.0060900152184331 -4.9217202593936236 0 -4.9217202593936236 59.164708611967399 0 0 0 0 56.124043702199742 14.201004777979279 0 14.201004777979279 -7.3430347019530018 0 0 0 0 39.117343178144438 -24.294331675739613 0 -24.294331675739613 23.993107594503272 0 0 0 0 197.48591375082378 -12.926687914357444 0 -12.926687914357444 -54.183330636196388 0 0 0 0 0.21143075691555335 0.45336617599316398 0 0.45336617599316398 -0.29220492908684292 0 0 0 0 67.857199053433192 25.615464667786739 0 25.615464667786739 1.1321178006728587 0 0 0 0 0.076687430871515971 8.6990689006395314 0 8.6990689006395314 35.855243269559651 0 0 0 0 -119.6384873246725 31.95884732453078 0 31.95884732453078 24.648198553110888 0 0 0 0 11.668657700201038 30.21193690395512 0 30.21193690395512 -38.431784750311635 0 0 0 0 -2.6726621810066717 17.292994295337849 0 17.292994295337849 -31.907320845575668 0 0 0 0 -77.174466583632466 27.333178631540818 0 27.333178631540818 17.385564765049821 0 0 0 0 0.44565939350591321 1.1954894214199587 0 1.1954894214199587 -0.70996203819853321 0 0 0 0 108.51978102415706 33.376620199557692 0 33.376620199557692 -30.450948068738626 0 0 0 0 62.246891605176643 -22.440895471714157 0 -22.440895471714157 8.3201114428202345 0 0 0 0 37.001477555146266 44.866715574480168 0 44.866715574480168 -36.541885835958965 0 0 0 0 12.775046544996258 17.337826828515972 0 17.337826828515972 -59.212119121687465 0 0 0 0 -43.716178896158453 41.007321676183892 0 41.007321676183892 -39.194988356486647 0 0 0 0 -41.5569611356932 32.690705250181054 0 32.690705250181054 -102.65489636083475 0 0 0 0 -51.352375955033892 52.565979676971757 0 52.565979676971757 -22.137456676011425 0 0 0 0 -51.529585202368253 75.687121480360474 0 75.687121480360474 -81.79937237985996 0 0 0 0 16.167404185149792 16.243244833285189 0 16.243244833285189 -2.9870278431508268 0 0 0 0 8.6672196319304931 75.251941132509728 0 75.251941132509728 -57.828278004794356 0 0 0 0 -75.559772143388727 61.992454719586249 0 61.992454719586249 -15.855029606612334 0 0 0 0 -30.371883214327681 68.051937465523679 0 68.051937465523679 -32.870313571471343 0 0 0 0 -99.164032993326146 82.439828933907847 0 82.439828933907847 -12.771090474945368 0 0 0 0 -21.391508038351731 48.579387977951001 0 48.579387977951001 -16.159192470150629 0 0 0 0 41.909615003552972 30.669734292540397 0 30.669734292540397 -25.336924572929775 0 0 0 0 -1.9521267583395456 27.497945063546695 0 27.497945063546695 -6.7530624626606368 0 0 0 0 0.56270022452203072 1.5787105361257971 0 1.5787105361257971 -0.87490077391053944 0 0 0 0 3.2370068234667997 19.975809597264288 0 19.975809597264288 -22.007705005941716 0 0 0 0 -13.37000695171173 38.306985430421491 0 38.306985430421491 -0.31049066496598243 0 0 0 0 -3.609461064079369 59.151615445032348 0 59.151615445032348 -14.215197421238372 0 0 0 0 -26.290367808489464 70.718553871973199 0 70.718553871973199 -48.565532105906641 0 0 0 0 -22.952301166556936 43.543891139798234 0 43.543891139798234 -28.434143274771714 0 0 0 0 65.414987329964561 13.463199243409804 0 13.463199243409804 -27.322859682448325 0 0 0 0 0.47364976629556832 1.4769928294545984 0 1.4769928294545984 -0.69992816291950533 0 0 0 0 -81.598848587334942 65.638586051383868 0 65.638586051383868 -17.049524915278198 0 0 0 0 -38.669280405805694 35.363134860351693 0 35.363134860351693 -8.0160710473119252 0 0 0 0 -22.431392767723537 54.838085275943513 0 54.838085275943513 -32.137439665218153 0 0 0 0 -38.481881704485204 68.624196437883256 0 68.624196437883256 -20.630139621655189 0 0 0 0 -48.673260524889884 56.396351930645437 0 56.396351930645437 -2.054166211667507 0 0 0 0 -84.911693734935398 38.843254581852534 0 38.843254581852534 -8.0587012354503713 0 0 0 0 -22.7698964802712 28.373476830854088 0 28.373476830854088 -41.889527202188674 0 0 0 0 -18.377929141878553 64.041152021087044 0 64.041152021087044 10.004996316944926 0 0 0 0 -1.9675948149533724 46.889356375330408 0 46.889356375330408 5.1540512309575206 0 0 0 0 -50.642262437981117 93.180176006479087 0 93.180176006479087 -4.4404688781257846 0 0 0 0 -162.89574289094571 -1.3421147818138479 0 -1.3421147818138479 18.945385262266427 0 0 0 0 -0.86531029063583276 0.68186041549672893 0 0.68186041549672893 0.0049020738651002205 0 0 0 0 -20.363224320807603 28.858667734646815 0 28.858667734646815 10.613684806089168 0 0 0 0 -28.718085319575948 23.755252149567355 0 23.755252149567355 7.5030684777202623 0 0 0 0 -47.287837485208001 42.516023746253154 0 42.516023746253154 20.822039417306769 0 0 0 0 26.038790938317106 81.606338829550623 0 81.606338829550623 3.1745934274049432 0 0 0 0 83.300811525234167 25.64252386753742 0 25.64252386753742 4.4403193107700645 0 0 0 0 47.278102808970289 46.018318569213079 0 46.018318569213079 -4.7130361789677409 0 0 0 0 26.068134465556795 9.5174771220026742 0 9.5174771220026742 24.425233624177608 0 0 0 0 73.690697805526725 -7.8059941017654637 0 -7.8059941017654637 24.523925329147922 0 0 0 0 0.2365111101600057 1.1178360556744202 0 1.1178360556744202 0.27122470878315141 0 0 0 0 191.21192637720378 30.329032712000298 0 30.329032712000298 -47.545031617987661 0 0 0 0 -285.98107932744824 96.848697225994442 0 96.848697225994442 100.2800864468918 0 0 0 0 118.80605887212369 118.31828742246853 0 118.31828742246853 -2.3653206652934387 0 0 0 0 -223.75292685933709 88.407951183471596 0 88.407951183471596 -16.092687015910542 0 0 0 0 -232.08341954623029 85.938088213257743 0 85.938088213257743 69.033320594492579 0 0 0 0 0.16074596470099145 0.69186892254003141 0 0.69186892254003141 -0.26075074060853964 0 0 0 0 -125.49899336240924 14.224583303245254 0 14.224583303245254 213.51475117781229 0 0 0 0 53.026244230164593 78.757516060705711 0 78.757516060705711 -169.13485330989033 0 0 0 0 1.0399837521823585 0.051297440214277401 0 0.051297440214277401 0.12296239317861844 0 0 0 0 -252.29076336679645 139.2930733785156 0 139.2930733785156 131.08615812056132 0 0 0 0 -90.851827420163318 -148.40978917719985 0 -148.40978917719985 77.656167893132078 0 0 0 0 -129.5106316753554 83.910886023259536 0 83.910886023259536 -271.37171101320928 0 0 0 0 -109.73704468514916 139.54610031237371 0 139.54610031237371 -125.77656130368359 0 0 0 0 2.1964923632967839 70.387856237452297 0 70.387856237452297 -97.832621204426687 0 0 0 0 -185.43573451297925 108.41710224728786 0 108.41710224728786 -27.2972762286131 0 0 0 0 -52.127954010760732 127.47779666774977 0 127.47779666774977 -131.5318033016647 0 0 0 0 0.55274949346440749 2.3163928791246491 0 2.3163928791246491 -0.38761851889412213 0 0 0 0 -193.00341910579846 139.59019060746232 0 139.59019060746232 -58.663064926121024 0 0 0 0 -149.94705293787229 68.522249286782198 0 68.522249286782198 -27.477145022630793 0 0 0 0 -41.880015834718506 101.80175727769802 0 101.80175727769802 -109.51804837770283 0 0 0 0 20.861618330104648 22.565689195102323 0 22.565689195102323 10.927733449309017 0 0 0 0 18.411070734210625 20.129905997646006 0 20.129905997646006 9.7993521651901574 0 0 0 0 2.035695100115845 44.078519265558043 0 44.078519265558043 6.166097019742665 0 0 0 0 2.0895956054100679 59.639769706577681 0 59.639769706577681 -3.5839061138376564 0 0 0 0 -34.569136607121436 15.532381089057026 0 15.532381089057026 31.340394083247702 0 0 0 0 -98.721762234700691 35.92919515345784 0 35.92919515345784 28.24276258372447 0 0 0 0 25.183084279282411 72.81228264581955 0 72.81228264581955 -56.678714611815849 0 0 0 0 -59.390971547530171 82.330944102991225 0 82.330944102991225 -9.9642381788198691 0 0 0 0 9.7602181938218564 37.331684290857766 0 37.331684290857766 -26.949783954485156 0 0 0 0 -53.698096671290841 24.187740563680563 0 24.187740563680563 -14.460929197237263 0 0 0 0 -74.048356385367015 32.066852111522394 0 32.066852111522394 -14.820506657296391 0 0 0 0 -77.6996795310979 47.018025730458135 0 47.018025730458135 -85.434574613506811 0 0 0 0 0.69232155709459331 2.3215887431080908 0 2.3215887431080908 -1.8204831505179762 0 0 0 0 -0.60146291394391227 0.96395341266581624 0 0.96395341266581624 -0.19703590453200093 0 0 0 0 70.239323199428327 36.753123508837007 0 36.753123508837007 -30.289912511347893 0 0 0 0 -162.38473184149461 14.700043340758384 0 14.700043340758384 11.904028564985538 0 0 0 0 -67.328286154941452 -6.2142416167284864 0 -6.2142416167284864 12.074320312657733 0 0 0 0 120.03660343113188 41.771651343274442 0 41.771651343274442 -61.64720565884781 0 0 0 0 0.59610812950797598 1.7892761343883912 0 1.7892761343883912 -2.1340741153122074 0 0 0 0 -127.91508673942485 46.936313503747257 0 46.936313503747257 1.925399497956505 0 0 0 0 22.728026185421186 20.848214112036771 0 20.848214112036771 12.411835379788954 0 0 0 0 23.765600475517203 15.27961223474631 0 15.27961223474631 9.6539797515297323 0 0 0 0 25.332449345964051 23.053917173375339 0 23.053917173375339 19.51408621347673 0 0 0 0 38.545100670096872 26.630923979193312 0 26.630923979193312 14.652202125668055 0 0 0 0 27.360417878962608 18.303027960596296 0 18.303027960596296 0.36947301456893911 0 0 0 0 43.812754541193499 8.4603332616626403 0 8.4603332616626403 6.1396876337312278 0 0 0 0 25.73748954657276 27.996674630413509 0 27.996674630413509 -13.264763794406463 0 0 0 0 24.177753851270609 31.955589771491304 0 31.955589771491304 -10.819178818683667 0 0 0 0 12.352510709162743 18.176147012495221 0 18.176147012495221 9.4447724446326902 0 0 0 0 12.329599910865909 19.181671316165307 0 19.181671316165307 4.700215932928586 0 0 0 0 8.5552995914949861 28.759970093434504 0 28.759970093434504 -4.3278942373351583 0 0 0 0 10.64278007853045 19.097682497391105 0 19.097682497391105 4.8900047291576811 0 0 0 0 -7.7746075592140187 24.728782579803806 0 24.728782579803806 3.3974206062275698 0 0 0 0 21.935725489080141 33.164526041693762 0 33.164526041693762 -10.515494069564738 0 0 0 0 2.3682010621032532 45.198434119717604 0 45.198434119717604 -12.076770038993686 0 0 0 0 -2.8343903614259034 53.258183629890937 0 53.258183629890937 18.711309247762131 0 0 0 0 5.7571691785578878 53.858855990108964 0 53.858855990108964 3.0439686317467931 0 0 0 0 7.7700206181307294 48.219907361912874 0 48.219907361912874 3.6347005699412875 0 0 0 0 7.5257068873070239 35.249959922677135 0 35.249959922677135 5.2838256600321074 0 0 0 0 -24.529570654208328 33.581145721697567 0 33.581145721697567 5.2608827393773936 0 0 0 0 -32.089567236689618 7.0279072623002321 0 7.0279072623002321 5.1619495524134038 0 0 0 0 14.898483945620683 18.025896421871039 0 18.025896421871039 21.89605017236795 0 0 0 0 -2.0645191339179156 2.1827403587731453 0 2.1827403587731453 -1.2183032046964488 0 0 0 0 33.919669321480796 32.594740726242435 0 32.594740726242435 17.596812400949602 0 0 0 0 1.7246670901422476 10.820658895989141 0 10.820658895989141 4.0201065246192229 0 0 0 0 2.2472316629800844 11.750662850081653 0 11.750662850081653 5.6679361935762245 0 0 0 0 6.5672858976490716 13.881096832465005 0 13.881096832465005 9.8331878425137802 0 0 0 0 8.6361396373877142 11.594405107757893 0 11.594405107757893 5.3031073145884875 0 0 0 0 10.359178080648235 12.729283228780105 0 12.729283228780105 4.0859241572701137 0 0 0 0 13.885040854643194 14.145314491747058 0 14.145314491747058 8.1525705792003009 0 0 0 0 11.948062793790086 15.648744822128037 0 15.648744822128037 7.1058476704124587 0 0 0 0 11.054502632336153 17.837198053374436 0 17.837198053374436 10.547605848463519 0 0 0 0 7.3647890734555403 12.982834307100802 0 12.982834307100802 27.813708271196901 0 0 0 0 180.54444019455696 238.13707627337362 0 238.13707627337362 -134.11236200116309 0 0 0 0 1.3293628075987591 0.67676201251536749 0 0.67676201251536749 0.28486552354808659 0 0 0 0 -5.3259968939855753 -19.504008070604414 0 -19.504008070604414 53.923794356285654 0 0 0 0 -1.1020120966181821 -12.133175992745748 0 -12.133175992745748 14.144426749958257 0 0 0 0 -3.1460415998276403 36.906322096058773 0 36.906322096058773 -13.987716627446389 0 0 0 0 304.41151216680009 -105.50064280015977 0 -105.50064280015977 35.53058160499495 0 0 0 0 -6.6667205312041915 30.867012181887276 0 30.867012181887276 56.456588162367723 0 0 0 0 8.1025649694747699 15.739992680412342 0 15.739992680412342 6.1463352188395675 0 0 0 0 12.760913607078464 12.00494083450883 0 12.00494083450883 0.33486608562225229 0 0 0 0 -15.067209631037258 39.664594307571406 0 39.664594307571406 13.347827881296325 0 0 0 0 8.9107282450567027 8.6717794084654685 0 8.6717794084654685 2.7794950401216738 0 0 0 0 -2.8343285461868835 2.2869147700473516 0 2.2869147700473516 -1.9732760828457367 0 0 0 0 22.542260924594302 26.328871439475733 0 26.328871439475733 15.363451969650214 0 0 0 0 23.273353442608823 18.090519944708603 0 18.090519944708603 0.49726436456376177 0 0 0 0 126.4137310143949 -13.580352050542785 0 -13.580352050542785 -7.8298274178769134 0 0 0 0 0.90388657463699928 3.3752661450716914 0 3.3752661450716914 -5.3220319769391153 0 0 0 0 0.68962990574800642 11.874349179233377 0 11.874349179233377 11.838263306306999 0 0 0 0 1.3634588809936758 11.681293194751447 0 11.681293194751447 1.7313776275650525 0 0 0 0 24.217090418114822 16.329853648259814 0 16.329853648259814 5.3029688928759242 0 0 0 0 17.518785409652992 15.488485511481031 0 15.488485511481031 5.5632515230577155 0 0 0 0 -0.29355170389953855 6.9576215912261432 0 6.9576215912261432 8.6148512730085258 0 0 0 0 8.6605568538698208 19.576599296814265 0 19.576599296814265 14.497418797965111 0 0 0 0 -0.14939942872661049 6.1117314864338823 0 6.1117314864338823 6.6263354434349822 0 0 0 0 4.5824366065653521 8.2753821984772458 0 8.2753821984772458 3.2749562084163699 0 0 0 0 -3.6453083262297401 3.3893452058146067 0 3.3893452058146067 2.7800064154207966 0 0 0 0 1.7766032983872719 7.3123863764326416 0 7.3123863764326416 4.3868695900055172 0 0 0 0 3.9550616227360109 4.3587160114437147 0 4.3587160114437147 2.6392964431170984 0 0 0 0 -3.2628732893535926 3.9421911363983781 0 3.9421911363983781 4.2535269432537461 0 0 0 0 -2.9755169893778657 3.891463547701278 0 3.891463547701278 0.5212268028917606 0 0 0 0 -1.42884855640742 0.8121044685351535 0 0.8121044685351535 0.92072910008905673 0 0 0 0 0.7491709626165175 0.25722708938951655 0 0.25722708938951655 7.5533560717740329 0 0 0 0 7.0269045792065299 20.275217601722602 0 20.275217601722602 20.885993565163517 0 0 0 0 29.038199255719519 15.935825453349935 0 15.935825453349935 11.681988589815319 0 0 0 0 40.583761843422508 45.298121811861961 0 45.298121811861961 26.089329351898414 0 0 0 0 -1.6434691724786212 1.56788462701752 0 1.56788462701752 -0.63306387664567687 0 0 0 0 11.604144768549304 16.456023453406942 0 16.456023453406942 26.184586853863181 0 0 0 0 58.431463813079063 48.89118647300802 0 48.89118647300802 -1.6646212748260041 0 0 0 0 17.415673075451195 13.821481098037566 0 13.821481098037566 -3.8613930821138638 0 0 0 0 11.841256371066265 5.7070724551731473 0 5.7070724551731473 -0.71863433803628141 0 0 0 0 9.7118419345169968 14.285254648260889 0 14.285254648260889 -0.67093399819896149 0 0 0 0 -3.2607714115001727 4.2682035835196075 0 4.2682035835196075 0.026732204923973768 0 0 0 0 -1.8962179392469807 13.495210563014325 0 13.495210563014325 -2.9426393075432316 0 0 0 0 -5.455227491511323 13.09059880799532 0 13.09059880799532 -0.66781530099752473 0 0 0 0 -59.451209627430217 63.924629332628683 0 63.924629332628683 -3.5132092710343272 0 0 0 0 -39.652406764377702 24.925789840144034 0 24.925789840144034 -6.1866212247650765 0 0 0 0 -1.1247126296865027 1.2500962850702706 0 1.2500962850702706 -1.1074544481547157 0 0 0 0 2.1817438730113281 5.7191031679089974 0 5.7191031679089974 5.6155707145826455 0 0 0 0 7.6516846349932166 13.744607348284717 0 13.744607348284717 16.194923271436323 0 0 0 0 3.0739166436433152 5.0345879866868017 0 5.0345879866868017 4.7958268723318724 0 0 0 0 2.8846246962939404 5.2734832361154531 0 5.2734832361154531 5.2795039080274364 0 0 0 0 1.9958765908122587 6.8306445896409969 0 6.8306445896409969 5.5921675593108375 0 0 0 0 4.0615920795244165 8.0443769715720919 0 8.0443769715720919 2.5052050544591111 0 0 0 0 -8.152325461833243 3.7199971166442083 0 3.7199971166442083 1.3269770041620177 0 0 0 0 -0.69758703701518954 2.2992079476532119 0 2.2992079476532119 -1.2170697367977787 0 0 0 0 0.63561820124981772 0.82869349561800121 0 0.82869349561800121 0.57034662207016318 0 0 0 0 7.3627280634718772 7.0764136580487502 0 7.0764136580487502 3.825334099085012 0 0 0 0 8.3756620999556617 7.9360986359047274 0 7.9360986359047274 3.1576661898998282 0 0 0 0 1.0560725867271685 6.5479785434829409 0 6.5479785434829409 0.74728920231041229 0 0 0 0 -0.62118393725613963 4.8668187282627002 0 4.8668187282627002 1.3166789393031966 0 0 0 0 3.415479217237813 4.6216447771016975 0 4.6216447771016975 3.3796567212403357 0 0 0 0 -0.59353275260523652 4.195855060908098 0 4.195855060908098 2.9895776335311659 0 0 0 0 6.8657501472926015 6.5982273975268981 0 6.5982273975268981 4.8551225632600108 0 0 0 0 1.1111117202608511 5.2063764082196258 0 5.2063764082196258 2.9919229624892978 0 0 0 0 3.5406942086573281 4.3034864998496634 0 4.3034864998496634 2.687433309995968 0 0 0 0 0.24998527837306028 4.1064144747049625 0 4.1064144747049625 1.0191898747611958 0 0 0 0 -3.8508315202234371 2.2791017545973773 0 2.2791017545973773 2.2099499532305344 0 0 0 0 0.62817146456833228 1.8170045768334795 0 1.8170045768334795 1.6544159094252588 0 0 0 0 -2.9554565471189562 5.1045025876715044 0 5.1045025876715044 0.79430675315961707 0 0 0 0 1.2239553057310502 2.1976147889439765 0 2.1976147889439765 0.41092710922195508 0 0 0 0 -2.0733962235462968 5.5575568630172256 0 5.5575568630172256 0.57618513298984908 0 0 0 0 -3.5219115418949514 4.9478645264866827 0 4.9478645264866827 0.85144189451420971 0 0 0 0 -3.6647131707322842 5.0077938047315911 0 5.0077938047315911 0.99784572700355056 0 0 0 0 -8.5909710231708232 6.0363975842966511 0 6.0363975842966511 2.0499283668332282 0 0 0 0 1.5612930735117878 2.8689383901067202 0 2.8689383901067202 1.7216564844136428 0 0 0 0 -0.098819226170235197 5.4308519587557385 0 5.4308519587557385 1.1466088569816293 0 0 0 0 -5.7397736381262803 1.4511082602700753 0 1.4511082602700753 0.47010706529226809 0 0 0 0 -5.9388145319389878 5.5094224719300655 0 5.5094224719300655 -1.5281336626334223 0 0 0 0 2.5076607794303527 2.8484738824378759 0 2.8484738824378759 2.095308835112295 0 0 0 0 -14.78313012712897 14.654887264512126 0 14.654887264512126 12.89015657896789 0 0 0 0 0.9060346516194473 2.2072913426019696 0 2.2072913426019696 0.82718698991845585 0 0 0 0 7.8911602452844818 3.2712470925887374 0 3.2712470925887374 -2.5236613039116946 0 0 0 0 -2.3255969932170046 6.5057290718229979 0 6.5057290718229979 2.72758492902949 0 0 0 0 0.72800703601662731 0.78993434219029979 0 0.78993434219029979 -0.10884129987648272 0 0 0 0 6.4202034211666614 2.1466342483677181 0 2.1466342483677181 -3.1229835445310528 0 0 0 0 6.9213447788060876 4.0806152072035502 0 4.0806152072035502 -2.805498018314438 0 0 0 0 4.0231628677585292 2.9432789614053796 0 2.9432789614053796 1.7094601507977529 0 0 0 0 10.659386161521979 -0.36109272035014328 0 -0.36109272035014328 -8.8634950765990652 0 0 0 0 3.9418970054757665 11.777429303987219 0 11.777429303987219 -2.3807029949135767 0 0 0 0 -2.2437287425412293 3.751525054789898 0 3.751525054789898 0.72630008745673713 0 0 0 0 0.013800500398591709 0.015304380457124012 0 0.015304380457124012 0.11961384906998873 0 0 0 0 22.800249079521564 13.049180439050701 0 13.049180439050701 1.0865648810022321 0 0 0 0 7.6203972458934004 2.5826320035073422 0 2.5826320035073422 6.2328477577243575 0 0 0 0 3.3235554257498734 5.5458558120602675 0 5.5458558120602675 1.1749930005744318 0 0 0 0 4.3900517412985209 7.4657743860284427 0 7.4657743860284427 2.7309221610944405 0 0 0 0 3.587620364723989 7.0862613653230255 0 7.0862613653230255 3.6254576696234153 0 0 0 0 2.0583449917703547 8.0804908175477976 0 8.0804908175477976 5.0520353261722448 0 0 0 0 -4.1086708698382886 3.9965999232508409 0 3.9965999232508409 1.6823856400579782 0 0 0 0 4.5423801255492435 8.4181728971616394 0 8.4181728971616394 4.0935785467529513 0 0 0 0 7.0931289497784746 10.439012395854206 0 10.439012395854206 3.9685109684323834 0 0 0 0 1.4219680011489828 5.3626549600238285 0 5.3626549600238285 1.1528829560695861 0 0 0 0 0.89977536550929926 19.957891659990899 0 19.957891659990899 6.480272211812462 0 0 0 0 5.1483059817281216 7.1565536876858218 0 7.1565536876858218 3.4090133484744793 0 0 0 0 -2.7542155515475315 9.1613240563706313 0 9.1613240563706313 -0.7721945859002517 0 0 0 0 0.51916706516567501 12.979979876972493 0 12.979979876972493 3.8644107478548904 0 0 0 0 4.0155050721441512 11.214702106603795 0 11.214702106603795 -0.45919213526258318 0 0 0 0 2.0509335130551491 6.0696902241014641 0 6.0696902241014641 3.0953878772717847 0 0 0 0 13.84127060307037 13.542477737630918 0 13.542477737630918 5.0794199811389262 0 0 0 0 3.0681653496358194 15.145041711177441 0 15.145041711177441 5.2945600730540718 0 0 0 0 -1.1080757616073242 7.716565029537378 0 7.716565029537378 4.1241857433342375 0 0 0 0 0.5264024493371835 7.6808297997176851 0 7.6808297997176851 2.5928295521789551 0 0 0 0 3.2480230693745398 10.312163875259557 0 10.312163875259557 4.7899162251221696 0 0 0 0 -1.4429157278484048 7.1116441912328749 0 7.1116441912328749 3.3574328998548655 0 0 0 0 7.3231770262939762 8.8369262459655786 0 8.8369262459655786 3.4557915875941134 0 0 0 0 -5.8951224869379075 9.8770164369143458 0 9.8770164369143458 3.5248550135893311 0 0 0 0 -3.5070567131697317 8.0603066994535766 0 8.0603066994535766 1.6948870703065495 0 0 0 0 1.9480643031866656 0.68411642701882869 0 0.68411642701882869 -0.64242736752476226 0 0 0 0 5.1883101326588417 8.363670262216452 0 8.363670262216452 5.6454673213397264 0 0 0 0 -9.4434339775489207 2.4830720236689103 0 2.4830720236689103 5.7154673610261852 0 0 0 0 2.8156160226220663 17.430520556164709 0 17.430520556164709 2.5638373819519984 0 0 0 0 -28.898801416713468 16.032544406420811 0 16.032544406420811 13.006162052621676 0 0 0 0 -0.31258066350742553 3.5160446928261164 0 3.5160446928261164 2.6465664630776393 0 0 0 0 3.5066369508808588 6.430303310762385 0 6.430303310762385 1.9219284381708377 0 0 0 0 8.3317616625245137 6.7487777037279102 0 6.7487777037279102 3.3871754247084027 0 0 0 0 -3.9399758272463075 6.1958650540318096 0 6.1958650540318096 3.9538806993479714 0 0 0 0 -7.4079119147609163 4.8988965971601601 0 4.8988965971601601 12.907857824911076 0 0 0 0 7.6699211156519596 21.048480623872933 0 21.048480623872933 4.6744539196167807 0 0 0 0 -0.86925161212368063 0.27565321191681491 0 0.27565321191681491 0.067503666004702811 0 0 0 0 0.40395679861682865 3.4050225561743694 0 3.4050225561743694 1.4663789922577597 0 0 0 0 4.5595129620833177 6.7396273674386293 0 6.7396273674386293 5.1782379329173409 0 0 0 0 7.0019575100959628 7.9660174696371087 0 7.9660174696371087 2.9108879701003616 0 0 0 0 -2.5325237314978608 4.4624011128200891 0 4.4624011128200891 2.429476641958717 0 0 0 0 2.6579701929549628 6.9471379474175308 0 6.9471379474175308 3.9018837234531816 0 0 0 0 8.562473658228555 11.897691964464059 0 11.897691964464059 9.5364079667815531 0 0 0 0 5.3056407332478557 12.052771781187062 0 12.052771781187062 9.5375638928433091 0 0 0 0 -2.4700258916336897 4.1186933745404595 0 4.1186933745404595 2.2752389293846309 0 0 0 0 16.669175482742503 11.057474991417898 0 11.057474991417898 -7.4789245183624757 0 0 0 0 -0.54501288406181558 3.1061380860498495 0 3.1061380860498495 0.34518213243314855 0 0 0 0 15.638287698449858 6.0200054529506701 0 6.0200054529506701 -6.1901556554393551 0 0 0 0 7.2605063691007672 4.1636205186636062 0 4.1636205186636062 11.47811449128767 0 0 0 0 -17.418677134286554 14.958474556643182 0 14.958474556643182 24.425012616121194 0 0 0 0 13.554821666013595 11.867652852690924 0 11.867652852690924 -17.620008242525444 0 0 0 0 1.4417977883204003 20.902143480785526 0 20.902143480785526 -8.293414235895284 0 0 0 0 9.373841776043264 9.2311101719420208 0 9.2311101719420208 8.5721227299514453 0 0 0 0 11.692395359497823 15.726487867496161 0 15.726487867496161 11.350619433668385 0 0 0 0 3.352944497282806 3.6219523504615836 0 3.6219523504615836 0.52526623167986486 0 0 0 0 12.866319692333491 14.447400662974246 0 14.447400662974246 9.6352468759274643 0 0 0 0 -0.23905243345567584 0.75173438392291914 0 0.75173438392291914 0.13524761448841904 0 0 0 0 9.8846287163964917 10.768354728437146 0 10.768354728437146 8.6698950613347279 0 0 0 0 4.0717465940178954 11.110632966736944 0 11.110632966736944 11.427709540035949 0 0 0 0 27.426826161190618 17.207271614419248 0 17.207271614419248 10.042011442052399 0 0 0 0 7.8329827316192677 9.1729960476668566 0 9.1729960476668566 14.208024708319329 0 0 0 0 11.558499594772002 18.547064439069459 0 18.547064439069459 18.532863039586346 0 0 0 0 4.555530532599505 7.4008327602484805 0 7.4008327602484805 6.0538325415707277 0 0 0 0 1.7352414153301652 11.444097825987512 0 11.444097825987512 11.046917651879198 0 0 0 0 3.9857413194513356 6.6622593818727864 0 6.6622593818727864 0.8211026431188202 0 0 0 0 -1.6887248402017576 10.574326855586378 0 10.574326855586378 4.5560649594258962 0 0 0 0 9.2473047513558413 11.990271960255541 0 11.990271960255541 3.8331756489214968 0 0 0 0 2.2920788207666192 11.92690028870129 0 11.92690028870129 1.128399181221539 0 0 0 0 7.4196305119075987 13.971262759003139 0 13.971262759003139 1.4560736074295164 0 0 0 0 7.3055523308430566 9.2777233760966737 0 9.2777233760966737 2.5026874931565999 0 0 0 0 6.483413521451439 11.597283572353263 0 11.597283572353263 -0.88924423279365783 0 0 0 0 2.7215869999288351 3.2907998437280277 0 3.2907998437280277 1.7875913663228591 0 0 0 0 2.0033969925279962 10.493275103244741 0 10.493275103244741 -1.160549968269379 0 0 0 0 -10.175804110221179 8.0869126114097298 0 8.0869126114097298 3.8970054652972976 0 0 0 0 3.0287195077775735 4.2248763028949892 0 4.2248763028949892 3.2635583854777832 0 0 0 0 -2.3554754085598688 10.803029932434811 0 10.803029932434811 -1.6669363671894644 0 0 0 0 2.5821278993466876 6.7350590578575265 0 6.7350590578575265 -4.376198757080374 0 0 0 0 -4.2828967940040457 6.9050622725227413 0 6.9050622725227413 1.8909641289781121 0 0 0 0 -4.1865582395621459 10.452528428893629 0 10.452528428893629 -5.8870769384525943 0 0 0 0 -2.0957626172025812 4.1266610475334495 0 4.1266610475334495 -5.2964758213720415 0 0 0 0 -1.6142510083827801 6.7227670502652472 0 6.7227670502652472 -0.26203569309370778 0 0 0 0 -1.3710502422218269 6.8359544330540984 0 6.8359544330540984 -3.7357479828481246 0 0 0 0 -0.59469816373893991 5.3362389286592133 0 5.3362389286592133 2.1463252195467533 0 0 0 0 1.119362899786438 6.4375180624305415 0 6.4375180624305415 6.7315067491919081 0 0 0 0 -3.1219512234638387 7.9010811887629018 0 7.9010811887629018 6.669092847209015 0 0 0 0 -5.8033091266624979 9.6176180929311954 0 9.6176180929311954 7.2700721526055077 0 0 0 0 -3.5641121128028317 6.6078865919923686 0 6.6078865919923686 4.5978501264434044 0 0 0 0 -4.0702921543688717 9.8001955116558754 0 9.8001955116558754 6.3517739120064647 0 0 0 0 -4.1674812078235846 9.0399347124186065 0 9.0399347124186065 11.585463579648113 0 0 0 0 -3.4290455153786752 11.148667198317753 0 11.148667198317753 3.7035135390905936 0 0 0 0 -8.8666880896234943 15.465988844573673 0 15.465988844573673 2.8092143395436651 0 0 0 0 -0.0045235058987600496 10.411827765482201 0 10.411827765482201 2.1693080449731497 0 0 0 0 -1.8914157196541055 8.7805144044864392 0 8.7805144044864392 1.2712414859889805 0 0 0 0 -2.1188353607467434 8.0815708557869357 0 8.0815708557869357 1.107031998368484 0 0 0 0 -0.0019933687908633146 9.2196793920628579 0 9.2196793920628579 -1.1115363481701479 0 0 0 0 0.32015234197388054 8.4849830158731265 0 8.4849830158731265 -2.1587641937369426 0 0 0 0 2.1615085003450076 10.674153562325046 0 10.674153562325046 -2.977844884573642 0 0 0 0 0.010402453544884338 9.4461164801460882 0 9.4461164801460882 -3.4194195614199998 0 0 0 0 0.077071439251085394 7.9081078534834433 0 7.9081078534834433 -3.6552616049466451 0 0 0 0 2.5667722631023935 7.968696205360402 0 7.968696205360402 -5.2035826846449709 0 0 0 0 0.24344702155735831 7.7512927043955102 0 7.7512927043955102 -3.879214994964741 0 0 0 0 -3.7801431424486509 8.3431389952772861 0 8.3431389952772861 -3.2768470801356102 0 0 0 0 -3.9477347548236139 6.2883440729258382 0 6.2883440729258382 -3.0692045074713405 0 0 0 0 -11.868250810528536 8.7961456905923221 0 8.7961456905923221 -1.5668815526109938 0 0 0 0 -6.1600767570198514 5.6809061554156415 0 5.6809061554156415 -1.8704354146907463 0 0 0 0 -4.2716824593881029 5.7863153838197832 0 5.7863153838197832 -1.8700293984592289 0 0 0 0 0.81661213682541955 0.78559182825448204 0 0.78559182825448204 0.45726623576710068 0 0 0 0 -0.40288917089492315 6.1415865112833217 0 6.1415865112833217 -3.384856660690275 0 0 0 0 -4.3450211892577499 5.4090598140844577 0 5.4090598140844577 -3.1078876123322061 0 0 0 0 2.784525226434198 2.4682915731712001 0 2.4682915731712001 -4.6160664135327352 0 0 0 0 11.631028246316419 2.1644253008876149 0 2.1644253008876149 -4.9191096319245844 0 0 0 0 -2.2141004455079383 -0.61214941883690699 0 -0.61214941883690699 2.8591731819496999 0 0 0 0 1.1264374984712049 2.1697247701540974 0 2.1697247701540974 1.717410706118244 0 0 0 0 8.5364997439119179 5.9187155714455457 0 5.9187155714455457 1.3480268545481806 0 0 0 0 -6.7826259955654677 8.5075147456327613 0 8.5075147456327613 5.0270823696987463 0 0 0 0 -10.280073323468059 1.1264162605375532 0 1.1264162605375532 5.0594634345825398 0 0 0 0 11.082968188413361 3.4155722207633517 0 3.4155722207633517 0.56334358146705199 0 0 0 0 0.82151366359086708 0.54606030506795733 0 0.54606030506795733 0.20152633696664246 0 0 0 0 -5.9809342975931941 6.6182388013958189 0 6.6182388013958189 2.6301447719115458 0 0 0 0 -5.1919657400067081 6.1191803504889322 0 6.1191803504889322 -0.49275275234595028 0 0 0 0 -5.7651775635495142 1.9318436433745489 0 1.9318436433745489 -0.4894850424843753 0 0 0 0 -5.7107427118098713 1.1798647127576203 0 1.1798647127576203 5.7605234203329019 0 0 0 0 -0.27310643888995401 1.1931889260154094 0 1.1931889260154094 0.63702956824272405 0 0 0 0 0.56609921290575493 2.6741196003205658 0 2.6741196003205658 0.82706821892998406 0 0 0 0 -1.2907771310976273 2.4081298283430925 0 2.4081298283430925 0.94890378107132811 0 0 0 0 -5.726678102162623 -4.0186859015127538 0 -4.0186859015127538 30.739842993704769 0 0 0 0 0.68277463578610309 0.20033603977093506 0 0.20033603977093506 -0.17985053640549609 0 0 0 0 0.63237737862618815 2.9200091849638738 0 2.9200091849638738 1.6151032384977952 0 0 0 0 0.8680997769337182 -1.5741143113655767 0 -1.5741143113655767 5.0739080858593297 0 0 0 0 -5.2388745184662184 4.2530945156410098 0 4.2530945156410098 8.6030785075545282 0 0 0 0 3.9004400321832691 -25.857614479260008 0 -25.857614479260008 28.725506198728908 0 0 0 0 17.417994485372219 9.4455880532228775 0 9.4455880532228775 -8.7013778425844066 0 0 0 0 13.796311199666889 16.492603423808532 0 16.492603423808532 -7.6991858339679311 0 0 0 0 10.81105066480086 -8.0840309260006507 0 -8.0840309260006507 -33.052465718698159 0 0 0 0 -0.028625346099943272 11.35658421270989 0 11.35658421270989 0.19037273968365298 0 0 0 0 0.9849363455286948 11.630182869264331 0 11.630182869264331 -3.3450364755749433 0 0 0 0 4.6917522933035798 15.870961681008339 0 15.870961681008339 -4.9616019147911175 0 0 0 0 4.7174836352533021 8.6686731077820696 0 8.6686731077820696 -5.259013680818498 0 0 0 0 8.3697303798608118 8.482383958135415 0 8.482383958135415 -5.6985452035642084 0 0 0 0 -862.4080908408971 213.04697738453751 0 213.04697738453751 -359.28656529977889 0 0 0 0 447.79845728685166 145.73586967526217 0 145.73586967526217 -226.91832010590224 0 0 0 0 -0.21118789433227758 1.9552560805714336 0 1.9552560805714336 -1.9305026207565703 0 0 0 0 173.46710326826098 149.46027288471123 0 149.46027288471123 -173.58687117173395 0 0 0 0 292.41753147597575 22.417160137173596 0 22.417160137173596 -80.997215850038629 0 0 0 0 135.94597308466541 35.070684707206965 0 35.070684707206965 62.227845985791646 0 0 0 0 -929.29662132462772 327.08095777997187 0 327.08095777997187 -19.892918543879205 0 0 0 0 -232.79899559036767 266.05558060764361 0 266.05558060764361 -151.19513472724657 0 0 0 0 -451.60987162347237 92.934780790681089 0 92.934780790681089 72.178066994349138 0 0 0 0 -217.15321543905111 175.12147883273246 0 175.12147883273246 -93.852377231481114 0 0 0 0 -96.700531119633752 116.99635146567653 0 116.99635146567653 -91.000576899294174 0 0 0 0 -23.328045476861917 123.19707880738497 0 123.19707880738497 -166.00217266080108 0 0 0 0 -39.975380575305167 81.6516039592168 0 81.6516039592168 -91.06819573537723 0 0 0 0 -50.0099140663865 -69.384754673214047 0 -69.384754673214047 9.3575929000444376 0 0 0 0 60.517079706935874 32.041787617783484 0 32.041787617783484 -97.639076807430683 0 0 0 0 -5.9309081532192067 102.90905883542746 0 102.90905883542746 -100.69371112949375 0 0 0 0 -51.419504790381325 79.876571041861098 0 79.876571041861098 -109.26850195695079 0 0 0 0 -168.89143129684726 184.99940770706598 0 184.99940770706598 -192.12112110712678 0 0 0 0 -481.41705027088574 477.50215482039766 0 477.50215482039766 -385.03157473025567 0 0 0 0 -100.75668144708879 206.57444784539439 0 206.57444784539439 -299.20864626308321 0 0 0 0 28.356456211740351 -62.353297985424433 0 -62.353297985424433 -193.40355735847879 0 0 0 0 -1.8292498154614671 1.7178331482629403 0 1.7178331482629403 -0.46678207440954722 0 0 0 0 -37.536646290227054 177.24981393009875 0 177.24981393009875 -485.00186864876787 0 0 0 0 0.50170615158754117 6.2971180497652313 0 6.2971180497652313 0.6067383539302682 0 0 0 0 -0.35770960909677552 1.0005906592871483 0 1.0005906592871483 1.1627604577303501 0 0 0 0 -3.2104597116911777 1.2123992679724136 0 1.2123992679724136 2.5555949158482321 0 0 0 0 0.79382228484292749 5.8145432360714597 0 5.8145432360714597 2.821690232470246 0 0 0 0 -1.7859591050777919 3.7956510063801794 0 3.7956510063801794 2.7276579095541464 0 0 0 0 0.29216723745048512 5.8976828490485786 0 5.8976828490485786 4.6459504944632499 0 0 0 0 0.076786161544400697 1.2681677218557468 0 1.2681677218557468 0.0037838667077494392 0 0 0 0 -3.7735755678695568 2.625359195179044 0 2.625359195179044 4.4453585819137516 0 0 0 0 -3.0437041908480751 2.939198535765172 0 2.939198535765172 4.0316278291911658 0 0 0 0 -1.6564222176057228 2.5560230399241846 0 2.5560230399241846 3.3552293188568001 0 0 0 0 -1.3014975204265546 2.0173263666415764 0 2.0173263666415764 4.0458060292004241 0 0 0 0 -2.5679163526680036 2.3526597678709393 0 2.3526597678709393 3.6749245151537764 0 0 0 0 -1.5331192102366913 5.2492595276617067 0 5.2492595276617067 4.7677779055829888 0 0 0 0 -1.9158464400146038 1.7680664999118161 0 1.7680664999118161 4.4651464768823033 0 0 0 0 0.1645739885243529 4.1050746681285091 0 4.1050746681285091 5.0212299175473163 0 0 0 0 -3.6205110721305793 2.4153130032506982 0 2.4153130032506982 6.938454256918245 0 0 0 0 -2.8640297189022021 4.2066828358110797 0 4.2066828358110797 6.2181577057290269 0 0 0 0 -2.7416359270687281 4.5768029305727396 0 4.5768029305727396 5.7876998648571316 0 0 0 0 -1.8150532050001491 4.1630868721621876 0 4.1630868721621876 3.8060865595052675 0 0 0 0 -5.44918700573362 2.1626900529336126 0 2.1626900529336126 8.9464078794735542 0 0 0 0 -2.0259156756941366 -0.074607904080949083 0 -0.074607904080949083 8.4747118400919135 0 0 0 0 -4.1118637990971365 0.98799254583627771 0 0.98799254583627771 9.6581086969454191 0 0 0 0 -2.5838956563429747 1.1375755174703954 0 1.1375755174703954 7.5811598544241861 0 0 0 0 -7.6847769034989142 1.7163254401930317 0 1.7163254401930317 6.0423710217983171 0 0 0 0 -3.9543136095160554 4.3578134763575065 0 4.3578134763575065 6.3796773109205818 0 0 0 0 -1.3015394117087453 9.3338262945690076 0 9.3338262945690076 11.131793734946768 0 0 0 0 102.63162757145716 128.38094523755899 0 128.38094523755899 82.205692927605924 0 0 0 0 0.33340576794603294 6.6072337870273259 0 6.6072337870273259 6.156832394380217 0 0 0 0 -3.3740997520417295 1.1402166419629793 0 1.1402166419629793 17.67366079648491 0 0 0 0 -1.7582524053979141 1.8519330626400023 0 1.8519330626400023 2.7010796802949262 0 0 0 0 -0.017501055354208539 0.15127193801307648 0 0.15127193801307648 0.059413050858017513 0 0 0 0 -16.794210441097903 -9.6299294684413326 0 -9.6299294684413326 36.653052832778485 0 0 0 0 -240.12926057948175 108.38366479434808 0 108.38366479434808 -40.242578119617974 0 0 0 0 -383.39218490763415 107.47466059972612 0 107.47466059972612 -78.65032008788512 0 0 0 0 -0.9461057610515633 0.81181328150988108 0 0.81181328150988108 0.058383359694518688 0 0 0 0 -13.948217324570464 -2.5811435354862624 0 -2.5811435354862624 11.90336874073364 0 0 0 0 -831.0785873525449 308.17475301786908 0 308.17475301786908 -78.322803905513865 0 0 0 0 -276.04887192723965 388.84215449693806 0 388.84215449693806 -223.49332298215086 0 0 0 0 144.1553833070349 117.15709391692484 0 117.15709391692484 -201.83945945109008 0 0 0 0 152.60607786348578 322.14733707286541 0 322.14733707286541 -299.38675441894884 0 0 0 0 21.909113431661126 227.41822427781062 0 227.41822427781062 -148.48884609401284 0 0 0 0 -0.6247379064108145 186.44383698986894 0 186.44383698986894 -222.43119156557441 0 0 0 0 -96.785248791274171 105.47940878269856 0 105.47940878269856 -102.79605470879051 0 0 0 0 -29.739311532582406 144.27587703221707 0 144.27587703221707 -84.960120814712354 0 0 0 0 -152.76010432876069 228.86928385776446 0 228.86928385776446 -138.14899766032067 0 0 0 0 -34.253866698114535 121.92181475160942 0 121.92181475160942 -178.89444000997537 0 0 0 0 66.576101582205752 56.999253277561365 0 56.999253277561365 -139.04014019569149 0 0 0 0 0.67005915738127186 0.59640338310164598 0 0.59640338310164598 -0.76948205565615879 0 0 0 0 115.25216153318081 99.628953172560614 0 99.628953172560614 -207.7732160130563 0 0 0 0 3.4781808364572413 168.00685548218644 0 168.00685548218644 -285.859907942262 0 0 0 0 12.546411395888867 118.44014582692762 0 118.44014582692762 -197.00278129566959 0 0 0 0 57.379814907671175 97.307513182420735 0 97.307513182420735 -191.37045642203157 0 0 0 0 78.572908978961891 119.92889063804705 0 119.92889063804705 -184.26729816047691 0 0 0 0 -108.11898819032746 128.15111453278769 0 128.15111453278769 -180.73856318670914 0 0 0 0 3.4051931393741199 63.951188877436834 0 63.951188877436834 -228.3819219765187 0 0 0 0 -96.233710958733155 143.44110027837269 0 143.44110027837269 -197.81067334163527 0 0 0 0 -157.93053237969988 179.91412733618381 0 179.91412733618381 -209.14740351551291 0 0 0 0 -104.99306261904295 135.2477727544092 0 135.2477727544092 -223.78286696095529 0 0 0 0 -263.11620407387915 317.14169380299154 0 317.14169380299154 -339.28888398438812 0 0 0 0 -250.50480604516778 193.87407245441182 0 193.87407245441182 -184.5815465250862 0 0 0 0 -155.16621505529184 156.85560387501755 0 156.85560387501755 -223.39993330250036 0 0 0 0 -158.26740218662732 144.58994569039896 0 144.58994569039896 -269.67781322432256 0 0 0 0 -130.42119089387469 109.66202313477243 0 109.66202313477243 -226.31569638976544 0 0 0 0 -133.9808246111424 33.734121724906799 0 33.734121724906799 -9.4063243793875699 0 0 0 0 -54.983429015887111 170.4810823978496 0 170.4810823978496 -208.36052062866293 0 0 0 0 -0.87853662745668692 0.30521099998864365 0 0.30521099998864365 -0.14515989185345468 0 0 0 0 -0.82945697331213719 0.34375889975722274 0 0.34375889975722274 -0.35347290251450048 0 0 0 0 -1.1952757017215845 0.33016001858050004 0 0.33016001858050004 -1.8674751242215279 0 0 0 0 -70.239239782618029 134.5631303703658 0 134.5631303703658 -291.74014379578966 0 0 0 0 -1.6528414179327213 1.9936815520763425 0 1.9936815520763425 -1.9288481446017105 0 0 0 0 12.934490651730755 22.484910705132165 0 22.484910705132165 -42.148934081345942 0 0 0 0 -0.45631881296428389 65.562223858858232 0 65.562223858858232 49.5042969070455 0 0 0 0 4.9713658950755075 3.0733093345370435 0 3.0733093345370435 -18.732328734178736 0 0 0 0 24.054445478608272 36.202180194045468 0 36.202180194045468 14.143552270850705 0 0 0 0 53.62299502549979 87.16245435581277 0 87.16245435581277 -44.995006373625074 0 0 0 0 55.539731886151159 80.796265551957731 0 80.796265551957731 -46.115459854114306 0 0 0 0 -19.752898949950179 141.40796911585403 0 141.40796911585403 -184.36910636977336 0 0 0 0 -2.4985243216256663 167.86272494594414 0 167.86272494594414 -171.4132931503168 0 0 0 0 -0.38281795468733648 0.17886645642664334 0 0.17886645642664334 0.088808521655746375 0 0 0 0 17.698803262232104 81.511453899662229 0 81.511453899662229 31.943137513279908 0 0 0 0 71.693708262203529 111.27180021725235 0 111.27180021725235 -68.63147206121721 0 0 0 0 2.1738249711635262 116.82695084177885 0 116.82695084177885 51.157153465528609 0 0 0 0 74.177575013477622 125.01192962191953 0 125.01192962191953 -28.444263814238411 0 0 0 0 36.278759146379684 87.566157491173726 0 87.566157491173726 94.52002719160555 0 0 0 0 32.017539364778145 115.89026381282929 0 115.89026381282929 51.035403245397106 0 0 0 0 39.668407312237399 90.576341940996144 0 90.576341940996144 59.498138049548288 0 0 0 0 46.803479368031375 36.286004341327725 0 36.286004341327725 44.997569656899941 0 0 0 0 81.793276485004924 27.694907513394355 0 27.694907513394355 10.198385973058976 0 0 0 0 53.449164804993529 101.05626087879364 0 101.05626087879364 42.595814834149223 0 0 0 0 136.41888208743188 140.58941650111956 0 140.58941650111956 82.67419963563998 0 0 0 0 196.3904147189061 6.7856376996523977 0 6.7856376996523977 47.016042583850776 0 0 0 0 2.6692974368029638 83.292255619657226 0 83.292255619657226 224.54536499383812 0 0 0 0 118.4541139012149 148.08856430519882 0 148.08856430519882 100.83433750149288 0 0 0 0 2.0956209012750819 1.2773837771183274 0 1.2773837771183274 0.75442064893074701 0 0 0 0 14.380932260395866 -2.1519930932522584 0 -2.1519930932522584 -34.286727207910189 0 0 0 0 162.21249508455398 28.397291615444828 0 28.397291615444828 -76.623233076241377 0 0 0 0 204.17555416064715 125.530933560113 0 125.530933560113 -29.571776438624511 0 0 0 0 0.20914064061369686 29.124718666596891 0 29.124718666596891 33.076478472213694 0 0 0 0 5.3846651342865677 3.1477998689825544 0 3.1477998689825544 2.1056681925203371 0 0 0 0 12.367040801075422 34.417558289443832 0 34.417558289443832 18.856164294360497 0 0 0 0 8.3383571460361949 4.9320979209193183 0 4.9320979209193183 -1.7397218126925509 0 0 0 0 -186.21077148894227 70.915346601936648 0 70.915346601936648 -4.7210717999241751 0 0 0 0 0.037186763526187605 5.3423016783796289 0 5.3423016783796289 -4.4051086789278173 0 0 0 0 18.935411543363671 29.801252764548281 0 29.801252764548281 26.765892977924523 0 0 0 0 35.066305485728776 41.439663653859334 0 41.439663653859334 11.24380143430426 0 0 0 0 0.075794001343736608 4.5093146861359887 0 4.5093146861359887 -3.9227945389186658 0 0 0 0 -330.83685737238739 81.890794398629737 0 81.890794398629737 13.395737121891216 0 0 0 0 116.37136537950147 86.982820996925057 0 86.982820996925057 29.894406352476608 0 0 0 0 -103.04329275961709 107.36990249891301 0 107.36990249891301 -64.370280677416304 0 0 0 0 -124.90566930379464 126.69806709490058 0 126.69806709490058 -63.456703457013816 0 0 0 0 -204.84774300980416 51.581951929578281 0 51.581951929578281 -22.073757709190431 0 0 0 0 -200.11455433102492 116.79117767928574 0 116.79117767928574 -10.798049585206172 0 0 0 0 -139.97592737480522 97.318310388690406 0 97.318310388690406 -19.795699414500632 0 0 0 0 -141.09856057353727 56.794754546320291 0 56.794754546320291 -9.6314331904527535 0 0 0 0 -118.1867387960225 112.7559204609438 0 112.7559204609438 -10.478486860283738 0 0 0 0 -119.85372281363789 125.81820068882007 0 125.81820068882007 -34.553900334744753 0 0 0 0 -120.35115120441469 129.52650885857383 0 129.52650885857383 -61.248556302226916 0 0 0 0 -136.51324047295384 104.93104323353373 0 104.93104323353373 -5.4160661291753058 0 0 0 0 -103.67579903316982 61.77243667672974 0 61.77243667672974 43.693017242059341 0 0 0 0 -50.015336655153817 54.040376235279552 0 54.040376235279552 -17.250769007900089 0 0 0 0 -167.12130073455523 137.98932694797304 0 137.98932694797304 23.076279313372652 0 0 0 0 21.862625130293054 48.860992525589154 0 48.860992525589154 27.947451518044545 0 0 0 0 -112.76644974537294 26.38995059680542 0 26.38995059680542 200.25245295643799 0 0 0 0 -42.655919884489322 94.911440637929445 0 94.911440637929445 155.68355590101964 0 0 0 0 -2.3966077656409208 1.8838043368798374 0 1.8838043368798374 -0.64573201207982578 0 0 0 0 -7.5936547054325274 103.6367619865166 0 103.6367619865166 98.577529023397801 0 0 0 0 -67.239324169968768 32.209499429402058 0 32.209499429402058 40.487213517305918 0 0 0 0 -49.383381959534063 48.946043574240775 0 48.946043574240775 -9.8650365375524416 0 0 0 0 -35.856561001489354 18.102344063719102 0 18.102344063719102 35.998694577060405 0 0 0 0 -40.254554429211566 50.217851627306118 0 50.217851627306118 -35.566311077136561 0 0 0 0 -23.478982675349471 31.245673354178507 0 31.245673354178507 -14.129010925717694 0 0 0 0 -17.803847941912181 32.538110912339562 0 32.538110912339562 -33.911256557290471 0 0 0 0 -29.093944580301695 27.118632780380722 0 27.118632780380722 -28.27093380196311 0 0 0 0 1.5221471353035385 1.8403565472000709 0 1.8403565472000709 1.9891498979926183 0 0 0 0 -20.362286142416451 34.790704936996917 0 34.790704936996917 -32.342748002474764 0 0 0 0 -21.046923011467015 34.731428408512784 0 34.731428408512784 -30.330159353587078 0 0 0 0 -16.677617222693698 36.002778657309591 0 36.002778657309591 -35.916660437878818 0 0 0 0 -34.669393195488283 49.768159698663112 0 49.768159698663112 -40.680496428874903 0 0 0 0 -32.329309528993235 54.953210991772721 0 54.953210991772721 -48.828937789352494 0 0 0 0 -51.5123573938954 81.213792675574041 0 81.213792675574041 -68.138395299434706 0 0 0 0 -123.77976004601749 97.256862878388119 0 97.256862878388119 -38.150791767551709 0 0 0 0 -54.914876830839148 71.046364842002504 0 71.046364842002504 -55.337297495036182 0 0 0 0 -79.756135396527043 73.244575473286204 0 73.244575473286204 -29.292860716339419 0 0 0 0 -49.01355284043575 51.472540292479152 0 51.472540292479152 -16.461235647902868 0 0 0 0 -74.991404968609459 78.66196306421898 0 78.66196306421898 -38.567748630955521 0 0 0 0 -45.333721965745326 19.184695732094497 0 19.184695732094497 20.851512106875134 0 0 0 0 -8.333544804327083 9.177695388147642 0 9.177695388147642 14.627325474981713 0 0 0 0 -18.117896982515731 19.628772200739604 0 19.628772200739604 -17.156208967884595 0 0 0 0 3.4199664316312761 7.5620608060008614 0 7.5620608060008614 10.388184119331054 0 0 0 0 -3.9516328926374626 7.7065288414414681 0 7.7065288414414681 5.6969197675716714 0 0 0 0 -24.686922513573791 45.64773925289046 0 45.64773925289046 -16.226909200800947 0 0 0 0 0.080609417385826276 5.1333998352466566 0 5.1333998352466566 10.063155207584533 0 0 0 0 -0.23809802089726873 13.463366204881822 0 13.463366204881822 -28.307443329080343 0 0 0 0 27.874449082438332 15.57627289544007 0 15.57627289544007 -31.344155292350479 0 0 0 0 -4.0371929199877989 3.3694011553537599 0 3.3694011553537599 0.5480011509532865 0 0 0 0 -42.097968899681973 -2.3563615353709793 0 -2.3563615353709793 39.382554018740848 0 0 0 0 10.324045457735338 -5.6398749117997795 0 -5.6398749117997795 -3.0112755324280442 0 0 0 0 52.924824528085992 44.961703309776567 0 44.961703309776567 12.28065711612544 0 0 0 0 116.19699760311323 103.04875396125499 0 103.04875396125499 27.695734775614255 0 0 0 0 30.631308713206636 94.875934016925839 0 94.875934016925839 71.37944972675723 0 0 0 0 -24.130185639652154 40.371960589269293 0 40.371960589269293 61.171768608997809 0 0 0 0 -2.895333384839585 2.1277280193699681 0 2.1277280193699681 -1.0518721074094195 0 0 0 0 9.8003904258430339 -12.446923828663785 0 -12.446923828663785 -38.22115822208616 0 0 0 0 118.48020816261214 -10.275339717982206 0 -10.275339717982206 26.756439880924518 0 0 0 0 -11.212792725248619 90.856522814368873 0 90.856522814368873 83.128146536089389 0 0 0 0 0.33224894459536269 0.70843233537225458 0 0.70843233537225458 0.88455790883838148 0 0 0 0 -78.815165950824849 82.297932246624441 0 82.297932246624441 82.083402087276681 0 0 0 0 159.86970974092014 48.337589572453453 0 48.337589572453453 -0.64763656322611496 0 0 0 0 78.819061026068084 30.135743070651188 0 30.135743070651188 3.9002548609355472 0 0 0 0 -4.5121533274641479 -6.3407027957041464 0 -6.3407027957041464 28.503155286351102 0 0 0 0 -2.6386078010468736 -1.0161112201089963 0 -1.0161112201089963 0.62603507288258697 0 0 0 0 1.4560726715433923 0.010116039261214738 0 0.010116039261214738 -0.20483914080841004 0 0 0 0 38.587130165839881 50.420096783263944 0 50.420096783263944 67.405502442584293 0 0 0 0 90.95985689170675 -30.658887919242261 0 -30.658887919242261 2.8810474844085547 0 0 0 0 133.78657059323132 35.17784746644611 0 35.17784746644611 -47.481358943943633 0 0 0 0 108.07439780804452 69.448670199049047 0 69.448670199049047 15.355576675363409 0 0 0 0 98.518509194568651 77.642958401369469 0 77.642958401369469 27.400038625291927 0 0 0 0 99.138758374431745 64.963431606913218 0 64.963431606913218 14.170496632450522 0 0 0 0 81.817311991490897 69.520781723645996 0 69.520781723645996 23.92379421743135 0 0 0 0 59.343468362650242 -23.604415056398238 0 -23.604415056398238 13.334438031519312 0 0 0 0 -78.711088714704374 23.584717833876084 0 23.584717833876084 34.241583140512375 0 0 0 0 6.1195711417230996 85.187181887872612 0 85.187181887872612 66.556544839965682 0 0 0 0 4.6693611626847407 14.859651335525506 0 14.859651335525506 12.611643720054374 0 0 0 0 66.236686781931894 -5.5559669992928775 0 -5.5559669992928775 -29.917667267020988 0 0 0 0 2.6513746946705115 14.34105129153169 0 14.34105129153169 14.792324897232717 0 0 0 0 27.150274271606577 -7.1485544347347059 0 -7.1485544347347059 16.715870970283504 0 0 0 0 55.260633427929861 15.987590044900799 0 15.987590044900799 -20.390667057894461 0 0 0 0 -2.1809967101153234 24.838056432471831 0 24.838056432471831 37.823809677651298 0 0 0 0 74.536556389334237 31.089438557322865 0 31.089438557322865 -80.930115892038884 0 0 0 0 70.457296494192633 99.74854802194568 0 99.74854802194568 -37.037660583079742 0 0 0 0 76.920278416552492 42.74629927660817 0 42.74629927660817 -25.024674806754774 0 0 0 0 31.450825330190582 52.61531072012167 0 52.61531072012167 56.637129364642988 0 0 0 0 37.14871689343272 68.228998308668452 0 68.228998308668452 153.28119359167613 0 0 0 0 6.531097629521124 15.397032061384461 0 15.397032061384461 9.6092374381406707 0 0 0 0 23.343870199089906 -49.290541584719904 0 -49.290541584719904 -23.720075585465565 0 0 0 0 17.453890984013469 -5.2293748432643952 0 -5.2293748432643952 -2.2368826517740672 0 0 0 0 38.117306051970445 29.376237946315086 0 29.376237946315086 7.2067260986914334 0 0 0 0 2.347665524468793 -1.4314705896694893 0 -1.4314705896694893 -2.9184171757350557 0 0 0 0 6.3672540821243331 3.9292779490002374 0 3.9292779490002374 -0.074435350836211001 0 0 0 0 4.9968928079306352 2.7124514752604227 0 2.7124514752604227 -0.56842150041393324 0 0 0 0 6.5612189103712808 0.62449051502153452 0 0.62449051502153452 8.3543146429174158 0 0 0 0 2.7787762399777343 1.1512260578276869 0 1.1512260578276869 0.65246905284853973 0 0 0 0 5.3496525329665019 0.79192338508710236 0 0.79192338508710236 0.22544921464020717 0 0 0 0 7.658745179549566 4.0131703344826235 0 4.0131703344826235 0.12164056788744748 0 0 0 0 13.905133458487171 1.2991807400555899 0 1.2991807400555899 -10.55730432542623 0 0 0 0 12.853319017599816 4.9264048720807159 0 4.9264048720807159 -0.72674938640188014 0 0 0 0 31.130211530263296 18.606463704005421 0 18.606463704005421 -64.569615942450127 0 0 0 0 7.4947093349182978 3.6234313969589493 0 3.6234313969589493 -8.5103032319525482 0 0 0 0 34.223355780200109 -10.502650812534512 0 -10.502650812534512 -40.348579419775433 0 0 0 0 17.159364078655926 0.99832567399766958 0 0.99832567399766958 1.3486432641457213 0 0 0 0 37.022705670258802 2.836345690532653 0 2.836345690532653 0.84095003915297184 0 0 0 0 26.772561223398952 -0.018170630791473741 0 -0.018170630791473741 57.612995881229836 0 0 0 0 24.082696576725539 -5.2911775038060114 0 -5.2911775038060114 -3.9352140634632633 0 0 0 0 36.745778649341446 -2.4557456157263005 0 -2.4557456157263005 -5.3599890242039692 0 0 0 0 35.141193205459786 -3.6568646990954221 0 -3.6568646990954221 -23.63867839559498 0 0 0 0 23.183109378246247 7.6098322537176699 0 7.6098322537176699 -2.2868344334354269 0 0 0 0 29.735079088550265 -4.0708900286424523 0 -4.0708900286424523 -25.770869119217423 0 0 0 0 18.656728146990645 1.6600225295143218 0 1.6600225295143218 -23.661636994901528 0 0 0 0 23.613868858692513 1.9819653397532875 0 1.9819653397532875 -18.978959522773721 0 0 0 0 7.5843303622223175 9.4558975945967632 0 9.4558975945967632 -2.8573060317685304 0 0 0 0 4.5930066926883848 0.91867692308314375 0 0.91867692308314375 -6.7424421871525499 0 0 0 0 26.598898575424755 26.776295608210603 0 26.776295608210603 -16.349172370149518 0 0 0 0 9.14860112032693 21.945567661377936 0 21.945567661377936 -3.9764183797014994 0 0 0 0 8.4542233207630488 18.006776916752187 0 18.006776916752187 -19.882312225168107 0 0 0 0 36.174735982043785 37.846270715583159 0 37.846270715583159 19.411027983562235 0 0 0 0 15.035932055794547 41.303128325771468 0 41.303128325771468 -5.2107625725848266 0 0 0 0 3.3586206373659024 17.361460385101907 0 17.361460385101907 16.826632989304926 0 0 0 0 2.0375763149149932 5.2689007759293709 0 5.2689007759293709 -0.52632984798189764 0 0 0 0 1.4206438228877776 4.2883305052087497 0 4.2883305052087497 2.3638717201405566 0 0 0 0 4.3235454665787074 9.9891635446683722 0 9.9891635446683722 -2.9487406566840946 0 0 0 0 0.73103835934853123 3.863633670363015 0 3.863633670363015 2.5227443881253748 0 0 0 0 0.49821304107299369 2.8634917976895959 0 2.8634917976895959 2.6608775133205684 0 0 0 0 1.8992091811751379 9.3955171773141046 0 9.3955171773141046 2.984757183837246 0 0 0 0 -2.3971147575089162 3.1562299355373398 0 3.1562299355373398 2.2960896729837259 0 0 0 0 1.5811477399920477 5.1903008638082611 0 5.1903008638082611 0.96609990176330029 0 0 0 0 -1.4898779616678439 7.7960810025997489 0 7.7960810025997489 6.5893217995035229 0 0 0 0 0.51095143582864466 4.0481097926599059 0 4.0481097926599059 2.753077898433272 0 0 0 0 0.20607771853508972 0.78018810029976748 0 0.78018810029976748 1.8106914742810076 0 0 0 0 -20.928184883251561 47.424728600841263 0 47.424728600841263 -74.199064311757866 0 0 0 0 -6.223985210106548 36.4640920629422 0 36.4640920629422 -76.324577639439667 0 0 0 0 -3.3911415040724933 68.369632818136779 0 68.369632818136779 -109.75096576772012 0 0 0 0 -15.415107516136345 21.854044875020236 0 21.854044875020236 -28.259650189973399 0 0 0 0 2.9715112052922414 3.2145957386907149 0 3.2145957386907149 1.6114587431212613 0 0 0 0 -10.357777833537057 34.980261221185174 0 34.980261221185174 -51.337159898335358 0 0 0 0 -4.6117980393817675 11.175106340243246 0 11.175106340243246 -16.338246602625077 0 0 0 0 6.6635951223552183 5.1092906858857532 0 5.1092906858857532 -3.2581348765356779 0 0 0 0 3.1589362835524142 3.5224099204745407 0 3.5224099204745407 2.0978009978191796 0 0 0 0 3.4077224373243338 2.8018919263360922 0 2.8018919263360922 -0.72028169203489867 0 0 0 0 4.273927110195018 3.609578467589472 0 3.609578467589472 -1.6643948711134726 0 0 0 0 5.3882105700544116 0.90957379468130739 0 0.90957379468130739 -5.9243940985979862 0 0 0 0 6.3834103435039964 3.741446581819293 0 3.741446581819293 -0.6190516722153907 0 0 0 0 8.9551682975015865 7.0325514984615438 0 7.0325514984615438 -0.68968785590050175 0 0 0 0 6.6493187836531433 4.7598889560745192 0 4.7598889560745192 -3.6244302079642239 0 0 0 0 0.8227771919391671 3.5656141312388172 0 3.5656141312388172 9.1706447062533698 0 0 0 0 4.5953936314895358 5.8017978144689604 0 5.8017978144689604 -0.91851624745922855 0 0 0 0 3.3137818471673199 10.8731328592512 0 10.8731328592512 3.5763696722897294 0 0 0 0 4.2708378291884141 4.9082707521742197 0 4.9082707521742197 1.098728359538832 0 0 0 0 13.545625180697243 14.157282929641951 0 14.157282929641951 -89.095272214089164 0 0 0 0 7.1797009533402161 8.5827056003763573 0 8.5827056003763573 -2.0389095498139795 0 0 0 0 7.5270242540637184 7.3398578117765014 0 7.3398578117765014 4.0711699179388336 0 0 0 0 25.603465364276417 56.4474440311119 0 56.4474440311119 50.066506061659311 0 0 0 0 0.49579493558667309 17.227477035515221 0 17.227477035515221 -1.3854981854728976 0 0 0 0 33.734242236055252 60.389296559741069 0 60.389296559741069 -26.899055520762886 0 0 0 0 83.092160169569979 20.982712198787794 0 20.982712198787794 -1.8991313978940525 0 0 0 0 4.8402754564229404 6.3842333913310112 0 6.3842333913310112 4.4846691679339141 0 0 0 0 -22.180521905349451 75.731404668035793 0 75.731404668035793 111.66401674302324 0 0 0 0 -60.79440468584653 26.019369340791854 0 26.019369340791854 62.359773811593641 0 0 0 0 -53.556784263421832 3.384913310733964 0 3.384913310733964 41.310322750810883 0 0 0 0 -42.747745732565818 2.6500596634050453 0 2.6500596634050453 -86.610138069796449 0 0 0 0 -2.4968218149354016 8.9160752898224018 0 8.9160752898224018 2.4529354137303017 0 0 0 0 0.0034677723847380548 6.282223087971488 0 6.282223087971488 5.1036956680973162 0 0 0 0 1.3437169886688025 4.2627100941640492 0 4.2627100941640492 1.7378346970917846 0 0 0 0 0.44730836688540876 5.6859063331712605 0 5.6859063331712605 9.3114543225792659 0 0 0 0 1.0318349766214929 6.6159415762416351 0 6.6159415762416351 4.7732924863157411 0 0 0 0 -1.5519364307201613 7.2193777866705204 0 7.2193777866705204 4.0252894819059293 0 0 0 0 0.81871888373427026 4.2275119565079216 0 4.2275119565079216 3.6259640537351387 0 0 0 0 -1.773466376417673 7.7136600988060309 0 7.7136600988060309 5.7997794375005469 0 0 0 0 0.12747931228125076 5.959025867210757 0 5.959025867210757 3.2962008791399793 0 0 0 0 1.8744298765550411 9.4090426128900617 0 9.4090426128900617 8.5705089846337614 0 0 0 0 -3.4053375821017653 5.7228311164717525 0 5.7228311164717525 5.6782747137149272 0 0 0 0 -2.9017449875545935 6.5824649585474617 0 6.5824649585474617 7.0183902344592752 0 0 0 0 -6.114540882700112 11.566005612459776 0 11.566005612459776 13.191534477662572 0 0 0 0 -5.3605016121200624 2.358450137766777 0 2.358450137766777 2.232274152379107 0 0 0 0 -13.530354134418303 7.3746439163414834 0 7.3746439163414834 13.687882622514735 0 0 0 0 -0.65811033401905661 6.553746209039673 0 6.553746209039673 8.7940400383986344 0 0 0 0 -12.080315074424462 11.172536550093895 0 11.172536550093895 7.235887732302217 0 0 0 0 -6.4194906332459141 7.7915216450301159 0 7.7915216450301159 0.070914511607043096 0 0 0 0 -11.251022921997901 4.7005768129747594 0 4.7005768129747594 3.1355623639328769 0 0 0 0 -22.039544238521557 0.70963573961034854 0 0.70963573961034854 1.790218400207209 0 0 0 0 -12.841627818148936 6.4871565859812108 0 6.4871565859812108 1.2070123373123351 0 0 0 0 -23.065078247189376 18.587490915150966 0 18.587490915150966 6.9328365718538407 0 0 0 0 -15.680667027708296 23.686470236921195 0 23.686470236921195 0.85466957258495313 0 0 0 0 6.0454135893874925 10.33358453497409 0 10.33358453497409 7.5505415035505195 0 0 0 0 -8.2753773492374876 10.958255476725753 0 10.958255476725753 7.2867642161736512 0 0 0 0 1.3600209592764259 5.7995457870517173 0 5.7995457870517173 7.2429643543178557 0 0 0 0 0.55520665682252002 10.277715353584426 0 10.277715353584426 7.4497427481378509 0 0 0 0 -49.872443439358904 17.435981207572695 0 17.435981207572695 -1.9041028960518815 0 0 0 0 -61.328809309643475 20.746135024437081 0 20.746135024437081 9.0977811213051609 0 0 0 0 3.4419778124919702 1.7706376920424489 0 1.7706376920424489 -0.75846700853443494 0 0 0 0 -2.8706370290837935 5.0437868965077257 0 5.0437868965077257 0.89947187934221873 0 0 0 0 -0.64267986440290192 18.463413765745766 0 18.463413765745766 9.1726814706744335 0 0 0 0 0.63579437795309346 -0.10947175416085742 0 -0.10947175416085742 0.23005352541521873 0 0 0 0 -39.808470472300314 16.374933152248389 0 16.374933152248389 0.60708325507857808 0 0 0 0 -61.497567349500969 14.322248669846886 0 14.322248669846886 6.5063185072467604 0 0 0 0 -39.582490668361061 17.875728443558273 0 17.875728443558273 -31.792728862030344 0 0 0 0 -63.833602973842062 11.868528092660199 0 11.868528092660199 9.4006738333209796 0 0 0 0 -41.412206339298791 -8.3622283803215396 0 -8.3622283803215396 12.408125650542843 0 0 0 0 -47.760677449779905 20.08807936438825 0 20.08807936438825 0.71347134415918845 0 0 0 0 -33.651500365551328 5.324641807928856 0 5.324641807928856 6.6016267171830805 0 0 0 0 89.035689523396286 37.278770228436542 0 37.278770228436542 3.598604618689933 0 0 0 0 24.416661753948574 40.023108466740723 0 40.023108466740723 100.66116078293999 0 0 0 0 -0.12748166845394593 0.14527769933812351 0 0.14527769933812351 0.39395787819432115 0 0 0 0 -0.096015467098297336 0.8245991018735026 0 0.8245991018735026 -1.8035811377487079 0 0 0 0 0.6577087973721305 5.5874738645263458 0 5.5874738645263458 2.3828508302431146 0 0 0 0 -9.2610202623855002 13.322550136114842 0 13.322550136114842 1.1155963310593506 0 0 0 0 0.60694433504103529 1.7649682428599629 0 1.7649682428599629 4.5090576913363165 0 0 0 0 0.66095492772274156 6.5468298922596659 0 6.5468298922596659 0.00045853946676288615 0 0 0 0 -13.112152016154141 -10.875292921605251 0 -10.875292921605251 5.5671800290056126 0 0 0 0 -15.791671038135974 8.6556084679514242 0 8.6556084679514242 3.8423455179040502 0 0 0 0 2.3896073795931443 4.3875793511847405 0 4.3875793511847405 0.61010303251396181 0 0 0 0 1.6404665888544514 3.561798973944633 0 3.561798973944633 1.4120678098988719 0 0 0 0 1.4022230023252575 4.7299254371843258 0 4.7299254371843258 0.065131912024887911 0 0 0 0 1.6319554206811517 3.7085911638203015 0 3.7085911638203015 0.72310578374072065 0 0 0 0 0.47606974277459813 3.1147406266456699 0 3.1147406266456699 -3.0813267948051362 0 0 0 0 5.3748931100781192 10.250562242922115 0 10.250562242922115 -5.0770733794079206 0 0 0 0 -4.6198260778519398 7.4019982913346212 0 7.4019982913346212 9.9700485726898478 0 0 0 0 -4.5425453276786811 9.1850986704095021 0 9.1850986704095021 4.4828235381319246 0 0 0 0 1.5558206641465517 6.7977315575585777 0 6.7977315575585777 2.3372568233823774 0 0 0 0 1.7737555496423738 4.264025198712261 0 4.264025198712261 -3.3149009142484829 0 0 0 0 0.43483803832425494 0.5348045007734008 0 0.5348045007734008 -2.852515248069885 0 0 0 0 1.5116127681187201 6.5075926691788055 0 6.5075926691788055 -6.316787504165549 0 0 0 0 -3.8915545957970608 11.053505688653615 0 11.053505688653615 2.2758093648417344 0 0 0 0 -2.5104970353731773 6.5298915046390098 0 6.5298915046390098 8.6803407091139118 0 0 0 0 -4.7169876014331926 11.225580674511988 0 11.225580674511988 7.7281971982070941 0 0 0 0 6.6257403290949979 11.322576725452796 0 11.322576725452796 6.1114528596253841 0 0 0 0 -14.365971011358852 18.298621552120949 0 18.298621552120949 1.089823857538228 0 0 0 0 -35.404324982438311 19.516325916392361 0 19.516325916392361 39.473505659612783 0 0 0 0 -33.560920832206193 21.194167009623698 0 21.194167009623698 22.110164918456576 0 0 0 0 -14.615181165988588 8.5692549914306255 0 8.5692549914306255 6.1204976784156315 0 0 0 0 -25.147731633043463 12.509115688883298 0 12.509115688883298 5.6237704298073368 0 0 0 0 -23.370359052785943 6.8125359887048944 0 6.8125359887048944 17.41661148300409 0 0 0 0 -14.959512328082837 20.60371661245722 0 20.60371661245722 5.3809918162141912 0 0 0 0 -14.127594937676804 15.782389630921443 0 15.782389630921443 4.6810610939564867 0 0 0 0 1.1587277651140866 4.8243372842200802 0 4.8243372842200802 6.4069429645133358 0 0 0 0 14.697479818993088 34.346318806690761 0 34.346318806690761 -4.5761098630619017 0 0 0 0 13.069817110562781 26.453190021545879 0 26.453190021545879 -42.241463062365256 0 0 0 0 47.225499268732165 -16.796173833104604 0 -16.796173833104604 7.8074744538082541 0 0 0 0 28.081739630966695 57.684472962942891 0 57.684472962942891 -12.60071385714582 0 0 0 0 28.32752864832446 0.8080336045460399 0 0.8080336045460399 3.1827036245740601 0 0 0 0 -0.28357315379660353 -0.045259988431940457 0 -0.045259988431940457 -3.101757507401917 0 0 0 0 -50.007599309296893 39.067651302664899 0 39.067651302664899 -9.0961047254154437 0 0 0 0 -171.53524409039528 86.45984136022048 0 86.45984136022048 40.735554197283818 0 0 0 0 0.081099577744452311 0.26658923936639667 0 0.26658923936639667 -0.88601954528390792 0 0 0 0 125.00840367937781 56.356348827026522 0 56.356348827026522 97.159062476197505 0 0 0 0 -76.215001729211508 -2.9227652478584787 0 -2.9227652478584787 -13.826603800153862 0 0 0 0 120.3282480896687 17.316794485339415 0 17.316794485339415 -14.058136065722238 0 0 0 0 93.921336122488356 72.095703357108505 0 72.095703357108505 16.873535008292492 0 0 0 0 49.115242850906725 43.163400578834171 0 43.163400578834171 5.9010439505109389 0 0 0 0 47.259777210632819 27.699928206999175 0 27.699928206999175 10.226404476363314 0 0 0 0 56.788723986906916 -2.4258900231989173 0 -2.4258900231989173 -19.184925620755621 0 0 0 0 24.883644677490338 8.4540520653046087 0 8.4540520653046087 21.918184300887333 0 0 0 0 61.42987853882596 34.450753601887243 0 34.450753601887243 12.055687537484118 0 0 0 0 36.149233207041107 35.36989836929115 0 35.36989836929115 19.054673659734362 0 0 0 0 41.72991058858679 50.590272310636465 0 50.590272310636465 58.514777946651542 0 0 0 0 32.456712744295146 47.677099128869486 0 47.677099128869486 37.017512561170406 0 0 0 0 32.667223178346831 19.903599262187981 0 19.903599262187981 15.825432810122948 0 0 0 0 49.055026202841532 43.848758496409388 0 43.848758496409388 21.282101487509863 0 0 0 0 16.297156004282442 11.092564615482388 0 11.092564615482388 6.5990661378666573 0 0 0 0 -0.047838705312589269 2.6785479930718061 0 2.6785479930718061 -1.8208221773993998 0 0 0 0 3.1565861451722199 5.058822533715519 0 5.058822533715519 -0.75291563598906008 0 0 0 0 2.3539690832338565 6.4093363061804425 0 6.4093363061804425 -2.554199912772992 0 0 0 0 1.5083768783588312 5.0274433619524643 0 5.0274433619524643 -10.640301656188058 0 0 0 0 3.4064507345528909 7.6846081105046551 0 7.6846081105046551 -10.105224959230327 0 0 0 0 4.431587272456909 7.4951759892280734 0 7.4951759892280734 2.5519607983101196 0 0 0 0 -10.035910587122089 5.6270394434945956 0 5.6270394434945956 5.4151383330648457 0 0 0 0 2.9883298973306545 10.045795099650443 0 10.045795099650443 7.7043371073906179 0 0 0 0 -2.1790033966062765 0.70367830521217911 0 0.70367830521217911 -42.177033464012766 0 0 0 0 -2.9904138839337975 25.689644727526684 0 25.689644727526684 -1.6777610995131909 0 0 0 0 2.0713521867162257 10.396367115536126 0 10.396367115536126 -6.0339342183003879 0 0 0 0 -1.4722829091159042 1.6679487705850118 0 1.6679487705850118 3.0910684319359261 0 0 0 0 1.0330704996013083 6.3601994228883996 0 6.3601994228883996 1.5267381212354394 0 0 0 0 1.9679627041272099 5.4299487476124675 0 5.4299487476124675 -3.142376238335876 0 0 0 0 -0.19604390404856531 6.3555152279100184 0 6.3555152279100184 1.85883402498348 0 0 0 0 3.8923519908457607 11.3506508785051 0 11.3506508785051 -2.5294106084573542 0 0 0 0 0.94915634841478225 1.0345910948416908 0 1.0345910948416908 0.81032318716131968 0 0 0 0 4.1645967340850802 39.621058829622598 0 39.621058829622598 52.727347370891948 0 0 0 0 122.85360514190552 69.677284505475313 0 69.677284505475313 -11.586352551807067 0 0 0 0 -30.351935700291051 21.344757254511194 0 21.344757254511194 30.437038813432082 0 0 0 0 -13.735861178790401 116.46659481734451 0 116.46659481734451 -25.448817377102387 0 0 0 0 -2.6779944650043035 23.222703445815227 0 23.222703445815227 78.447398473026624 0 0 0 0 9.5359552002337296 55.044912196029145 0 55.044912196029145 41.866219472292869 0 0 0 0 46.131146882700705 37.256888857742524 0 37.256888857742524 -0.58594746293692879 0 0 0 0 60.225677737762453 160.54499169911924 0 160.54499169911924 -61.308852873184151 0 0 0 0 55.613139894063352 17.158491231135486 0 17.158491231135486 32.156166016269708 0 0 0 0 3.4276700310585966 1.1163498279087563 0 1.1163498279087563 -0.70056772101210152 0 0 0 0 -13.164620032213861 9.0104180380967591 0 9.0104180380967591 -11.244968769243087 0 0 0 0 -4.2896238504271196 0.18214738962416277 0 0.18214738962416277 -32.677511623366627 0 0 0 0 15.851345931563628 25.274455536801725 0 25.274455536801725 105.74083928406844 0 0 0 0 49.771213870322754 13.665745618879555 0 13.665745618879555 79.230219021781522 0 0 0 0 16.748620930924517 38.111376402302994 0 38.111376402302994 71.866192215218689 0 0 0 0 1.6569804413800568 0.35943299382728178 0 0.35943299382728178 -3.6271752480647237 0 0 0 0 28.031628035299946 16.501776276865712 0 16.501776276865712 -39.270116139559832 0 0 0 0 51.796450181009277 35.933160565263279 0 35.933160565263279 81.354049401893462 0 0 0 0 0.47314260653785567 -0.83893513427645505 0 -0.83893513427645505 -0.057394748000312162 0 0 0 0 -75.504898961095023 -48.954977241683082 0 -48.954977241683082 -78.534088136751052 0 0 0 0 -6.6859439805084548 34.525461422766057 0 34.525461422766057 -85.405876921831279 0 0 0 0 75.434399468642368 -9.3760488966208868 0 -9.3760488966208868 111.58250198132919 0 0 0 0 149.57844968567861 10.897443118049068 0 10.897443118049068 -5.2562190227563406 0 0 0 0 54.852879138092248 39.561001761679108 0 39.561001761679108 86.249578411735911 0 0 0 0 59.590083315581069 46.70282637620403 0 46.70282637620403 29.198253299298813 0 0 0 0 -45.786677955118648 64.697249317059686 0 64.697249317059686 -16.795050809370309 0 0 0 0 -47.151024245473309 59.417950289896453 0 59.417950289896453 -33.768373994073045 0 0 0 0 -34.336830023260518 59.347508489509551 0 59.347508489509551 -31.16309925477799 0 0 0 0 -81.879438924333954 77.999927744243962 0 77.999927744243962 -38.291076596675339 0 0 0 0 -28.231971929770225 58.896866906533432 0 58.896866906533432 -72.617760670827465 0 0 0 0 -2.4047743406836162 40.35124845934223 0 40.35124845934223 -78.342703282249204 0 0 0 0 -29.729133111315605 64.362734005550919 0 64.362734005550919 -80.670894923217929 0 0 0 0 -1.0583157852379372 23.780494598905534 0 23.780494598905534 -71.327983700883124 0 0 0 0 -27.891644991560156 49.437506780639126 0 49.437506780639126 -49.165579301632533 0 0 0 0 -23.302141210237096 42.968576046389444 0 42.968576046389444 -41.17670842527923 0 0 0 0 -29.401053424509882 31.079679811481583 0 31.079679811481583 -39.110295570527683 0 0 0 0 -7.0187469835618685 17.513875444930022 0 17.513875444930022 -32.815566912690883 0 0 0 0 -1.166672786943181 4.9890343467105343 0 4.9890343467105343 -25.483809230887346 0 0 0 0 -5.3343659947131528 17.884959332324343 0 17.884959332324343 -44.171948786080065 0 0 0 0 -9.7461941232177196 14.343255740340283 0 14.343255740340283 -17.685704686298777 0 0 0 0 -12.740446122421417 13.622193875984976 0 13.622193875984976 -25.541271491602856 0 0 0 0 -60.309674153362721 22.845121264303543 0 22.845121264303543 -14.681865007925126 0 0 0 0 -52.63715410630175 56.053485557015165 0 56.053485557015165 -20.392628890675496 0 0 0 0 27.711736538694822 11.944056715627084 0 11.944056715627084 -26.730123697338367 0 0 0 0 8.16449429559907 2.3313197401865864 0 2.3313197401865864 -26.466506435866222 0 0 0 0 1.0162343637610483 3.157102058437534 0 3.157102058437534 -17.029510226345941 0 0 0 0 8.0812694846899831 2.6026037616623228 0 2.6026037616623228 -29.493568979831252 0 0 0 0 7.0630957374614809 3.8307808436388768 0 3.8307808436388768 -28.356291688941383 0 0 0 0 3.042821615588764 -2.1670220642174627 0 -2.1670220642174627 -20.867585316421469 0 0 0 0 1.8299074857750384 7.0935588885020024 0 7.0935588885020024 -31.998527801156342 0 0 0 0 2.7152293019098579 9.2720040373319534 0 9.2720040373319534 -32.981930521647882 0 0 0 0 7.0414609482518244 9.0032251727598691 0 9.0032251727598691 -33.531550641459489 0 0 0 0 6.1685133115315693 3.1844839227373996 0 3.1844839227373996 -28.656092342025659 0 0 0 0 12.335400206076883 5.7124748295697145 0 5.7124748295697145 -31.50509086530667 0 0 0 0 10.144387944297705 7.0591260441032091 0 7.0591260441032091 -34.449973871913812 0 0 0 0 10.024598605952633 9.2500986362906588 0 9.2500986362906588 -37.702237136448069 0 0 0 0 10.013941770338533 9.1209639568020862 0 9.1209639568020862 -29.983478207001099 0 0 0 0 21.820470486863996 15.944007231304454 0 15.944007231304454 -35.42940216730085 0 0 0 0 3.7128862482800287 7.6358999992156313 0 7.6358999992156313 -39.19213523100791 0 0 0 0 92.58070218465582 -16.090466881438545 0 -16.090466881438545 -68.0344362740816 0 0 0 0 -0.010939975849408867 -0.32516939147703283 0 -0.32516939147703283 0.12434241962213122 0 0 0 0 195.25545217168656 -23.978226313891788 0 -23.978226313891788 -67.609400391905595 0 0 0 0 8.01638643932165 35.180211123753736 0 35.180211123753736 9.1817294621527257 0 0 0 0 17.671317649306729 -50.290118621559145 0 -50.290118621559145 11.243766158340179 0 0 0 0 -26.81022138784374 -23.331917635018797 0 -23.331917635018797 16.484517674318056 0 0 0 0 74.33365919787866 -32.184364722755163 0 -32.184364722755163 -24.095269690589021 0 0 0 0 -121.18260120257401 34.406659743903788 0 34.406659743903788 0.71875683970404225 0 0 0 0 -89.564579288879031 61.574940350290149 0 61.574940350290149 -7.4605896558455242 0 0 0 0 -0.46191496616003125 1.3186039020505227 0 1.3186039020505227 -9.6489547588301292 0 0 0 0 -288.43265964798775 63.700932293022554 0 63.700932293022554 9.9845111581562449 0 0 0 0 -51.486482764996254 48.866332414698718 0 48.866332414698718 -30.344488803201102 0 0 0 0 -51.421859054644301 34.167928939617241 0 34.167928939617241 14.377982554418622 0 0 0 0 -27.665976685289934 67.64338790447016 0 67.64338790447016 -3.6729542246946494 0 0 0 0 -50.319079529366718 53.289250946588027 0 53.289250946588027 -23.656635414859238 0 0 0 0 -50.234846334298709 51.500031199866726 0 51.500031199866726 -13.491811670162519 0 0 0 0 -12.381786559577449 32.632115201398847 0 32.632115201398847 17.132763155429757 0 0 0 0 4.9832279776055657 12.783855145913378 0 12.783855145913378 5.9913976433906555 0 0 0 0 -15.839308130820427 30.12415176237397 0 30.12415176237397 22.100549239360817 0 0 0 0 -16.048198990572928 4.0075415716860903 0 4.0075415716860903 43.209897675382024 0 0 0 0 7.1772811543389707 15.306064904739628 0 15.306064904739628 5.523800883867807 0 0 0 0 -6.8319560808740789 4.7446231560813885 0 4.7446231560813885 32.057853886390831 0 0 0 0 7.3647499547225959 10.190876170238859 0 10.190876170238859 3.6860380767735759 0 0 0 0 -1.6282395229101354 16.825005936797581 0 16.825005936797581 -1.3637203101252453 0 0 0 0 59.83075087227553 37.236016569950152 0 37.236016569950152 -65.097122025565113 0 0 0 0 0.50890171114274807 10.279217464523937 0 10.279217464523937 13.289289459326209 0 0 0 0 2.9302902333067706 2.0190841254274083 0 2.0190841254274083 -3.9679708747413889 0 0 0 0 -1.6058214624245011 19.906675952486012 0 19.906675952486012 -0.20309763848131368 0 0 0 0 5.7107614551563035 8.4816299257847199 0 8.4816299257847199 0.443523419474392 0 0 0 0 -7.3306487791460313 18.898676814045302 0 18.898676814045302 7.2514994948921867 0 0 0 0 1.5682890188916332 7.0609090104240266 0 7.0609090104240266 5.49879164116496 0 0 0 0 -0.99071380230452633 12.28432420816489 0 12.28432420816489 -4.0941964425954751 0 0 0 0 -2.7914065675313395 20.400700488101506 0 20.400700488101506 -2.899464633511684 0 0 0 0 3.662842417777938 20.767211223333106 0 20.767211223333106 -15.790040997001981 0 0 0 0 5.7292518188096437 19.652114582009915 0 19.652114582009915 -22.856662966187287 0 0 0 0 30.584786124511083 30.319876591287198 0 30.319876591287198 -27.802414181462524 0 0 0 0 -10.875369341598343 38.923313880002922 0 38.923313880002922 2.9272402065909375 0 0 0 0 8.6587052944205425 44.380775532086744 0 44.380775532086744 -16.595862156010185 0 0 0 0 10.349539681421447 73.624430700941787 0 73.624430700941787 -20.562351435898158 0 0 0 0 -17.833698900396485 78.916663119351966 0 78.916663119351966 33.190052185411275 0 0 0 0 64.957614439221516 94.55546105069655 0 94.55546105069655 -60.540652727334532 0 0 0 0 180.14366886499818 95.096253598075648 0 95.096253598075648 -61.82469321715746 0 0 0 0 -169.02993372227138 94.854251969112227 0 94.854251969112227 32.612674657732953 0 0 0 0 -1.4164439558494806 0.77789749965434307 0 0.77789749965434307 -0.35660340701519511 0 0 0 0 -61.291019705838153 -12.209777482370768 0 -12.209777482370768 25.843485964570164 0 0 0 0 -65.557026728697565 38.572018430968285 0 38.572018430968285 17.448122616678006 0 0 0 0 -3.812173204788678 13.843001976300215 0 13.843001976300215 6.3203951896118724 0 0 0 0 -10.405762533509915 -1.2762085854134355 0 -1.2762085854134355 14.704974931482923 0 0 0 0 -3.9576221018578117 2.8463333559409087 0 2.8463333559409087 1.5650760561139343 0 0 0 0 -5.5378724497622898 12.669480949114018 0 12.669480949114018 15.48553070815899 0 0 0 0 -11.938392682424819 30.237060197463705 0 30.237060197463705 -44.153013792299554 0 0 0 0 2.6186927423218549 10.195539338503636 0 10.195539338503636 20.978012861784009 0 0 0 0 34.431030598447251 21.013871558156637 0 21.013871558156637 3.1014763067148294 0 0 0 0 5.1544730660851741 7.7310275430811792 0 7.7310275430811792 -0.44968157574324785 0 0 0 0 17.455475383445446 10.970203399911497 0 10.970203399911497 -2.6733224144248311 0 0 0 0 -20.321423052542741 16.823808356856027 0 16.823808356856027 21.669558860343496 0 0 0 0 3.1531405956811795 4.3995395098513654 0 4.3995395098513654 8.7493425107209077 0 0 0 0 4.3316705766701489 14.272766882669998 0 14.272766882669998 1.8542564639911916 0 0 0 0 -0.085220925679095672 7.9927723193952716 0 7.9927723193952716 11.183083438190124 0 0 0 0 2.8664941649826403 7.3565897106202378 0 7.3565897106202378 10.782774675696288 0 0 0 0 7.7483168946059777 6.624824651365202 0 6.624824651365202 9.0394601449547736 0 0 0 0 -10.76786027136859 0.43005056158710886 0 0.43005056158710886 44.642930729406316 0 0 0 0 4.5059588552541641 11.941036230234204 0 11.941036230234204 5.9245693263660542 0 0 0 0 0.52696371952828946 2.6678864791774561 0 2.6678864791774561 3.4198543035233651 0 0 0 0 -1.5739148355169164 23.489437854768767 0 23.489437854768767 1.6077330404468739 0 0 0 0 2.9171156339468904 8.7861428276811271 0 8.7861428276811271 10.105842594766834 0 0 0 0 5.8213688284117779 9.3251366186730138 0 9.3251366186730138 3.6215613064141507 0 0 0 0 1.3994890589333107 9.8941859181185947 0 9.8941859181185947 14.242826720735572 0 0 0 0 1.3414173054898129 11.390749748816233 0 11.390749748816233 -3.207173009634289 0 0 0 0 6.2836743925003971 8.7881006444029026 0 8.7881006444029026 4.7929302953981452 0 0 0 0 7.7616159126116404 9.3814145812961058 0 9.3814145812961058 1.0220751564843074 0 0 0 0 -0.96987912419191602 1.2332655292769674 0 1.2332655292769674 2.9644795356731652 0 0 0 0 14.100977849284391 6.468008842755478 0 6.468008842755478 22.96224950921015 0 0 0 0 4.0137205267487062 8.0542914907601748 0 8.0542914907601748 2.3014313372627733 0 0 0 0 54.317162668026867 20.259880382144274 0 20.259880382144274 30.879065298936553 0 0 0 0 0.67194178121462755 9.0438185345601596 0 9.0438185345601596 18.112935708006944 0 0 0 0 -11.702552645645483 55.630912511295719 0 55.630912511295719 45.624894149821415 0 0 0 0 26.246159472187173 21.354233407225031 0 21.354233407225031 32.802562355433189 0 0 0 0 1.8810740582413299 6.9228186412748984 0 6.9228186412748984 9.2640311145193017 0 0 0 0 3.6902735948287955 9.3955936511583786 0 9.3955936511583786 -0.22999977156723617 0 0 0 0 2.9985965415051226 15.284236317249276 0 15.284236317249276 12.842644296481467 0 0 0 0 4.6276245818867281 6.8176063813628218 0 6.8176063813628218 7.0533937606021517 0 0 0 0 -3.1102769835307242 15.902426065817963 0 15.902426065817963 9.85432232639414 0 0 0 0 4.5394036781083287 14.005231677685515 0 14.005231677685515 9.7654051421504846 0 0 0 0 -6.333553713712945 18.636343211483108 0 18.636343211483108 8.2194082629284821 0 0 0 0 -20.13905991304182 15.421040247700148 0 15.421040247700148 14.27274246156594 0 0 0 0 1.3513789853689104 7.9794949755164453 0 7.9794949755164453 11.21117463201881 0 0 0 0 10.055749525758074 7.7158199219079506 0 7.7158199219079506 8.2552386425018085 0 0 0 0 -16.629200438287427 3.0559784114443573 0 3.0559784114443573 12.524988292427224 0 0 0 0 3.7163206338037131 7.4354953859914126 0 7.4354953859914126 10.459799541047197 0 0 0 0 -42.281162552847604 24.739281722855594 0 24.739281722855594 10.397961611866776 0 0 0 0 3.1292195654614261 15.252343677429963 0 15.252343677429963 9.4243035106328534 0 0 0 0 3.1198817195950141 11.899348761486465 0 11.899348761486465 0.068134506972000963 0 0 0 0 5.3252705769396966 7.820936703118246 0 7.820936703118246 8.8375298824249704 0 0 0 0 3.718521913738229 8.8351826419351571 0 8.8351826419351571 10.657284753807824 0 0 0 0 4.7909253346858875 7.2641471569986642 0 7.2641471569986642 6.8941644679885057 0 0 0 0 4.6923801476154949 12.38759271893241 0 12.38759271893241 2.4262954348428138 0 0 0 0 0.83397224353620913 10.518866356407671 0 10.518866356407671 11.540084045263029 0 0 0 0 6.5585221094224835 9.6586857188326576 0 9.6586857188326576 11.264296533651759 0 0 0 0 5.9515388405689009 11.606656426477912 0 11.606656426477912 16.515626291215995 0 0 0 0 6.7929272389073958 13.883065932594036 0 13.883065932594036 9.8489647524818338 0 0 0 0 8.1792878193890104 8.372897457543047 0 8.372897457543047 0.59867064379155588 0 0 0 0 116.77037509897218 94.986593695313786 0 94.986593695313786 -78.216633293841738 0 0 0 0 -56.164883233469482 -75.784930773444103 0 -75.784930773444103 94.161417618201085 0 0 0 0 173.76573329800055 38.552559434649993 0 38.552559434649993 -35.900776136262721 0 0 0 0 -31.998865462053686 1.3791286135833616 0 1.3791286135833616 17.078040544633041 0 0 0 0 -30.595108166502996 5.9718661955685093 0 5.9718661955685093 30.410382470633522 0 0 0 0 0.16472821667024828 -0.14055439405760906 0 -0.14055439405760906 2.0707272152177012 0 0 0 0 -28.795135789372125 -1.9658981134275564 0 -1.9658981134275564 7.4149101399734718 0 0 0 0 74.069998411547658 94.166703486246206 0 94.166703486246206 86.870807166622399 0 0 0 0 16.411701606315773 -22.968179025516292 0 -22.968179025516292 -23.846351581069939 0 0 0 0 1.866595265403822 2.0242439023334668 0 2.0242439023334668 0.69021339289673023 0 0 0 0 -32.567925286219861 15.162814817698745 0 15.162814817698745 22.472455725936015 0 0 0 0 12.738602072465369 -37.028262755204651 0 -37.028262755204651 -71.77379059006762 0 0 0 0 8.1672829887371616 6.8212251656901728 0 6.8212251656901728 1.3570023190288236 0 0 0 0 -19.82098959050245 50.540086359937959 0 50.540086359937959 -77.861683867981412 0 0 0 0 -0.84522074557699356 1.2533112894569438 0 1.2533112894569438 1.9514782560487165 0 0 0 0 -53.761137881191395 14.764210903726735 0 14.764210903726735 14.886007160363079 0 0 0 0 -46.049255135051908 70.837046429943541 0 70.837046429943541 -19.203513096150346 0 0 0 0 -38.266084876392426 17.318684343731093 0 17.318684343731093 32.284394594311379 0 0 0 0 -28.052877528478291 40.449132205293154 0 40.449132205293154 -17.774853995208105 0 0 0 0 -32.174780854971459 33.645275208432849 0 33.645275208432849 -21.779826769515239 0 0 0 0 -17.523008209800423 32.668830111482748 0 32.668830111482748 43.631012070587985 0 0 0 0 -0.88268314273280568 1.5624842011239846 0 1.5624842011239846 0.7502427451781255 0 0 0 0 -59.409965913159112 105.33079981068113 0 105.33079981068113 -104.43221664396515 0 0 0 0 -19.763435378892702 -30.814593834046093 0 -30.814593834046093 96.269444531228146 0 0 0 0 -13.711781983623325 23.262465466155277 0 23.262465466155277 2.0610205376033264 0 0 0 0 -79.92411898691239 17.441023503206452 0 17.441023503206452 51.715090745381985 0 0 0 0 -94.225687077337398 7.5968954024447157 0 7.5968954024447157 45.09319026099547 0 0 0 0 -38.109721767482597 28.892203417603923 0 28.892203417603923 37.755595988443019 0 0 0 0 -79.352552079155203 -3.3104102372690249 0 -3.3104102372690249 12.624155207720833 0 0 0 0 -17.628449811756241 5.026294080813841 0 5.026294080813841 11.938459446889283 0 0 0 0 140.30739762542748 -21.843396980760417 0 -21.843396980760417 -10.322295847605346 0 0 0 0 90.295631079212967 153.11687777134784 0 153.11687777134784 181.34216590473625 0 0 0 0 -0.31084367448616557 0.94121120036272266 0 0.94121120036272266 6.1739517949229956 0 0 0 0 0.28480182689075395 0.46205055143373785 0 0.46205055143373785 0.56468874943859504 0 0 0 0 -14.27647887219166 9.3517333281181436 0 9.3517333281181436 8.4493166466490948 0 0 0 0 83.641009487499559 -29.279046575986285 0 -29.279046575986285 0.92620683085988276 0 0 0 0 -15.138643521269501 -0.11585756917793333 0 -0.11585756917793333 -6.0280899157532986 0 0 0 0 -11.854258755282004 7.0811696471689345 0 7.0811696471689345 -2.0696263150639425 0 0 0 0 -20.989870917225744 -4.0082013106206205 0 -4.0082013106206205 -1.7963993439298065 0 0 0 0 -79.573161471900619 50.548535077222368 0 50.548535077222368 10.446702088443999 0 0 0 0 0.3743995132618092 0.93159283510786617 0 0.93159283510786617 1.5063790212498098 0 0 0 0 63.523887087859976 43.663229479275287 0 43.663229479275287 11.160142266930961 0 0 0 0 -30.070909400025926 8.6363569398345135 0 8.6363569398345135 -9.758852591012328 0 0 0 0 2.0647754702965466 1.5434620151988003 0 1.5434620151988003 -1.5663029660359982 0 0 0 0 85.683702075409997 7.5496427842253979 0 7.5496427842253979 5.5689531486932538 0 0 0 0 93.143742996141782 -12.839179366327699 0 -12.839179366327699 -12.83787958342964 0 0 0 0 -213.99427012614262 161.35112187557388 0 161.35112187557388 -65.597226853979009 0 0 0 0 -229.65270949901409 139.37286729262814 0 139.37286729262814 -92.500725508085452 0 0 0 0 -190.36082761846927 160.00324301154615 0 160.00324301154615 -124.24242601787046 0 0 0 0 -176.84681083473157 181.67194430171094 0 181.67194430171094 -96.095528682135409 0 0 0 0 -139.93787034820471 144.75051463890304 0 144.75051463890304 -140.71902524638608 0 0 0 0 -121.74906777765007 136.08584850519128 0 136.08584850519128 -161.00513971508917 0 0 0 0 -165.66766959529195 168.07044746059182 0 168.07044746059182 -161.59945563868678 0 0 0 0 -165.45252833474325 149.19953669228465 0 149.19953669228465 -163.34599350305871 0 0 0 0 -166.33014061552308 179.0963838664311 0 179.0963838664311 -147.01964703269005 0 0 0 0 -200.935156122412 151.66685868993227 0 151.66685868993227 -160.62649706408411 0 0 0 0 327.57125244678411 -83.748222002469447 0 -83.748222002469447 -168.10943610635513 0 0 0 0 142.39118303495121 81.028675061103058 0 81.028675061103058 -256.08556496181745 0 0 0 0 30.029072329656856 108.63384542816129 0 108.63384542816129 -17.652359313197849 0 0 0 0 -88.530688989827809 48.327057372099262 0 48.327057372099262 -131.89120038222381 0 0 0 0 20.491864543267639 -18.148698160122649 0 -18.148698160122649 61.53469785274865 0 0 0 0 -0.45329838247164389 2.1834423991977019 0 2.1834423991977019 196.93407493098266 0 0 0 0 -0.10454700773439596 0.59947516440631077 0 0.59947516440631077 0.32586163885955877 0 0 0 0 114.35529194747596 70.825591369273752 0 70.825591369273752 42.505402575874541 0 0 0 0 49.361934824335776 18.281986632569897 0 18.281986632569897 34.972696980126784 0 0 0 0 63.035089772698711 5.613209945525341 0 5.613209945525341 -9.7767484135320046 0 0 0 0 -1.9724506954269145 48.231036682775994 0 48.231036682775994 36.346517926052911 0 0 0 0 20.79244047003931 21.825286911163857 0 21.825286911163857 -8.0389349070865137 0 0 0 0 21.528871039564592 15.866551704331869 0 15.866551704331869 -62.042548099529995 0 0 0 0 49.516900920614034 19.393518798972764 0 19.393518798972764 -27.968940826278413 0 0 0 0 45.161465283753614 3.1295396507498481 0 3.1295396507498481 -8.6371925992466458 0 0 0 0 13.326678659012828 8.9518095443870607 0 8.9518095443870607 5.3491273539875692 0 0 0 0 40.641995989968109 2.4872595778870163 0 2.4872595778870163 -8.4258435838946752 0 0 0 0 75.777559128184066 -8.4122018989564822 0 -8.4122018989564822 -6.9722987831901264 0 0 0 0 40.599441510695335 -3.5271084062552234 0 -3.5271084062552234 -3.7775956697241782 0 0 0 0 21.870543877556202 -11.250645676334216 0 -11.250645676334216 16.420090924322722 0 0 0 0 -9.7977304083579497 40.840829244799352 0 40.840829244799352 -145.62139642355078 0 0 0 0 1.2621288650252656 2.6416782525665115 0 2.6416782525665115 -1.0033796003209865 0 0 0 0 0.0008153252258303878 0.27675283842028442 0 0.27675283842028442 -0.88867394766115737 0 0 0 0 -322.5266436617818 123.4089489079588 0 123.4089489079588 -45.424066950117776 0 0 0 0 -191.04980109423784 57.795831802306395 0 57.795831802306395 -12.862288941614679 0 0 0 0 -2.1908813701745449 5.2136976327296214 0 5.2136976327296214 -0.65689721427218473 0 0 0 0 -1.8940180686163302 -0.69065513514907373 0 -0.69065513514907373 -2.0346077718278757 0 0 0 0 -134.05785119522886 49.201237951825078 0 49.201237951825078 -32.00590286343504 0 0 0 0 29.998804678315764 -0.21940679330054991 0 -0.21940679330054991 -3.148265409448868 0 0 0 0 -12.975091061704461 -3.5184637145948727 0 -3.5184637145948727 -2.0183135455463344 0 0 0 0 -39.397793033037487 -20.965579456881642 0 -20.965579456881642 -21.038033453257412 0 0 0 0 -5.6767272802746902 3.2892576943577296 0 3.2892576943577296 -7.9633197294192541 0 0 0 0 -2.9348209997726507 6.1362026272486929 0 6.1362026272486929 -2.4070810083593059 0 0 0 0 38.624591573459952 7.1232983039158171 0 7.1232983039158171 -5.9086141594953006 0 0 0 0 44.436244593783329 21.82295624677954 0 21.82295624677954 -10.512303776507906 0 0 0 0 31.290894201625065 14.97801857367449 0 14.97801857367449 1.6108031458261394 0 0 0 0 -3.7573777802625727 -34.968399962997637 0 -34.968399962997637 -19.623069512193979 0 0 0 0 7.8473645244860109 31.03149442939548 0 31.03149442939548 -5.2102532212866208 0 0 0 0 -31.964913392544716 63.882234403401299 0 63.882234403401299 -31.460357567466417 0 0 0 0 8.8391490010593543 36.316178474835397 0 36.316178474835397 -12.996872285502832 0 0 0 0 25.3123955190066 28.291298320427131 0 28.291298320427131 -9.4174000471612089 0 0 0 0 0.91804283491967453 28.93675061983231 0 28.93675061983231 4.813045609067558 0 0 0 0 -13.999866353207096 38.465302169638221 0 38.465302169638221 -0.56673895341373282 0 0 0 0 0.9121828213937988 27.546964114355433 0 27.546964114355433 6.4190459721994557 0 0 0 0 -2.3788900195697806 26.15022235268134 0 26.15022235268134 3.4998571488922607 0 0 0 0 -1.7818631057197081 24.23639843741239 0 24.23639843741239 7.501533844279038 0 0 0 0 -7.9295989943029781 25.996294844871954 0 25.996294844871954 6.9987100729777012 0 0 0 0 -4.0018634176925616 28.337305289541291 0 28.337305289541291 6.4606882636126102 0 0 0 0 1.7881247375685234 24.424069578147737 0 24.424069578147737 5.7791087385758146 0 0 0 0 -4.098240258122587 25.881437530155381 0 25.881437530155381 5.854955599511527 0 0 0 0 7.3675793727431937 28.472243070242257 0 28.472243070242257 4.3637731815251755 0 0 0 0 16.849877505212703 19.25870977010436 0 19.25870977010436 3.2132916650953121 0 0 0 0 7.3334433551585789 23.532067924042167 0 23.532067924042167 2.0476325667184483 0 0 0 0 10.824021214229447 20.060369336058102 0 20.060369336058102 -17.144307297035084 0 0 0 0 11.214330994930492 22.877683209831048 0 22.877683209831048 -5.5111218734996328 0 0 0 0 18.732088460306727 11.912150338879201 0 11.912150338879201 -1.1660938430795795 0 0 0 0 -8.2152471318443077 17.78759987882313 0 17.78759987882313 0.61017332673736746 0 0 0 0 5.5688612788944738 21.522801295323461 0 21.522801295323461 1.616594082895972 0 0 0 0 5.3745110656009274 8.8190688954630829 0 8.8190688954630829 9.0245317781975469 0 0 0 0 -2.5889681137859952 25.039955796466529 0 25.039955796466529 -3.1497676795606822 0 0 0 0 -6.5875588721512486 27.201285613230539 0 27.201285613230539 3.42488072529585 0 0 0 0 20.308923638656779 20.712072975481533 0 20.712072975481533 -7.7487331233796795 0 0 0 0 -95.412776410388005 -55.727642960139065 0 -55.727642960139065 -12.668514963649613 0 0 0 0 22.30340607549283 26.685662699639579 0 26.685662699639579 0.60426692262967663 0 0 0 0 -3.5526830990733962 6.592920358328338 0 6.592920358328338 -4.5759036385105816 0 0 0 0 37.576612488743422 22.525385843437107 0 22.525385843437107 -5.2562905194463383 0 0 0 0 -0.16889520656284107 10.595111826856703 0 10.595111826856703 -7.0257273950615442 0 0 0 0 -193.26757372896509 17.701056457603272 0 17.701056457603272 224.12140777093236 0 0 0 0 63.699415049521576 126.07091713037562 0 126.07091713037562 71.36953317290363 0 0 0 0 179.19029774220849 12.509597861359907 0 12.509597861359907 -103.91653749544275 0 0 0 0 4.3861694971771739 0.37596524916755492 0 0.37596524916755492 -0.0064641481058691497 0 0 0 0 45.306146742115288 -60.26615241165905 0 -60.26615241165905 -65.908552714267898 0 0 0 0 32.128207438422919 -41.723456653977792 0 -41.723456653977792 -88.678521158874901 0 0 0 0 -36.023607599174966 34.802416808172438 0 34.802416808172438 -116.89374214520603 0 0 0 0 184.23091613909992 5.3156528622130281 0 5.3156528622130281 -119.60848044698378 0 0 0 0 -28.755270401545204 144.47502439402888 0 144.47502439402888 -44.53585358183409 0 0 0 0 117.16407209049703 115.49462336948818 0 115.49462336948818 -166.43208810560805 0 0 0 0 155.04175743213864 99.425485812490479 0 99.425485812490479 -160.92064173483959 0 0 0 0 17.01269443358127 14.661661786053878 0 14.661661786053878 -1.8521508830339193 0 0 0 0 61.416561107887901 -98.040625152057146 0 -98.040625152057146 212.42192866898949 0 0 0 0 22.595895274764189 48.792598044689839 0 48.792598044689839 175.29582978427561 0 0 0 0 5.0959735229020131 1.5473717075827276 0 1.5473717075827276 -1.1212479250419185 0 0 0 0 54.52348306899512 -1.53829701908262 0 -1.53829701908262 -62.098019743943951 0 0 0 0 41.255204099080402 -81.95425343833665 0 -81.95425343833665 88.104648384954999 0 0 0 0 36.076566830643969 -83.054613045004487 0 -83.054613045004487 87.874295671267419 0 0 0 0 13.023574220914314 5.9364029164823764 0 5.9364029164823764 1.6983150593016361 0 0 0 0 56.564961402471454 -72.864490875127103 0 -72.864490875127103 46.995522960171684 0 0 0 0 75.261021040138075 -105.64351172696615 0 -105.64351172696615 72.090857825893863 0 0 0 0 51.974843438320931 -65.056208588251479 0 -65.056208588251479 113.15417910155838 0 0 0 0 41.201960420726209 -71.085966712988238 0 -71.085966712988238 48.516417125781118 0 0 0 0 47.278204908275711 -46.285070404002454 0 -46.285070404002454 76.62761822362495 0 0 0 0 58.700231511719721 -62.431437948542111 0 -62.431437948542111 0.26865040069151291 0 0 0 0 50.305669233672212 -49.582694832053477 0 -49.582694832053477 58.132566174711428 0 0 0 0 -60.373420950706986 -13.769885508453399 0 -13.769885508453399 50.713524610491845 0 0 0 0 0.7085798456582566 0.78811538633887868 0 0.78811538633887868 0.89022736844045713 0 0 0 0 50.310078780879849 -50.098171813376894 0 -50.098171813376894 81.308041997786859 0 0 0 0 41.442524650817177 -26.849591243495411 0 -26.849591243495411 171.4767911394265 0 0 0 0 4.5783466955227876 7.2059980951452349 0 7.2059980951452349 6.1304785171244394 0 0 0 0 -24.846310352844739 19.800005928990238 0 19.800005928990238 129.81364046331294 0 0 0 0 3.9858052712761491 6.738334370935263 0 6.738334370935263 5.0700818644061201 0 0 0 0 14.93678505279604 37.581970788953129 0 37.581970788953129 119.95146785895633 0 0 0 0 -43.380615479654807 -5.4412853073584984 0 -5.4412853073584984 109.46988938312188 0 0 0 0 15.039125532681965 -60.101831370833651 0 -60.101831370833651 127.56663380458713 0 0 0 0 2.8642591398011521 7.4955259581748193 0 7.4955259581748193 4.5739448452321962 0 0 0 0 4.3586148690645876 7.5050149004976214 0 7.5050149004976214 7.0105182994047945 0 0 0 0 -36.267703124267427 -59.989163948198211 0 -59.989163948198211 193.05212645904965 0 0 0 0 2.0537363839248428 11.50565482163347 0 11.50565482163347 0.088228924991199165 0 0 0 0 109.93694598565708 -82.916116764199614 0 -82.916116764199614 188.27342473504177 0 0 0 0 32.962819801405203 0.047497731385647057 0 0.047497731385647057 166.15838714307426 0 0 0 0 0.15833683307194768 4.5090332251957452 0 4.5090332251957452 2.4361364604551152 0 0 0 0 166.46401053427599 -54.454270022522564 0 -54.454270022522564 95.507423573515553 0 0 0 0 -146.37489575767131 -107.92768786980173 0 -107.92768786980173 -37.197749885062649 0 0 0 0 75.836409606199595 -48.730112642674612 0 -48.730112642674612 55.009837208674071 0 0 0 0 55.396399414970574 -37.63492955618122 0 -37.63492955618122 93.72888204984838 0 0 0 0 -29.60472260048482 -35.112826690328575 0 -35.112826690328575 147.8440351089605 0 0 0 0 -25.916454243643784 -62.557542141223621 0 -62.557542141223621 53.313271492832598 0 0 0 0 63.619456550839004 -61.556817263108826 0 -61.556817263108826 -37.88862467748686 0 0 0 0 -7.8478554415664803 -4.1096781940143785 0 -4.1096781940143785 39.567196278524534 0 0 0 0 -29.046039064608976 -53.283306946376342 0 -53.283306946376342 65.228826051962642 0 0 0 0 -202.33027503642325 49.874628887289873 0 49.874628887289873 40.703878404425808 0 0 0 0 -103.88228725505815 -8.8840846226398753 0 -8.8840846226398753 129.66852705298768 0 0 0 0 -12.931521318147134 16.441248345418785 0 16.441248345418785 32.894209352661846 0 0 0 0 -1.883779350528096 1.4689673521426103 0 1.4689673521426103 -1.4439648236488085 0 0 0 0 -45.52953228538172 126.31890275566946 0 126.31890275566946 -143.63770385553198 0 0 0 0 56.941654680469583 77.664632226478943 0 77.664632226478943 -252.79319716042536 0 0 0 0 19.490813154037824 -77.361267378286584 0 -77.361267378286584 -226.07607142207939 0 0 0 0 33.098358786593963 -18.782020029527985 0 -18.782020029527985 -32.004321051869141 0 0 0 0 -118.28934282148151 139.06029070391216 0 139.06029070391216 -102.68626728022173 0 0 0 0 54.572999676563086 72.62722966848753 0 72.62722966848753 -77.182582460138747 0 0 0 0 -5.9729659801737398 -7.7460204835861077 0 -7.7460204835861077 -71.967025911329756 0 0 0 0 -117.55555093499828 -66.770072551281146 0 -66.770072551281146 -98.942522027631412 0 0 0 0 70.046622963832306 91.85835383171127 0 91.85835383171127 -25.76655492880559 0 0 0 0 89.043443659397781 101.60719941084631 0 101.60719941084631 32.45704907859249 0 0 0 0 63.809577767632618 15.716696857602415 0 15.716696857602415 60.745661445742371 0 0 0 0 72.407773229328996 72.194962356259794 0 72.194962356259794 175.73654024087682 0 0 0 0 52.122010937073355 3.7308826057683291 0 3.7308826057683291 39.166614657034302 0 0 0 0 52.608595409189775 12.977186304469853 0 12.977186304469853 137.12270519552931 0 0 0 0 62.898579296907883 -3.5562572434123467 0 -3.5562572434123467 5.5527044707521327 0 0 0 0 58.96144555900355 0.66126500114978626 0 0.66126500114978626 8.2417090048112982 0 0 0 0 69.179831548101447 -13.287763688270502 0 -13.287763688270502 -116.02324301902536 0 0 0 0 53.659921521562865 82.821373079038494 0 82.821373079038494 -66.643305263415982 0 0 0 0 37.064964496511493 130.30980788669763 0 130.30980788669763 -47.354130455715449 0 0 0 0 73.943152811672007 80.420058146314943 0 80.420058146314943 -87.803547466121017 0 0 0 0 64.104886236080802 88.751305619379423 0 88.751305619379423 -31.217430746198659 0 0 0 0 79.450711394052064 67.231157767724881 0 67.231157767724881 -10.918150549768143 0 0 0 0 -11.065302145412261 68.738095304176113 0 68.738095304176113 -36.424759428072548 0 0 0 0 45.199375783364303 126.06926816053272 0 126.06926816053272 4.7411538214219036 0 0 0 0 -56.791531568525443 102.75789664140103 0 102.75789664140103 66.73121037907481 0 0 0 0 -0.61186243715064847 55.209377793427507 0 55.209377793427507 19.226444777337576 0 0 0 0 89.835597593682905 159.24068681712413 0 159.24068681712413 33.819570467675021 0 0 0 0 8.0109014184758962 92.728286917512833 0 92.728286917512833 149.21447137299538 0 0 0 0 56.797223417001192 104.91574674946682 0 104.91574674946682 -26.86574591687031 0 0 0 0 105.07878904284325 62.025739963239516 0 62.025739963239516 -5.1834500358835385 0 0 0 0 0.047938855277607217 105.84580674668757 0 105.84580674668757 -22.412095371628766 0 0 0 0 123.32598229825248 9.5193087353209762 0 9.5193087353209762 -20.941967265666335 0 0 0 0 -4.4265966267238426 -34.50097792339114 0 -34.50097792339114 -35.216163980683405 0 0 0 0 54.494034279216976 68.521183156737862 0 68.521183156737862 70.851079983979844 0 0 0 0 4.0427584083856214 1.4934819195235245 0 1.4934819195235245 0.58931022611398465 0 0 0 0 31.259826290428691 98.037612449037965 0 98.037612449037965 449.00373455260677 0 0 0 0 328.09978331708226 135.08249508573942 0 135.08249508573942 74.229088144000926 0 0 0 0 163.54089776362389 -154.77030500236077 0 -154.77030500236077 162.65375797754712 0 0 0 0 237.54924219389642 -4.3724591812833609 0 -4.3724591812833609 -50.822973204980087 0 0 0 0 221.83760885046786 -72.892729314591207 0 -72.892729314591207 -290.69485413212556 0 0 0 0 97.633423296436376 237.74702889864892 0 237.74702889864892 -391.83540511873298 0 0 0 0 7.6759047005542698 4.90340835712282 0 4.90340835712282 1.8395395274257318 0 0 0 0 -17.675058552703831 29.101230094931338 0 29.101230094931338 175.71491201438198 0 0 0 0 -3.5217445505340947 12.188983735680836 0 12.188983735680836 69.161208112916256 0 0 0 0 34.227905672277529 26.661271080627671 0 26.661271080627671 105.51942730762607 0 0 0 0 -114.89542845857295 50.214231446780104 0 50.214231446780104 39.524291982827435 0 0 0 0 -54.233563259596394 34.317585644946291 0 34.317585644946291 12.007721003705655 0 0 0 0 -56.109453965086743 42.589221217091733 0 42.589221217091733 6.9926484528039055 0 0 0 0 -80.935688527702951 7.8718819925718435 0 7.8718819925718435 62.222993928716278 0 0 0 0 -23.533769207979276 30.632068568999102 0 30.632068568999102 9.6762903683323884 0 0 0 0 -33.010148190160407 43.439640232622516 0 43.439640232622516 34.42706933416332 0 0 0 0 -24.549724511558679 15.434477253739601 0 15.434477253739601 27.87277750743948 0 0 0 0 -33.914486019050855 37.604331367931593 0 37.604331367931593 2.5021330243001501 0 0 0 0 -10.451258860215603 10.025687282044624 0 10.025687282044624 -41.312854197086402 0 0 0 0 -2.9142698832073393 17.934619405104051 0 17.934619405104051 -41.126757464476697 0 0 0 0 -31.84367080940865 20.572981676689711 0 20.572981676689711 -20.082706189062613 0 0 0 0 -4.0596161778544229 13.844431799776565 0 13.844431799776565 -42.771104843605201 0 0 0 0 -43.537121510332327 52.851604726520321 0 52.851604726520321 0.22807706675695272 0 0 0 0 -42.211561114312644 54.756214519615199 0 54.756214519615199 -33.608246470748668 0 0 0 0 -34.008308906041236 31.595580121428863 0 31.595580121428863 -3.3213986995107234 0 0 0 0 -56.164269454893429 122.70687578986292 0 122.70687578986292 -204.28802741155448 0 0 0 0 -150.28950533590546 131.07691433866623 0 131.07691433866623 40.217916952301806 0 0 0 0 -131.3770748274826 33.955278405713585 0 33.955278405713585 245.67802299013113 0 0 0 0 -139.92268881414702 19.190538562694599 0 19.190538562694599 160.07143756842964 0 0 0 0 -76.484848324849281 -34.92527214081889 0 -34.92527214081889 60.064227223059788 0 0 0 0 -52.011360023073479 -43.2374650476103 0 -43.2374650476103 62.887272563732722 0 0 0 0 16.518550918482106 -96.182466437931453 0 -96.182466437931453 64.18373128457489 0 0 0 0 -50.892760360934062 -35.42646505726384 0 -35.42646505726384 108.02647091232154 0 0 0 0 -21.830029094144038 -32.707279789290965 0 -32.707279789290965 -37.201812868833713 0 0 0 0 -15.063296607013399 17.078226574670225 0 17.078226574670225 -11.992445575755113 0 0 0 0 -86.985103882063868 -7.328097426628517 0 -7.328097426628517 -3.0694340125395456 0 0 0 0 -11.118204649661662 8.2321100192677292 0 8.2321100192677292 -2.5592265653350568 0 0 0 0 -29.388948751207835 13.451322873315867 0 13.451322873315867 41.870002069020302 0 0 0 0 -27.408783477605027 -19.550800630423666 0 -19.550800630423666 74.883077688343974 0 0 0 0 -4.0379469408955 1.6252628097870609 0 1.6252628097870609 0.61774236392138437 0 0 0 0 3.5018800100397698 37.689017501483931 0 37.689017501483931 33.033402467684937 0 0 0 0 -13.213323590261158 4.32228003565473 0 4.32228003565473 4.2294005920423698 0 0 0 0 -4.2853586361088674 27.190577565253761 0 27.190577565253761 16.312162041835336 0 0 0 0 2.4012204378954252 2.0819240430055053 0 2.0819240430055053 0.70065568420827429 0 0 0 0 6.0285934159928729 12.103514008317688 0 12.103514008317688 12.876282239034936 0 0 0 0 -13.053422039666206 3.6989800732147873 0 3.6989800732147873 8.8142958779666483 0 0 0 0 -10.564664525619264 12.123751679653822 0 12.123751679653822 19.82087343837452 0 0 0 0 -7.3026171601040915 12.36252214945705 0 12.36252214945705 12.889584118214756 0 0 0 0 -14.51358875202709 19.515801774533315 0 19.515801774533315 -5.5290377000847002 0 0 0 0 -4.6790357364437618 7.0935433684210292 0 7.0935433684210292 12.044490117941326 0 0 0 0 -21.753760075992432 41.026283077377457 0 41.026283077377457 -25.830900778616751 0 0 0 0 -13.835143697911917 24.355938369036039 0 24.355938369036039 -4.3622494778546752 0 0 0 0 -13.421638460202303 22.727906524268974 0 22.727906524268974 -11.52116214711549 0 0 0 0 1.3117716732112967 39.529300500982686 0 39.529300500982686 -33.932574611299515 0 0 0 0 8.415732771184139 31.234899511895435 0 31.234899511895435 -47.60290956842482 0 0 0 0 -10.627920375960457 37.417879420560212 0 37.417879420560212 -29.785486991142989 0 0 0 0 -6.9110116785250284 31.978674472108196 0 31.978674472108196 -34.123988214040764 0 0 0 0 -18.073959165505585 28.972510925724919 0 28.972510925724919 -30.789236417329562 0 0 0 0 -47.606088138288669 -90.336101252749927 0 -90.336101252749927 -57.09583243438675 0 0 0 0 -6.2441035168185053 4.3456253670421567 0 4.3456253670421567 -3.5709041065288716 0 0 0 0 2.1912158340837777 12.879036848862484 0 12.879036848862484 -34.44397847409482 0 0 0 0 2.4533156231982503 4.9252692003502716 0 4.9252692003502716 -65.011569933429655 0 0 0 0 16.984197225363459 41.755009569313756 0 41.755009569313756 -38.104508272931639 0 0 0 0 17.997848461927788 31.019325139089574 0 31.019325139089574 -87.541237496194753 0 0 0 0 7.795244793313941 12.512631935341233 0 12.512631935341233 -59.23723354563981 0 0 0 0 1.49792804593244 -23.492708472212257 0 -23.492708472212257 -237.37870306273771 0 0 0 0 -14.200462602636435 44.141173285951595 0 44.141173285951595 4.4381194407512794 0 0 0 0 6.1682741999431983 82.722514698341342 0 82.722514698341342 -41.606992205729512 0 0 0 0 -0.21489883135654964 48.919886586845337 0 48.919886586845337 17.162703282064399 0 0 0 0 -2.4618927481886885 60.096940147946242 0 60.096940147946242 0.87186002509383798 0 0 0 0 0.17153557794108565 35.219293704016536 0 35.219293704016536 21.6953955454062 0 0 0 0 -3.910448730270673 17.059020092555187 0 17.059020092555187 77.266967768123209 0 0 0 0 -8.7710681613443739 31.722856097608314 0 31.722856097608314 33.098349580066035 0 0 0 0 -12.376548157910293 64.547782824796172 0 64.547782824796172 36.121731031148272 0 0 0 0 -13.236795979426233 63.188826437426791 0 63.188826437426791 111.59564958618091 0 0 0 0 -2.651841915742807 -27.611112456895967 0 -27.611112456895967 125.23028047219987 0 0 0 0 -5.1285986193215649 -3.2189456025649292 0 -3.2189456025649292 34.196842198739262 0 0 0 0 1.3361936206979976 1.04837029923541 0 1.04837029923541 -0.45386568221628254 0 0 0 0 37.866923704611509 71.207932238181968 0 71.207932238181968 15.635781878189533 0 0 0 0 -10.258205186904888 43.19531827713331 0 43.19531827713331 -10.494785530813942 0 0 0 0 -15.678394909815324 57.300769849309518 0 57.300769849309518 -12.330624923267351 0 0 0 0 7.2439296042875867 48.108764999596247 0 48.108764999596247 -24.65705981242985 0 0 0 0 9.4582434585308874 36.823408212008871 0 36.823408212008871 -30.483337384625202 0 0 0 0 24.044941883199499 45.309534530285475 0 45.309534530285475 -10.78112250865604 0 0 0 0 -1.7269413490948864 34.885505863135904 0 34.885505863135904 30.959942650648372 0 0 0 0 10.825249449646435 33.510527068211132 0 33.510527068211132 29.971860719683178 0 0 0 0 0.21469853747943013 0.8868881901580874 0 0.8868881901580874 -0.41932192190556994 0 0 0 0 -14.747374231151298 20.814611151455608 0 20.814611151455608 3.8150251495879388 0 0 0 0 -14.725135917140506 56.351358512674224 0 56.351358512674224 12.379031737235181 0 0 0 0 -24.156392502436574 42.194780133698828 0 42.194780133698828 -6.0210995844181525 0 0 0 0 -24.653723423451765 46.717822687398254 0 46.717822687398254 -23.59310633948246 0 0 0 0 -25.776181649198406 44.803746382046938 0 44.803746382046938 -10.141593579118535 0 0 0 0 -37.276525502622462 62.571254577399031 0 62.571254577399031 -13.992821662533856 0 0 0 0 -29.78788292038189 52.037704328943732 0 52.037704328943732 -10.173721886150133 0 0 0 0 -65.376993943265006 49.830576923747913 0 49.830576923747913 14.470644761935773 0 0 0 0 -8.4499522021887969 -24.120374740443026 0 -24.120374740443026 48.977102431893165 0 0 0 0 -129.25790682698107 46.837049737618926 0 46.837049737618926 44.403885186181128 0 0 0 0 -36.524791218560495 97.16019428721745 0 97.16019428721745 -155.74033728592107 0 0 0 0 28.158775816502384 13.52491559255779 0 13.52491559255779 -123.86255932125675 0 0 0 0 28.389318289902803 21.80218832473517 0 21.80218832473517 129.67866018028718 0 0 0 0 0.94432084096410307 1.1024481791592837 0 1.1024481791592837 1.4404681581131431 0 0 0 0 196.27858651474708 -40.547193405000812 0 -40.547193405000812 -39.682572211588393 0 0 0 0 29.418792159161967 1.9409817290545845 0 1.9409817290545845 4.3278591077034889 0 0 0 0 145.18653524362344 -20.983136814706526 0 -20.983136814706526 -34.317376781455749 0 0 0 0 30.436197770442476 63.837653163278645 0 63.837653163278645 -24.228289867511904 0 0 0 0 3.2389232704160058 3.375980974302621 0 3.375980974302621 3.7980519574169769 0 0 0 0 -2.4196768664187491 1.6627367468309053 0 1.6627367468309053 -0.036984835426300489 0 0 0 0 -32.797291913213485 -0.81070678102784655 0 -0.81070678102784655 34.049542616599751 0 0 0 0 99.459078815735666 67.011028335040038 0 67.011028335040038 11.356920568701241 0 0 0 0 97.901492081455217 37.550739278115614 0 37.550739278115614 17.660567729055174 0 0 0 0 67.506929521849088 47.542869772240863 0 47.542869772240863 16.355043988160091 0 0 0 0 72.570462888605107 63.727984179336374 0 63.727984179336374 32.030341976398802 0 0 0 0 -4.6227495895724005 5.7332140356090164 0 5.7332140356090164 -1.8597983772059261 0 0 0 0 46.817103030167345 66.362186923442181 0 66.362186923442181 54.907331095239925 0 0 0 0 -9.6215121406373783 -2.6792170589569837 0 -2.6792170589569837 16.304100395962351 0 0 0 0 45.403968020847969 46.997887310051652 0 46.997887310051652 37.366780821256128 0 0 0 0 -14.449075000198256 5.3917117400876187 0 5.3917117400876187 0.55430592512640708 0 0 0 0 -15.385973630960507 9.730678454182339 0 9.730678454182339 4.4290152785467853 0 0 0 0 -13.110476445962377 8.0660894308113029 0 8.0660894308113029 7.9238145387998884 0 0 0 0 -14.93290202525931 4.8159352328649536 0 4.8159352328649536 2.8509503435529915 0 0 0 0 -14.941509159325506 6.5133625743421817 0 6.5133625743421817 6.6070927635644239 0 0 0 0 -13.311339303267232 8.5171144971644708 0 8.5171144971644708 6.9455793477115719 0 0 0 0 -34.326118634665818 9.0999384834721582 0 9.0999384834721582 12.322010052394489 0 0 0 0 -4.8199079247093426 4.3641669038479982 0 4.3641669038479982 10.22882270505186 0 0 0 0 -46.482235239329384 48.71662896813973 0 48.71662896813973 -8.6173906849987816 0 0 0 0 0.16457191408540339 1.1152361670725552 0 1.1152361670725552 2.791378886519075 0 0 0 0 -23.394513079698299 47.114054468462427 0 47.114054468462427 -45.987455244468265 0 0 0 0 3.3375581649950377 6.580898668448758 0 6.580898668448758 6.1705998762445278 0 0 0 0 -13.953095919506495 16.780937160901857 0 16.780937160901857 8.6126995336226173 0 0 0 0 -29.187215894482506 28.276942207796907 0 28.276942207796907 10.216558071676616 0 0 0 0 184.04506547650271 -66.402338262595421 0 -66.402338262595421 -101.44322417478604 0 0 0 0 50.21380766508355 14.965280025650056 0 14.965280025650056 -43.750821082317387 0 0 0 0 -24.426659454812977 11.877074659080323 0 11.877074659080323 47.835055628510929 0 0 0 0 -0.33054586575306599 0.75214641317029063 0 0.75214641317029063 -2.9202943878683532 0 0 0 0 -30.602919943975394 104.53031802487368 0 104.53031802487368 -163.71922240612483 0 0 0 0 -224.50656637075372 12.323810272101205 0 12.323810272101205 -15.537814163995193 0 0 0 0 -30.467750753081418 -78.275448101338043 0 -78.275448101338043 -126.79490589946752 0 0 0 0 -26.931637211522684 100.38879376636878 0 100.38879376636878 -51.575103648847033 0 0 0 0 -119.32508024709114 155.76370139532963 0 155.76370139532963 -82.641780216841354 0 0 0 0 -75.364092633428527 -27.832660402738721 0 -27.832660402738721 -9.8944273467370749 0 0 0 0 31.875940847015954 -45.816176235672515 0 -45.816176235672515 -78.154883334801795 0 0 0 0 -19.273553064742373 36.660655410250321 0 36.660655410250321 186.1073419779097 0 0 0 0 0.12603581983383183 0.16573767280768337 0 0.16573767280768337 0.038534251231792216 0 0 0 0 106.11309901432469 -10.03671768177751 0 -10.03671768177751 -76.481389142785076 0 0 0 0 209.03423156062104 11.533420643065416 0 11.533420643065416 -64.900917169286032 0 0 0 0 -32.958958611288608 101.8490695939781 0 101.8490695939781 -33.191191502644472 0 0 0 0 0.16054154810869292 0.36003589874845687 0 0.36003589874845687 -0.055987151365421817 0 0 0 0 152.76890749346569 34.087219222823613 0 34.087219222823613 -64.014455042170042 0 0 0 0 168.10318085327344 50.768388980864252 0 50.768388980864252 -46.435475418142175 0 0 0 0 -14.040687369360967 126.09088068550277 0 126.09088068550277 -20.137488165663683 0 0 0 0 32.98465745350677 75.667210130205888 0 75.667210130205888 33.156884388417723 0 0 0 0 42.765745799617434 92.51408389718955 0 92.51408389718955 5.4679009712619262 0 0 0 0 36.6666897847972 83.847491648361029 0 83.847491648361029 29.013101816400081 0 0 0 0 37.349844822317664 79.736883417160968 0 79.736883417160968 34.319570092849631 0 0 0 0 15.896570540548055 55.463938206440957 0 55.463938206440957 146.30355998797279 0 0 0 0 -0.38233306246715415 0.10466146544936994 0 0.10466146544936994 0.13277298530334788 0 0 0 0 -44.335203250934683 73.743173188235502 0 73.743173188235502 193.76703568022589 0 0 0 0 -62.541806305899172 84.202812684121426 0 84.202812684121426 15.177313667832948 0 0 0 0 -103.05849769384349 106.09750750973171 0 106.09750750973171 3.4221024941722931 0 0 0 0 10.648024529054965 24.253256897637925 0 24.253256897637925 -15.116061803364962 0 0 0 0 -0.67318281726659279 0.024301411004467921 0 0.024301411004467921 0.15607553585579945 0 0 0 0 9.6555109137934778 55.942070255846829 0 55.942070255846829 65.876353536925293 0 0 0 0 -49.756597586732823 22.861751147697703 0 22.861751147697703 94.71042877655097 0 0 0 0 -6.0953246739027236 -35.360233933379632 0 -35.360233933379632 -19.55473055748044 0 0 0 0 -5.3175036384518535 21.216083323547423 0 21.216083323547423 -28.596961288405055 0 0 0 0 36.405433673536209 21.492819348482101 0 21.492819348482101 97.580198718789006 0 0 0 0 -3.9940040612303704 3.9427627152380111 0 3.9427627152380111 -1.5787321631581788 0 0 0 0 -15.179339902087122 40.224680466930295 0 40.224680466930295 193.51297761669025 0 0 0 0 0.90156712022690044 17.504857562577399 0 17.504857562577399 -40.596918085949142 0 0 0 0 -2.2003271834191764 17.600534354777665 0 17.600534354777665 -13.28408939335759 0 0 0 0 -6.7978223650643486 14.559774154859724 0 14.559774154859724 -1.0740177333000247 0 0 0 0 -5.7152413327748945 14.907157953588921 0 14.907157953588921 -1.0032195612891428 0 0 0 0 -4.8426349036329057 4.6803262263187859 0 4.6803262263187859 -1.9706248337743828 0 0 0 0 -4.5069379123679028 14.302939024155307 0 14.302939024155307 -1.9119842491641066 0 0 0 0 -5.5985308041817916 13.77445077819948 0 13.77445077819948 -2.0607527106240013 0 0 0 0 -10.266546200355151 23.697385236246191 0 23.697385236246191 -4.408650337007316 0 0 0 0 -12.926109835815623 23.064337949748392 0 23.064337949748392 0.81440893804210646 0 0 0 0 -24.709649139992564 25.612728229692515 0 25.612728229692515 1.4020507598388576 0 0 0 0 -24.982045773647769 25.602492212449306 0 25.602492212449306 1.773500030853711 0 0 0 0 -16.168343883379748 35.345930076126251 0 35.345930076126251 -2.0487104935068601 0 0 0 0 -13.526218831422739 32.506473761605093 0 32.506473761605093 -2.1910434949811588 0 0 0 0 -6.5714577497565188 35.871358590376076 0 35.871358590376076 -6.7070005160883284 0 0 0 0 -6.9674225836679398 28.896873382336025 0 28.896873382336025 -16.269600351510576 0 0 0 0 -6.05958274250861 37.367385542591535 0 37.367385542591535 -3.932383601107631 0 0 0 0 -6.8721772417429747 40.253291822523124 0 40.253291822523124 -3.1481755123797939 0 0 0 0 -11.763071462051812 37.055562727500728 0 37.055562727500728 9.5370801630883761 0 0 0 0 -9.2238893092751368 32.863671003518078 0 32.863671003518078 34.007646462517187 0 0 0 0 -0.39237754060195584 56.339360202312719 0 56.339360202312719 -1.7057931033596105 0 0 0 0 5.3359692534759233 35.725393307354807 0 35.725393307354807 -36.566462368924476 0 0 0 0 -10.804337166544883 10.044578080816819 0 10.044578080816819 5.4283023654334102 0 0 0 0 -22.828220650971161 10.743324675453437 0 10.743324675453437 10.911506583236701 0 0 0 0 -12.244553588509916 11.825222089024692 0 11.825222089024692 7.3085765282478263 0 0 0 0 -10.903132610812918 14.521060470504921 0 14.521060470504921 12.105351083686742 0 0 0 0 -8.2226705984667205 7.0215304127229672 0 7.0215304127229672 9.3993494919086515 0 0 0 0 -11.500222217868213 9.737901501302531 0 9.737901501302531 7.2136314693284476 0 0 0 0 -11.949425866407864 7.9086799530980443 0 7.9086799530980443 5.199810973488411 0 0 0 0 -17.114525360038897 6.7445646678445996 0 6.7445646678445996 6.7559626816332639 0 0 0 0 -1.2950425366002385 6.6856672678419908 0 6.6856672678419908 6.5946303447840862 0 0 0 0 -4.7414233926610905 8.2972519217145191 0 8.2972519217145191 7.7662820018967977 0 0 0 0 -22.437718421265345 10.018314375766352 0 10.018314375766352 7.5803169375496964 0 0 0 0 -7.2298288555757608 9.3895521603355974 0 9.3895521603355974 10.095342497976617 0 0 0 0 -6.1961798764025389 7.9642833227850929 0 7.9642833227850929 8.0992333982476339 0 0 0 0 -7.6392418016630472 11.013623016570705 0 11.013623016570705 2.5594180797534136 0 0 0 0 -8.99800450047087 7.0670002297721908 0 7.0670002297721908 7.7687280860336614 0 0 0 0 1.6471165228509124 5.8291988926608944 0 5.8291988926608944 7.5111150823359516 0 0 0 0 -9.2250549668669919 8.51364136014206 0 8.51364136014206 4.3239817953508464 0 0 0 0 -18.265948291107634 14.768427254422022 0 14.768427254422022 5.8428455103925216 0 0 0 0 -13.78013252758501 9.6735928004966354 0 9.6735928004966354 8.7959567494178827 0 0 0 0 -24.00047693030865 13.994859331561202 0 13.994859331561202 0.51028440522804885 0 0 0 0 -22.781927746156725 16.560392414238322 0 16.560392414238322 5.1508608345253606 0 0 0 0 -13.492561595458028 10.153209697495697 0 10.153209697495697 9.8514191010958712 0 0 0 0 -14.22651454970287 5.948944668394887 0 5.948944668394887 10.605885637016854 0 0 0 0 0.74562088447812247 6.3933842695217269 0 6.3933842695217269 8.0704136547024508 0 0 0 0 -8.9441002801895593 17.394870672056072 0 17.394870672056072 11.611760642721556 0 0 0 0 -12.56855699013628 7.5656290561113373 0 7.5656290561113373 3.870680104464042 0 0 0 0 -10.562564684035351 6.4893236597203554 0 6.4893236597203554 10.207724137147466 0 0 0 0 7.6597169808901526 16.280139012837424 0 16.280139012837424 7.5934150882065907 0 0 0 0 0.76593228506408195 5.2892858143786725 0 5.2892858143786725 -0.31668206725471748 0 0 0 0 27.320881544522194 33.050429818604897 0 33.050429818604897 -3.8156383236768612 0 0 0 0 9.0693665952530083 8.1243243272288517 0 8.1243243272288517 0.44180788078977534 0 0 0 0 7.7717637033192659 12.386557650603891 0 12.386557650603891 1.2911063462966013 0 0 0 0 3.6237767815018742 12.495292703807763 0 12.495292703807763 3.2310090989089986 0 0 0 0 7.9406539540923404 8.2930399166531164 0 8.2930399166531164 -2.2200917104546458 0 0 0 0 -0.0061337846696005727 10.777962837293956 0 10.777962837293956 2.0629259374122739 0 0 0 0 4.3274106051424042 11.734320322284191 0 11.734320322284191 1.4351136339441837 0 0 0 0 1.4091951054009504 10.872945220939904 0 10.872945220939904 3.1870148134365062 0 0 0 0 -7.4744973819524603 13.711893587329087 0 13.711893587329087 -0.50276173584279604 0 0 0 0 8.1059259135372486 12.339390146222058 0 12.339390146222058 1.2854251257824671 0 0 0 0 2.9954916861674974 13.507522260674477 0 13.507522260674477 1.9359243805010919 0 0 0 0 2.0916276672078311 12.714359951533879 0 12.714359951533879 1.9929268598878025 0 0 0 0 1.3421143596297043 13.388166641339012 0 13.388166641339012 1.6071150401667182 0 0 0 0 1.6550107284402937 10.290766628128589 0 10.290766628128589 1.0533918216735287 0 0 0 0 2.525448914109802 11.284221326863189 0 11.284221326863189 2.0319984896873109 0 0 0 0 2.7405200550938389 10.588653500332384 0 10.588653500332384 -4.2869901788089919 0 0 0 0 -0.88260168206976886 13.792748107017403 0 13.792748107017403 5.0647189838273023 0 0 0 0 5.0096544774460199 11.836639335808286 0 11.836639335808286 3.9801871461271503 0 0 0 0 6.009086720949778 12.716728361079113 0 12.716728361079113 0.22430986993888258 0 0 0 0 -17.278952325152204 27.338105778772842 0 27.338105778772842 -2.3752194040666836 0 0 0 0 -2.0839948403312043 7.8649785675260127 0 7.8649785675260127 4.5693718487307988 0 0 0 0 5.5140449045970854 14.166934754401552 0 14.166934754401552 -16.032797587356526 0 0 0 0 8.7866195226174568 20.059056696851997 0 20.059056696851997 -8.6419198501807841 0 0 0 0 -0.31702531659097133 3.196108612718406 0 3.196108612718406 2.1671309907617 0 0 0 0 -27.670519802770286 20.021688278456395 0 20.021688278456395 -1.080885667612165 0 0 0 0 5.0144213509182123 1.953089112930714 0 1.953089112930714 -0.46474105325482196 0 0 0 0 -31.473740017928321 12.56703853423096 0 12.56703853423096 -14.293106313504268 0 0 0 0 -27.505546260479605 19.992213579890631 0 19.992213579890631 -2.4102637389230495 0 0 0 0 -21.007539462781097 27.734113192582186 0 27.734113192582186 -26.793697498787878 0 0 0 0 -23.338961667083822 27.694903200501585 0 27.694903200501585 -6.4672791038929063 0 0 0 0 -20.579404408494156 40.98518335803692 0 40.98518335803692 -5.856816435291563 0 0 0 0 -24.635915521585048 40.239845286484524 0 40.239845286484524 -19.148277146544842 0 0 0 0 -24.39669641769251 35.650126402493697 0 35.650126402493697 -11.185805769924627 0 0 0 0 -11.967839363171151 14.88180200121451 0 14.88180200121451 5.725833475624313 0 0 0 0 -21.882184942614913 30.417512010778864 0 30.417512010778864 -1.8880495246039004 0 0 0 0 -48.125513052709721 21.352614957203059 0 21.352614957203059 13.264852585946755 0 0 0 0 -23.099385702542349 25.570631120877351 0 25.570631120877351 1.790414234490072 0 0 0 0 -19.946398668024493 16.738882521111481 0 16.738882521111481 13.724501910350801 0 0 0 0 -28.010049618833364 9.3777293839007143 0 9.3777293839007143 12.410443359076453 0 0 0 0 -47.996556534064439 30.985118374215062 0 30.985118374215062 -3.6977718195898888 0 0 0 0 -0.70674671847444159 5.602335822222356 0 5.602335822222356 0.030314204954764001 0 0 0 0 -41.659907446639181 54.102363174510344 0 54.102363174510344 -10.473487060081425 0 0 0 0 -4.2932349519378477 33.969105379331722 0 33.969105379331722 -40.082129872567748 0 0 0 0 6.2137270354396605 26.382734116316442 0 26.382734116316442 -15.652788251902393 0 0 0 0 -9.2225472386380716 47.547916794012053 0 47.547916794012053 -23.439452741544301 0 0 0 0 -21.792318582064581 31.973256100098752 0 31.973256100098752 -15.762196087354823 0 0 0 0 -22.976880760193808 30.700052100758512 0 30.700052100758512 0.95578652205949766 0 0 0 0 -33.290658902993528 39.262662203342188 0 39.262662203342188 1.4586383554506028 0 0 0 0 -45.967839721504788 33.836096859115059 0 33.836096859115059 13.454913137908989 0 0 0 0 -36.633631089705887 26.301415959037513 0 26.301415959037513 17.159191612085124 0 0 0 0 -25.823026679549457 10.675821886677568 0 10.675821886677568 13.792286073999549 0 0 0 0 -7.6529210893542921 6.5162352986837284 0 6.5162352986837284 6.3760386868434145 0 0 0 0 -2.6121990054998605 15.955082007225428 0 15.955082007225428 0.30006511337933262 0 0 0 0 -4.5011792532870913 9.3628865851981118 0 9.3628865851981118 6.379018357849418 0 0 0 0 0.63023741352369278 8.8497435307652488 0 8.8497435307652488 0.97983300030093301 0 0 0 0 -4.77064610821526 17.08581028456274 0 17.08581028456274 -0.11897952380240895 0 0 0 0 1.202983188160097 10.085495145967293 0 10.085495145967293 -0.55992144267105726 0 0 0 0 3.8432242263584158 14.440913956976033 0 14.440913956976033 1.7332732313693668 0 0 0 0 -0.47188433674322994 14.995398271028728 0 14.995398271028728 -9.7512192417414987 0 0 0 0 -6.9459538104056264 10.628543837212419 0 10.628543837212419 43.130846351546097 0 0 0 0 -8.9383999990568554 15.230295731821116 0 15.230295731821116 -38.838170929972421 0 0 0 0 2.25439429101408 0.75028898205475691 0 0.75028898205475691 0.82694651887032489 0 0 0 0 -3.1773888024017651 19.736979492682622 0 19.736979492682622 26.68956036308964 0 0 0 0 -1.639522725408824 16.264240956796243 0 16.264240956796243 8.8991692908539335 0 0 0 0 2.3857197894081139 3.8930347564943553 0 3.8930347564943553 -3.2665939950252367 0 0 0 0 -8.6980310871877009 26.725024731972326 0 26.725024731972326 -6.5485726747015178 0 0 0 0 -7.2112528366178594 9.0164444159258892 0 9.0164444159258892 6.2123497227489679 0 0 0 0 -14.528968457649171 23.794752317921507 0 23.794752317921507 0.86243708858137325 0 0 0 0 -45.572480457483834 20.128061695260612 0 20.128061695260612 0.20990873325553139 0 0 0 0 -32.388064402877717 43.310974944200098 0 43.310974944200098 -17.655418342484154 0 0 0 0 -57.009174114534289 25.660746772880884 0 25.660746772880884 16.096645657257795 0 0 0 0 -4.1082190424385772 17.13651812293574 0 17.13651812293574 -25.450017717154992 0 0 0 0 -3.0037109776284936 1.4278105593190329 0 1.4278105593190329 4.9395050901300976 0 0 0 0 -16.28997515682947 18.152016244102995 0 18.152016244102995 8.7365808640283902 0 0 0 0 -13.696492034690891 37.796431539922196 0 37.796431539922196 -20.270007476760838 0 0 0 0 -13.058047318205809 39.772165116935867 0 39.772165116935867 -17.091399253004056 0 0 0 0 -33.049498390176268 8.0998561126741606 0 8.0998561126741606 20.588109828339384 0 0 0 0 -18.690683183526744 37.42109031065047 0 37.42109031065047 -7.5750632416838926 0 0 0 0 -17.896902614048486 38.987560624053003 0 38.987560624053003 -7.3079250113098624 0 0 0 0 -4.1861195770270569 32.390691628714194 0 32.390691628714194 -11.588603738862048 0 0 0 0 -15.863731728326684 35.088981362715231 0 35.088981362715231 -10.956473622356498 0 0 0 0 -12.625606088107789 21.14326717460829 0 21.14326717460829 -23.386865723148027 0 0 0 0 13.852710482266957 27.374428289402658 0 27.374428289402658 -29.268024891533059 0 0 0 0 5.0688060013851555 5.7219219842364737 0 5.7219219842364737 -32.758284342694878 0 0 0 0 -10.001614028734913 17.085879185408782 0 17.085879185408782 -24.923092773051934 0 0 0 0 -6.7202920822455781 5.5623651309731486 0 5.5623651309731486 -27.212894874706762 0 0 0 0 96.980111212803422 43.28736765158169 0 43.28736765158169 -35.232938034913332 0 0 0 0 5.7784138998558774 20.827542203946905 0 20.827542203946905 -18.786137189345027 0 0 0 0 3.6428869065330218 27.807547148036974 0 27.807547148036974 -14.116216558966016 0 0 0 0 13.730733657532255 26.575297020144717 0 26.575297020144717 -15.788649126270684 0 0 0 0 13.597855682713089 26.668083032616323 0 26.668083032616323 -15.828244473257655 0 0 0 0 16.263730339585891 32.095215932507926 0 32.095215932507926 -14.987120800916273 0 0 0 0 14.472924201717831 32.046366210579038 0 32.046366210579038 -12.019695223039889 0 0 0 0 3.8880605155563899 32.042256206362254 0 32.042256206362254 -13.141395843618739 0 0 0 0 3.8811739884628205 36.341088152266366 0 36.341088152266366 -12.633520985040377 0 0 0 0 9.2523587036221215 33.458803775078195 0 33.458803775078195 -12.908333860548737 0 0 0 0 14.843925856983333 38.301203467539381 0 38.301203467539381 -9.0988436133848154 0 0 0 0 10.123845571386482 33.569367818178762 0 33.569367818178762 -13.527103564330901 0 0 0 0 7.2354017947127431 40.116380443807429 0 40.116380443807429 -6.0260160714169615 0 0 0 0 9.5918804684159795 40.492885863976085 0 40.492885863976085 -8.6306333086613449 0 0 0 0 6.1438768646930839 38.553306985644667 0 38.553306985644667 -7.8762496547678893 0 0 0 0 -0.22974005964260868 45.213753354005348 0 45.213753354005348 -0.92670439112407621 0 0 0 0 -2.8466465243798211 43.748984775225267 0 43.748984775225267 -6.4589168089187297 0 0 0 0 8.6011475589684778 39.508108819481095 0 39.508108819481095 -9.4853020466980524 0 0 0 0 -1.8562466895191392 36.022138222942885 0 36.022138222942885 -10.575889892485975 0 0 0 0 -18.527610277064923 48.298375104066054 0 48.298375104066054 -4.1032072230063932 0 0 0 0 -9.6688400731500224 39.70857303415869 0 39.70857303415869 -7.1405482861623568 0 0 0 0 -14.221142406013314 41.624616628564127 0 41.624616628564127 -7.3667019343483844 0 0 0 0 -11.45924864674339 44.068369323853858 0 44.068369323853858 -4.51985078704638 0 0 0 0 -2.2843530261470733 41.790470597865351 0 41.790470597865351 -6.2897267896983067 0 0 0 0 -10.100792032055324 47.272150487302042 0 47.272150487302042 2.6320100890334288 0 0 0 0 -6.6356438248458289 44.75049453311567 0 44.75049453311567 2.753807803903328 0 0 0 0 -14.075839942735911 50.625417350616317 0 50.625417350616317 19.5944290107509 0 0 0 0 -14.06810951845182 50.360398031148179 0 50.360398031148179 19.614204419274756 0 0 0 0 -24.870803469420935 64.829915738882846 0 64.829915738882846 50.411304072628809 0 0 0 0 -22.494015679405493 67.939205371734715 0 67.939205371734715 49.528859485821158 0 0 0 0 -4.1783647756674327 64.36891368531451 0 64.36891368531451 30.031108410446905 0 0 0 0 -10.997967747507573 55.879343937566773 0 55.879343937566773 29.494761843550805 0 0 0 0 15.203453204048856 59.588705523172393 0 59.588705523172393 18.06180926748857 0 0 0 0 4.203455966695401 56.080414833944815 0 56.080414833944815 19.675803584635105 0 0 0 0 16.348386751223188 60.894255703973613 0 60.894255703973613 18.210931057902826 0 0 0 0 5.575115862156963 74.885563544736215 0 74.885563544736215 37.847482944916919 0 0 0 0 14.003572782717129 51.620494646257612 0 51.620494646257612 6.6384553971765854 0 0 0 0 6.6148063356367857 47.702849165291809 0 47.702849165291809 5.9763624898077978 0 0 0 0 3.4524281538970172 53.765182995522991 0 53.765182995522991 13.150612954923417 0 0 0 0 -3.6115606293442397 50.374775225756821 0 50.374775225756821 12.940409915595183 0 0 0 0 5.3017874117440442 44.689048362683025 0 44.689048362683025 -0.87708766429204843 0 0 0 0 14.44069386211595 43.248152496065813 0 43.248152496065813 -5.1286756399722435 0 0 0 0 13.598253907018261 43.394825518776997 0 43.394825518776997 -1.1336799272539793 0 0 0 0 18.864942794081799 38.008008287028133 0 38.008008287028133 -9.5668798727074318 0 0 0 0 24.419970221753374 40.904435316267154 0 40.904435316267154 -4.7115228092152392 0 0 0 0 17.871804833543138 39.177917149057066 0 39.177917149057066 -3.8968707854473905 0 0 0 0 22.263236044811492 46.122150448676621 0 46.122150448676621 -1.0600930630827179 0 0 0 0 13.739750132713198 51.678861658018832 0 51.678861658018832 8.921793655390502 0 0 0 0 24.730319148230592 44.197570434495901 0 44.197570434495901 7.5688625438451709 0 0 0 0 26.563037528738278 59.110299448244405 0 59.110299448244405 12.742202909299522 0 0 0 0 30.843539804928696 47.390332749652771 0 47.390332749652771 4.0596626823280531 0 0 0 0 20.678369726689198 46.985049052300383 0 46.985049052300383 4.3899261933620437 0 0 0 0 25.656597137684912 37.466849519490097 0 37.466849519490097 3.6208655630707653 0 0 0 0 26.911813950458964 46.127651807570146 0 46.127651807570146 3.4251058696354448 0 0 0 0 29.572036980149505 35.603280664487329 0 35.603280664487329 -7.4065463285005535 0 0 0 0 17.77813089199708 31.283760808267743 0 31.283760808267743 -7.2718232913430256 0 0 0 0 22.163133946830385 36.845304962235787 0 36.845304962235787 -10.964157219161279 0 0 0 0 17.940914101440285 33.464162226095141 0 33.464162226095141 -12.325720439667748 0 0 0 0 -51.264855831821706 -6.7448039679975409 0 -6.7448039679975409 10.147636594824689 0 0 0 0 0.7387778751887546 2.2460704040106352 0 2.2460704040106352 12.827275703205785 0 0 0 0 -121.90212493563445 76.167331768693657 0 76.167331768693657 -28.021000679633289 0 0 0 0 -9.2942779739324806 5.4969475283537577 0 5.4969475283537577 8.0820528115291381 0 0 0 0 -7.0366509998111724 3.6270940926026469 0 3.6270940926026469 14.007139019426177 0 0 0 0 -8.3761452126077529 0.80255374642774768 0 0.80255374642774768 9.5767841836341177 0 0 0 0 -46.680910974050335 36.4678143543847 0 36.4678143543847 7.0315748515240557 0 0 0 0 -3.3898402522386162 6.5051012554141021 0 6.5051012554141021 17.605651415751446 0 0 0 0 -44.748133398749815 32.790415113256131 0 32.790415113256131 -0.19551105820210068 0 0 0 0 -33.057905257142011 38.360902313052065 0 38.360902313052065 4.3946909071528353 0 0 0 0 -48.887243881666109 39.808090299911782 0 39.808090299911782 4.2653546837152589 0 0 0 0 -33.373474253134646 49.009944109972821 0 49.009944109972821 -2.8613778138187627 0 0 0 0 -27.174242101732489 42.48296735596432 0 42.48296735596432 -2.5898677390143803 0 0 0 0 -23.887806224370252 43.069311643404035 0 43.069311643404035 -2.697039629380015 0 0 0 0 -46.727151485498325 42.455115612101508 0 42.455115612101508 -0.68627623948987093 0 0 0 0 -24.29224605635136 50.844869167023717 0 50.844869167023717 -6.3563993718271377 0 0 0 0 -24.846010244396894 45.434349414877943 0 45.434349414877943 5.3035442881591734 0 0 0 0 -61.533180701495894 58.669104007624355 0 58.669104007624355 0.45340076927277551 0 0 0 0 -82.777555735326587 26.850283367703923 0 26.850283367703923 4.2843905845725203 0 0 0 0 -38.262091762926502 42.615976639555811 0 42.615976639555811 -23.463570622564475 0 0 0 0 -67.671288000121649 16.572414077242684 0 16.572414077242684 30.887222856774315 0 0 0 0 -65.437013555741942 7.9259929582531186 0 7.9259929582531186 32.088782921695383 0 0 0 0 -18.737956968145227 41.983667057384082 0 41.983667057384082 3.6178280808271666 0 0 0 0 -37.631188345913699 33.011239337276152 0 33.011239337276152 8.4781651522607717 0 0 0 0 -32.191388315080985 44.808979161966818 0 44.808979161966818 28.759940185333107 0 0 0 0 -29.782687973254724 51.40420288176756 0 51.40420288176756 46.454431175243371 0 0 0 0 -61.379442346491487 36.00827145322728 0 36.00827145322728 67.571657860213236 0 0 0 0 -33.554410770252616 43.148801915542208 0 43.148801915542208 28.404978122313878 0 0 0 0 -49.024709242679819 66.805679497079836 0 66.805679497079836 88.11411326302823 0 0 0 0 -48.790344877667849 65.889703785434904 0 65.889703785434904 70.685140760659124 0 0 0 0 -84.655597914564169 18.874742176898508 0 18.874742176898508 131.14241831386971 0 0 0 0 -61.444441513162076 40.470917197636794 0 40.470917197636794 91.625456681849755 0 0 0 0 -67.052813521195276 14.405948915677072 0 14.405948915677072 35.671179806670807 0 0 0 0 -84.99163437340394 37.445438356422528 0 37.445438356422528 96.572252167314218 0 0 0 0 -92.48394653802643 49.766597042151261 0 49.766597042151261 173.08248334532618 0 0 0 0 -99.001289903655561 28.972544858112087 0 28.972544858112087 130.64628707994052 0 0 0 0 -125.35115914434937 41.613114916013728 0 41.613114916013728 229.82973002998096 0 0 0 0 0.15447965257228935 1.3011548453381581 0 1.3011548453381581 4.9035144151148486 0 0 0 0 -161.07590669022602 -49.67108018584895 0 -49.67108018584895 56.661536289688229 0 0 0 0 -154.47856315815807 60.493687983111158 0 60.493687983111158 288.73118138830614 0 0 0 0 -214.53788630618396 36.338107310627493 0 36.338107310627493 230.82178821521666 0 0 0 0 268.55282196125745 222.78764404088543 0 222.78764404088543 195.09328979301063 0 0 0 0 -116.4959406495841 36.288771209089646 0 36.288771209089646 179.91719694473795 0 0 0 0 -101.19821924104144 193.08047293189156 0 193.08047293189156 447.58761103983124 0 0 0 0 -137.17245933125378 3.1280637838353869 0 3.1280637838353869 172.59804370848315 0 0 0 0 -103.10204491235891 -27.755868869351616 0 -27.755868869351616 36.183288233845815 0 0 0 0 -78.75682185849837 -22.119550975700804 0 -22.119550975700804 -70.738431050933286 0 0 0 0 7.6233897535512369 -23.470869479298926 0 -23.470869479298926 -23.529687999858652 0 0 0 0 242.97720064184614 153.54912420286018 0 153.54912420286018 36.272283948224867 0 0 0 0 31.464876632172718 147.18646172352919 0 147.18646172352919 272.80069414897662 0 0 0 0 194.25609477121543 251.92675804276223 0 251.92675804276223 261.69333037621846 0 0 0 0 215.22046379712674 300.44503495979643 0 300.44503495979643 362.59958986428865 0 0 0 0 161.87642114712071 304.6248832218489 0 304.6248832218489 413.70441325854335 0 0 0 0 63.938531509364111 249.14553707950836 0 249.14553707950836 346.58568499746252 0 0 0 0 157.40439445570155 288.72596678569607 0 288.72596678569607 357.6816352074884 0 0 0 0 94.371720325098977 263.2286098809036 0 263.2286098809036 395.00951447462649 0 0 0 0 73.480531582206822 287.81925657883767 0 287.81925657883767 406.08124821581896 0 0 0 0 64.175590443973505 298.5492885055267 0 298.5492885055267 367.3253452885001 0 0 0 0 137.98811528170063 255.36402361293403 0 255.36402361293403 353.0518412985366 0 0 0 0 162.15355275772799 161.20827063179604 0 161.20827063179604 319.77790209459005 0 0 0 0 117.42301768587004 284.0015445056797 0 284.0015445056797 319.15306069140024 0 0 0 0 1.5522996335473351 0.99570283515560831 0 0.99570283515560831 -0.48386762764128388 0 0 0 0 -4.3043533130383365 2.9061293678151934 0 2.9061293678151934 -0.35020293859810181 0 0 0 0 -21.94148705956286 27.421320667341206 0 27.421320667341206 49.940404072011006 0 0 0 0 61.592435611988549 164.62987442603026 0 164.62987442603026 307.5385186419453 0 0 0 0 63.388757981023275 19.966590831394228 0 19.966590831394228 -8.7276967140796842 0 0 0 0 85.107944569656695 154.13637606897157 0 154.13637606897157 208.72443745907731 0 0 0 0 83.500082784598817 161.86191785215851 0 161.86191785215851 250.52309342610715 0 0 0 0 165.41851017504632 198.16590902872122 0 198.16590902872122 266.55877007602248 0 0 0 0 60.952266438330298 173.40837769470454 0 173.40837769470454 281.49703001680246 0 0 0 0 183.54932905072928 134.41181419286477 0 134.41181419286477 250.35250241625545 0 0 0 0 42.064411165874617 208.05475861365403 0 208.05475861365403 245.1479598241749 0 0 0 0 -0.47600046648479299 0.95484240279179922 0 0.95484240279179922 0.36758547920251061 0 0 0 0 37.277327040111231 180.99385838514809 0 180.99385838514809 301.58029551698201 0 0 0 0 92.224472461959976 95.215776688745791 0 95.215776688745791 211.16264561058642 0 0 0 0 117.4711462893913 266.96650649985668 0 266.96650649985668 141.8353101606408 0 0 0 0 177.56453053959831 210.61422417467566 0 210.61422417467566 211.55840814568 0 0 0 0 194.07538574207683 170.83992857937301 0 170.83992857937301 202.30345379210121 0 0 0 0 15.131644895619729 12.797025083599522 0 12.797025083599522 -2.9146080375830934 0 0 0 0 -5.1485105112144538 -2.5515389268907711 0 -2.5515389268907711 5.6538846809417009 0 0 0 0 0.080625036490963753 0.69341505954938842 0 0.69341505954938842 0.44202424436248577 0 0 0 0 46.043254090821392 53.474761573353135 0 53.474761573353135 63.855044615352199 0 0 0 0 61.182508793224883 129.20259631952183 0 129.20259631952183 216.05108881319575 0 0 0 0 219.42937503793985 222.95912169915334 0 222.95912169915334 184.2279817038052 0 0 0 0 1.8390084159057807 3.0022191248711421 0 3.0022191248711421 -0.55971975971720056 0 0 0 0 1.590144885775544 6.3147658895900349 0 6.3147658895900349 1.2040326961323444 0 0 0 0 2.5308678916242897 4.7279325150018323 0 4.7279325150018323 1.1734485190116573 0 0 0 0 0.71469729839514295 4.364982174252507 0 4.364982174252507 3.575824519361003 0 0 0 0 8.4852261925598214 2.0862884737180138 0 2.0862884737180138 6.2933312405275501 0 0 0 0 3.9253256174867328 0.67403307106756216 0 0.67403307106756216 0.2991386624131831 0 0 0 0 256.56704567121005 1.3140400234615299 0 1.3140400234615299 -74.506719058242197 0 0 0 0 375.33797577298901 308.16012914637872 0 308.16012914637872 130.92942965381553 0 0 0 0 -16.920737826812967 22.096754519188835 0 22.096754519188835 46.968975912701353 0 0 0 0 -10.262524811324511 24.559314279018963 0 24.559314279018963 -7.0135147861806217 0 0 0 0 46.461823270361492 73.631399545005479 0 73.631399545005479 102.62823689674497 0 0 0 0 9.3760832812735195 4.134503568533372 0 4.134503568533372 -0.28600913535694694 0 0 0 0 0.68461952284701511 79.086350156647313 0 79.086350156647313 316.19481670422647 0 0 0 0 2.2278609278050681 153.65707710330389 0 153.65707710330389 213.37211944803403 0 0 0 0 21.892973529837946 218.14178220589383 0 218.14178220589383 412.08609087698551 0 0 0 0 241.11560828313213 234.20703719036101 0 234.20703719036101 142.40927351598111 0 0 0 0 11.69063611984302 215.32036743651452 0 215.32036743651452 736.61279178056975 0 0 0 0 99.847367933727128 17.248180773381137 0 17.248180773381137 79.010271708180881 0 0 0 0 460.47530405464113 216.27752099077225 0 216.27752099077225 182.97217735792947 0 0 0 0 -53.370734219495034 26.076913648901609 0 26.076913648901609 95.228060086099504 0 0 0 0 31.393413266430798 89.246308044470425 0 89.246308044470425 77.491352810198805 0 0 0 0 57.483149799588318 140.88937018075012 0 140.88937018075012 -14.945360687077482 0 0 0 0 25.498211185520631 188.02538639210889 0 188.02538639210889 233.94099923553949 0 0 0 0 88.094383371291315 200.82767295973917 0 200.82767295973917 172.96343763967707 0 0 0 0 -4.7138289071904182 122.0157268117855 0 122.0157268117855 280.15336929295881 0 0 0 0 -44.332510933558751 11.354044355343831 0 11.354044355343831 96.395860341291154 0 0 0 0 25.460342540351803 21.68116081961125 0 21.68116081961125 5.1328821841070749 0 0 0 0 -33.302155871304421 -32.85212754976601 0 -32.85212754976601 20.925054753921358 0 0 0 0 -3.5492300016868858 1.7610859775834591 0 1.7610859775834591 -0.60619337678202045 0 0 0 0 -1.8810085627873203 0.56300915536040286 0 0.56300915536040286 0.54698642196544789 0 0 0 0 -30.322509269133207 -13.250590579339587 0 -13.250590579339587 41.799285605531622 0 0 0 0 4.927752347229216 6.4580249449136318 0 6.4580249449136318 -0.58043485947655427 0 0 0 0 87.552344230778544 6.9006702135702653 0 6.9006702135702653 -122.76057450865119 0 0 0 0 -15.682676111893215 -1.3414220747076797 0 -1.3414220747076797 11.854652115948738 0 0 0 0 -10.01522404987454 1.535769626999997 0 1.535769626999997 2.2873886280002846 0 0 0 0 -44.721789535743483 -17.692618088944982 0 -17.692618088944982 8.6149142417991698 0 0 0 0 -9.7343098108472077 0.93899809113690935 0 0.93899809113690935 0.90309488993989362 0 0 0 0 -5.6643482514068637 -4.6964660891080712 0 -4.6964660891080712 18.300927996029031 0 0 0 0 0.096781085166360303 10.654493809527477 0 10.654493809527477 8.5643377610363984 0 0 0 0 -2.6762249992340701 0.0076415123403812402 0 0.0076415123403812402 -0.9322772611853587 0 0 0 0 -172.79380395073713 -3.835002208898004 0 -3.835002208898004 13.523820125449674 0 0 0 0 -109.32283613319623 -84.783781603762236 0 -84.783781603762236 38.750341164939528 0 0 0 0 -0.57769541258235435 -0.55903429556383699 0 -0.55903429556383699 0.18026786746615997 0 0 0 0 95.198233294527199 -98.920191996055109 0 -98.920191996055109 -118.39358240470983 0 0 0 0 -71.183265480347472 -19.075699648581576 0 -19.075699648581576 59.558409930128619 0 0 0 0 38.280701710014682 -33.201916075532154 0 -33.201916075532154 2.2749422753840918 0 0 0 0 -7.3761394585666267 7.4069539309393804 0 7.4069539309393804 93.566986880948207 0 0 0 0 1.5087585872385705 0.21478419262222737 0 0.21478419262222737 -0.024198628147848567 0 0 0 0 112.42394247559923 29.067639889382917 0 29.067639889382917 -83.893327146433876 0 0 0 0 63.315204081408751 16.255645050081512 0 16.255645050081512 -76.002320035226148 0 0 0 0 -55.063895096559008 38.23836371448715 0 38.23836371448715 22.903296685075475 0 0 0 0 -27.322427042325785 -47.038766120155742 0 -47.038766120155742 116.00512018049267 0 0 0 0 -64.561216255896795 78.425297257747843 0 78.425297257747843 -46.606363981711183 0 0 0 0 80.017727384073851 104.42786288621073 0 104.42786288621073 -11.203710170339036 0 0 0 0 -103.05105758352602 59.648356429925116 0 59.648356429925116 149.79713876257938 0 0 0 0 -147.89031992059108 46.320724645815062 0 46.320724645815062 -25.864958386329818 0 0 0 0 -0.25272355852619344 0.66769858525564985 0 0.66769858525564985 0.8044824724542412 0 0 0 0 -126.32677828740793 185.00392448397906 0 185.00392448397906 -195.51058383442705 0 0 0 0 -134.54268084863372 150.83716608029954 0 150.83716608029954 -47.157223898841039 0 0 0 0 21.602063728605913 13.678359204594017 0 13.678359204594017 -10.428681372130086 0 0 0 0 1.8339857966178985 0.72435758908723535 0 0.72435758908723535 -2.2466164742483059 0 0 0 0 1.6402162610177602 7.4217382557200011 0 7.4217382557200011 5.0922117991936968 0 0 0 0 -59.729224284950078 53.533673074465696 0 53.533673074465696 -26.768484775657271 0 0 0 0 -40.833651758086603 13.19424866526424 0 13.19424866526424 37.330459892877116 0 0 0 0 -68.927324256354609 49.68704317353604 0 49.68704317353604 58.587516082901857 0 0 0 0 -16.068952457775637 5.8583053780060768 0 5.8583053780060768 5.5428774002229417 0 0 0 0 -10.051383923787796 -23.229350907264688 0 -23.229350907264688 7.5208874838164661 0 0 0 0 -51.392400998284586 32.740666251929724 0 32.740666251929724 6.6880557209424296 0 0 0 0 -29.353743338548441 -0.97170031191626549 0 -0.97170031191626549 27.191358128344291 0 0 0 0 71.536093292454495 -8.7041015209024408 0 -8.7041015209024408 21.866976637820699 0 0 0 0 11.149352168445489 43.112084226637307 0 43.112084226637307 66.184018871456828 0 0 0 0 7.7070168695397001 27.937600300244412 0 27.937600300244412 26.401774696720167 0 0 0 0 -13.810766869438055 6.5356846361714815 0 6.5356846361714815 -9.6952120405285314 0 0 0 0 2.8432615603672389 27.490477439959022 0 27.490477439959022 -7.7765416222500789 0 0 0 0 4.2088774858957549 1.7254447702289326 0 1.7254447702289326 -6.8092614580818918 0 0 0 0 -16.621848741302529 -4.6422623606536035 0 -4.6422623606536035 -6.4980601209654196 0 0 0 0 0.13428334061973146 38.937906127709084 0 38.937906127709084 27.743199643860862 0 0 0 0 -34.550717256418466 15.797836785559866 0 15.797836785559866 61.971610235050321 0 0 0 0 -20.155149790565858 11.132784995706153 0 11.132784995706153 3.203284656006339 0 0 0 0 -33.953080017923952 5.595272691667347 0 5.595272691667347 15.592863228936949 0 0 0 0 118.67143995118477 -98.067259898461998 0 -98.067259898461998 290.98176493416258 0 0 0 0 43.532271368321744 40.911177706136186 0 40.911177706136186 38.953864683358915 0 0 0 0 -161.94472760939607 169.58767880690448 0 169.58767880690448 163.20012433257398 0 0 0 0 -13.722392659010438 -46.477367789957952 0 -46.477367789957952 -18.971952508029062 0 0 0 0 -15.511665381960938 -20.467118482309161 0 -20.467118482309161 78.221245929561519 0 0 0 0 0.48124316775645948 1.31142183254995 0 1.31142183254995 -0.5391040638234621 0 0 0 0 -2.5101070619812162 80.381559031437519 0 80.381559031437519 141.83933699851582 0 0 0 0 123.89441187955345 229.03467433386277 0 229.03467433386277 160.98420380828884 0 0 0 0 -40.783068370772071 95.921524760027296 0 95.921524760027296 167.85050924419738 0 0 0 0 54.042309431754802 266.54357813975639 0 266.54357813975639 450.70687017059709 0 0 0 0 150.03885603213803 154.88813501265349 0 154.88813501265349 35.396115155279404 0 0 0 0 9.4947354034418368 57.288579995484497 0 57.288579995484497 45.640900758045973 0 0 0 0 33.636480819997814 155.60833103325467 0 155.60833103325467 104.65608855867413 0 0 0 0 42.410885995336344 114.97414496553245 0 114.97414496553245 49.576868057200045 0 0 0 0 73.733101805793012 128.17191781312567 0 128.17191781312567 50.89049207316026 0 0 0 0 123.32159355969179 227.18800479906986 0 227.18800479906986 105.46737579058068 0 0 0 0 199.38476217854168 120.65079954202156 0 120.65079954202156 -38.86496251006821 0 0 0 0 138.76453724817929 272.81492599510761 0 272.81492599510761 -177.65189953520962 0 0 0 0 93.711051317558486 151.39203499997268 0 151.39203499997268 -44.510799329937981 0 0 0 0 98.002927557349722 128.64864556133125 0 128.64864556133125 -450.04506151601754 0 0 0 0 0.046831345392250867 -0.71926674175024452 0 -0.71926674175024452 -0.19145812351679226 0 0 0 0 70.679111583764097 179.02384561781946 0 179.02384561781946 283.71692603054544 0 0 0 0 -69.019038587130581 74.843042228076683 0 74.843042228076683 -128.36464563773688 0 0 0 0 1.8687525682412449 16.007722134342877 0 16.007722134342877 18.461701376840765 0 0 0 0 -27.358999688500717 32.177595841968014 0 32.177595841968014 36.484447308022936 0 0 0 0 -35.707296561030489 45.633615248909109 0 45.633615248909109 20.32591425247756 0 0 0 0 57.824471343902587 70.881417945919566 0 70.881417945919566 -5.9890062436472817 0 0 0 0 78.981199767571525 74.756076897990397 0 74.756076897990397 -5.8878711241802648 0 0 0 0 123.61270953749818 67.47313358608335 0 67.47313358608335 -38.662889210985213 0 0 0 0 -17.357182746813123 -39.774869923890606 0 -39.774869923890606 101.30713628837054 0 0 0 0 5.1974800966948909 7.4296773138607879 0 7.4296773138607879 12.945347843588584 0 0 0 0 -61.144202526117624 -18.458835410393846 0 -18.458835410393846 114.84159997035172 0 0 0 0 -16.353564279615512 -7.9119835198731217 0 -7.9119835198731217 82.584824897203418 0 0 0 0 451.78869589322312 34.585991697715542 0 34.585991697715542 -59.842740854655631 0 0 0 0 2.2372934411349288 2.7133760381046699 0 2.7133760381046699 3.9533944976739406 0 0 0 0 53.248395643255208 -199.9821290731818 0 -199.9821290731818 363.50267694937423 0 0 0 0 30.130660027688464 362.48672448990663 0 362.48672448990663 171.70284410833091 0 0 0 0 -104.12813097626486 7.9190273002253413 0 7.9190273002253413 124.24374216451021 0 0 0 0 -52.593683998995857 141.59851272344633 0 141.59851272344633 19.111773832521067 0 0 0 0 102.59551223855806 63.48576086125334 0 63.48576086125334 -36.915366309654075 0 0 0 0 -29.1644103271733 122.37064494245669 0 122.37064494245669 -116.9265276193014 0 0 0 0 108.22702515783203 141.18711658011114 0 141.18711658011114 322.14904813824239 0 0 0 0 258.03608211604535 -322.62721539520243 0 -322.62721539520243 54.260240196298639 0 0 0 0 -40.506532236410294 161.98613084960311 0 161.98613084960311 -53.950643749054223 0 0 0 0 -141.44302625057844 138.79669016403818 0 138.79669016403818 -9.3117479912918952 0 0 0 0 -71.867006174104972 93.970274409346757 0 93.970274409346757 -85.298099683439432 0 0 0 0 -72.219472220583015 61.574922317997334 0 61.574922317997334 -31.25713506071952 0 0 0 0 -65.904482983007256 139.57590633075688 0 139.57590633075688 -11.060322700425331 0 0 0 0 -148.25120030176501 74.188595486818201 0 74.188595486818201 13.817173973956869 0 0 0 0 -11.670775012780496 28.35077008208475 0 28.35077008208475 -33.72013611669081 0 0 0 0 -30.162922007342331 20.238029915491097 0 20.238029915491097 9.1272545584278078 0 0 0 0 -2.3104675630782499 -0.79425599496294041 0 -0.79425599496294041 -0.3507048450283119 0 0 0 0 -58.649528895039907 -7.3017724567575897 0 -7.3017724567575897 80.827756747428339 0 0 0 0 -8.1026220794717574 15.427039717915363 0 15.427039717915363 28.715335517172235 0 0 0 0 1.9609708687538896 8.3213363624225547 0 8.3213363624225547 6.1156555446174909 0 0 0 0 -6.9001647392983765 0.53440773129620145 0 0.53440773129620145 1.9719893950286573 0 0 0 0 -8.2640015913757452 39.134252379683389 0 39.134252379683389 -76.413785404597363 0 0 0 0 0.15778097486497444 1.9297870086166937 0 1.9297870086166937 -0.55113776889533472 0 0 0 0 3.3885798890747569 8.3657285742653738 0 8.3657285742653738 -1.1756980462700506 0 0 0 0 10.792123179075134 10.314595020100796 0 10.314595020100796 -4.6118770337673141 0 0 0 0 6.93112996846898 25.194364665253715 0 25.194364665253715 -16.813921184191713 0 0 0 0 5.746016807415117 24.859919596974578 0 24.859919596974578 3.9932420294512667 0 0 0 0 1.2923009455995498 8.0208189671759555 0 8.0208189671759555 -7.1844766088873939 0 0 0 0 5.7951236099012817 13.352862823289911 0 13.352862823289911 -5.4265155691191467 0 0 0 0 3.3341046604182338 6.6930679478941784 0 6.6930679478941784 -3.7401407474343955 0 0 0 0 5.4756049379062617 4.1940630017098766 0 4.1940630017098766 -0.39414682997999972 0 0 0 0 0.71129821757313039 13.073524685411371 0 13.073524685411371 -4.2445352819033815 0 0 0 0 2.9948474151506161 9.8431957836905895 0 9.8431957836905895 -5.44998765734681 0 0 0 0 2.035835523893013 8.1357439602569457 0 8.1357439602569457 0.31997744643376791 0 0 0 0 2.1532040205248872 5.1845749891274995 0 5.1845749891274995 -0.64676323450141027 0 0 0 0 -1.5367495742194208 6.3722165306659093 0 6.3722165306659093 3.8583157952514711 0 0 0 0 3.103327066694419 5.6765728254249552 0 5.6765728254249552 2.045321762493586 0 0 0 0 2.1618521412983682 7.5434568573259639 0 7.5434568573259639 1.3272760636691601 0 0 0 0 2.6935067110135833 8.6665097551397139 0 8.6665097551397139 2.6525668839121863 0 0 0 0 -3.4182566557057967 5.256467884131963 0 5.256467884131963 0.065504372441850478 0 0 0 0 -29.110676483868701 -13.082233409386845 0 -13.082233409386845 20.211076288856702 0 0 0 0 -3.9550979670357758 1.7879730580940101 0 1.7879730580940101 2.8628374406392307 0 0 0 0 92.803287391043796 123.33887379107 0 123.33887379107 81.476384954064997 0 0 0 0 86.067423059242628 3.1034914086344543 0 3.1034914086344543 6.6457208662354788 0 0 0 0 78.351496532387273 45.345994933632028 0 45.345994933632028 13.707844412062514 0 0 0 0 -0.93255446065174219 0.15685740900284806 0 0.15685740900284806 0.61674496202508955 0 0 0 0 -25.141790666411907 64.005290192354551 0 64.005290192354551 -152.55428216762357 0 0 0 0 -46.004565099389083 111.64215236133441 0 111.64215236133441 -111.69493450333539 0 0 0 0 -1.4813094645630853 0.89031924818699948 0 0.89031924818699948 2.2750038204720084 0 0 0 0 -11.061992187477699 13.674793135925484 0 13.674793135925484 -16.774183374759104 0 0 0 0 21.119783784983156 13.041535463662512 0 13.041535463662512 -92.138378771278894 0 0 0 0 2.3044792038769586 2.2713357508088592 0 2.2713357508088592 0.30621357663103166 0 0 0 0 2.2630719711803522 5.6501388654389757 0 5.6501388654389757 4.0268413177400362 0 0 0 0 4.252141036618923 8.8377680876369595 0 8.8377680876369595 2.356323068936149 0 0 0 0 9.2573614501297925 53.937723560652557 0 53.937723560652557 -50.114070387060337 0 0 0 0 -0.021722524965298362 34.456856011809577 0 34.456856011809577 15.990052254730585 0 0 0 0 127.45730079092755 -24.586198663888808 0 -24.586198663888808 -21.293648212627545 0 0 0 0 -10.570904804128077 66.436389424680556 0 66.436389424680556 -48.884295771946199 0 0 0 0 42.698744086934312 126.66904640652911 0 126.66904640652911 -109.12031209253382 0 0 0 0 -116.28556834224219 187.47754583554172 0 187.47754583554172 -70.895354086406314 0 0 0 0 -62.982776019700395 83.670732109144183 0 83.670732109144183 -35.728277071072696 0 0 0 0 2.2959541474738216 82.254340996461906 0 82.254340996461906 -35.870299979187166 0 0 0 0 -82.276066947525578 47.165324210700135 0 47.165324210700135 -39.477571965891229 0 0 0 0 -22.992203221758245 48.3622706221405 0 48.3622706221405 -40.308980627066376 0 0 0 0 -22.945901967061218 35.049177823858031 0 35.049177823858031 -16.380670638540778 0 0 0 0 -77.268214348592664 74.460075236003604 0 74.460075236003604 -26.532041254586602 0 0 0 0 -2.812732245598454 2.8514552221279246 0 2.8514552221279246 -73.88978212451525 0 0 0 0 -0.82458081720278642 0.30720444613945297 0 0.30720444613945297 -0.00891033475483205 0 0 0 0 -50.208132574871343 76.869226260614028 0 76.869226260614028 -80.511466462845419 0 0 0 0 -0.40005760842177551 -13.989425026057802 0 -13.989425026057802 -12.372585089492532 0 0 0 0 -61.104897605520819 74.256192677188324 0 74.256192677188324 -43.523835396435175 0 0 0 0 -6.4055181574531161 35.225188493833571 0 35.225188493833571 -81.706765299803806 0 0 0 0 0.027558768946619239 37.025613959136649 0 37.025613959136649 -48.19116095977347 0 0 0 0 -0.005146864112248295 33.548026158680898 0 33.548026158680898 -49.599564315558268 0 0 0 0 -6.6436841370662023 35.613308406960499 0 35.613308406960499 -48.485547550559659 0 0 0 0 -20.064155023168496 44.290717301770655 0 44.290717301770655 -33.571030531282872 0 0 0 0 -18.811826192383592 33.459265054630066 0 33.459265054630066 -16.817357469047693 0 0 0 0 -0.013219687243690714 24.744023230463853 0 24.744023230463853 -21.818408023154035 0 0 0 0 -18.2267395572635 25.328421661859949 0 25.328421661859949 -6.2898996311338351 0 0 0 0 -5.7315051832483732 20.983200823971799 0 20.983200823971799 -6.7214480148945199 0 0 0 0 -0.009164006064549304 14.845652132155697 0 14.845652132155697 -0.85289483045121983 0 0 0 0 6.6094471615197108 8.0096524555175392 0 8.0096524555175392 6.4282150549408641 0 0 0 0 -7.1412697130315337 11.554516225427417 0 11.554516225427417 15.55187847390215 0 0 0 0 -13.236386712613239 16.591202522821732 0 16.591202522821732 6.5096510442146922 0 0 0 0 -4.8212621143820797 10.417306914223985 0 10.417306914223985 7.9964816736382431 0 0 0 0 -6.2706464928451169 15.668516114375137 0 15.668516114375137 -3.0862719798460603 0 0 0 0 -20.673845575423911 10.788111962361313 0 10.788111962361313 -4.6160566998412378 0 0 0 0 2.5782853323853487 0.87496329479961332 0 0.87496329479961332 -24.656269261731723 0 0 0 0 -0.47475225477825234 0.069164984188752499 0 0.069164984188752499 0.33787969558917363 0 0 0 0 9.7476951564967749 16.779926740603287 0 16.779926740603287 2.8450575242961804 0 0 0 0 -22.907634364124533 7.5994732846521629 0 7.5994732846521629 8.4954129553575513 0 0 0 0 -5.3450570934492134 33.687402811389802 0 33.687402811389802 6.0804850335437095 0 0 0 0 -0.52353315219821184 -0.11212262849506516 0 -0.11212262849506516 0.43398084545080495 0 0 0 0 -11.951609212787844 17.354826078960798 0 17.354826078960798 -3.7404923447850251 0 0 0 0 -37.969991697624209 33.164145169077642 0 33.164145169077642 -9.4387267581443552 0 0 0 0 -36.567517229982855 3.8282601913374137 0 3.8282601913374137 10.514164113493734 0 0 0 0 22.734845984164167 18.996745488140675 0 18.996745488140675 -12.594190197130047 0 0 0 0 -64.590445928989197 22.452309392371784 0 22.452309392371784 19.416131599768505 0 0 0 0 -18.338822956669901 -4.1364274500263036 0 -4.1364274500263036 12.885971878491318 0 0 0 0 2.303834764934436 -2.4946557472885615 0 -2.4946557472885615 -6.4250612023874965 0 0 0 0 -1.2304084827449415 1.0813805414787403 0 1.0813805414787403 -0.34808891825924748 0 0 0 0 2.1936380905372062 0.34833507895950788 0 0.34833507895950788 -1.7996433041662385 0 0 0 0 -0.4304651093641354 0.51814097612042787 0 0.51814097612042787 0.59868836410362736 0 0 0 0 -5.4092979478318739 5.2048147513044114 0 5.2048147513044114 6.2372458511513287 0 0 0 0 18.302581493764592 6.2890234601539987 0 6.2890234601539987 -5.6232811589684388 0 0 0 0 14.249644702420483 1.5915103619386173 0 1.5915103619386173 -11.32436595015588 0 0 0 0 15.669947149261134 6.6205725834563509 0 6.6205725834563509 -5.4374834617365195 0 0 0 0 11.309779763134429 1.9726982378460889 0 1.9726982378460889 -5.8727026005169307 0 0 0 0 7.1375872963762959 5.6729098355236829 0 5.6729098355236829 0.50896598876988719 0 0 0 0 13.876937376669048 7.6439735503897168 0 7.6439735503897168 -0.20556222180630357 0 0 0 0 11.677071541867917 2.832076138804041 0 2.832076138804041 0.69703881725990868 0 0 0 0 11.056528172593971 3.9232741988527096 0 3.9232741988527096 -1.1403419684332334 0 0 0 0 -1.8007409259615841 2.1520346606440484 0 2.1520346606440484 0.73100260209999846 0 0 0 0 2.82161540669685 0.98876743908697762 0 0.98876743908697762 -1.2896315934289433 0 0 0 0 13.071915089559297 5.128356794581606 0 5.128356794581606 -4.4900810358201966 0 0 0 0 -3.03457688447088 -7.5136840078397427 0 -7.5136840078397427 -1.1872866626692939 0 0 0 0 7.4768831167275493 16.538443602749567 0 16.538443602749567 8.916332461613024 0 0 0 0 1.3229460672755522 -4.424127127797675 0 -4.424127127797675 18.527697361397585 0 0 0 0 11.266973307361695 13.434475527521869 0 13.434475527521869 -0.50752818873911565 0 0 0 0 5.012866892193415 6.4907716348388362 0 6.4907716348388362 2.917269544669125 0 0 0 0 0.36360601958588035 0.4379613656179373 0 0.4379613656179373 0.39770360509983549 0 0 0 0 3.5800277648119234 2.8297154085007712 0 2.8297154085007712 -1.0652410811260282 0 0 0 0 5.6895247125394235 5.5241751648111403 0 5.5241751648111403 1.1303585786880603 0 0 0 0 4.2270644132004236 5.5369846271195797 0 5.5369846271195797 7.980704668841291 0 0 0 0 9.7653379212806612 6.4073305231187874 0 6.4073305231187874 0.21376291139651471 0 0 0 0 5.7777450512185169 5.6284221789204594 0 5.6284221789204594 1.1978247747711066 0 0 0 0 -0.64609527935175493 3.0795999183401683 0 3.0795999183401683 0.6819889370724741 0 0 0 0 3.1163781361149177 5.9432053222373709 0 5.9432053222373709 2.1955358530931903 0 0 0 0 7.7644016750618903 15.12586642231804 0 15.12586642231804 14.287964487548592 0 0 0 0 2.4719988257259047 -3.934591871124594 0 -3.934591871124594 -5.6808735226265981 0 0 0 0 -0.65207714269055828 0.2132279797960841 0 0.2132279797960841 0.15883712171650566 0 0 0 0 10.60175846283164 5.8431178748665502 0 5.8431178748665502 -8.9171570900475672 0 0 0 0 16.297944587870006 10.911601144156791 0 10.911601144156791 -11.870220621727441 0 0 0 0 10.677053800652857 14.598006411998849 0 14.598006411998849 5.2276283089693152 0 0 0 0 8.2350934003870861 14.701594000561094 0 14.701594000561094 5.2238380825992863 0 0 0 0 9.6214596815116238 -0.36643356028403673 0 -0.36643356028403673 -11.583973215063068 0 0 0 0 2.7187268452180433 11.199027620951597 0 11.199027620951597 9.3028835597646946 0 0 0 0 7.9841737174538139 15.197131926315286 0 15.197131926315286 8.2034582435489369 0 0 0 0 0.30475743165265357 0.78536876582208137 0 0.78536876582208137 0.76217818998885978 0 0 0 0 0.47569516067960649 1.4175318735304927 0 1.4175318735304927 5.4583560101116575 0 0 0 0 -2.4645748021379887 4.242315603289164 0 4.242315603289164 1.2496996340182907 0 0 0 0 8.3523445714408808 13.534961302692949 0 13.534961302692949 2.668601751507822 0 0 0 0 2.0173233550027163 1.3425838544191731 0 1.3425838544191731 0.24003409899430661 0 0 0 0 1.0549352154174325 4.4002968173621184 0 4.4002968173621184 1.1253307328866198 0 0 0 0 13.106703272100276 2.8378860126098289 0 2.8378860126098289 -1.439571995271649 0 0 0 0 6.8989442678321211 10.929044978568754 0 10.929044978568754 3.1142305023236077 0 0 0 0 10.324398391545401 9.63466020293572 0 9.63466020293572 3.182264458060942 0 0 0 0 11.988537426161201 12.787723838658394 0 12.787723838658394 1.2166231422202145 0 0 0 0 3.6271519023695262 6.1396611774212531 0 6.1396611774212531 -6.5443986866129729 0 0 0 0 13.85971201344455 15.728506672266242 0 15.728506672266242 2.8630429509172473 0 0 0 0 9.5873591452473192 11.065700258833658 0 11.065700258833658 0.43637907323750369 0 0 0 0 10.384443955572351 12.614862405033477 0 12.614862405033477 2.4401835962800078 0 0 0 0 12.81296628923883 10.339665357130571 0 10.339665357130571 0.44031925513809256 0 0 0 0 39.96899443469556 45.982411415925071 0 45.982411415925071 38.200456631770976 0 0 0 0 -0.17242383771601055 1.8249536159751756 0 1.8249536159751756 -6.6858305259418014 0 0 0 0 0.01436700324590949 5.7443743035502486 0 5.7443743035502486 1.0570296135755726 0 0 0 0 9.1709751905291341 8.3527720384453232 0 8.3527720384453232 1.8660048136162004 0 0 0 0 11.072647391158171 7.900133375823998 0 7.900133375823998 -0.63628681104592033 0 0 0 0 -0.40285219769557301 6.3210928853343979 0 6.3210928853343979 -0.89050648891330741 0 0 0 0 15.349936909253302 6.8273146691735747 0 6.8273146691735747 -0.96514460745333963 0 0 0 0 74.948668424639209 77.199465903592483 0 77.199465903592483 27.978630233708827 0 0 0 0 77.577964703403268 61.045359827838638 0 61.045359827838638 -45.054425453350632 0 0 0 0 2.3712088562327516 0.58099372421984796 0 0.58099372421984796 -4.9666962004402677 0 0 0 0 22.874416258989186 17.331269908567378 0 17.331269908567378 32.777606335665496 0 0 0 0 1.729458474637795 16.024084846075766 0 16.024084846075766 50.24047107581714 0 0 0 0 -22.091099396875506 24.988421418768667 0 24.988421418768667 5.4322021286483277 0 0 0 0 -0.29758655159275804 61.573679999604906 0 61.573679999604906 -53.036385273915585 0 0 0 0 -0.19276396909985749 -0.11128374096862359 0 -0.11128374096862359 -0.065959896796513817 0 0 0 0 7.1786889382019581 28.852100372569225 0 28.852100372569225 55.339384984408753 0 0 0 0 -1.2787947386241285 18.276473981477011 0 18.276473981477011 4.0551669967780981 0 0 0 0 15.138815473619616 12.689253052954427 0 12.689253052954427 -4.7556521002006775 0 0 0 0 1.3699946127708245 6.692483505536984 0 6.692483505536984 -0.82746941048571898 0 0 0 0 -19.451566471467231 12.732313697633344 0 12.732313697633344 6.6852206108678729 0 0 0 0 15.339974264499688 18.048461805693478 0 18.048461805693478 19.057437365891474 0 0 0 0 66.893891024781624 28.265434677712619 0 28.265434677712619 -0.73992344480666361 0 0 0 0 73.883143111315803 18.403833071340159 0 18.403833071340159 11.02141453549666 0 0 0 0 49.221278092194552 29.204357192944826 0 29.204357192944826 45.027480964215101 0 0 0 0 39.0724740101723 48.792415442819674 0 48.792415442819674 11.975300866276029 0 0 0 0 166.50640059258876 67.652311101407577 0 67.652311101407577 16.161829299720921 0 0 0 0 -0.057989498354856839 2.1365801575649463 0 2.1365801575649463 0.092437990460618735 0 0 0 0 -1.492186742984245 4.3912545029257792 0 4.3912545029257792 -4.8591167341483903 0 0 0 0 27.101501235661999 8.3806126359970676 0 8.3806126359970676 -19.477153392571381 0 0 0 0 28.456349199932447 20.134753004201684 0 20.134753004201684 -5.2185295331911448 0 0 0 0 73.505088151939475 69.162005260059459 0 69.162005260059459 48.728399596229792 0 0 0 0 15.719064810531563 5.8777332528638908 0 5.8777332528638908 -2.3850916663327553 0 0 0 0 10.80548505835759 5.812254894921125 0 5.812254894921125 -5.3015361886837127 0 0 0 0 -2.4377462506854499 -1.2449041612053406 0 -1.2449041612053406 -6.0887724977920357 0 0 0 0 -2.0335856445562968 -1.2907552725826008 0 -1.2907552725826008 -38.6006722013135 0 0 0 0 10.293324839480192 0.85528923356628184 0 0.85528923356628184 -25.930743715970038 0 0 0 0 -11.577079182945454 17.984433704391449 0 17.984433704391449 -10.577974598738592 0 0 0 0 -13.434003181602748 32.071537549329832 0 32.071537549329832 -41.492649747929022 0 0 0 0 6.6692399805197056 4.8019194383987269 0 4.8019194383987269 -2.6843864453849164 0 0 0 0 -6.8821993265537458 40.448785027354234 0 40.448785027354234 -0.64979291011194107 0 0 0 0 -2.1130881896608678 2.7939938734474481 0 2.7939938734474481 -3.3021552078111114 0 0 0 0 46.581969061497148 29.92279017247597 0 29.92279017247597 23.129583178700329 0 0 0 0 93.149715712302168 66.713248019497087 0 66.713248019497087 29.705633354607926 0 0 0 0 46.362439654543778 20.474729963894788 0 20.474729963894788 9.6198024926594599 0 0 0 0 80.996730952361759 67.565268007946315 0 67.565268007946315 16.362713440622883 0 0 0 0 -0.80967930937550037 1.0547475400290942 0 1.0547475400290942 -1.229567347751356 0 0 0 0 -227.59049806909934 48.477945469583574 0 48.477945469583574 14.91000889975308 0 0 0 0 -26.928076152400536 18.9971166350266 0 18.9971166350266 12.907813206672472 0 0 0 0 79.774021420522331 79.956889502757804 0 79.956889502757804 -89.764456586391134 0 0 0 0 39.776590489524096 42.552365296705602 0 42.552365296705602 -40.099666235311815 0 0 0 0 30.036803068542213 5.2560012932013365 0 5.2560012932013365 -6.6685445904522567 0 0 0 0 17.548255574682116 21.16603334620595 0 21.16603334620595 -26.878994461523632 0 0 0 0 -4.8719686979202379 31.420856300167543 0 31.420856300167543 -27.716127512433332 0 0 0 0 2.4468841401467216 15.950566976344589 0 15.950566976344589 -20.587101129754046 0 0 0 0 -2.5000096825533547 12.52615995088172 0 12.52615995088172 -9.0804725939979107 0 0 0 0 -7.7342477334059367 14.786142801579899 0 14.786142801579899 -6.4746431632129315 0 0 0 0 6.6047916097195412 7.752286927328214 0 7.752286927328214 -7.4317985753605171 0 0 0 0 11.763547459036999 17.219727329109674 0 17.219727329109674 -2.0138343918551982 0 0 0 0 -10.796029568951781 7.785853928108736 0 7.785853928108736 6.6258278239206447 0 0 0 0 4.2257097225410689 6.5103607841374469 0 6.5103607841374469 -1.3340630152215454 0 0 0 0 8.6929601189258392 17.563299618043402 0 17.563299618043402 9.8909575043721816 0 0 0 0 52.152076717383352 24.221145359390675 0 24.221145359390675 0.58661995556940383 0 0 0 0 -18.534215456202219 23.228647723515223 0 23.228647723515223 2.6285627550992103 0 0 0 0 -20.278032066935339 20.834802554904854 0 20.834802554904854 0.61677532498106302 0 0 0 0 -12.23760837334703 16.582136066751673 0 16.582136066751673 3.959572427393141 0 0 0 0 -6.2285493488343491 17.936075021072611 0 17.936075021072611 0.50313346223742883 0 0 0 0 -15.643631595601619 16.242109601430911 0 16.242109601430911 2.8891482210131016 0 0 0 0 -8.4165026942355325 14.341478069680306 0 14.341478069680306 -0.63717436086244561 0 0 0 0 -14.968975102884542 16.483881779075546 0 16.483881779075546 1.4360474769418943 0 0 0 0 -12.306169326753661 19.815090391348576 0 19.815090391348576 -8.1451665668646456 0 0 0 0 -11.840966370038586 21.82795182979055 0 21.82795182979055 0.55526711240145232 0 0 0 0 -4.1357436735997908 15.697329714027092 0 15.697329714027092 -14.529318466026325 0 0 0 0 -18.522206002115126 29.761996116058071 0 29.761996116058071 -8.5280838008270621 0 0 0 0 -26.292569824610837 22.985773586455252 0 22.985773586455252 6.0728492809666932 0 0 0 0 -20.055396176668182 16.599647510271097 0 16.599647510271097 11.250777181939156 0 0 0 0 4.2589896661356761 -12.05046825385466 0 -12.05046825385466 13.989829522267883 0 0 0 0 -27.551082686852169 4.7164958520588698 0 4.7164958520588698 10.368940078345076 0 0 0 0 0.07449233328588889 5.0690556866197767 0 5.0690556866197767 4.4018682450068809 0 0 0 0 2.4803353720413064 0.42936547534050717 0 0.42936547534050717 0.12899339455579906 0 0 0 0 47.875223745455514 26.976167672149472 0 26.976167672149472 17.637589991587902 0 0 0 0 41.145815291587496 17.067211634309388 0 17.067211634309388 8.4209561240440962 0 0 0 0 15.841875139874901 1.9009255764137833 0 1.9009255764137833 0.89893005206408816 0 0 0 0 -1.5114088371112331 -0.23791081650471924 0 -0.23791081650471924 0.65422875319098495 0 0 0 0 -0.093600436386623187 3.7191249992042685 0 3.7191249992042685 2.8523137388724535 0 0 0 0 -1.3506771676155935 5.5499120408260971 0 5.5499120408260971 1.4329776828414946 0 0 0 0 7.7633753104637435 4.6307347289357494 0 4.6307347289357494 1.6142477656844676 0 0 0 0 5.3163752580958317 4.2347075391137423 0 4.2347075391137423 1.21298099477508 0 0 0 0 1.9860509744521675 2.3915972518245141 0 2.3915972518245141 0.93721705117170018 0 0 0 0 2.4831096504698671 3.615515073705776 0 3.615515073705776 2.0897462730503715 0 0 0 0 7.0112455968501308 2.6446676117266179 0 2.6446676117266179 1.3664944859874595 0 0 0 0 8.8558676025877503 3.1159532130493517 0 3.1159532130493517 2.7674268379810201 0 0 0 0 6.2571476686734968 12.897032824364942 0 12.897032824364942 -0.56011997911127764 0 0 0 0 -11.121397818991682 17.150626189777995 0 17.150626189777995 2.571819059329755 0 0 0 0 -4.582569691738172 6.1458135950615542 0 6.1458135950615542 4.3628966868109273 0 0 0 0 2.9393511697653594 8.4993123764797929 0 8.4993123764797929 -0.35509092873235204 0 0 0 0 -4.751134699828981 19.263848419213446 0 19.263848419213446 -1.3973830222694232 0 0 0 0 5.6864244632807939 4.4823127059119088 0 4.4823127059119088 1.8792638448055321 0 0 0 0 2.9598632000297584 4.7407861845179013 0 4.7407861845179013 1.1707479373048955 0 0 0 0 9.1553066608939844 8.2376778194767439 0 8.2376778194767439 2.5475710898365378 0 0 0 0 5.7738807787422175 4.1896550084609743 0 4.1896550084609743 1.9023057760284394 0 0 0 0 9.1289288846746786 7.9026956914607354 0 7.9026956914607354 3.5301534277872406 0 0 0 0 6.687047328431861 5.7529459610877467 0 5.7529459610877467 2.6926286980741425 0 0 0 0 6.7214780629237794 7.6378287153908104 0 7.6378287153908104 3.5074113557781033 0 0 0 0 2.9626139116635386 7.0828926993665391 0 7.0828926993665391 4.3286726935061779 0 0 0 0 7.8692887708511989 7.6932252981823694 0 7.6932252981823694 3.169881402156193 0 0 0 0 5.8574861873602373 5.2466530089786083 0 5.2466530089786083 3.2652824840146359 0 0 0 0 0.074945065633073682 5.6834786397571406 0 5.6834786397571406 3.9714723747833887 0 0 0 0 14.306151054970542 15.696557080446382 0 15.696557080446382 -22.860301888786125 0 0 0 0 -24.679427074517662 33.102116057363673 0 33.102116057363673 -8.8677795779076405 0 0 0 0 -17.716750102546939 18.162934272456823 0 18.162934272456823 -15.843740688119397 0 0 0 0 -32.752277696858073 14.466046574975735 0 14.466046574975735 2.8123819808274675 0 0 0 0 0.4688803534550523 0.82318682053929848 0 0.82318682053929848 0.36875418599672294 0 0 0 0 -41.441993712214753 34.998188550060149 0 34.998188550060149 -6.4414185240957522 0 0 0 0 -26.32327986895325 38.389429425876187 0 38.389429425876187 -15.218794208481995 0 0 0 0 -51.606298452752526 25.564447894955947 0 25.564447894955947 -10.690159462872543 0 0 0 0 -1.4707574822742799 0.33260833806115286 0 0.33260833806115286 1.1462350224368008 0 0 0 0 -34.889474710693321 30.921646968697132 0 30.921646968697132 -17.015243183030179 0 0 0 0 -2.742034075097763 7.552890363957431 0 7.552890363957431 11.98837881528334 0 0 0 0 -3.710943058866178 2.1912479475834061 0 2.1912479475834061 20.030597561303239 0 0 0 0 2.1293233033942442 3.6059370325973887 0 3.6059370325973887 15.184787138935462 0 0 0 0 0.71035905378534636 5.558693369671218 0 5.558693369671218 6.2954418559067049 0 0 0 0 -6.1884267496488974 4.2803744469906633 0 4.2803744469906633 18.300619566034129 0 0 0 0 3.8006817244205493 6.0404965001977438 0 6.0404965001977438 6.0762669259276265 0 0 0 0 3.1330481527214271 2.5948818937931968 0 2.5948818937931968 1.800293172887907 0 0 0 0 19.935688582051625 23.215491970209456 0 23.215491970209456 8.4080983395847397 0 0 0 0 8.9383427782884688 12.756388954737721 0 12.756388954737721 12.217029043947054 0 0 0 0 -7.2817672018081794 27.417674635749108 0 27.417674635749108 22.214608878553264 0 0 0 0 15.39309206924645 13.487486598032206 0 13.487486598032206 10.226370040405072 0 0 0 0 18.427232030966479 36.817827405015123 0 36.817827405015123 13.455392210527719 0 0 0 0 -3.8621656749910471 22.105291594482765 0 22.105291594482765 16.682227972034298 0 0 0 0 10.11321755038302 15.235368871798347 0 15.235368871798347 12.425566725764419 0 0 0 0 22.693302884049444 10.601219537568824 0 10.601219537568824 7.9431058376782744 0 0 0 0 15.561318595470667 16.517358102437804 0 16.517358102437804 6.3334631083941986 0 0 0 0 15.879909389399586 26.641584983256415 0 26.641584983256415 23.3533296370274 0 0 0 0 11.023868119325925 15.054172121177828 0 15.054172121177828 17.613665533204312 0 0 0 0 8.9007002168591498 9.9634719340535867 0 9.9634719340535867 8.9810851354179704 0 0 0 0 15.418784671810499 13.50084774456684 0 13.50084774456684 6.6426030578222708 0 0 0 0 7.1787501450437503 10.359139537962847 0 10.359139537962847 9.2638969408192224 0 0 0 0 7.4037399905517987 11.304147119043538 0 11.304147119043538 7.4845715326747113 0 0 0 0 0.97207367816478296 6.0987950649431859 0 6.0987950649431859 -2.2647177813742552 0 0 0 0 -1.8525569639587047 59.618556204089145 0 59.618556204089145 11.038085083621809 0 0 0 0 4.5902114609179989 18.849216137981159 0 18.849216137981159 14.231610952443532 0 0 0 0 12.074627728850828 19.321904966212173 0 19.321904966212173 12.706366266781288 0 0 0 0 53.797467182479522 29.736659026892482 0 29.736659026892482 7.5146165251143202 0 0 0 0 -0.52941488644909285 0.3020151306385177 0 0.3020151306385177 0.378329201836761 0 0 0 0 -13.303544736627828 4.6915556431240759 0 4.6915556431240759 8.2414622717793691 0 0 0 0 6.2091357726008027 12.79140635955001 0 12.79140635955001 11.109836596352125 0 0 0 0 7.3039495564966046 12.948572760425066 0 12.948572760425066 5.6227072369330813 0 0 0 0 6.8021866538492759 9.9809172317504746 0 9.9809172317504746 5.8816504225702602 0 0 0 0 4.6126868002465926 11.63866963860562 0 11.63866963860562 5.2490308214130774 0 0 0 0 2.0139138616623313 9.5047262003515129 0 9.5047262003515129 7.9171606839449709 0 0 0 0 4.946589339187085 7.2200243241533144 0 7.2200243241533144 7.0511043005082001 0 0 0 0 4.1251835020811995 8.6867410791827808 0 8.6867410791827808 8.2229662355580899 0 0 0 0 5.0723174736031069 9.9375110989708695 0 9.9375110989708695 6.0029078520389874 0 0 0 0 8.8652116839730297 9.3706779048086162 0 9.3706779048086162 4.799526050748824 0 0 0 0 8.8638372761408206 9.8471219487683435 0 9.8471219487683435 3.8317095162833539 0 0 0 0 14.056301263386558 11.407615846582729 0 11.407615846582729 3.9000661142083288 0 0 0 0 13.391711840342396 9.2735682092555294 0 9.2735682092555294 2.4495511206831964 0 0 0 0 15.109934580459594 8.7648505505381706 0 8.7648505505381706 2.5760138886482196 0 0 0 0 -71.507690214778449 -10.772308999159634 0 -10.772308999159634 44.124012665083683 0 0 0 0 -43.383053125844981 20.734297040715603 0 20.734297040715603 35.759818949396504 0 0 0 0 -22.754530009853625 -20.105348737000838 0 -20.105348737000838 -28.943612169168887 0 0 0 0 -0.71142383860847325 1.7406619151657416 0 1.7406619151657416 -1.2669020553801846 0 0 0 0 -11.69817662501373 -30.554197014514344 0 -30.554197014514344 -23.337521725291772 0 0 0 0 -3.0736836643545757 -5.314823026217832 0 -5.314823026217832 -1.426144658232289 0 0 0 0 19.110020073665055 11.391802144939632 0 11.391802144939632 1.4540164216074913 0 0 0 0 15.45479743510532 14.565178816354489 0 14.565178816354489 6.8178808547954759 0 0 0 0 15.315609997724096 13.441551540970181 0 13.441551540970181 4.1448628932991483 0 0 0 0 0.089468065677838382 0.22736355176987288 0 0.22736355176987288 0.24298847777268473 0 0 0 0 30.595257581965598 0.78476637332187238 0 0.78476637332187238 -29.207762312626642 0 0 0 0 27.238042124584354 14.549803104776288 0 14.549803104776288 3.4427935778021492 0 0 0 0 -0.97960715467104365 1.7724778814407927 0 1.7724778814407927 -1.4760333992301056 0 0 0 0 60.583462433969544 16.863604698713971 0 16.863604698713971 -8.2653704065160127 0 0 0 0 23.952904909283461 10.50361340418408 0 10.50361340418408 1.6144187355519648 0 0 0 0 26.199642100077199 13.614212016322668 0 13.614212016322668 5.4079811114781933 0 0 0 0 40.365135183867096 15.117871072895014 0 15.117871072895014 5.1186259242768983 0 0 0 0 23.822707108873146 18.112407972776452 0 18.112407972776452 12.555584335160347 0 0 0 0 13.474332100882748 15.768055062796009 0 15.768055062796009 12.209750740000345 0 0 0 0 13.480334712398871 15.799208745582575 0 15.799208745582575 11.819958854844572 0 0 0 0 25.547843221000676 17.554480218959426 0 17.554480218959426 7.5487700483095068 0 0 0 0 -72.176842964188836 9.0536459974450167 0 9.0536459974450167 -25.594509311061387 0 0 0 0 -57.359040107780856 39.172361586889707 0 39.172361586889707 6.983849158226576 0 0 0 0 -0.85065769629305166 1.6484706094463029 0 1.6484706094463029 -1.0609006830221146 0 0 0 0 46.920685517048696 25.237309849284998 0 25.237309849284998 6.6132492854194425 0 0 0 0 -34.205051563542838 41.374672688876558 0 41.374672688876558 -27.533892106721396 0 0 0 0 -38.22368559105962 6.6418433231862082 0 6.6418433231862082 31.413271274733347 0 0 0 0 65.470472694189539 -0.69675112642293868 0 -0.69675112642293868 -9.576373358255978 0 0 0 0 0.21104670331260422 -3.2965210592491871 0 -3.2965210592491871 -40.219428307839905 0 0 0 0 1.2385802955977852 -9.7555449852608547 0 -9.7555449852608547 -1.4616107105121472 0 0 0 0 5.8598442138209066 -9.2211374642509583 0 -9.2211374642509583 -4.1561683783071715 0 0 0 0 6.1742658344173833 -10.613466503294219 0 -10.613466503294219 -41.35689733926543 0 0 0 0 -28.177861842192215 -10.98143172213944 0 -10.98143172213944 -20.054433934392371 0 0 0 0 0.2997916809410599 0.85638251808302002 0 0.85638251808302002 -1.0360725845275187 0 0 0 0 -63.348494330189624 60.891595340661048 0 60.891595340661048 -72.963918189984369 0 0 0 0 -187.74052609481532 49.859553024014474 0 49.859553024014474 4.4743443784811205 0 0 0 0 2.7821734608078259 5.52385858018053 0 5.52385858018053 -85.38498257550566 0 0 0 0 31.633666178699059 -59.040531800347082 0 -59.040531800347082 -36.202578750538464 0 0 0 0 -10.199813770279434 -6.2581628796099977 0 -6.2581628796099977 24.931379515994365 0 0 0 0 -38.634035481683895 -33.425908121968689 0 -33.425908121968689 68.644731993211451 0 0 0 0 -13.570714299206884 -34.29358312739609 0 -34.29358312739609 2.5729214807229823 0 0 0 0 -0.304264724530249 -0.35426492404780607 0 -0.35426492404780607 0.05655224860267484 0 0 0 0 49.990709416038953 14.22635864457078 0 14.22635864457078 -36.325558788282649 0 0 0 0 -2.1845354860142834 -31.66068288551628 0 -31.66068288551628 59.461157581215048 0 0 0 0 -23.681502971881855 65.383187198922712 0 65.383187198922712 232.44212655390356 0 0 0 0 11.382460822946086 17.455205184554416 0 17.455205184554416 -117.11771486221062 0 0 0 0 -2.6648541108899551 2.6573133963175168 0 2.6573133963175168 -1.0548771090550988 0 0 0 0 -37.853661165538142 22.625553433685354 0 22.625553433685354 -56.928754653038595 0 0 0 0 49.665136809077012 71.379665377756851 0 71.379665377756851 111.12211819995332 0 0 0 0 40.573495946687103 1.2754213041126476 0 1.2754213041126476 106.33451536833036 0 0 0 0 -39.672560959677867 -31.590067971798248 0 -31.590067971798248 54.633440810111097 0 0 0 0 33.80058670130893 25.251321946017924 0 25.251321946017924 24.015515162712745 0 0 0 0 -20.659502664901083 38.498128838825323 0 38.498128838825323 239.60276805472267 0 0 0 0 25.437457311294565 53.515853751030591 0 53.515853751030591 35.529586411062617 0 0 0 0 -0.36649762951189224 0.85523117861790965 0 0.85523117861790965 -0.70075084198316828 0 0 0 0 13.361289957192639 3.0319770832604718 0 3.0319770832604718 -1.1287275504691934 0 0 0 0 -1.242854905871333 1.6573653915937676 0 1.6573653915937676 0.057981417055046336 0 0 0 0 8.2224313323549723 7.2099133031537121 0 7.2099133031537121 2.3057813972310441 0 0 0 0 12.70674356165182 8.4487977521631024 0 8.4487977521631024 2.6398555827913697 0 0 0 0 0.015558108996430065 1.7661949981062612 0 1.7661949981062612 -0.95521328250435023 0 0 0 0 -0.4014837879098927 1.9412951872235968 0 1.9412951872235968 0.046587655054475263 0 0 0 0 29.382838682386591 61.311677336909213 0 61.311677336909213 -44.053265679025571 0 0 0 0 4.9144351685426955 6.6209494845735435 0 6.6209494845735435 3.0351607941896646 0 0 0 0 7.3497465673372062 4.5891787534269497 0 4.5891787534269497 0.81255364005664887 0 0 0 0 2.1633783885190709 3.5047867599545892 0 3.5047867599545892 -0.96926891236270629 0 0 0 0 57.135756633813344 143.64617941047976 0 143.64617941047976 121.40694215186568 0 0 0 0 66.200762047967146 -50.90888841060405 0 -50.90888841060405 -302.41862461020696 0 0 0 0 -34.741170605746447 130.95664734302204 0 130.95664734302204 281.49372573746541 0 0 0 0 -1.0791518070420523 0.68526518709421191 0 0.68526518709421191 -0.24983201169751212 0 0 0 0 137.69844619027208 173.72008628129322 0 173.72008628129322 -154.78468922432103 0 0 0 0 79.373416356509551 23.023622951101515 0 23.023622951101515 -15.135985390211317 0 0 0 0 72.096425348121556 39.450256133891799 0 39.450256133891799 6.4372605037742687 0 0 0 0 29.122430019197054 -27.82504839008061 0 -27.82504839008061 -64.63396933560125 0 0 0 0 8.2086512857567868 4.3520764397944731 0 4.3520764397944731 1.08869705457073 0 0 0 0 10.196419931546188 13.300628039774779 0 13.300628039774779 20.042477984390644 0 0 0 0 0.40495375729351579 2.4908756971275583 0 2.4908756971275583 0.35072931727153112 0 0 0 0 24.367346212777193 37.32963743680466 0 37.32963743680466 38.257935099689348 0 0 0 0 -140.69385054251325 -17.865718754098452 0 -17.865718754098452 57.969731545759714 0 0 0 0 0.74006828351237175 0.50746853500744393 0 0.50746853500744393 -0.25806192810093442 0 0 0 0 41.151034355949378 14.024833927526288 0 14.024833927526288 -3.5312789005083687 0 0 0 0 59.681052762549371 15.989448960060145 0 15.989448960060145 2.1102716991717898 0 0 0 0 36.625104007853679 24.991534503327784 0 24.991534503327784 1.5983988769112329 0 0 0 0 39.529268231079186 21.315025801322918 0 21.315025801322918 5.3921382059245389 0 0 0 0 44.236131296740496 22.737188181136844 0 22.737188181136844 -2.3619201348265051 0 0 0 0 39.610121748719394 21.73849093949957 0 21.73849093949957 6.6711832272312677 0 0 0 0 28.520000181753858 30.199614787842847 0 30.199614787842847 -5.2735897835736978 0 0 0 0 39.105311849574719 26.397045292756957 0 26.397045292756957 17.646775687057016 0 0 0 0 41.441067904088413 26.709296425055072 0 26.709296425055072 0.79527320872693963 0 0 0 0 42.224924447128615 -2.2646345101773022 0 -2.2646345101773022 18.903647036022448 0 0 0 0 58.820396671831986 8.988779648738273 0 8.988779648738273 -16.827450651050583 0 0 0 0 18.93632327099931 67.671813472781878 0 67.671813472781878 61.363439044070674 0 0 0 0 56.918039039785981 29.708443166296547 0 29.708443166296547 4.7260609899048518 0 0 0 0 0.29670365874699201 25.520351572050004 0 25.520351572050004 5.3613847104002161 0 0 0 0 -24.692206102552518 21.81385151598397 0 21.81385151598397 4.3960125807726627 0 0 0 0 17.262914033772176 47.781936895342142 0 47.781936895342142 -51.159042190049604 0 0 0 0 28.940865500275322 26.760736029686086 0 26.760736029686086 -49.048611163392252 0 0 0 0 47.915053074257685 66.948068721000027 0 66.948068721000027 -12.604912302050252 0 0 0 0 -12.628211377294065 11.604763242037961 0 11.604763242037961 -21.367017421363016 0 0 0 0 -5.5840613746434542 1.9856256918534001 0 1.9856256918534001 133.72919476218567 0 0 0 0 0.72831952500819597 0.35759376001395005 0 0.35759376001395005 0.13037321479098729 0 0 0 0 29.105934158698801 29.176479860479958 0 29.176479860479958 62.851515756951358 0 0 0 0 37.624538594958722 12.250297117196624 0 12.250297117196624 52.164727069609398 0 0 0 0 37.621889811126202 11.590270419186517 0 11.590270419186517 21.129915350865303 0 0 0 0 41.185172897408847 30.571140663415463 0 30.571140663415463 12.689026565883978 0 0 0 0 38.22628238012112 31.807203982985357 0 31.807203982985357 20.283630616312394 0 0 0 0 29.915816454269589 35.546286569482163 0 35.546286569482163 38.486105357327688 0 0 0 0 44.070066069591121 40.957184871528625 0 40.957184871528625 21.716141658111155 0 0 0 0 31.672287081562899 35.007463200314646 0 35.007463200314646 18.879051044838889 0 0 0 0 45.674453472282039 48.902969087477686 0 48.902969087477686 13.931588874913359 0 0 0 0 41.901571587990475 57.664548361668949 0 57.664548361668949 -2.4789319728979535 0 0 0 0 53.633526311825335 45.294037597456054 0 45.294037597456054 -3.8803642847051378 0 0 0 0 29.124296707017493 61.870249837543497 0 61.870249837543497 47.059821024692383 0 0 0 0 4.9654917732204922 33.834276786813007 0 33.834276786813007 -5.6150870989089299 0 0 0 0 41.421559649615119 54.950978305720355 0 54.950978305720355 -18.838895151357065 0 0 0 0 44.71401837972553 47.616624189969116 0 47.616624189969116 -3.3922302511271596 0 0 0 0 26.430911009507327 36.631771207245038 0 36.631771207245038 -21.772872815570622 0 0 0 0 66.686700949022452 39.81823848735462 0 39.81823848735462 -3.4012922790579978 0 0 0 0 53.530321387566801 53.251585326340319 0 53.251585326340319 -12.88659142643337 0 0 0 0 70.449958223827707 39.45868249189698 0 39.45868249189698 -14.226101007805823 0 0 0 0 42.699354548178235 27.700295613322396 0 27.700295613322396 -13.497939665834565 0 0 0 0 77.191198145263115 43.149464111391353 0 43.149464111391353 -20.687572552000347 0 0 0 0 82.867085188710007 26.260430266772119 0 26.260430266772119 -13.119606768981612 0 0 0 0 43.82117119466966 57.990127515599397 0 57.990127515599397 -22.129991458612494 0 0 0 0 78.813865129751093 44.186001441086717 0 44.186001441086717 -36.897708499181135 0 0 0 0 115.01089103278355 31.955544445523628 0 31.955544445523628 -26.679253566167972 0 0 0 0 3.485378889682579 57.190539413628812 0 57.190539413628812 -37.331783790700683 0 0 0 0 -9.734844949649414 11.89759557663956 0 11.89759557663956 -53.630471921070807 0 0 0 0 -52.44437484421087 20.117784974415599 0 20.117784974415599 -13.782014750699091 0 0 0 0 9.1145464412920774 32.717180375724865 0 32.717180375724865 -12.595976012176834 0 0 0 0 -6.2386879082514497 3.9756292893539467 0 3.9756292893539467 -24.890914032281898 0 0 0 0 -16.175050126479618 5.8992241227078921 0 5.8992241227078921 -24.46703156716876 0 0 0 0 -22.85248592433345 -7.616864680525282 0 -7.616864680525282 -32.158352269080297 0 0 0 0 -113.81135533584893 38.268245057405693 0 38.268245057405693 -44.378716086357144 0 0 0 0 -10.54015408468149 -57.100070562091787 0 -57.100070562091787 -54.373701616958897 0 0 0 0 12.924090701297246 226.91629947973206 0 226.91629947973206 3.4884592287339729 0 0 0 0 -1.5595285319985592 0.99029442398961187 0 0.99029442398961187 -0.76956419921067365 0 0 0 0 -53.180144906529677 -81.305610363612686 0 -81.305610363612686 -167.63205552096827 0 0 0 0 -30.21240426210079 37.556414997352249 0 37.556414997352249 -85.23912612296408 0 0 0 0 -22.005397178696512 7.5806970016765263 0 7.5806970016765263 -185.04910094175648 0 0 0 0 -76.835435378990951 -61.282089585976109 0 -61.282089585976109 -92.893862982151404 0 0 0 0 48.011055237948312 -15.68510058677839 0 -15.68510058677839 47.367834967000817 0 0 0 0 36.817095336118655 52.463880493831311 0 52.463880493831311 39.910314362558893 0 0 0 0 49.208259923161677 29.27608659503494 0 29.27608659503494 83.037033886608697 0 0 0 0 139.50784731163731 87.141195373695155 0 87.141195373695155 46.838671994504693 0 0 0 0 -0.86520411258607055 55.77808078482667 0 55.77808078482667 58.839199096001721 0 0 0 0 21.662507929235289 -3.8255754303377216 0 -3.8255754303377216 107.32849996446748 0 0 0 0 -7.6360533914479625 14.117840490112894 0 14.117840490112894 -21.708923049260683 0 0 0 0 98.856735429537366 132.02726382303808 0 132.02726382303808 104.82082329732657 0 0 0 0 8.9068646546529635 18.279181495617195 0 18.279181495617195 -21.064411174644192 0 0 0 0 -3.9150207827366152 4.637518752252312 0 4.637518752252312 3.9944700092354495 0 0 0 0 188.92562484896189 158.42677630402522 0 158.42677630402522 97.668274853593175 0 0 0 0 97.513679731171578 97.423682927397749 0 97.423682927397749 161.80016261478158 0 0 0 0 157.01332102443121 127.75454169731165 0 127.75454169731165 80.79699647801317 0 0 0 0 4.6072723040915236 -0.89115603659461939 0 -0.89115603659461939 -6.0709840088235651 0 0 0 0 15.257066750620652 21.447002653825621 0 21.447002653825621 -24.479943956135685 0 0 0 0 106.9206130917446 42.121557490562736 0 42.121557490562736 -14.053298011163861 0 0 0 0 18.856531348632416 28.125688031370373 0 28.125688031370373 -19.405114486559796 0 0 0 0 9.9844949996822834 22.366732129868524 0 22.366732129868524 -8.5745066498566302 0 0 0 0 -3.1125757731393406 8.4465672718495117 0 8.4465672718495117 -19.918569681417697 0 0 0 0 101.12259853890828 51.89988233700069 0 51.89988233700069 -8.5484487208436803 0 0 0 0 43.612846303392871 36.935970300941335 0 36.935970300941335 21.14840765777717 0 0 0 0 69.506506333706056 13.373599934469894 0 13.373599934469894 -24.864816753541163 0 0 0 0 13.224073602381395 57.24172378637104 0 57.24172378637104 3.4733924113825196 0 0 0 0 9.1294078234841436 47.640183531535513 0 47.640183531535513 15.175539548760753 0 0 0 0 31.8981917179226 22.803202903521196 0 22.803202903521196 -12.667244085622769 0 0 0 0 37.342031961152315 33.362681031848297 0 33.362681031848297 0.68816725428041536 0 0 0 0 77.553090259983037 62.765216021169522 0 62.765216021169522 16.962243476615186 0 0 0 0 20.784750079628793 18.58570453730772 0 18.58570453730772 10.906976359430701 0 0 0 0 -0.4429681407859043 1.1753978634478166 0 1.1753978634478166 -1.6428291624884785 0 0 0 0 -49.37356905898605 53.094019295387398 0 53.094019295387398 23.593234772830328 0 0 0 0 19.001458242596527 -10.39106424453712 0 -10.39106424453712 0.36853246895043412 0 0 0 0 -7.1838683288833636 85.491028221986198 0 85.491028221986198 -22.058909990832035 0 0 0 0 111.12383011063321 -7.300079930375432 0 -7.300079930375432 -91.839568607401816 0 0 0 0 -162.10998254885271 2.7084356887198737 0 2.7084356887198737 74.691081335979106 0 0 0 0 1.125151954307853 65.536955888542309 0 65.536955888542309 64.495387327229764 0 0 0 0 53.852341884644829 49.69955816994343 0 49.69955816994343 -58.700800466085639 0 0 0 0 -83.101644607324488 -30.059057498745005 0 -30.059057498745005 18.378207265101082 0 0 0 0 101.24130468590556 -48.99816058639999 0 -48.99816058639999 -43.687104150933919 0 0 0 0 -6.6398270221246811 6.7087655485623241 0 6.7087655485623241 -6.963845652612271 0 0 0 0 201.26081829196119 96.211215336835266 0 96.211215336835266 -109.99989574686106 0 0 0 0 380.00141537902618 -113.71126927821979 0 -113.71126927821979 -69.072650791427805 0 0 0 0 20.915279518991156 35.146979794140407 0 35.146979794140407 19.212649618784781 0 0 0 0 134.75829031668036 -37.098894658782683 0 -37.098894658782683 0.34625030996539863 0 0 0 0 163.19415861698326 35.489837948066452 0 35.489837948066452 19.637864085638284 0 0 0 0 132.54829689361577 -29.791130443135671 0 -29.791130443135671 67.132594641221658 0 0 0 0 -3.8751217059053324 3.6470455724105189 0 3.6470455724105189 -3.459991296566777 0 0 0 0 -2.5153716956883727 -46.70346773395795 0 -46.70346773395795 -96.741559035205682 0 0 0 0 -69.663836911389808 -111.85939142996767 0 -111.85939142996767 -49.074195097011398 0 0 0 0 -10.979455955065987 -58.68289215469747 0 -58.68289215469747 -37.81997980847882 0 0 0 0 -40.406249096571628 1.5944435516139492 0 1.5944435516139492 -55.57853710956033 0 0 0 0 31.726922436544555 51.060425743254314 0 51.060425743254314 -55.172042773043358 0 0 0 0 50.679734842571634 20.745925313092812 0 20.745925313092812 -36.516139635774969 0 0 0 0 -4.8067276143974595 -26.424589052958481 0 -26.424589052958481 -53.734784744113313 0 0 0 0 137.65838678841646 -5.180160085586067 0 -5.180160085586067 -22.542538961819446 0 0 0 0 47.99907798760978 31.591337349462265 0 31.591337349462265 -8.5936604694666698 0 0 0 0 146.17692925191659 2.8128869379456773 0 2.8128869379456773 -17.825390841009721 0 0 0 0 97.218686755541057 47.715473008217941 0 47.715473008217941 -29.142784606021451 0 0 0 0 126.43209019153073 -23.831283941725815 0 -23.831283941725815 21.063244307923924 0 0 0 0 231.54403854580414 -37.319993958976738 0 -37.319993958976738 -15.334406303382821 0 0 0 0 1.3552620905715322 1.9561370869883881 0 1.9561370869883881 3.0896753407482684 0 0 0 0 -25.280625990559201 8.131110490692663 0 8.131110490692663 -34.468546510721353 0 0 0 0 -397.87975447499684 -1.2203612238839696 0 -1.2203612238839696 -5.9729477201799455 0 0 0 0 -0.33189558088850291 0.45272160504714876 0 0.45272160504714876 -2.138299064966203 0 0 0 0 60.748207865953191 45.492257165581577 0 45.492257165581577 -86.804808569672787 0 0 0 0 -22.445806837311466 -5.6438379206515492 0 -5.6438379206515492 15.643020008902795 0 0 0 0 -147.94241379035884 162.98838778372874 0 162.98838778372874 -34.674640474843272 0 0 0 0 -84.331011675880291 166.17805949202739 0 166.17805949202739 -158.66914657995585 0 0 0 0 -46.455009997705929 117.61569309926267 0 117.61569309926267 -99.041741020849258 0 0 0 0 -186.1105462091582 195.46392832105653 0 195.46392832105653 -62.297277981036132 0 0 0 0 -99.136558539504222 103.35904033336283 0 103.35904033336283 -135.5777039345885 0 0 0 0 -111.2626175960213 41.295959892768224 0 41.295959892768224 28.034742025145079 0 0 0 0 -133.29568098333402 145.94406238910096 0 145.94406238910096 -46.677407139462957 0 0 0 0 0.36881927654522073 0.40772326395214975 0 0.40772326395214975 0.75632262301180653 0 0 0 0 -0.10976197616037098 88.983986084401749 0 88.983986084401749 -39.904362843990839 0 0 0 0 -165.04092647918378 53.608537793001346 0 53.608537793001346 25.925949587592186 0 0 0 0 -0.81557163204919192 0.71673146869051774 0 0.71673146869051774 -0.30158852024520622 0 0 0 0 11.552230739906008 3.5193650571072794 0 3.5193650571072794 1.2829948480296025 0 0 0 0 -85.899801309613395 5.2746489967489651 0 5.2746489967489651 31.989748872928885 0 0 0 0 -36.472353090423894 -17.035002681586263 0 -17.035002681586263 13.725484814443007 0 0 0 0 -56.543240428291028 40.87987606929164 0 40.87987606929164 3.8921277917143016 0 0 0 0 -10.94558283522565 -2.747314144972961 0 -2.747314144972961 7.1422533196864606 0 0 0 0 1.1135073956709789 7.4632150666893544 0 7.4632150666893544 5.5919331949763862 0 0 0 0 -13.322263219577508 42.183934855993357 0 42.183934855993357 12.381000772874586 0 0 0 0 -81.185825438022221 38.152374268105405 0 38.152374268105405 16.083655166743938 0 0 0 0 -8.4666353854190604 11.444926196210718 0 11.444926196210718 -8.4057027430268114 0 0 0 0 1.2775770563421247 15.454850519445245 0 15.454850519445245 -0.82095486576270105 0 0 0 0 4.0137133852040279 6.5075726635636784 0 6.5075726635636784 6.0447384757565032 0 0 0 0 3.3623982003105084 13.508652621054921 0 13.508652621054921 1.9867494308527966 0 0 0 0 3.9501370945927192 8.7335272890059059 0 8.7335272890059059 -1.7340397052733465 0 0 0 0 6.7878719932245986 12.207003013513713 0 12.207003013513713 10.315529669589523 0 0 0 0 20.953589782486233 -24.801849086429684 0 -24.801849086429684 41.086028520704758 0 0 0 0 -1.2583623909254413 1.4628983985281026 0 1.4628983985281026 0.88457209274547166 0 0 0 0 2.5489167784717282 5.8287546272215245 0 5.8287546272215245 6.8408150043150613 0 0 0 0 1.2922249137646418 7.0132271591960915 0 7.0132271591960915 1.5063701028702781 0 0 0 0 0.86075247740297556 0.46151899352491554 0 0.46151899352491554 -2.0234801311499773 0 0 0 0 29.641883800417418 -27.423128424848528 0 -27.423128424848528 12.369630821326155 0 0 0 0 5.5453537517627538 13.8302400202722 0 13.8302400202722 9.3735579774503073 0 0 0 0 16.042139158127611 14.499761541079465 0 14.499761541079465 -72.055107203576881 0 0 0 0 0.85411740500785527 -41.619030773752911 0 -41.619030773752911 -43.158965401459682 0 0 0 0 1.3864685911633643 0.93906512783478391 0 0.93906512783478391 -0.6622302986727604 0 0 0 0 18.324120702654909 11.220963326464698 0 11.220963326464698 -41.94173100359788 0 0 0 0 16.69058241165294 -16.388349257732443 0 -16.388349257732443 51.238646394357602 0 0 0 0 9.7258686392460731 -105.76356821798061 0 -105.76356821798061 -75.877106053842908 0 0 0 0 31.364351203068509 167.12758640259926 0 167.12758640259926 -163.97412995925856 0 0 0 0 0.54750066054367963 -0.16276780486661124 0 -0.16276780486661124 -0.91339348772165785 0 0 0 0 -81.680938371959201 -113.13531418728371 0 -113.13531418728371 -84.9647594266753 0 0 0 0 -90.210987712878705 -25.30079410033477 0 -25.30079410033477 -61.637664719633904 0 0 0 0 -131.46180356491823 16.458155935624745 0 16.458155935624745 123.15821054499793 0 0 0 0 129.92711158545285 159.80785439296596 0 159.80785439296596 -15.858479884823282 0 0 0 0 157.42781069516604 24.021668222740573 0 24.021668222740573 -197.37964617584726 0 0 0 0 49.38036590243064 105.44443641751559 0 105.44443641751559 29.836484074902728 0 0 0 0 -2.0451106141712536 3.157513929791337 0 3.157513929791337 -3.8511487241741271 0 0 0 0 8.15305543737486 33.076156842734918 0 33.076156842734918 57.207203856650267 0 0 0 0 76.159440006767682 25.606136510216686 0 25.606136510216686 -21.692721985075877 0 0 0 0 -1.1694596399684087 4.0173687171568417 0 4.0173687171568417 5.2356254575684034 0 0 0 0 39.712627089658781 13.463099107698781 0 13.463099107698781 -24.764961141249842 0 0 0 0 31.560016759063728 25.028265403640034 0 25.028265403640034 32.990515968762907 0 0 0 0 -2.4857350577980313 3.2880061492357022 0 3.2880061492357022 -3.5382806300904335 0 0 0 0 12.009255841730919 165.13831766942576 0 165.13831766942576 56.393796712819494 0 0 0 0 83.512611918880793 80.92068112023 0 80.92068112023 25.522777555823268 0 0 0 0 -251.82146805124648 -15.064517787765681 0 -15.064517787765681 54.769629005354545 0 0 0 0 -0.51908585292212628 3.4547113351215017 0 3.4547113351215017 -5.3049275760183168 0 0 0 0 -4.0382484725323593 31.266675870824656 0 31.266675870824656 20.457145931756941 0 0 0 0 -26.761493465177637 -28.685167080005726 0 -28.685167080005726 -19.246986150818884 0 0 0 0 -0.33551075589538115 4.8368406486777467 0 4.8368406486777467 6.28601338998965 0 0 0 0 109.71780382152065 2.3595246821073488 0 2.3595246821073488 -5.4540980369697536 0 0 0 0 104.58386360525219 2.8771248849461699 0 2.8771248849461699 6.860971517101234 0 0 0 0 84.520636885009935 13.592680615889208 0 13.592680615889208 7.5126386054280374 0 0 0 0 70.11116165430758 30.132831826912479 0 30.132831826912479 -2.1944122924860494 0 0 0 0 76.217945028924078 25.253879126404627 0 25.253879126404627 0.51529834735538316 0 0 0 0 -3.3954881080500865 7.2136422662713873 0 7.2136422662713873 0.32529175788920561 0 0 0 0 91.566958602712475 26.031317425112775 0 26.031317425112775 -7.8338743372478348 0 0 0 0 73.717510556733032 40.745298876033758 0 40.745298876033758 -13.5199080963489 0 0 0 0 5.6269631214054243 31.526601154292166 0 31.526601154292166 32.528367154610351 0 0 0 0 -2.3729563821138449 1.0654377981683574 0 1.0654377981683574 -0.30355523973767262 0 0 0 0 -236.66900185068334 54.597205640156062 0 54.597205640156062 55.881041727190222 0 0 0 0 38.147825474990896 87.19798856540433 0 87.19798856540433 -93.297853826815299 0 0 0 0 -111.36842991482263 -24.2829560813434 0 -24.2829560813434 93.141174002907064 0 0 0 0 -1.23961423271599 1.3645029541802387 0 1.3645029541802387 -1.3189676725592747 0 0 0 0 -277.11731225446238 235.59629154434083 0 235.59629154434083 -114.75772583236994 0 0 0 0 -89.421287747663882 -136.58804883443963 0 -136.58804883443963 16.89457864142787 0 0 0 0 -131.79630058979637 126.92304841323755 0 126.92304841323755 -34.561324935950324 0 0 0 0 40.792701745422164 33.188841234586107 0 33.188841234586107 10.62208810406014 0 0 0 0 67.839618417396196 30.8790220121939 0 30.8790220121939 9.8599837711853979 0 0 0 0 42.95230265286591 31.033151334590229 0 31.033151334590229 12.715053039411941 0 0 0 0 103.96851265630539 -1.5095511981448908 0 -1.5095511981448908 -10.366016112822763 0 0 0 0 -3.1999480637074598 6.4848323000753201 0 6.4848323000753201 0.35574624260594234 0 0 0 0 91.979703764399801 -77.864097277820349 0 -77.864097277820349 -30.086365859548096 0 0 0 0 -33.837581332085392 49.259248899040813 0 49.259248899040813 9.7684031647900156 0 0 0 0 -56.993924486872857 -0.60228593208557868 0 -0.60228593208557868 31.808945922283783 0 0 0 0 -220.62668086364101 -18.309087320533308 0 -18.309087320533308 74.808049447721714 0 0 0 0 -37.937658669732627 -7.3459831120512717 0 -7.3459831120512717 33.76136076356488 0 0 0 0 -58.645747547755491 37.362493179696116 0 37.362493179696116 6.5908280858466242 0 0 0 0 -2.2962162378753419 32.201672379319916 0 32.201672379319916 -8.6159541450615507 0 0 0 0 -30.14530890657079 59.432985152684296 0 59.432985152684296 -31.515732672601416 0 0 0 0 -4.6242769767609389 25.743519528166132 0 25.743519528166132 -23.170594128974244 0 0 0 0 12.24231705487 18.632149594842531 0 18.632149594842531 -31.301968123117604 0 0 0 0 14.488189106894424 20.925298686440328 0 20.925298686440328 -40.941674699123269 0 0 0 0 7.2310665195182082 11.88227763444695 0 11.88227763444695 -31.001258420664271 0 0 0 0 17.897163332876517 -1.0433581914346632 0 -1.0433581914346632 -23.834255645392659 0 0 0 0 40.045791123926392 16.947399927770675 0 16.947399927770675 -44.844977558853316 0 0 0 0 58.934384030370893 17.153071995428775 0 17.153071995428775 -47.401314608128814 0 0 0 0 42.190129772166983 1.3651139446092202 0 1.3651139446092202 -7.2332425248282561 0 0 0 0 34.795268499285157 46.736458685302296 0 46.736458685302296 -69.335021287956806 0 0 0 0 -43.683590440214175 36.560803530913745 0 36.560803530913745 -21.656371488423247 0 0 0 0 -28.976484282202364 33.774542840929143 0 33.774542840929143 -35.078018446958595 0 0 0 0 -17.12942599697999 -1.9146537500325849 0 -1.9146537500325849 -23.56413938998412 0 0 0 0 -39.495367734903994 24.062850733028654 0 24.062850733028654 -23.542696796159248 0 0 0 0 2.9426662604819285 15.862900085131969 0 15.862900085131969 -20.812448422369471 0 0 0 0 1.5908835143854958 8.8207506255205317 0 8.8207506255205317 -31.02096296571899 0 0 0 0 -6.8510813526199854 18.922204710321921 0 18.922204710321921 -21.762532579318759 0 0 0 0 -21.481141825297527 41.196515888993815 0 41.196515888993815 -21.394682712618305 0 0 0 0 3.1524131018413755 37.882156275174793 0 37.882156275174793 -23.048621271316733 0 0 0 0 -12.4859578336509 15.41584347484195 0 15.41584347484195 -22.579131552224283 0 0 0 0 -17.05892915721779 72.316558492972717 0 72.316558492972717 -46.512250370103004 0 0 0 0 -100.92610018135565 145.03701096853638 0 145.03701096853638 -43.816839175144196 0 0 0 0 -26.226272278132456 79.607537510103839 0 79.607537510103839 2.4423674057118205 0 0 0 0 2.7762425926850938 3.0074831551556329 0 3.0074831551556329 2.1786495980318561 0 0 0 0 -41.279308949786355 43.643819795830211 0 43.643819795830211 14.99063003380661 0 0 0 0 -32.722876287498366 45.643772245993546 0 45.643772245993546 -41.777055807401666 0 0 0 0 -2.8576942680069024 -0.64014777198634931 0 -0.64014777198634931 0.88570225450611773 0 0 0 0 0.28774891349227982 4.7695989030192791 0 4.7695989030192791 6.5304847927618344 0 0 0 0 -53.444251597025868 66.225835861565656 0 66.225835861565656 -49.732935999679853 0 0 0 0 -12.873637543973786 2.819465941010094 0 2.819465941010094 15.443584858438498 0 0 0 0 -7.9867542289794073 12.159439445915723 0 12.159439445915723 1.0278044638457686 0 0 0 0 -8.5240772685497461 8.4746194719855836 0 8.4746194719855836 7.0080276585858883 0 0 0 0 -13.985497002342527 7.0143008255997756 0 7.0143008255997756 7.7817075952475534 0 0 0 0 -7.3454385544373508 0.063431732609842584 0 0.063431732609842584 13.933842829015617 0 0 0 0 -13.038491679746585 -21.719888387656738 0 -21.719888387656738 27.490030823234065 0 0 0 0 -60.004819418412808 -11.712108683643237 0 -11.712108683643237 29.64751912882366 0 0 0 0 -0.46532248148767508 -0.30123047533218283 0 -0.30123047533218283 -0.33608534344667529 0 0 0 0 -78.435463082007118 84.772418335973725 0 84.772418335973725 -81.784908432809289 0 0 0 0 -58.010964099219109 37.957322445073572 0 37.957322445073572 -28.660064637102096 0 0 0 0 -91.928417008855831 8.2445459199527704 0 8.2445459199527704 9.0887490026780142 0 0 0 0 -8.1914142806963355 25.104872071189902 0 25.104872071189902 -33.935556266301887 0 0 0 0 10.556818968150765 28.721684834157713 0 28.721684834157713 -70.98979141981772 0 0 0 0 -80.082908061473063 53.677656871712315 0 53.677656871712315 41.178810691365015 0 0 0 0 41.382212709584564 23.141938109470402 0 23.141938109470402 35.419415882535077 0 0 0 0 -37.503368661682089 10.121062337496085 0 10.121062337496085 60.383868865808836 0 0 0 0 -24.22534338216974 12.207533980552853 0 12.207533980552853 45.190997831920413 0 0 0 0 -42.931883256540459 30.606165249601872 0 30.606165249601872 30.126192832311972 0 0 0 0 -17.155225044891267 36.132636741965598 0 36.132636741965598 27.252011171673075 0 0 0 0 -60.319851297266723 88.193931498130269 0 88.193931498130269 -28.67305018861498 0 0 0 0 -59.755132659542141 47.642651288269917 0 47.642651288269917 40.505624812944689 0 0 0 0 -0.67832747241788027 1.1971815945629842 0 1.1971815945629842 -1.7600211170051558 0 0 0 0 82.854454830223176 -8.4312712370503107 0 -8.4312712370503107 -59.432043834350225 0 0 0 0 85.67308664056327 -32.874068239796088 0 -32.874068239796088 -39.849626276225536 0 0 0 0 10.937045919655013 5.5866908650747842 0 5.5866908650747842 -2.6781311441102167 0 0 0 0 -57.320612524963508 162.38670044706396 0 162.38670044706396 -1.5640052528815431 0 0 0 0 91.838891309927931 -16.140915485384767 0 -16.140915485384767 -54.179901524693832 0 0 0 0 20.655245276786445 16.335448439293032 0 16.335448439293032 1.572718771275504 0 0 0 0 -17.764388775083717 -45.333652154772608 0 -45.333652154772608 104.19362877739809 0 0 0 0 8.4109873921220881 5.0406692276191771 0 5.0406692276191771 -1.417146877465659 0 0 0 0 65.488291297995602 -174.1003143043863 0 -174.1003143043863 -77.831676680304327 0 0 0 0 13.039848205120506 0.53327964276468265 0 0.53327964276468265 -16.538183120253052 0 0 0 0 15.632151384681492 55.208847303997118 0 55.208847303997118 -165.04708592207317 0 0 0 0 31.052115360138487 -5.4104177921701648 0 -5.4104177921701648 11.093068565593057 0 0 0 0 6.3322264410896878 -2.4455894648193066 0 -2.4455894648193066 -8.1753127484171273 0 0 0 0 6.7668548293633535 14.123396022395454 0 14.123396022395454 4.0196115762137197 0 0 0 0 10.510262056093779 5.8444690640644694 0 5.8444690640644694 -2.648413024866386 0 0 0 0 14.071900310453202 41.432635193041278 0 41.432635193041278 -0.84629528685309197 0 0 0 0 15.288515538297361 6.9744720448197768 0 6.9744720448197768 -16.583761112227876 0 0 0 0 12.700978226042935 21.096301695580678 0 21.096301695580678 17.656669905149101 0 0 0 0 21.771711181609135 14.880149301731763 0 14.880149301731763 -7.2752659538318767 0 0 0 0 24.526770333381137 16.328405647563159 0 16.328405647563159 0.1054439056715637 0 0 0 0 -3.3382730292277145 4.8465065502945333 0 4.8465065502945333 1.8267483407189857 0 0 0 0 21.232537831332593 10.272279449912276 0 10.272279449912276 4.3115775592841601 0 0 0 0 -40.796871446495061 42.476132029729342 0 42.476132029729342 -29.799311673118609 0 0 0 0 -32.630770709154604 16.101589010688713 0 16.101589010688713 -18.579869267753566 0 0 0 0 -33.567181066315243 22.663789851921479 0 22.663789851921479 -6.8549575894521695 0 0 0 0 -13.22125729704203 -6.605699071642448 0 -6.605699071642448 2.2242986584851678 0 0 0 0 -8.9333162042203185 19.566061078417988 0 19.566061078417988 -47.118261087594874 0 0 0 0 11.923947642589155 3.8362086237433459 0 3.8362086237433459 -15.715873553408528 0 0 0 0 14.778017109812936 37.832092596764596 0 37.832092596764596 -37.368834420086614 0 0 0 0 9.8935961411898461 6.5818709141285581 0 6.5818709141285581 -12.703389193698058 0 0 0 0 2.610815614736663 2.7071476800448586 0 2.7071476800448586 -0.45085868121114814 0 0 0 0 7.9812922225391958 -7.4551837123817677 0 -7.4551837123817677 -48.149227834017211 0 0 0 0 -83.242094005253023 23.714880844693369 0 23.714880844693369 11.472424566482005 0 0 0 0 0.036576718181711376 5.1365524692318907 0 5.1365524692318907 10.332063728439525 0 0 0 0 41.360974774604983 7.2292398395711643 0 7.2292398395711643 9.004700634170149 0 0 0 0 -36.739633830524326 19.169950810102364 0 19.169950810102364 0.03385282678391377 0 0 0 0 33.850589031266281 7.4046417610006756 0 7.4046417610006756 20.945435189019008 0 0 0 0 -36.356416079606788 16.885396677809013 0 16.885396677809013 6.1749878734972299 0 0 0 0 -29.99397287818465 18.790732369199304 0 18.790732369199304 -5.6400605824892409 0 0 0 0 -26.164749063234922 9.0435793221772656 0 9.0435793221772656 8.8006285940480211 0 0 0 0 -15.423253232789648 38.870039240847518 0 38.870039240847518 -8.1506694627487377 0 0 0 0 40.477100757565495 -2.2093480556300165 0 -2.2093480556300165 -4.0113833037075892 0 0 0 0 3.3997339874185855 21.352929896334899 0 21.352929896334899 8.1509932686233242 0 0 0 0 0.078203363107798296 4.7484077074194815 0 4.7484077074194815 8.5840689457619934 0 0 0 0 -23.5077395884 10.753560470806178 0 10.753560470806178 13.407146167693071 0 0 0 0 -18.032929141147577 9.980677080154102 0 9.980677080154102 5.6168951135614407 0 0 0 0 -10.175021037019178 17.734709219687829 0 17.734709219687829 2.4006658761745712 0 0 0 0 -14.871437526619047 26.314324243487022 0 26.314324243487022 0.69082763492770027 0 0 0 0 -21.690175630082649 39.266807799225184 0 39.266807799225184 -11.475863827397916 0 0 0 0 -21.209939339505581 24.079364665867161 0 24.079364665867161 -2.8385362455655923 0 0 0 0 -25.685147364572913 23.956304294999882 0 23.956304294999882 0.10004469717250686 0 0 0 0 -21.675070727294042 20.563059396305903 0 20.563059396305903 0.58139344715800689 0 0 0 0 -34.962834659334476 22.808058934328074 0 22.808058934328074 0.90804971749605556 0 0 0 0 -26.600615998247122 28.864518260386376 0 28.864518260386376 -7.0598043593918192 0 0 0 0 -30.681801112674293 57.803450598315521 0 57.803450598315521 -32.269656010174913 0 0 0 0 -29.146906426329224 42.560523306285631 0 42.560523306285631 -14.24118399159579 0 0 0 0 -50.94013609157264 32.007853029053877 0 32.007853029053877 -5.9616663568981494 0 0 0 0 -32.947146742750192 17.211633121851037 0 17.211633121851037 0.94820887629975914 0 0 0 0 0.026178007823546068 33.504247424633377 0 33.504247424633377 -28.46621411456681 0 0 0 0 25.077034601035848 43.55242180516143 0 43.55242180516143 -55.893505072395783 0 0 0 0 -1.9369341072851967 39.319163150093573 0 39.319163150093573 -20.656491387479491 0 0 0 0 -1.6652194040088943 37.628361021981391 0 37.628361021981391 -21.835557615727794 0 0 0 0 -0.0099915110586152878 32.430932065684601 0 32.430932065684601 -16.148124140400341 0 0 0 0 -2.8777993328822049 29.738350085068532 0 29.738350085068532 -6.7252532119675834 0 0 0 0 -4.3995752774389985 36.543231071121681 0 36.543231071121681 -6.0981004225022843 0 0 0 0 0.0059719706750911428 29.578440875033493 0 29.578440875033493 -0.67056572884507659 0 0 0 0 5.4198032053373026 39.721879138282702 0 39.721879138282702 12.117041977604003 0 0 0 0 -0.0018854173158615595 32.7574362938376 0 32.7574362938376 18.050246892554014 0 0 0 0 16.320103460997416 36.787930292292458 0 36.787930292292458 10.6948693810034 0 0 0 0 -0.25825243776125717 26.049178033297949 0 26.049178033297949 4.6694274701503673 0 0 0 0 2.9391044625735958 25.732152365801539 0 25.732152365801539 0.69791695059643644 0 0 0 0 -8.380088619001981 14.664972240079805 0 14.664972240079805 4.6548680663886444 0 0 0 0 -13.393246504387207 17.583533431870592 0 17.583533431870592 3.8981665886253722 0 0 0 0 11.303669475166316 17.779098860998602 0 17.779098860998602 4.769392807222772 0 0 0 0 7.2156807679084523 23.225781329409187 0 23.225781329409187 2.888161830586796 0 0 0 0 44.28240209510659 54.019712590073283 0 54.019712590073283 21.095982350588201 0 0 0 0 38.099702323672318 16.419616299989912 0 16.419616299989912 -17.186177044375881 0 0 0 0 -7.8979805657309043 7.597866893561104 0 7.597866893561104 6.6938568378714081 0 0 0 0 -86.004967207526192 -57.487914799203509 0 -57.487914799203509 143.04969030148095 0 0 0 0 1.3235946024132659 0.7312436461114018 0 0.7312436461114018 0.52120346107226201 0 0 0 0 1.792964806620148 35.492045999652191 0 35.492045999652191 113.6997238301401 0 0 0 0 0.87355496986674552 25.930055822166651 0 25.930055822166651 30.126843939289756 0 0 0 0 2.2939138034380449 41.254143879821413 0 41.254143879821413 36.055682754394184 0 0 0 0 -0.064166278240918473 54.189128715135666 0 54.189128715135666 -30.578563076882801 0 0 0 0 -22.453006732846916 32.088782518936569 0 32.088782518936569 -12.190378304628211 0 0 0 0 -19.883542708188543 51.358516594111279 0 51.358516594111279 -22.400500350127913 0 0 0 0 -72.542333110543041 39.490317847023107 0 39.490317847023107 1.7178832045133277 0 0 0 0 -27.290113038550771 31.036086387633986 0 31.036086387633986 -7.7940167371893949 0 0 0 0 0.85130973621765982 4.2325053579308367 0 4.2325053579308367 -2.7639821551224344 0 0 0 0 -5.4053980414137186 1.7955331898920122 0 1.7955331898920122 -6.2243409769102982 0 0 0 0 -11.495487206579583 5.8597383112778516 0 5.8597383112778516 0.16132902130448201 0 0 0 0 -31.779889903868025 23.821565291728348 0 23.821565291728348 -10.758170600216545 0 0 0 0 -13.925486189051298 9.112515498572975 0 9.112515498572975 8.1452631847714656 0 0 0 0 0.094071206773818972 0.37112789436698357 0 0.37112789436698357 -0.46221983017638824 0 0 0 0 11.558228716847225 8.4635303374807336 0 8.4635303374807336 -3.5994808419309265 0 0 0 0 -0.80959179130950965 1.1582583481469335 0 1.1582583481469335 0.63704901534386238 0 0 0 0 -3.4615746858071361 1.0880716927763388 0 1.0880716927763388 -0.6772275248367805 0 0 0 0 0.22734739582742058 0.32042916290239987 0 0.32042916290239987 0.18125980747286974 0 0 0 0 -15.804902516305447 2.3648070333492797 0 2.3648070333492797 5.8335933209282302 0 0 0 0 -2.5410398965159402 1.8765627906077498 0 1.8765627906077498 -5.8173963464632834 0 0 0 0 -4.9140715790272225 13.972572896464499 0 13.972572896464499 -1.4534227530621138 0 0 0 0 17.686409623715008 -0.10267331535669655 0 -0.10267331535669655 -9.5818004911666321 0 0 0 0 6.0919170204379043 20.107984319397474 0 20.107984319397474 -7.6378464114895905 0 0 0 0 -19.408469491408823 34.634558297435433 0 34.634558297435433 -10.062363290824578 0 0 0 0 0.011466171288702753 42.034549953170881 0 42.034549953170881 -18.078272643816035 0 0 0 0 -2.9702752950274771 36.805814770305687 0 36.805814770305687 -25.928949487101818 0 0 0 0 -0.44015075489972944 0.33869554576471472 0 0.33869554576471472 0.22053653639948578 0 0 0 0 0.022163345243825461 7.2826028338113247 0 7.2826028338113247 9.8614786058042228 0 0 0 0 17.221118137049416 6.1717188787943087 0 6.1717188787943087 -30.938555400843484 0 0 0 0 10.997316152068379 2.8257746784702249 0 2.8257746784702249 1.5072719367001355 0 0 0 0 6.169684155329378 4.2404656754656571 0 4.2404656754656571 4.8956933710906014 0 0 0 0 18.146878930763762 24.607112514886481 0 24.607112514886481 16.199133658228675 0 0 0 0 -0.51510838364047729 0.5250255052719357 0 0.5250255052719357 -0.022281838960573452 0 0 0 0 23.491263164471093 -3.8531778327123902 0 -3.8531778327123902 -8.727761803271278 0 0 0 0 31.570761882265288 12.858316839123745 0 12.858316839123745 -1.7055226371214758 0 0 0 0 17.995822814114945 14.391058271651673 0 14.391058271651673 12.15021135096049 0 0 0 0 -0.0021633540727634681 17.651333693434026 0 17.651333693434026 14.573204709394304 0 0 0 0 9.7678017633488707 21.506078382564624 0 21.506078382564624 -0.60559961071703583 0 0 0 0 24.991026811458141 0.44503210010316252 0 0.44503210010316252 2.4657393477937148 0 0 0 0 10.31484110150268 17.302655017856523 0 17.302655017856523 26.620031828211722 0 0 0 0 31.2018241854812 22.494450764726992 0 22.494450764726992 -39.799935019140321 0 0 0 0 23.505253800736682 9.7212910951357117 0 9.7212910951357117 -18.160199143726459 0 0 0 0 7.1526283369730663 25.549610753655088 0 25.549610753655088 -19.916402231088796 0 0 0 0 -89.582099851520979 52.571192032603903 0 52.571192032603903 14.352981577025275 0 0 0 0 -73.021652231248027 88.70935278082186 0 88.70935278082186 -50.962648168120722 0 0 0 0 -25.045168248932896 97.019989657069345 0 97.019989657069345 -63.006942011704268 0 0 0 0 8.9152860366739333 36.731381304643946 0 36.731381304643946 -10.055677573887806 0 0 0 0 -0.42518088216316841 0.39187446656628211 0 0.39187446656628211 0.11780109031466779 0 0 0 0 5.2460014568323459 22.381034514436962 0 22.381034514436962 -5.6053289757091989 0 0 0 0 0.4308099816064157 0.34283886676058017 0 0.34283886676058017 -0.17980938465727192 0 0 0 0 -47.353953003326751 -3.1543328020084118 0 -3.1543328020084118 -40.994215579010302 0 0 0 0 5.0292561376663798 15.683287518979341 0 15.683287518979341 37.257725951991233 0 0 0 0 -119.77648305136609 98.545977693307577 0 98.545977693307577 -63.831853878620677 0 0 0 0 -7.1018604850435167 36.813249389411425 0 36.813249389411425 -0.23063646975242591 0 0 0 0 -62.479386496370353 22.364350244562502 0 22.364350244562502 -12.467025186859246 0 0 0 0 -76.242852879906422 30.828760719545244 0 30.828760719545244 -7.5161254685526728 0 0 0 0 0.59577175016796247 0.70767998027138646 0 0.70767998027138646 0.32941188854762515 0 0 0 0 22.522990175826635 -0.69324160147561997 0 -0.69324160147561997 -19.034550119744381 0 0 0 0 -3.3626849288393714 -9.7509072920565814 0 -9.7509072920565814 -0.17736582877296314 0 0 0 0 25.450886579547841 8.0466567172082932 0 8.0466567172082932 -1.0340877700600686 0 0 0 0 9.9403948666185897 -0.59750211640402995 0 -0.59750211640402995 6.1206171592721148 0 0 0 0 -25.483067988403491 -8.1574523204099023 0 -8.1574523204099023 -1.1377588337199995 0 0 0 0 5.8858171174779272 75.201579885338106 0 75.201579885338106 -2.6263226541620952 0 0 0 0 -51.166756843227631 30.783516138040795 0 30.783516138040795 -17.419552943340477 0 0 0 0 -36.809996870022587 53.569551532946207 0 53.569551532946207 -9.1135079807372676 0 0 0 0 -65.711453226515005 22.265200978178655 0 22.265200978178655 52.059150256536668 0 0 0 0 -102.54311381103253 72.287618681913045 0 72.287618681913045 33.038048672246305 0 0 0 0 -53.549194779272511 48.859806818667494 0 48.859806818667494 37.398312857447763 0 0 0 0 -54.779491335555576 43.977890736776317 0 43.977890736776317 22.686991288082936 0 0 0 0 -41.67927612483436 27.415903339231136 0 27.415903339231136 0.38244825868969201 0 0 0 0 -29.904286020504514 30.682930108738219 0 30.682930108738219 -41.113044900661407 0 0 0 0 -29.679786964323284 32.651892855075857 0 32.651892855075857 -36.925697222317467 0 0 0 0 -56.676254799445815 30.356387218849704 0 30.356387218849704 -18.410126426606439 0 0 0 0 -67.384029126671521 30.139381596192834 0 30.139381596192834 -10.414243660285138 0 0 0 0 -63.485170512063632 42.235601528318512 0 42.235601528318512 -5.3894144964488078 0 0 0 0 -85.490213930839673 50.880557472139117 0 50.880557472139117 -25.968926447059857 0 0 0 0 -16.045027033509541 73.86315388198409 0 73.86315388198409 -195.01228716972855 0 0 0 0 -49.535980347009172 64.907274070349558 0 64.907274070349558 -83.988676630329792 0 0 0 0 -6.6500109272019472 20.810095286105025 0 20.810095286105025 -108.69463246742907 0 0 0 0 -11.532375175092966 15.164372658766752 0 15.164372658766752 -83.289140108528954 0 0 0 0 -18.219821899267117 6.2596602272988093 0 6.2596602272988093 -75.875905287845853 0 0 0 0 -2.6307729310250068 1.1415783541861533 0 1.1415783541861533 0.86500917908451747 0 0 0 0 -22.267690329921606 28.880407004468907 0 28.880407004468907 80.367973211424214 0 0 0 0 -24.474391685290357 64.274662380969744 0 64.274662380969744 39.254784007231137 0 0 0 0 7.946826348007562 -28.580059232562007 0 -28.580059232562007 4.3286461919815338 0 0 0 0 -70.469845410791095 21.656371940178815 0 21.656371940178815 61.930209413461853 0 0 0 0 -60.879709979701147 -28.140399980747134 0 -28.140399980747134 119.55278918508802 0 0 0 0 -1.1155964303841088 -0.037305677376840762 0 -0.037305677376840762 -0.14462841418072386 0 0 0 0 5.5739954632399531 7.5106686165445353 0 7.5106686165445353 5.9679037318733208 0 0 0 0 4.2325346024302064 4.4695294018024168 0 4.4695294018024168 0.55839401597814331 0 0 0 0 -3.8638456339363145 2.0214572334444014 0 2.0214572334444014 3.3039760921658292 0 0 0 0 22.850303184659424 26.907930445758211 0 26.907930445758211 13.297822954459207 0 0 0 0 18.432396584055823 12.384269091461647 0 12.384269091461647 32.851419482450183 0 0 0 0 -11.635593552815408 47.99837541234956 0 47.99837541234956 -39.78588503760966 0 0 0 0 -19.031986532125302 36.329719225705958 0 36.329719225705958 -59.315872733645961 0 0 0 0 -8.0753058341815631 -23.436785246473391 0 -23.436785246473391 -86.024228417653831 0 0 0 0 -0.48019759272104778 1.1653412023772578 0 1.1653412023772578 1.4322355823353448 0 0 0 0 28.935962516037762 11.527538262937469 0 11.527538262937469 -59.040832982816028 0 0 0 0 39.889027752692982 64.878216341494067 0 64.878216341494067 7.4596879896616883 0 0 0 0 19.273368686320282 8.2239659891482688 0 8.2239659891482688 4.0169036908664566 0 0 0 0 -4.1626202752122481 28.182871390286891 0 28.182871390286891 -2.3950944520565827 0 0 0 0 -23.87417867080876 52.001657108097788 0 52.001657108097788 51.837928585290683 0 0 0 0 -28.477473042319616 3.1763487255457221 0 3.1763487255457221 -35.536526157402477 0 0 0 0 20.896070079492347 83.070019656433033 0 83.070019656433033 43.239018518084094 0 0 0 0 -5.8448723594794387 5.8477447900454429 0 5.8477447900454429 -5.3728264485079293 0 0 0 0 10.556827120573871 25.782984436407787 0 25.782984436407787 25.186193524452392 0 0 0 0 46.568507552004576 92.45793852119499 0 92.45793852119499 -6.0617639178435638 0 0 0 0 61.34025097746985 22.194686383638157 0 22.194686383638157 -91.75997536138857 0 0 0 0 33.275492006845525 20.929893654784337 0 20.929893654784337 -138.75385678398743 0 0 0 0 -20.126565953269164 39.324241363074179 0 39.324241363074179 -126.59729223558998 0 0 0 0 -10.538195484654629 4.8813608111216524 0 4.8813608111216524 -0.83409454201090405 0 0 0 0 1.9094727626379608 23.89600925378636 0 23.89600925378636 15.649878367764813 0 0 0 0 5.2592232237002463 121.53425165377894 0 121.53425165377894 109.6476417135591 0 0 0 0 -4.1549333092560445 5.270058433413185 0 5.270058433413185 -1.243392290067252 0 0 0 0 -2.5233374126004717 1.5291453500384939 0 1.5291453500384939 0.32420724129469036 0 0 0 0 98.648137853148455 -11.338530322638235 0 -11.338530322638235 -137.88538693566443 0 0 0 0 30.344116686068446 21.326169919843778 0 21.326169919843778 -145.04176511200308 0 0 0 0 -6.5318326021297253 -2.5028029757986587 0 -2.5028029757986587 -43.244314558587575 0 0 0 0 -1.8454283127009745 2.0430940811575264 0 2.0430940811575264 -2.3694976844819351 0 0 0 0 85.049496577130412 -56.111816608605295 0 -56.111816608605295 -264.13467234064592 0 0 0 0 -177.73804009109153 -32.027614258258836 0 -32.027614258258836 66.700638551466909 0 0 0 0 -34.813224219291442 136.98097080297566 0 136.98097080297566 87.128909079636287 0 0 0 0 -25.758918172501012 15.288838235165052 0 15.288838235165052 1.5636805890371761 0 0 0 0 -12.236561122285821 8.8232135682505941 0 8.8232135682505941 -7.5921848826819769 0 0 0 0 0.88849940261036409 0.83399103908785932 0 0.83399103908785932 0.73070675799164775 0 0 0 0 -227.19409558726329 98.131215326458914 0 98.131215326458914 207.50995901823626 0 0 0 0 -13.230248253460559 5.5479024150909027 0 5.5479024150909027 2.2786112418552875 0 0 0 0 -0.43313954714105307 2.4940820190784692 0 2.4940820190784692 1.4019369396349468 0 0 0 0 -9.896550403313995 5.7269853216130286 0 5.7269853216130286 1.852755818769765 0 0 0 0 -124.47944248418571 -239.5443098715532 0 -239.5443098715532 -407.83941911699003 0 0 0 0 114.9663267962751 241.55415659466962 0 241.55415659466962 -243.87122410532407 0 0 0 0 -7.4150013323960593 6.0589803000593747 0 6.0589803000593747 -0.34403781106811948 0 0 0 0 -0.33154566446046729 3.3049576560668434 0 3.3049576560668434 0.68286341051362598 0 0 0 0 -5.3121994574212295 7.3014846275982563 0 7.3014846275982563 0.49178050598493428 0 0 0 0 -6.4865414492815034 5.4389271602240115 0 5.4389271602240115 -2.3667640965381906 0 0 0 0 -7.2801284459046656 3.2167064068921079 0 3.2167064068921079 -0.24536449154462403 0 0 0 0 -4.8877605776888231 5.2728725322840546 0 5.2728725322840546 -3.5074883185698127 0 0 0 0 -7.5833872869461629 6.7744004164524085 0 6.7744004164524085 11.649135460584148 0 0 0 0 -4.6814345133207098 5.2531315830819949 0 5.2531315830819949 -0.11813341943343403 0 0 0 0 -4.6053219607420033 10.333931993542137 0 10.333931993542137 4.8009140320336883 0 0 0 0 -6.7109683702101393 8.2540794396149977 0 8.2540794396149977 3.9290570261473476 0 0 0 0 -1.119782263176603 4.3832523769488034 0 4.3832523769488034 3.380999277143701 0 0 0 0 0.79018978068255574 5.3590501551160017 0 5.3590501551160017 1.1060686798817443 0 0 0 0 -2.5620698771090247 5.7540519612211938 0 5.7540519612211938 0.97060199483894394 0 0 0 0 0.031219551508050003 6.142793900287538 0 6.142793900287538 0.0024322073638387565 0 0 0 0 -0.65840087650295231 3.0926150173725411 0 3.0926150173725411 2.7609231981578901 0 0 0 0 6.7270955956810212 10.402982041275209 0 10.402982041275209 -1.8966315301622672 0 0 0 0 6.2562648716084368 6.9943922365955586 0 6.9943922365955586 4.4968118825763668 0 0 0 0 -0.19194981866287719 6.0853580562332539 0 6.0853580562332539 2.1189545692903629 0 0 0 0 4.0081971976032946 6.373388274080753 0 6.373388274080753 -1.3119131092826137 0 0 0 0 6.7020097384120163 6.5621526820332292 0 6.5621526820332292 -3.7732538900988857 0 0 0 0 8.5935671151455608 11.422210355545758 0 11.422210355545758 -2.6186940272773427 0 0 0 0 7.9040481010247277 8.4613326265928208 0 8.4613326265928208 -14.90316410311425 0 0 0 0 9.101013842168868 24.732580510311436 0 24.732580510311436 -8.9120453938485298 0 0 0 0 -0.83969083136616973 4.7369534349700189 0 4.7369534349700189 -0.55037444669869728 0 0 0 0 -4.0960240670741266 6.033011021878778 0 6.033011021878778 0.3002652645008439 0 0 0 0 -3.2888399048624706 14.287160290663451 0 14.287160290663451 -0.12143706433198531 0 0 0 0 -6.0895707668169052 8.4990245448798305 0 8.4990245448798305 -1.8401492970460822 0 0 0 0 6.9674606601383857 11.31675452154559 0 11.31675452154559 0.58491938177394331 0 0 0 0 -32.108682820749891 57.937423312701412 0 57.937423312701412 -39.057838488757625 0 0 0 0 -153.38053752378073 15.726637869657679 0 15.726637869657679 31.095908769812013 0 0 0 0 3.0354474595169449 3.8740833555357312 0 3.8740833555357312 -48.824058743196133 0 0 0 0 3.0065238355609836 3.7974197776447909 0 3.7974197776447909 -5.1844167756398747 0 0 0 0 -0.45960075589407268 1.218413148753962 0 1.218413148753962 0.61157104455378075 0 0 0 0 -92.232407675800459 37.521066054101539 0 37.521066054101539 -6.8018085887379129 0 0 0 0 1.2816912882066447 2.7002194428971436 0 2.7002194428971436 -0.28324115969286634 0 0 0 0 -67.959641783821098 73.939352736259025 0 73.939352736259025 -10.033059228082493 0 0 0 0 189.00937985818746 453.0925114558504 0 453.0925114558504 110.05001247366272 0 0 0 0 124.15035076021013 161.11698263086782 0 161.11698263086782 -360.39061842471523 0 0 0 0 0.56603000112965418 0.86217698466406389 0 0.86217698466406389 0.1544853825187984 0 0 0 0 -43.990136995598846 19.776804950985806 0 19.776804950985806 304.11263766356751 0 0 0 0 408.50337056712851 -27.704407094966882 0 -27.704407094966882 52.028568955750643 0 0 0 0 -45.697726351781967 65.550165027781986 0 65.550165027781986 -16.154863013452541 0 0 0 0 -143.81658589058134 -10.612301581654719 0 -10.612301581654719 96.627338299897019 0 0 0 0 -184.26361244174586 -35.292755675494845 0 -35.292755675494845 85.627208499362951 0 0 0 0 -35.920554089566394 128.11994457368837 0 128.11994457368837 -128.04590563595593 0 0 0 0 90.590227711003536 -29.18131840390015 0 -29.18131840390015 61.679196546630919 0 0 0 0 48.948528427961719 -93.068065158369791 0 -93.068065158369791 -191.34987002133744 0 0 0 0 117.37729556766362 44.173839566521792 0 44.173839566521792 -68.403690912073216 0 0 0 0 -151.25248229367935 101.04355343849784 0 101.04355343849784 -144.99091498385678 0 0 0 0 -170.15484529132402 -69.023576212683736 0 -69.023576212683736 -45.092641947527227 0 0 0 0 -16.483431283866594 22.405674883688334 0 22.405674883688334 -338.60767595523703 0 0 0 0 -31.162888079767072 -14.328671086777376 0 -14.328671086777376 -135.45399531300609 0 0 0 0 -2.2624880634216353 1.0850418654521654 0 1.0850418654521654 -0.54806963701179612 0 0 0 0 -126.30651746221884 -69.459081401913409 0 -69.459081401913409 35.495413410584661 0 0 0 0 -12.026519941346123 -17.106654956124657 0 -17.106654956124657 38.055278110054587 0 0 0 0 -31.808104490508413 51.732034140450196 0 51.732034140450196 60.805885318579385 0 0 0 0 -6.6972387020999875 2.5934986401540083 0 2.5934986401540083 -0.96181469724357704 0 0 0 0 1.639700258800076 14.970697907863723 0 14.970697907863723 7.0870306433052974 0 0 0 0 -11.301209555852438 -13.372210439030823 0 -13.372210439030823 -88.868556261215417 0 0 0 0 18.531536023123408 -9.8703024932792687 0 -9.8703024932792687 -197.30125569046595 0 0 0 0 -17.041191351579073 13.336032258157957 0 13.336032258157957 7.7710339173154352 0 0 0 0 -28.270909046280394 28.605653930368135 0 28.605653930368135 -15.847178813863138 0 0 0 0 -102.28473324210427 10.367938847371533 0 10.367938847371533 -18.717762339430919 0 0 0 0 -6.2070759830257884 63.076046540332754 0 63.076046540332754 -143.70094589079144 0 0 0 0 -33.017822312521275 9.9076587222593844 0 9.9076587222593844 38.741014847384577 0 0 0 0 -43.236730780105063 37.039531153654025 0 37.039531153654025 79.525514320999719 0 0 0 0 -8.9923080139248412 8.3824372724394038 0 8.3824372724394038 -7.791005486004849 0 0 0 0 24.322927491424707 102.12464491899755 0 102.12464491899755 41.268895414027384 0 0 0 0 -6.0082152343638882 -1.2794374365066687 0 -1.2794374365066687 -7.0698184729972127 0 0 0 0 -10.97531156520148 11.067943463364731 0 11.067943463364731 -6.8371992189140514 0 0 0 0 26.762321874942245 33.627294833366477 0 33.627294833366477 -23.426065468154775 0 0 0 0 -7.1658393454163161 60.843729753988555 0 60.843729753988555 75.266017235917388 0 0 0 0 6.790367281843352 5.805476049186499 0 5.805476049186499 -2.1838718652875557 0 0 0 0 -1.8223063451914641 11.780281271661806 0 11.780281271661806 -0.28511288630215859 0 0 0 0 7.7940986080834591 32.172468487586229 0 32.172468487586229 -1.1442689393970795 0 0 0 0 6.7899920328763983 26.12908762045754 0 26.12908762045754 -36.550730137902008 0 0 0 0 -0.14921136292777604 2.6766817184123752 0 2.6766817184123752 1.6803422314242185 0 0 0 0 -1.6831425700911495 21.804634219025957 0 21.804634219025957 1.2981144363038766 0 0 0 0 -1.8429803416638606 27.796870867147845 0 27.796870867147845 -4.9455871167629084 0 0 0 0 17.891230301815085 20.444880919937987 0 20.444880919937987 -6.8881340763546177 0 0 0 0 -1.6823769007647584 11.317331873184362 0 11.317331873184362 -0.31279420201370856 0 0 0 0 0.42035962440422736 13.592581720613907 0 13.592581720613907 -5.0723129332227472 0 0 0 0 0.26445868606060685 9.8227487153044422 0 9.8227487153044422 -1.3250412793131545 0 0 0 0 -0.17082763129762313 9.9836736689466399 0 9.9836736689466399 -0.33456185228575208 0 0 0 0 4.0841587475504006 9.0579759237868309 0 9.0579759237868309 -4.6426247861998391 0 0 0 0 3.9773982541846635 7.2279905466166383 0 7.2279905466166383 46.809729294340286 0 0 0 0 -4.8708167632175901 15.732459103328438 0 15.732459103328438 38.784036692265374 0 0 0 0 -0.01929959775043244 21.266802708541036 0 21.266802708541036 45.087253621666605 0 0 0 0 -25.673320267647796 21.013530313151932 0 21.013530313151932 55.97256310366356 0 0 0 0 -34.615367825814246 -6.6691771333862562 0 -6.6691771333862562 43.439278699841452 0 0 0 0 1.9567311932834173 -14.717812914516855 0 -14.717812914516855 40.245886053558934 0 0 0 0 -4.2772990546127403 22.168566643687882 0 22.168566643687882 3.9930334953412228 0 0 0 0 5.4592926894045242 8.2230420177822978 0 8.2230420177822978 6.571996541089554 0 0 0 0 5.6011463857357739 -4.1213056889864674 0 -4.1213056889864674 39.256687431690807 0 0 0 0 33.779305794392712 -13.424083043702922 0 -13.424083043702922 21.775385481473677 0 0 0 0 -46.263087475648717 -42.927541149945682 0 -42.927541149945682 -5.1764649544020358 0 0 0 0 1.5580982973187929 -7.094096904579601 0 -7.094096904579601 21.092751192802098 0 0 0 0 -9.4548079528321978 -18.737489193852525 0 -18.737489193852525 25.069783111332072 0 0 0 0 -4.954482963139526 -22.474164632386419 0 -22.474164632386419 20.234340399143548 0 0 0 0 -74.700685963432989 20.022166111393744 0 20.022166111393744 33.783467296186245 0 0 0 0 -28.312610764053261 6.4248826509754053 0 6.4248826509754053 37.769098165110336 0 0 0 0 6.1203773708311928 -11.840239789118641 0 -11.840239789118641 -35.306106312042175 0 0 0 0 23.190196195836506 -37.964348573156713 0 -37.964348573156713 -67.255270495670629 0 0 0 0 0.85704321334607769 0.32058663055280512 0 0.32058663055280512 -0.13298759968636631 0 0 0 0 56.104825026175604 1.6809700294829781 0 1.6809700294829781 -20.04028225014099 0 0 0 0 63.3147881928071 53.893069129427204 0 53.893069129427204 41.858370912563259 0 0 0 0 82.70437100147501 67.564622354693711 0 67.564622354693711 25.156988595472285 0 0 0 0 171.34886400541654 24.877653688283317 0 24.877653688283317 -28.367020959964975 0 0 0 0 159.06083808847188 -21.52149277391527 0 -21.52149277391527 126.71828938226827 0 0 0 0 35.39848872237053 48.263834505403793 0 48.263834505403793 245.54385265100973 0 0 0 0 -22.465485326191811 247.71603605351129 0 247.71603605351129 98.590434516805544 0 0 0 0 196.22191503425574 -387.95780121268604 0 -387.95780121268604 86.336337195916713 0 0 0 0 1.1852261300637963 1.0635181478927045 0 1.0635181478927045 -0.53461496957784149 0 0 0 0 -12.976389976551218 199.14079613427293 0 199.14079613427293 -92.075473602047623 0 0 0 0 84.304270383716357 130.39989713655268 0 130.39989713655268 -183.15015134678015 0 0 0 0 14.658742111063475 -35.167755673019201 0 -35.167755673019201 15.147129029506686 0 0 0 0 24.550200472804136 -34.58727147366335 0 -34.58727147366335 15.028596413905689 0 0 0 0 3.2196123857312351 4.9830327721713417 0 4.9830327721713417 5.5111673805313224 0 0 0 0 14.837305452395867 13.479852201007816 0 13.479852201007816 -10.956322633055606 0 0 0 0 11.959696788340807 9.7580609765354893 0 9.7580609765354893 -7.7181805990603607 0 0 0 0 -3.3327819630976592 21.817332249207539 0 21.817332249207539 -8.9451591964298132 0 0 0 0 -74.129704007480086 19.724273942387299 0 19.724273942387299 7.5633469916301692 0 0 0 0 -0.82813299024249254 1.8594251405676667 0 1.8594251405676667 -3.8306832661479859 0 0 0 0 0.33060488573056279 2.0974163475785144 0 2.0974163475785144 -4.7638639929879467 0 0 0 0 118.43853493663119 89.734603311657338 0 89.734603311657338 -84.894104174980384 0 0 0 0 39.350026471840465 -40.714185492427077 0 -40.714185492427077 3.3703270363293996 0 0 0 0 -1.7511455520025265 20.255161850020158 0 20.255161850020158 29.78502935024153 0 0 0 0 33.917976452300536 8.3001006147278531 0 8.3001006147278531 -7.7399887033134291 0 0 0 0 14.541945706926981 10.447418071877337 0 10.447418071877337 0.32714271454460686 0 0 0 0 9.3085617551696487 14.368065623995335 0 14.368065623995335 -14.031460177819099 0 0 0 0 16.52322883682973 21.695973995895656 0 21.695973995895656 -8.0861408991859207 0 0 0 0 17.336729012364231 6.5257443648097251 0 6.5257443648097251 -4.1883715867697902 0 0 0 0 39.737169159003315 29.274429835556475 0 29.274429835556475 5.3375340046513884 0 0 0 0 40.370673110692451 32.037725767719849 0 32.037725767719849 10.053085399773408 0 0 0 0 37.644841827778237 41.427015367610011 0 41.427015367610011 13.488377125391708 0 0 0 0 34.474171183529961 27.751491013003942 0 27.751491013003942 6.2135676487778255 0 0 0 0 -1.8645887310928302 4.8915044901001803 0 4.8915044901001803 -12.184211669090224 0 0 0 0 42.11323979892768 24.71182249240519 0 24.71182249240519 7.3832972867348872 0 0 0 0 51.915618789393193 25.093333617815006 0 25.093333617815006 5.9005121482405229 0 0 0 0 58.752484869328327 29.843268382513997 0 29.843268382513997 -1.6526576475989714 0 0 0 0 56.919215659311703 13.878217436484192 0 13.878217436484192 -89.779531637679611 0 0 0 0 49.87588082613911 30.089195959950302 0 30.089195959950302 -6.3350814532786899 0 0 0 0 46.904032222823616 48.295238192236525 0 48.295238192236525 23.275825508650087 0 0 0 0 51.780102210033874 36.402473368771098 0 36.402473368771098 6.5459155732605723 0 0 0 0 53.343385728055182 76.811960232604633 0 76.811960232604633 43.390301776236811 0 0 0 0 44.917941496352796 81.762956917292286 0 81.762956917292286 40.618702567205219 0 0 0 0 67.89619413102082 77.277101279403723 0 77.277101279403723 -9.0735410634138702 0 0 0 0 67.967642554761369 72.776681722382818 0 72.776681722382818 -86.216914687207463 0 0 0 0 74.233321890547813 119.16774654642995 0 119.16774654642995 32.778103059492423 0 0 0 0 71.957440730309827 64.628265507202741 0 64.628265507202741 95.329507541379826 0 0 0 0 46.286015649271121 100.49263863904753 0 100.49263863904753 63.246808547131877 0 0 0 0 20.101516693026497 131.34505955434361 0 131.34505955434361 37.105610493739732 0 0 0 0 46.756314104217381 99.023187024107756 0 99.023187024107756 53.234448151646575 0 0 0 0 38.140136679664465 95.607967994010323 0 95.607967994010323 63.77452564059513 0 0 0 0 45.450877757122726 99.653146854822808 0 99.653146854822808 63.904801350185153 0 0 0 0 31.760947362553452 82.166045935144211 0 82.166045935144211 60.347602723997625 0 0 0 0 27.052005067940627 84.62414032039942 0 84.62414032039942 72.081126898394359 0 0 0 0 27.033716535397616 107.72991176704545 0 107.72991176704545 80.414480775370976 0 0 0 0 35.578460123582772 124.61199627741826 0 124.61199627741826 104.621401422708 0 0 0 0 94.046482774991091 116.23384830176838 0 116.23384830176838 63.213060690050042 0 0 0 0 48.99986005944811 91.276031620894855 0 91.276031620894855 66.140512137859332 0 0 0 0 176.92705639373162 134.16119759627964 0 134.16119759627964 -17.909207258095194 0 0 0 0 155.80873834330123 88.205387468115987 0 88.205387468115987 29.877460174565385 0 0 0 0 98.949541644895362 110.61256732163383 0 110.61256732163383 21.639418359867705 0 0 0 0 154.43805951527429 99.501667584510869 0 99.501667584510869 -54.935947334113735 0 0 0 0 151.67854577856906 40.793974877649816 0 40.793974877649816 -103.61167144346655 0 0 0 0 265.63455231354055 160.58689618880089 0 160.58689618880089 -50.929344392870462 0 0 0 0 236.1102195219155 130.87560134811974 0 130.87560134811974 19.458954877974975 0 0 0 0 132.84555593966161 141.53215298667601 0 141.53215298667601 36.591016605223558 0 0 0 0 127.74608664771586 168.22897464495691 0 168.22897464495691 39.74076461571758 0 0 0 0 203.07425941107795 264.85655292644151 0 264.85655292644151 162.33660531261194 0 0 0 0 58.115110159196774 192.23905839055715 0 192.23905839055715 178.58940284693381 0 0 0 0 -34.978205864763368 100.27243572686257 0 100.27243572686257 166.68011704025412 0 0 0 0 70.457777498206269 146.49147710558236 0 146.49147710558236 173.51044394249038 0 0 0 0 28.87235488623719 175.98741543441065 0 175.98741543441065 253.99345744775019 0 0 0 0 481.02160364494193 295.87105193502157 0 295.87105193502157 126.7444432837292 0 0 0 0 216.30290956437966 338.88882025519524 0 338.88882025519524 423.98925511198649 0 0 0 0 414.18964432811708 120.77809575073661 0 120.77809575073661 -2.1875430376767326 0 0 0 0 3.1546066600289535 3.7170792011377429 0 3.7170792011377429 1.0781067768167389 0 0 0 0 29.067038191713436 56.832966497503548 0 56.832966497503548 457.07013736534634 0 0 0 0 0.49159811565100853 1.7289194318706169 0 1.7289194318706169 2.137410964339459 0 0 0 0 -8.2323661895279656 -55.381330657551189 0 -55.381330657551189 125.48329499272222 0 0 0 0 -16.587990747393633 13.94604248037831 0 13.94604248037831 37.838994877753066 0 0 0 0 -1.3562146912478283 7.1526211201653922 0 7.1526211201653922 7.1488155037802734 0 0 0 0 -16.729082138358535 9.4007461807436812 0 9.4007461807436812 9.1741570507683718 0 0 0 0 -5.8679928397518779 15.491603620830347 0 15.491603620830347 12.558694878915048 0 0 0 0 9.3719010945651462 38.115130456410043 0 38.115130456410043 20.549916221283638 0 0 0 0 -7.5280702096542882 33.005961348256278 0 33.005961348256278 47.738814966947757 0 0 0 0 14.086208000971055 71.993048539984557 0 71.993048539984557 79.769090280180535 0 0 0 0 -2.0504166070641077 49.375387523292375 0 49.375387523292375 65.880147859817498 0 0 0 0 -32.711183021348916 45.646226374185972 0 45.646226374185972 116.59287148854673 0 0 0 0 0.32747113254481519 6.7646315832316759 0 6.7646315832316759 -5.10700024356629 0 0 0 0 -3.274957598770925 16.476910284072801 0 16.476910284072801 6.0611926485216827 0 0 0 0 -0.66024336399709682 12.452463214359796 0 12.452463214359796 -4.9483034137501818 0 0 0 0 -0.73104377786194163 25.271670641213632 0 25.271670641213632 -10.135767195284643 0 0 0 0 -0.13610887197843624 9.115008853446092 0 9.115008853446092 3.6746279123272529 0 0 0 0 -4.7199674846851849 13.907727493715356 0 13.907727493715356 3.1378151331555273 0 0 0 0 -2.7921344866858142 8.7281410776040325 0 8.7281410776040325 -1.5580366422608538 0 0 0 0 -0.073752632844843902 8.698964154274563 0 8.698964154274563 1.7086992753647792 0 0 0 0 -1.0876680038281847 11.466062219795958 0 11.466062219795958 3.9914160028638435 0 0 0 0 -5.5256946246098266 6.2835574406785142 0 6.2835574406785142 -1.9100855707315674 0 0 0 0 -1.8494724717238569 16.275131401463113 0 16.275131401463113 -3.8229341272399324 0 0 0 0 0.40098021721860277 9.4516816004870634 0 9.4516816004870634 4.9377981165653182 0 0 0 0 -3.0418646948201058 10.857405324970387 0 10.857405324970387 9.4104927329353814 0 0 0 0 37.159497709888456 22.103749149769101 0 22.103749149769101 34.657334393997871 0 0 0 0 0.60060819425967793 7.3515825318061161 0 7.3515825318061161 -5.6474774687449845 0 0 0 0 3.5165636138749505 13.365882716332635 0 13.365882716332635 11.180799386747822 0 0 0 0 2.9577657842000917 11.671577716499996 0 11.671577716499996 6.0447995300128241 0 0 0 0 -0.78206857087388926 14.653454327666623 0 14.653454327666623 -1.4226518459881845 0 0 0 0 -1.2111017496572458 12.627010312418861 0 12.627010312418861 9.8974809642495529 0 0 0 0 -1.7084894380156825 7.0719578315981515 0 7.0719578315981515 -4.5260643646847143 0 0 0 0 0.041941524202059099 0.17078213198692538 0 0.17078213198692538 -15.925903266439491 0 0 0 0 0.90748460206395976 17.866041500578831 0 17.866041500578831 -26.178675915582062 0 0 0 0 -1.7193891865224487 16.307796364604997 0 16.307796364604997 -9.4812066545182461 0 0 0 0 -9.6930059082969819 -0.005823655038511788 0 -0.005823655038511788 -22.492503057355862 0 0 0 0 1.7687760732576407 36.533754379370066 0 36.533754379370066 -57.656446700440938 0 0 0 0 9.8916011968058228 4.588923888059071 0 4.588923888059071 -56.119688884289644 0 0 0 0 0.070118918234584271 26.631807869111981 0 26.631807869111981 -32.320781754767268 0 0 0 0 -1.1029742283672022 18.250198167079361 0 18.250198167079361 -14.331066029977592 0 0 0 0 4.9518737239945949 11.269196651629954 0 11.269196651629954 -23.58898297954147 0 0 0 0 -2.4152318018847154 12.137772929314792 0 12.137772929314792 -4.9303687965802965 0 0 0 0 2.5276304076469387 21.874991038101598 0 21.874991038101598 -26.3807371059047 0 0 0 0 -3.020502956052951 32.437184756882743 0 32.437184756882743 -28.590209327749108 0 0 0 0 -2.4218836432620763 41.552178621796052 0 41.552178621796052 -45.726583655419745 0 0 0 0 -2.4143915335123363 34.454507211416797 0 34.454507211416797 -25.454334375977851 0 0 0 0 -9.4693960339754994 37.007725697539172 0 37.007725697539172 -26.377749249444605 0 0 0 0 -17.290532355281812 44.752671963601642 0 44.752671963601642 -13.027991114208817 0 0 0 0 -19.287430629598475 52.267222784027581 0 52.267222784027581 -25.281132807293034 0 0 0 0 -18.613933777055536 37.732895511427159 0 37.732895511427159 -0.018029353257588809 0 0 0 0 -27.986168437503693 55.378472814531051 0 55.378472814531051 -0.01134651111807022 0 0 0 0 -38.440769139587246 70.934885136451157 0 70.934885136451157 -23.158999002311248 0 0 0 0 -9.4012977319707716 59.455506392982898 0 59.455506392982898 -34.081337445778445 0 0 0 0 -19.583355224875049 80.884330421184131 0 80.884330421184131 -75.072457470405425 0 0 0 0 -12.521668234556273 51.717497413775163 0 51.717497413775163 -26.596717910438201 0 0 0 0 5.6289790910386728 26.712376754157049 0 26.712376754157049 -36.822277140432561 0 0 0 0 11.46825354255634 37.274489789023391 0 37.274489789023391 -70.637126751886512 0 0 0 0 2.117958895598349 68.969225597120385 0 68.969225597120385 -177.72293727508259 0 0 0 0 -107.9808328679901 222.08546420710263 0 222.08546420710263 -309.31279649623866 0 0 0 0 -37.390633162991435 88.369696132184799 0 88.369696132184799 -78.766545224523725 0 0 0 0 -48.338292419186473 113.62894707777741 0 113.62894707777741 -80.556346259321799 0 0 0 0 -39.320648651931151 84.80119527519264 0 84.80119527519264 -16.60225679940595 0 0 0 0 -50.0926298397153 77.604714000835884 0 77.604714000835884 -16.730246308359185 0 0 0 0 -59.622854441880008 42.675501171979704 0 42.675501171979704 27.183919486204104 0 0 0 0 -41.704460739414571 65.564728320296581 0 65.564728320296581 -0.0029169890622142702 0 0 0 0 78.121870281909651 10.867888277902694 0 10.867888277902694 -2.0854566049674759 0 0 0 0 156.36427825411101 61.104130699297457 0 61.104130699297457 -0.050713964597889571 0 0 0 0 16.294661340447419 59.583137358178647 0 59.583137358178647 0.044247141160668274 0 0 0 0 23.093804773033298 20.068917851798687 0 20.068917851798687 15.005571830753979 0 0 0 0 39.069416071221895 27.225707881239941 0 27.225707881239941 3.4645735125832289 0 0 0 0 211.98854725059391 -32.976108544383351 0 -32.976108544383351 -10.24332295413933 0 0 0 0 31.274495714123532 5.4415035060487753 0 5.4415035060487753 43.427686155722768 0 0 0 0 33.306655148795471 2.8775134111328953 0 2.8775134111328953 -10.729581498599146 0 0 0 0 -137.57526035770206 54.016997929019453 0 54.016997929019453 29.75541830989232 0 0 0 0 -294.79293509715808 60.105873406679621 0 60.105873406679621 5.9922250230574718 0 0 0 0 209.82542505012498 206.67050678474243 0 206.67050678474243 179.46739825915211 0 0 0 0 106.12758364121146 -1.1017665977306024 0 -1.1017665977306024 -201.97203889840239 0 0 0 0 128.43932859566667 316.92935240147381 0 316.92935240147381 -173.90278506266895 0 0 0 0 101.55300593885931 186.14936848204434 0 186.14936848204434 -37.136748627224733 0 0 0 0 126.14874772371968 265.33266460915456 0 265.33266460915456 217.67027259094903 0 0 0 0 0.19207948898479543 0.16675648489209749 0 0.16675648489209749 0.28763937829606512 0 0 0 0 41.120842632841232 265.91415511680862 0 265.91415511680862 432.76725750525475 0 0 0 0 64.365596135714441 129.40113882240257 0 129.40113882240257 309.76468094933625 0 0 0 0 -122.63368710090526 176.15480717411947 0 176.15480717411947 -199.24183141112371 0 0 0 0 -1.367863557273381 1.5746240519030295 0 1.5746240519030295 -2.3931906457635819 0 0 0 0 -3.0668251868046355 -29.231800633802777 0 -29.231800633802777 -322.33023193616935 0 0 0 0 -53.166624635921835 6.2090488849507892 0 6.2090488849507892 19.531571917552355 0 0 0 0 -9.9436608771984538 -30.239845884821875 0 -30.239845884821875 -60.925076927256669 0 0 0 0 1.0416013776430191 11.746600256439706 0 11.746600256439706 -41.099414350804636 0 0 0 0 17.654481894505807 18.857644272286507 0 18.857644272286507 -28.669922043109182 0 0 0 0 -3.6834538702035999 5.8100580927538736 0 5.8100580927538736 -4.1988083005573813 0 0 0 0 2.3467013822124301 1.51029508367807 0 1.51029508367807 -1.4635657945624487 0 0 0 0 114.62258045046838 129.71242548140935 0 129.71242548140935 127.46613011136833 0 0 0 0 83.871798280004441 130.18314287472276 0 130.18314287472276 225.1458638288168 0 0 0 0 84.945670671413609 188.73260144024243 0 188.73260144024243 236.6640034879274 0 0 0 0 72.103332228220097 170.56950278019576 0 170.56950278019576 211.30251787363613 0 0 0 0 60.761491508759718 42.340722618036125 0 42.340722618036125 113.05720022367495 0 0 0 0 -4.2399521831706082 3.5598756616908176 0 3.5598756616908176 0.26802908938898895 0 0 0 0 145.23881251678176 191.06713967671567 0 191.06713967671567 166.19999409147113 0 0 0 0 43.764307884805021 258.07964539796103 0 258.07964539796103 556.14434431777909 0 0 0 0 321.55893829421257 260.44307484615456 0 260.44307484615456 83.788710685139449 0 0 0 0 49.175360534969514 112.30788450301043 0 112.30788450301043 254.80121247253555 0 0 0 0 62.397714549781085 89.247213703712987 0 89.247213703712987 132.95377536320711 0 0 0 0 64.951090718026535 83.892599647067982 0 83.892599647067982 139.19695396895622 0 0 0 0 9.8840041805833607 65.900454279117184 0 65.900454279117184 130.73171057756554 0 0 0 0 -3.7406686629151302 3.2705110384080465 0 3.2705110384080465 1.0074528328471395 0 0 0 0 5.773681183034455 -10.98220378854964 0 -10.98220378854964 31.57801014801953 0 0 0 0 88.999401284154374 106.50451920320484 0 106.50451920320484 96.929403489612014 0 0 0 0 65.883845406826367 92.41101622588576 0 92.41101622588576 67.153163885621325 0 0 0 0 40.594655036351469 108.83108254157924 0 108.83108254157924 152.11375966014384 0 0 0 0 95.401830695721401 127.27153902158125 0 127.27153902158125 125.80972722009392 0 0 0 0 109.54383713328161 200.49617660650915 0 200.49617660650915 232.73629613489902 0 0 0 0 101.8749911120758 144.79012944973056 0 144.79012944973056 170.10297672861998 0 0 0 0 67.930432777166516 127.48106774972939 0 127.48106774972939 185.59020954121297 0 0 0 0 14.617778543455643 -16.341208360774544 0 -16.341208360774544 -0.85398139409744545 0 0 0 0 0.72047089778546436 0.20999907577847665 0 0.20999907577847665 -0.21228228842331021 0 0 0 0 4.0989996003481792 49.833396740052194 0 49.833396740052194 13.579702616550094 0 0 0 0 127.23086779901678 129.61913296804141 0 129.61913296804141 78.938652033781636 0 0 0 0 21.203288638069353 38.154567315500572 0 38.154567315500572 40.578320694363356 0 0 0 0 -4.1659648842470318 3.2966711926848902 0 3.2966711926848902 -1.1622395005646489 0 0 0 0 -13.418309218435752 4.0602627081398168 0 4.0602627081398168 5.8014042753693502 0 0 0 0 25.472565261428826 9.1368294835192501 0 9.1368294835192501 -1.6005828312427184 0 0 0 0 -0.58448889592727937 7.9063951070957046 0 7.9063951070957046 -0.80739879620341526 0 0 0 0 4.3478221968133752 3.9268935356490609 0 3.9268935356490609 -0.6582985844926128 0 0 0 0 -13.586762523391371 -1.9237103610876147 0 -1.9237103610876147 15.217322069674992 0 0 0 0 -0.95019201732451464 0.44671685735994338 0 0.44671685735994338 0.44724817928234017 0 0 0 0 -2.3874493360867595 6.3581084834510833 0 6.3581084834510833 -2.1644705067419778 0 0 0 0 51.591428498479218 22.465595278382807 0 22.465595278382807 -8.4856812867001281 0 0 0 0 -19.078916313530499 42.17598479031949 0 42.17598479031949 21.351948467375223 0 0 0 0 -1.944525940269159 11.397362382849678 0 11.397362382849678 -23.632736029590887 0 0 0 0 -3.833407797279996 6.8991994912437189 0 6.8991994912437189 2.8186331236818938 0 0 0 0 2.0511678775728797 9.8060406671011151 0 9.8060406671011151 -10.60127386903514 0 0 0 0 5.6625570656874515 6.8603415903214682 0 6.8603415903214682 -8.2072700076132605 0 0 0 0 0.079819679607112448 1.1673793938637402 0 1.1673793938637402 -0.1516871715264354 0 0 0 0 -6.7241342369998165 9.5761129659922517 0 9.5761129659922517 -2.4183826957630572 0 0 0 0 -9.5913952748651354 8.5996213319740491 0 8.5996213319740491 -1.4553794194162037 0 0 0 0 -6.5265741923922178 9.2524190715976147 0 9.2524190715976147 -3.6643245671275508 0 0 0 0 -5.8057539388846635 6.1220723503201953 0 6.1220723503201953 -1.7592396797208494 0 0 0 0 -2.6623049255740625 8.9603405391007982 0 8.9603405391007982 -3.6636263118380157 0 0 0 0 0.69812414439002168 9.0726974492499721 0 9.0726974492499721 -2.1769531603576979 0 0 0 0 -1.9791219289727451 7.2082003314808389 0 7.2082003314808389 0.62150628313975176 0 0 0 0 -1.8873554384826363 5.999038136186714 0 5.999038136186714 -2.3056616387351951 0 0 0 0 -2.4463449842232876 7.479091488744416 0 7.479091488744416 -2.0262711958266664 0 0 0 0 1.8258592309194466 4.6741518638543766 0 4.6741518638543766 -0.10080205705840228 0 0 0 0 -2.8759345289727207 7.7180453354267229 0 7.7180453354267229 -1.2744037674049196 0 0 0 0 -1.0486396061596679 12.443593732756199 0 12.443593732756199 1.0298957202539896 0 0 0 0 1.7420070616319521 3.577857475419119 0 3.577857475419119 -0.82887762358296158 0 0 0 0 -3.631877914604047 8.0342757845673987 0 8.0342757845673987 -2.285984219573038 0 0 0 0 -1.3011642544181328 6.9959289816063723 0 6.9959289816063723 -2.4212210368982099 0 0 0 0 8.9288804481311672 5.6608421722894491 0 5.6608421722894491 -1.5235572447854793 0 0 0 0 12.389056526719287 15.44903442575287 0 15.44903442575287 -4.527257701036433 0 0 0 0 -0.42120559223350273 4.9481138694323814 0 4.9481138694323814 -3.6311796385402602 0 0 0 0 106.38118525530808 -20.846874455814941 0 -20.846874455814941 8.226498566196824 0 0 0 0 5.6618895020183118 -2.2704695826487296 0 -2.2704695826487296 25.911487924589892 0 0 0 0 -2.5677940739570868 4.2664839151724632 0 4.2664839151724632 -2.5323090316200307 0 0 0 0 16.440291792214339 0.46024363085916775 0 0.46024363085916775 -6.3351834184650215 0 0 0 0 13.018543158228567 -5.1096933320459357 0 -5.1096933320459357 -15.400357609441016 0 0 0 0 2.9119251970241748 20.39686400090568 0 20.39686400090568 -2.1478188679648156 0 0 0 0 90.802755836655251 68.50870164101957 0 68.50870164101957 -21.491298601662493 0 0 0 0 216.52992723295029 143.05975764449158 0 143.05975764449158 -64.757833740448405 0 0 0 0 234.02861372703319 167.08118495721919 0 167.08118495721919 -52.623679336611531 0 0 0 0 262.25290539877278 78.477443676580151 0 78.477443676580151 -24.291686327048865 0 0 0 0 520.87905077895812 170.85875788158774 0 170.85875788158774 -85.823878316269656 0 0 0 0 -20.260885865684031 12.609523263693518 0 12.609523263693518 123.8207111912343 0 0 0 0 0.95090513174536007 0.99879242809768165 0 0.99879242809768165 -0.34834255579140461 0 0 0 0 2.9510383545149921 2.2931224957570358 0 2.2931224957570358 -0.4349419545295099 0 0 0 0 82.658421788062697 137.47836044789437 0 137.47836044789437 222.01471245936045 0 0 0 0 382.27522008992082 -116.25659364973126 0 -116.25659364973126 28.843825850784924 0 0 0 0 329.16780595030468 268.53950834965872 0 268.53950834965872 79.697525821226009 0 0 0 0 102.6123354276715 134.55098976719819 0 134.55098976719819 -0.088637958755498403 0 0 0 0 238.65961916679134 138.03273771788281 0 138.03273771788281 -32.853949309144809 0 0 0 0 248.5835357210417 -125.9192464903881 0 -125.9192464903881 77.186302438538405 0 0 0 0 517.75984263285136 30.182636124478449 0 30.182636124478449 -57.682800074304396 0 0 0 0 260.56107051093386 80.205062387989528 0 80.205062387989528 -33.626502279537817 0 0 0 0 212.53392598579558 47.58963208303885 0 47.58963208303885 -53.510380566119693 0 0 0 0 176.80840419349806 136.05596568033798 0 136.05596568033798 -1.9749076296857311 0 0 0 0 216.01203856706707 82.010601544892779 0 82.010601544892779 0.0013637245327069829 0 0 0 0 192.90453544283264 76.089833204771821 0 76.089833204771821 -0.54986973314225907 0 0 0 0 177.46532555218982 54.894087679744189 0 54.894087679744189 -29.648184607655367 0 0 0 0 -584.17468075866145 226.49545018237586 0 226.49545018237586 -84.596066796522791 0 0 0 0 -4.0751890848846486 2.0336896253699166 0 2.0336896253699166 -0.74690046671754118 0 0 0 0 310.97421824788125 31.719225711202853 0 31.719225711202853 -7.0776292006958101 0 0 0 0 -4.6175114849135106 0.8541969394394755 0 0.8541969394394755 -0.05712908707837272 0 0 0 0 -9.1086330915350118 6.5259066635226191 0 6.5259066635226191 -0.011462008786665054 0 0 0 0 192.70721904405855 78.258163708020675 0 78.258163708020675 -5.3799508545835124 0 0 0 0 150.17018390753447 59.987106418824169 0 59.987106418824169 9.8078233744490717 0 0 0 0 8.9137892242342787 42.956919749680083 0 42.956919749680083 -56.404131781502656 0 0 0 0 174.99395199224 46.887958505627466 0 46.887958505627466 -6.17694148475357 0 0 0 0 -2.1971261047849486 5.7764260450693854 0 5.7764260450693854 -5.5480725331526486 0 0 0 0 4.5306007414937994 23.815316677116925 0 23.815316677116925 -95.975128877304087 0 0 0 0 -573.38498288993469 225.76573623228023 0 225.76573623228023 -91.911599098302759 0 0 0 0 -77.665422161615425 29.432918860385143 0 29.432918860385143 34.180158364835734 0 0 0 0 -4.854976891588727 -1.7094018391772288 0 -1.7094018391772288 3.12745779404122 0 0 0 0 0.030655984339691855 0.11344541811086728 0 0.11344541811086728 -0.3318543586274032 0 0 0 0 -49.17732649077152 7.8310855313384309 0 7.8310855313384309 -19.39739698136691 0 0 0 0 26.186602542438777 6.5156397621012729 0 6.5156397621012729 5.9434718222328229 0 0 0 0 22.33569286436159 54.062466535599469 0 54.062466535599469 1.3950750809526653 0 0 0 0 42.741507187754905 42.064208130248517 0 42.064208130248517 7.0260312454320228 0 0 0 0 0.62343447506646044 0.98726953062214307 0 0.98726953062214307 4.9231573570559704 0 0 0 0 22.236328935761776 -2.2134452930731641 0 -2.2134452930731641 -6.5090653930838016 0 0 0 0 -1.2363454522349047 6.7595679619952893 0 6.7595679619952893 -7.3734383382271957 0 0 0 0 -1.8457173028612033 7.8325022885329645 0 7.8325022885329645 -0.69548919741639637 0 0 0 0 -38.446996234540165 21.156740021961696 0 21.156740021961696 -8.8379825822139537 0 0 0 0 8.9301697363298445 4.2629219430873491 0 4.2629219430873491 -2.7156168391225037 0 0 0 0 -0.031997058445874416 0.450094788546064 0 0.450094788546064 -1.2551470345213289 0 0 0 0 -399.28751856953022 267.37191060401574 0 267.37191060401574 -143.02462238185217 0 0 0 0 -430.87778535022881 345.76277186493894 0 345.76277186493894 0.15160194003055949 0 0 0 0 -0.11227295878006771 260.31754956132136 0 260.31754956132136 -252.27072580869481 0 0 0 0 -420.78001349245824 221.17112653179538 0 221.17112653179538 -205.10449926155798 0 0 0 0 -495.11756017177868 386.90669304732501 0 386.90669304732501 -106.20776855730946 0 0 0 0 -2.2272910152744281 -0.68365615624689724 0 -0.68365615624689724 2.3871552523900874 0 0 0 0 -148.42079103238575 391.61528228869474 0 391.61528228869474 -154.36307819261765 0 0 0 0 -0.19629223832635034 135.31220023419792 0 135.31220023419792 -150.7602771723532 0 0 0 0 -192.48668409964375 95.455461926642784 0 95.455461926642784 -123.83719070904226 0 0 0 0 -97.668687894838513 225.95212350304701 0 225.95212350304701 -219.35577979092704 0 0 0 0 -197.8719741982186 261.96079427143286 0 261.96079427143286 -193.58340253415008 0 0 0 0 -194.97191442220901 242.8774713942239 0 242.8774713942239 -221.67209527238629 0 0 0 0 -411.48799879775652 199.52537515721724 0 199.52537515721724 -123.82557165476464 0 0 0 0 -437.36944127564857 309.99241600596906 0 309.99241600596906 -107.47156280637228 0 0 0 0 -0.76747843450277031 0.14241915688597118 0 0.14241915688597118 0.67657114142262031 0 0 0 0 -37.891521424595339 19.392967158393731 0 19.392967158393731 -40.905686558373418 0 0 0 0 -37.631106071114118 22.56371509118253 0 22.56371509118253 -14.060066798434491 0 0 0 0 -3.0792202326807541 -0.37527430619157442 0 -0.37527430619157442 -0.23530035094882251 0 0 0 0 0.98811666534538745 11.376430616516245 0 11.376430616516245 7.9874929754369077 0 0 0 0 -9.0128786434652284 26.228021949494178 0 26.228021949494178 -11.873051464073797 0 0 0 0 -194.52986716201485 151.87777916542564 0 151.87777916542564 -70.427678001077766 0 0 0 0 -55.908721053521731 -49.435709875288012 0 -49.435709875288012 23.084305118768498 0 0 0 0 -307.55140522812508 151.77927213555995 0 151.77927213555995 -105.49670187670563 0 0 0 0 -240.19151759357919 225.27685941002528 0 225.27685941002528 -91.131352912595503 0 0 0 0 -0.68580441067717857 -0.49676107846468298 0 -0.49676107846468298 -0.45532603304326713 0 0 0 0 -208.08354245148325 14.955255765208221 0 14.955255765208221 25.845386620541831 0 0 0 0 -59.017140684372862 9.6464218814471678 0 9.6464218814471678 -12.600471777824168 0 0 0 0 -132.04185322543162 48.83701116484508 0 48.83701116484508 0.80991038973297691 0 0 0 0 -62.630587713707428 -1.5701287885240163 0 -1.5701287885240163 8.8308184876318592 0 0 0 0 1.639355535746553 4.2931197109721637 0 4.2931197109721637 -1.6132575810259411 0 0 0 0 1.9435013005781911 -1.0027797217535408 0 -1.0027797217535408 -21.134212680795827 0 0 0 0 -54.489188329547687 19.666242230971875 0 19.666242230971875 11.068664630531202 0 0 0 0 -48.609180283793648 27.088152255358864 0 27.088152255358864 -13.818373179916307 0 0 0 0 -35.205751413974667 81.235258910530774 0 81.235258910530774 -48.782545726594435 0 0 0 0 -87.824433291973037 79.448335961968041 0 79.448335961968041 -31.520081934642803 0 0 0 0 -117.02459858386055 118.23995851114432 0 118.23995851114432 -44.04554317282782 0 0 0 0 -74.574117921445804 152.07580897310072 0 152.07580897310072 -307.44064207821248 0 0 0 0 0.060702952363787865 1.1710953168462268 0 1.1710953168462268 -3.998047425933791 0 0 0 0 -34.408169064120557 27.09700907633669 0 27.09700907633669 4.1351576010420104 0 0 0 0 -577.74916568371555 365.66577029428663 0 365.66577029428663 269.42511132317304 0 0 0 0 -1.151417805584932 1.3775057958224561 0 1.3775057958224561 -1.0257520022227595 0 0 0 0 -31.197540604776123 17.812579106681824 0 17.812579106681824 30.949450243278989 0 0 0 0 -13.59449487541292 -25.463569603378346 0 -25.463569603378346 19.867698705296789 0 0 0 0 -1.1495346651352096 3.8033828198640984 0 3.8033828198640984 -8.3976533298427327 0 0 0 0 -0.46271178900857013 1.5484770132900341 0 1.5484770132900341 -0.5400829918562593 0 0 0 0 -1.0827360620958189 14.384727156070767 0 14.384727156070767 -3.6861424786911812 0 0 0 0 -14.470527911765885 -18.570272609108542 0 -18.570272609108542 -13.670231923736083 0 0 0 0 -249.38926713881483 566.43831245603815 0 566.43831245603815 -247.05157528490963 0 0 0 0 -100.34842762988001 -278.99468692536175 0 -278.99468692536175 -646.93064795668397 0 0 0 0 -54.7237339967146 246.08333479357225 0 246.08333479357225 -380.561903441303 0 0 0 0 -289.19148204950216 397.6960447211568 0 397.6960447211568 91.883103367039439 0 0 0 0 7.5331114875457388 377.10077175804872 0 377.10077175804872 -675.68453657321697 0 0 0 0 -36.665914687585882 112.68837560847714 0 112.68837560847714 -198.12962375169081 0 0 0 0 -34.974825325218262 126.25728280714247 0 126.25728280714247 -121.38324874324212 0 0 0 0 -39.987164012650169 187.66588229564923 0 187.66588229564923 -232.42520678626533 0 0 0 0 43.728595724524894 46.415154953521778 0 46.415154953521778 -376.25842382402698 0 0 0 0 30.021714224194511 46.844947597075588 0 46.844947597075588 -215.73894393358205 0 0 0 0 40.957176103854181 25.878330537847432 0 25.878330537847432 -184.10784651618451 0 0 0 0 -24.706453818394948 -54.144598861772465 0 -54.144598861772465 -31.878430352660871 0 0 0 0 21.113535694079474 -9.5967985136221614 0 -9.5967985136221614 -201.37111773896686 0 0 0 0 13.537443528692165 -1.3990008091714117 0 -1.3990008091714117 -99.781186506923405 0 0 0 0 -6.1724740588874738 -74.436195301360385 0 -74.436195301360385 -185.85302079136636 0 0 0 0 -36.508410869308136 17.407617171475067 0 17.407617171475067 38.545354107360254 0 0 0 0 -9.0465539258875651 48.214057368430076 0 48.214057368430076 -1.956368783430662 0 0 0 0 -34.11861367526609 -5.3056404665341006 0 -5.3056404665341006 -38.210356851042889 0 0 0 0 -476.50539448898553 199.94044404699889 0 199.94044404699889 356.21189529180265 0 0 0 0 -416.42366359246279 332.09486552923045 0 332.09486552923045 173.79809741449935 0 0 0 0 -380.02282729037915 279.06335122962264 0 279.06335122962264 130.43833353739319 0 0 0 0 -0.20611435960518065 -62.875901621887351 0 -62.875901621887351 -522.05059083748347 0 0 0 0 -3.2332977087046748 2.9804137370505828 0 2.9804137370505828 -3.498602988218984 0 0 0 0 -149.38755984221848 -28.837468581827125 0 -28.837468581827125 188.73730176032677 0 0 0 0 -513.28030214187083 507.299622217668 0 507.299622217668 -22.530744208164833 0 0 0 0 -195.65875628478784 167.77590308769504 0 167.77590308769504 -305.04942603419204 0 0 0 0 -426.87754609047124 57.429478055364598 0 57.429478055364598 10.889344643816003 0 0 0 0 -79.741085537889262 -1.2752861634653527 0 -1.2752861634653527 0.60358350012757001 0 0 0 0 -97.209011031819415 90.041193720403271 0 90.041193720403271 -74.031934077556798 0 0 0 0 -4.0764469409405164 10.100077815492417 0 10.100077815492417 -6.9965360032803545 0 0 0 0 211.43116006314091 167.63364286111494 0 167.63364286111494 19.499631438309734 0 0 0 0 -5.663369313930616 52.183274154117498 0 52.183274154117498 28.084174618752058 0 0 0 0 234.48175827752016 4.579008312904989 0 4.579008312904989 -94.412467594112968 0 0 0 0 119.87280537835721 38.544556850646586 0 38.544556850646586 -73.336630507001246 0 0 0 0 118.73233547364993 30.728142748237133 0 30.728142748237133 39.780813184966973 0 0 0 0 120.99412767522756 50.95874138004001 0 50.95874138004001 -23.025297535450591 0 0 0 0 191.4832077965055 8.3835623532295358 0 8.3835623532295358 -47.891950813926087 0 0 0 0 18.026620201132801 -19.30049738785965 0 -19.30049738785965 -27.494364403354666 0 0 0 0 -212.41365760589406 59.30913046677415 0 59.30913046677415 -14.347290160254488 0 0 0 0 -17.490202565143818 73.851977961957346 0 73.851977961957346 -93.087376172627046 0 0 0 0 -195.02005144467614 212.08049773409954 0 212.08049773409954 -163.49091337806567 0 0 0 0 -152.43685677275698 123.40784787381563 0 123.40784787381563 -109.51989726749616 0 0 0 0 -379.86932257831472 266.41976887138844 0 266.41976887138844 -74.265851284818382 0 0 0 0 -359.52820708898946 288.12804288271241 0 288.12804288271241 -105.7734229552334 0 0 0 0 0.17183785382600947 0.25814218404316591 0 0.25814218404316591 -1.2572871440067388 0 0 0 0 9.6976276394879051 15.056638826486051 0 15.056638826486051 -26.676032945662882 0 0 0 0 45.45504830296386 31.20965293300651 0 31.20965293300651 -21.344122588825485 0 0 0 0 -50.25471801654453 87.704696951397636 0 87.704696951397636 -100.1490646268594 0 0 0 0 -223.45055160676952 221.52452786377125 0 221.52452786377125 -35.153879258130019 0 0 0 0 -1.8194147572836847 1.6195687447365259 0 1.6195687447365259 -1.4759141852720745 0 0 0 0 -0.42373202176486302 -33.875108321049993 0 -33.875108321049993 31.894016746261627 0 0 0 0 -148.97121412973775 115.18119440284408 0 115.18119440284408 42.799531399039779 0 0 0 0 -10.349987397154109 26.428500063094361 0 26.428500063094361 -35.778834158453947 0 0 0 0 7.8714939613169008 -22.854357397384774 0 -22.854357397384774 -13.901849007482383 0 0 0 0 -4.6476179861181928 4.2378412902397713 0 4.2378412902397713 -3.6586217259731413 0 0 0 0 36.006151972166208 48.803336196896453 0 48.803336196896453 13.203177137271268 0 0 0 0 82.389692233549908 -6.2576429054802247 0 -6.2576429054802247 -15.677329803309476 0 0 0 0 6.3050373788543581 2.8935855852696477 0 2.8935855852696477 -32.115266797218737 0 0 0 0 7.2881620437945003 13.209114029235934 0 13.209114029235934 -28.467605103008282 0 0 0 0 -3.150014210246411 -0.22338363247399684 0 -0.22338363247399684 -25.530024380644136 0 0 0 0 6.3007598202955535 2.9440344159156666 0 2.9440344159156666 -29.425535780847895 0 0 0 0 1.8462665300705794 -6.1809343951517803 0 -6.1809343951517803 -40.093695754440205 0 0 0 0 4.6206633102624437 -3.0193647793294076 0 -3.0193647793294076 13.612026298183572 0 0 0 0 -0.75357584654048537 6.6845191929742214 0 6.6845191929742214 -10.604990923156947 0 0 0 0 0.65249432948542108 19.142122995697719 0 19.142122995697719 -9.0410999863338475 0 0 0 0 -0.92347605258549947 26.619095668603677 0 26.619095668603677 -13.104252080367587 0 0 0 0 -7.6940754564227518 7.9940230776401222 0 7.9940230776401222 21.420740674853732 0 0 0 0 2.4201573097161271 1.602345724706133 0 1.602345724706133 -2.4412410527961539 0 0 0 0 -6.6744122872765397 6.0852274610851609 0 6.0852274610851609 -4.8274533933995478 0 0 0 0 1.7227749815474453 9.4521362795057939 0 9.4521362795057939 35.912338143006366 0 0 0 0 1.7021541463464018 0.0028166790822616861 0 0.0028166790822616861 0.1436540745229864 0 0 0 0 8.7767302178685895 17.050477460711591 0 17.050477460711591 2.4694673599260568 0 0 0 0 3.8176521158487731 0.96614192162030577 0 0.96614192162030577 14.373356224976305 0 0 0 0 -9.513179761777792 0.12597079686474899 0 0.12597079686474899 -0.69648058552684233 0 0 0 0 2.3058519522704444 11.110009899363149 0 11.110009899363149 8.1486942303781689 0 0 0 0 -21.278502997111673 13.408931831731934 0 13.408931831731934 9.5008934952602431 0 0 0 0 0.33840539346556398 9.8893447446498612 0 9.8893447446498612 10.064935176455037 0 0 0 0 4.3168590530419806 19.520714747625789 0 19.520714747625789 67.000907466262731 0 0 0 0 0.63351051996007079 0.026899018265684305 0 0.026899018265684305 0.0037534599572794924 0 0 0 0 18.776181337191133 -16.31063047359703 0 -16.31063047359703 -41.463621871391297 0 0 0 0 25.040043102635536 23.921765284698267 0 23.921765284698267 -49.701122987644339 0 0 0 0 8.4611629436014937 12.87841623895838 0 12.87841623895838 13.934259057425152 0 0 0 0 7.4821024748116542 12.758393941076974 0 12.758393941076974 13.938927796543794 0 0 0 0 39.577697006869244 26.884220834643202 0 26.884220834643202 -1.837291013880531 0 0 0 0 16.712947958285014 -3.9945905076501731 0 -3.9945905076501731 -20.32648396071454 0 0 0 0 -6.2352488270905724 -8.9072882509171905 0 -8.9072882509171905 -14.143686284201976 0 0 0 0 8.2201550305567253 8.3644381687572604 0 8.3644381687572604 -12.932288547686312 0 0 0 0 24.660370427421867 19.061223630272934 0 19.061223630272934 -9.4720861295991199 0 0 0 0 11.691586649488045 12.520367918399643 0 12.520367918399643 -11.119479222936206 0 0 0 0 3.3889220550595383 10.174714962146027 0 10.174714962146027 -11.72810118338657 0 0 0 0 11.145711581957357 6.0108916429999226 0 6.0108916429999226 -12.357467690251724 0 0 0 0 3.4971936326414834 16.830651853670133 0 16.830651853670133 -19.08113034588132 0 0 0 0 -12.973215039031174 24.529351289260376 0 24.529351289260376 -11.489294970651827 0 0 0 0 -1.3584154828822648 20.143922743745861 0 20.143922743745861 -9.8996015216907836 0 0 0 0 4.4635879729976295 10.109885709914124 0 10.109885709914124 -6.6316595933512872 0 0 0 0 5.3493513575208453 19.097143668285753 0 19.097143668285753 -7.6866117426784513 0 0 0 0 3.9851821824106537 11.961214313292658 0 11.961214313292658 -6.8958033583003271 0 0 0 0 -0.98564339407539592 16.584425560751697 0 16.584425560751697 -7.009550529446642 0 0 0 0 3.1392754127923581 13.807594543010055 0 13.807594543010055 -5.256372960167937 0 0 0 0 1.0349834910396112 15.570805786664096 0 15.570805786664096 -7.5962373179427232 0 0 0 0 -7.1057900193159185 12.532449117941724 0 12.532449117941724 -0.99087959483586019 0 0 0 0 -6.3614232595518843 13.649837365952408 0 13.649837365952408 -0.4174880360296811 0 0 0 0 -16.768288751830823 18.414348948434053 0 18.414348948434053 -2.3126604532953934 0 0 0 0 -3.8817401486248855 12.816799914176045 0 12.816799914176045 -1.3336507089588849 0 0 0 0 -9.7174331397893638 12.447336444774919 0 12.447336444774919 -0.2497797456162516 0 0 0 0 -11.593594611938897 7.7772612609974203 0 7.7772612609974203 -0.45893341868213611 0 0 0 0 0.389404308813317 4.465199879738428 0 4.465199879738428 2.9974323941194179 0 0 0 0 1.8249993559501352 4.4339790653631947 0 4.4339790653631947 2.5094960950561216 0 0 0 0 -3.4078802557323797 8.0585139801664809 0 8.0585139801664809 0.56971232638989022 0 0 0 0 -2.7552697769594943 10.260489158125438 0 10.260489158125438 -0.65295607001826284 0 0 0 0 -5.8381468005227362 23.92255299865883 0 23.92255299865883 -22.391337841470886 0 0 0 0 6.3159881809078797 12.408582489733817 0 12.408582489733817 -12.161702663666802 0 0 0 0 1.8458911320699372 12.539332638312771 0 12.539332638312771 -5.6640689416381065 0 0 0 0 -5.4092240921050916 11.316301244978149 0 11.316301244978149 -7.9170663943914406 0 0 0 0 1.7962323232828439 10.095254916403889 0 10.095254916403889 -8.1856368588778423 0 0 0 0 0.58983922055761884 1.6981127707026999 0 1.6981127707026999 -0.75783588422461179 0 0 0 0 -2.6558040431950758 7.9151259505624694 0 7.9151259505624694 1.2990493971285559 0 0 0 0 -0.44144332664132446 3.584460256832176 0 3.584460256832176 3.2231582858913583 0 0 0 0 -2.7532325498709156 8.5617639158826933 0 8.5617639158826933 -0.17051207117037848 0 0 0 0 -65.055057489142769 46.23816198464192 0 46.23816198464192 -21.913568358022076 0 0 0 0 2.1671725905682453 3.5852405648821204 0 3.5852405648821204 4.8850950878283044 0 0 0 0 1.3510531150467386 3.4467762409603893 0 3.4467762409603893 0.86872015786502743 0 0 0 0 -12.198397469149086 76.402333030695445 0 76.402333030695445 -61.145024703036825 0 0 0 0 1.6235035504173538 11.523263289737315 0 11.523263289737315 -24.29491967112267 0 0 0 0 -17.459352503038147 22.317052080323606 0 22.317052080323606 -12.714658052926097 0 0 0 0 7.3076331935474172 1.3013832933056619 0 1.3013832933056619 -7.5579144885850837 0 0 0 0 -0.19199712138405944 2.5562444792506547 0 2.5562444792506547 -6.2496168431573551 0 0 0 0 3.369018492199757 -2.8237260819896619 0 -2.8237260819896619 -4.1462812157842563 0 0 0 0 1.9972591537632525 3.4720166037841409 0 3.4720166037841409 -12.084302275815503 0 0 0 0 -0.81292935456655879 3.3007397338378652 0 3.3007397338378652 1.8419256129323269 0 0 0 0 3.5984486970464786 8.497508038111846 0 8.497508038111846 -8.5059629410770867 0 0 0 0 1.6553068424861976 8.261798634641309 0 8.261798634641309 -7.2831336060735339 0 0 0 0 -5.3320837005257999 -3.5037169740198806 0 -3.5037169740198806 3.8964550574419263 0 0 0 0 -8.5856250178487699 6.5055610173221794 0 6.5055610173221794 9.1760966668825859 0 0 0 0 -0.74332000722393232 0.43730365573327923 0 0.43730365573327923 0.89773330698927367 0 0 0 0 -3.4053305878614992 1.8607516946158285 0 1.8607516946158285 2.3792434895567567 0 0 0 0 3.4049981674950232 2.5143131638483283 0 2.5143131638483283 -5.8212738800866646 0 0 0 0 -0.8925078424947408 0.041223481148772834 0 0.041223481148772834 -0.95037104151852603 0 0 0 0 8.8203423206559819 -4.470330409602866 0 -4.470330409602866 -1.5098123886964459 0 0 0 0 -0.35720286233102083 0.054292616371618863 0 0.054292616371618863 0.11113746703020588 0 0 0 0 -14.753321639151181 -3.3076625383910141 0 -3.3076625383910141 4.8690344385613571 0 0 0 0 -0.6878479008287286 12.542851639779656 0 12.542851639779656 15.171787924447017 0 0 0 0 -3.8413432179104348 -3.2532360642480853 0 -3.2532360642480853 -13.456390091867434 0 0 0 0 -24.694790362065305 -10.01728996146494 0 -10.01728996146494 0.47524132532817021 0 0 0 0 -21.837361215395958 -11.754239377026352 0 -11.754239377026352 -2.0736246040542028 0 0 0 0 -23.565988928431352 -18.183748097895659 0 -18.183748097895659 -15.913231416221606 0 0 0 0 -12.361404557166679 -5.3048409958446427 0 -5.3048409958446427 -1.2141189321064303 0 0 0 0 4.5709726434320146 -3.3490265295140489 0 -3.3490265295140489 -12.350947996771538 0 0 0 0 2.909018680866609 -0.14739340850655935 0 -0.14739340850655935 -3.5210551886702888 0 0 0 0 -11.091275394405329 -7.1824641304956458 0 -7.1824641304956458 -6.9527644520030663 0 0 0 0 -7.6816530763273931 -3.7338238860120327 0 -3.7338238860120327 -9.9614870664909176 0 0 0 0 -8.9847710969352192 -0.77022823394781881 0 -0.77022823394781881 -16.686301858257139 0 0 0 0 -13.999669290787551 3.3152196743321838 0 3.3152196743321838 -0.2450732630713901 0 0 0 0 14.506444711669246 12.109209912221559 0 12.109209912221559 -19.989687292213148 0 0 0 0 -0.5331777308466763 2.9319188159371006 0 2.9319188159371006 -7.663162558977838 0 0 0 0 -203.75628303051781 69.916101506947598 0 69.916101506947598 -64.846110156286159 0 0 0 0 -93.575522171924604 25.25638894556505 0 25.25638894556505 -73.878870369477227 0 0 0 0 -80.028787461741786 85.888730147151136 0 85.888730147151136 -95.025544803420416 0 0 0 0 -59.751777418635129 81.434314797701973 0 81.434314797701973 -129.07197811687001 0 0 0 0 -76.233580075867394 111.73999270415152 0 111.73999270415152 -119.28264052687928 0 0 0 0 -11.054433571192703 13.102243766403717 0 13.102243766403717 -38.263931378740381 0 0 0 0 -205.08558554249112 55.392988645215155 0 55.392988645215155 159.15691519192876 0 0 0 0 -0.67319494015757497 -0.70536244296847883 0 -0.70536244296847883 -0.19764515863989374 0 0 0 0 -98.546925894077162 -1.878893248095892 0 -1.878893248095892 -0.51412910382168775 0 0 0 0 -37.207860424969113 -31.612175292169013 0 -31.612175292169013 -39.993284391224108 0 0 0 0 -71.235067826472005 54.138282659496326 0 54.138282659496326 -31.412323609445593 0 0 0 0 -54.092222677742939 33.58167043800313 0 33.58167043800313 -74.561314733696463 0 0 0 0 -51.952601531781539 70.259822875207135 0 70.259822875207135 -43.636451666212452 0 0 0 0 -45.536247005523364 26.57404646062696 0 26.57404646062696 -1.938062775770959 0 0 0 0 -28.899756200530646 64.587285057406916 0 64.587285057406916 -13.224693417290837 0 0 0 0 -44.256263066162774 13.342188766328036 0 13.342188766328036 7.9903142344410298 0 0 0 0 -24.122795409642549 40.246363953191576 0 40.246363953191576 5.6536170692779706 0 0 0 0 -25.602595010910136 5.9290205550605606 0 5.9290205550605606 -2.096425762756553 0 0 0 0 -40.158771422368318 -5.841692180134487 0 -5.841692180134487 2.702363776457787 0 0 0 0 -11.450883927671839 -0.45490929912739375 0 -0.45490929912739375 3.1730096890607911 0 0 0 0 -14.665879628244056 18.387314470352976 0 18.387314470352976 7.4140446695600986 0 0 0 0 -26.077084286072022 15.184310474527592 0 15.184310474527592 28.266638636840071 0 0 0 0 -22.527233677607455 2.8142817632788137 0 2.8142817632788137 37.668348793882615 0 0 0 0 -1.9753832243786746 34.518475971768567 0 34.518475971768567 4.9405450127105723 0 0 0 0 -16.407527966111047 33.935509091190397 0 33.935509091190397 6.0136939967305807 0 0 0 0 -12.149602000213463 17.82080010542677 0 17.82080010542677 -13.771401052486908 0 0 0 0 -8.093597506262995 3.7019273955429526 0 3.7019273955429526 17.800650763147132 0 0 0 0 2.7846142413272901 15.456782620980448 0 15.456782620980448 -29.272395722426154 0 0 0 0 18.969427983824062 36.326150364955538 0 36.326150364955538 -22.110016996855848 0 0 0 0 48.592944186671048 29.306738924557067 0 29.306738924557067 -57.881618758361583 0 0 0 0 -1.1635924665199529 1.1066800046371199 0 1.1066800046371199 -0.27894539132847918 0 0 0 0 126.91467867437859 255.83542024559574 0 255.83542024559574 411.38580701785668 0 0 0 0 117.63834855364985 72.121231357428769 0 72.121231357428769 -63.296351334200153 0 0 0 0 192.01245833039775 241.22861546085915 0 241.22861546085915 544.83724656308914 0 0 0 0 249.89877984115628 77.591370955597085 0 77.591370955597085 641.7872683032183 0 0 0 0 204.16367155564149 148.25261316555407 0 148.25261316555407 532.70897786616479 0 0 0 0 158.87110974030657 85.71566178392095 0 85.71566178392095 -60.373023810721861 0 0 0 0 192.57496711832209 104.89550758925725 0 104.89550758925725 -50.394443203418632 0 0 0 0 256.45867387543967 199.75326566018339 0 199.75326566018339 46.209000011658645 0 0 0 0 187.63806951506558 111.93800562656907 0 111.93800562656907 -8.1747847231381456 0 0 0 0 71.370451430762841 66.208722156217846 0 66.208722156217846 -9.5697891599884315 0 0 0 0 112.9441601762901 104.24621913633746 0 104.24621913633746 21.787823141996341 0 0 0 0 65.234673564843433 85.515023779344119 0 85.515023779344119 9.3553688656611484 0 0 0 0 105.01744414051973 66.644040172919631 0 66.644040172919631 1.8468346844874759 0 0 0 0 128.24608823894641 125.80156030259059 0 125.80156030259059 28.591255027291481 0 0 0 0 18.739409985995735 34.381332657369057 0 34.381332657369057 -32.711543666393482 0 0 0 0 69.8432157871448 70.436882042697562 0 70.436882042697562 -7.2807713845031685 0 0 0 0 35.291281402946879 42.03395550867026 0 42.03395550867026 -4.5941219665628523 0 0 0 0 4.8298990717999004 57.286442146093577 0 57.286442146093577 5.487701416357595 0 0 0 0 5.7066776900965124 39.746393576575429 0 39.746393576575429 1.5971254094524738 0 0 0 0 83.753861912222419 71.032235714525086 0 71.032235714525086 -6.4524847495613358 0 0 0 0 22.627690801504286 77.738365802451881 0 77.738365802451881 -1.4442885645421484 0 0 0 0 70.309897424551764 89.95153493271664 0 89.95153493271664 12.756508880411275 0 0 0 0 48.88850604845311 111.20566818223779 0 111.20566818223779 -18.591502926916291 0 0 0 0 6.7302320931248687 57.16727075536437 0 57.16727075536437 -18.804446033042041 0 0 0 0 16.267021328641931 110.49668535582168 0 110.49668535582168 -10.610860803446485 0 0 0 0 63.651291217567632 154.75675670649798 0 154.75675670649798 25.322731718926661 0 0 0 0 119.77069437938007 152.05683082982796 0 152.05683082982796 27.461441169609316 0 0 0 0 46.243642602911677 103.91088074129038 0 103.91088074129038 -1.4023598231397045 0 0 0 0 10.003520879233292 167.20740628923068 0 167.20740628923068 90.64860191686239 0 0 0 0 1.0206251209956463 170.71999725148817 0 170.71999725148817 90.812649087376485 0 0 0 0 57.691730438144759 233.71833948751487 0 233.71833948751487 158.68157105206046 0 0 0 0 -53.638671824599442 171.79363641832606 0 171.79363641832606 187.3508507157494 0 0 0 0 208.41766083658149 216.27769459076444 0 216.27769459076444 62.927990651631262 0 0 0 0 53.126556478653129 210.93736826003442 0 210.93736826003442 116.20618502562138 0 0 0 0 147.82545108434897 163.05819454924494 0 163.05819454924494 16.861971997012006 0 0 0 0 162.85574095362608 286.57989793405795 0 286.57989793405795 162.07748848845586 0 0 0 0 168.38578419113946 223.64937094083143 0 223.64937094083143 73.246846230656956 0 0 0 0 710.99214241312075 261.78285578231589 0 261.78285578231589 75.440442138635262 0 0 0 0 270.24453606865063 172.33120076548948 0 172.33120076548948 98.954187787079718 0 0 0 0 147.01377647897971 331.70993417075078 0 331.70993417075078 221.68911669361114 0 0 0 0 343.43307976252709 340.7614222848697 0 340.7614222848697 149.41456832215772 0 0 0 0 443.06392255525498 533.86019365744141 0 533.86019365744141 357.56117664230987 0 0 0 0 21.621486873576941 260.24366283580821 0 260.24366283580821 232.05659499045578 0 0 0 0 142.34845812935578 358.68645302868936 0 358.68645302868936 301.31058198269602 0 0 0 0 -61.196518890112202 234.94093135588992 0 234.94093135588992 377.94021782950767 0 0 0 0 85.037480823327314 403.45856690045912 0 403.45856690045912 548.97266709589894 0 0 0 0 -53.211464653257281 167.88729487106048 0 167.88729487106048 209.60009358577372 0 0 0 0 18.979740345432674 260.57250482526752 0 260.57250482526752 293.74324017046456 0 0 0 0 -108.33948496799985 135.85614485421866 0 135.85614485421866 275.44663945690263 0 0 0 0 -57.896987504346725 222.34890398543575 0 222.34890398543575 418.2777814502042 0 0 0 0 -90.667616547438229 117.97029267030302 0 117.97029267030302 239.50102110465923 0 0 0 0 -103.88405309562677 99.733104891449329 0 99.733104891449329 214.37142823600516 0 0 0 0 -65.011977022188148 125.41101725825501 0 125.41101725825501 147.78621483889719 0 0 0 0 -87.245565022059964 88.235591138939526 0 88.235591138939526 165.80239359391999 0 0 0 0 -69.744623772674004 75.760039704640349 0 75.760039704640349 137.16858451990265 0 0 0 0 -89.722411422244477 82.330214122979669 0 82.330214122979669 154.04033197018407 0 0 0 0 -61.669672696957605 112.3505024906317 0 112.3505024906317 99.859540573792401 0 0 0 0 -58.660033518473938 124.79003176158767 0 124.79003176158767 142.77329648496743 0 0 0 0 -48.779490976715351 137.41147081083182 0 137.41147081083182 103.75696128122581 0 0 0 0 -75.396357217121476 133.95105531365516 0 133.95105531365516 164.86560539819038 0 0 0 0 -23.40330364298643 177.17491887407232 0 177.17491887407232 159.62385582385741 0 0 0 0 -33.210938551554136 85.640563609820674 0 85.640563609820674 80.095849915441249 0 0 0 0 -70.341262243530309 70.348528431107297 0 70.348528431107297 98.953937703729025 0 0 0 0 -52.31191106778715 99.378420605909923 0 99.378420605909923 116.01547463264978 0 0 0 0 -52.868317814690045 94.654047176846007 0 94.654047176846007 78.500767585097492 0 0 0 0 -29.672809209139814 108.57899610303957 0 108.57899610303957 85.931872184943131 0 0 0 0 -44.79600070242941 123.45413943676976 0 123.45413943676976 103.86263308109847 0 0 0 0 -42.542324745729275 120.79291782560767 0 120.79291782560767 74.353589486068813 0 0 0 0 -40.978642729813146 116.99048987567585 0 116.99048987567585 73.574877566282794 0 0 0 0 -28.290241339034765 151.75440151971452 0 151.75440151971452 104.47166393954399 0 0 0 0 -3.2550616954490579 142.66162024315963 0 142.66162024315963 45.741321132471057 0 0 0 0 -37.162840425005015 131.95320133691257 0 131.95320133691257 63.184664211978088 0 0 0 0 -32.514531599213115 126.19700632584136 0 126.19700632584136 63.173216698930844 0 0 0 0 6.0774926423055149 143.22898308640106 0 143.22898308640106 45.601523004686896 0 0 0 0 -7.4544650225338955 115.5031734932345 0 115.5031734932345 -5.7217876484828594 0 0 0 0 -10.13787754301211 109.31996442374475 0 109.31996442374475 -3.528071670945792 0 0 0 0 -7.7738526275261393 95.552185337465289 0 95.552185337465289 -51.131347221431497 0 0 0 0 -42.303368559724049 110.83599090465668 0 110.83599090465668 57.808795624179766 0 0 0 0 -26.094929359841444 120.34864849323776 0 120.34864849323776 51.915331216921913 0 0 0 0 -30.980423091989906 121.95811286727258 0 121.95811286727258 39.887478508382628 0 0 0 0 -50.381031880737282 86.0729400769942 0 86.0729400769942 26.254376940318252 0 0 0 0 -19.825762799403037 101.23321083937981 0 101.23321083937981 -96.939614385932146 0 0 0 0 -41.218025709026733 60.566369229267366 0 60.566369229267366 -63.540947142461619 0 0 0 0 -10.888324205981917 56.300267212133804 0 56.300267212133804 -106.76610268118384 0 0 0 0 9.5741560606866187 87.667048442483065 0 87.667048442483065 -86.928967972851751 0 0 0 0 -17.163136599382597 76.43224029879093 0 76.43224029879093 -118.79584457252076 0 0 0 0 -17.0204601080477 63.172191035828291 0 63.172191035828291 -121.87731849877491 0 0 0 0 -3.2190736643278797 59.084174211535355 0 59.084174211535355 -100.39164250887188 0 0 0 0 -1.5455064919462984 90.305102572038095 0 90.305102572038095 -70.369086426704598 0 0 0 0 -17.639263618535551 53.37767243163853 0 53.37767243163853 -78.111922633981521 0 0 0 0 8.9596864891855148 58.855706362816818 0 58.855706362816818 -41.587408259689255 0 0 0 0 0.68263519573577014 74.605085383825667 0 74.605085383825667 -67.836653987413229 0 0 0 0 10.449982451612414 70.919620260824558 0 70.919620260824558 -49.299464461807474 0 0 0 0 25.462518671552061 115.97677700122858 0 115.97677700122858 -20.462719536543773 0 0 0 0 42.573011746950215 38.038763826854847 0 38.038763826854847 15.699206991042047 0 0 0 0 53.861107874457048 63.442511522259792 0 63.442511522259792 13.916580624434573 0 0 0 0 38.931420992732455 36.505462184635689 0 36.505462184635689 3.1408934949358809 0 0 0 0 31.882704042327532 44.17372895658491 0 44.17372895658491 14.199425486229302 0 0 0 0 52.082098717892222 48.115442148877264 0 48.115442148877264 13.254125321807805 0 0 0 0 39.443005871651053 70.511904388209814 0 70.511904388209814 22.684734259533798 0 0 0 0 42.431102787924829 59.362475814221852 0 59.362475814221852 25.452801671995985 0 0 0 0 39.224995101089007 50.803846243166845 0 50.803846243166845 9.3111167497327187 0 0 0 0 33.574121234146332 49.110609859098076 0 49.110609859098076 18.493953442663042 0 0 0 0 55.994965423313715 81.734052888246538 0 81.734052888246538 30.614755558679462 0 0 0 0 61.238669773596484 49.345702902051016 0 49.345702902051016 30.787642712919478 0 0 0 0 53.497056637782407 67.708652468989385 0 67.708652468989385 44.067375708080817 0 0 0 0 48.868376490372611 80.177603789921704 0 80.177603789921704 36.379969414615061 0 0 0 0 63.73868788053187 124.74311159627268 0 124.74311159627268 48.307372904775548 0 0 0 0 30.329708302789186 71.033468277893007 0 71.033468277893007 26.173514334107495 0 0 0 0 23.945069384195449 99.091880799395085 0 99.091880799395085 42.819778596902324 0 0 0 0 1.2338984269408684 86.366788404229737 0 86.366788404229737 43.933669253605331 0 0 0 0 -7.8819296409474191 76.196172376887262 0 76.196172376887262 40.747316779526955 0 0 0 0 -32.646875003064451 85.791430869594478 0 85.791430869594478 60.098705456683092 0 0 0 0 -7.4782779126867354 79.12821444655674 0 79.12821444655674 52.536543099173286 0 0 0 0 -9.6192018756564721 98.053432109168625 0 98.053432109168625 66.357837945852225 0 0 0 0 4.354835892239862 118.19484769310475 0 118.19484769310475 63.363657661286197 0 0 0 0 -29.829907225121133 106.53203109912556 0 106.53203109912556 62.833122626398108 0 0 0 0 -0.3349409422462486 101.57672504215589 0 101.57672504215589 43.2221598344222 0 0 0 0 -21.662788593373079 112.08836274410987 0 112.08836274410987 67.123783654188628 0 0 0 0 -9.0883723959086637 129.38012528168565 0 129.38012528168565 60.485735392378047 0 0 0 0 -35.594326128264413 106.62280458863738 0 106.62280458863738 122.99677987749419 0 0 0 0 -38.709236055231486 46.622847604462549 0 46.622847604462549 -21.312102973330184 0 0 0 0 0.72868589030945685 0.97307407598725959 0 0.97307407598725959 0.76217666979692922 0 0 0 0 113.11504973613137 20.822019340109364 0 20.822019340109364 -31.414458017647121 0 0 0 0 81.468478867875092 149.26020969998444 0 149.26020969998444 59.753774143888222 0 0 0 0 134.09979149014998 80.972127357664249 0 80.972127357664249 33.261962613085871 0 0 0 0 76.119534009534618 37.131548077884418 0 37.131548077884418 83.354674961548881 0 0 0 0 101.92523450823955 121.77173835472604 0 121.77173835472604 64.77995204022227 0 0 0 0 41.778674682894234 81.018154777355448 0 81.018154777355448 113.5297647463758 0 0 0 0 38.18485589677843 94.791316758228021 0 94.791316758228021 69.04615634473339 0 0 0 0 42.151307786746656 84.389571557608178 0 84.389571557608178 63.325498729525862 0 0 0 0 47.740998566764574 54.80683038056759 0 54.80683038056759 50.322305983043407 0 0 0 0 44.853477172650699 83.972937932887191 0 83.972937932887191 62.153217261968166 0 0 0 0 24.624040320945824 69.21733379465968 0 69.21733379465968 47.994113368424223 0 0 0 0 32.231485030879867 77.098421393400713 0 77.098421393400713 53.055242603186343 0 0 0 0 55.129790419943674 95.002992810966134 0 95.002992810966134 49.592946126051174 0 0 0 0 33.821191125185123 56.082217097799912 0 56.082217097799912 30.31560182069552 0 0 0 0 52.061143650051008 70.448119943864072 0 70.448119943864072 20.777088101789559 0 0 0 0 39.868369816725135 58.902559712488255 0 58.902559712488255 24.644586569764215 0 0 0 0 60.851620319205722 35.414434540835828 0 35.414434540835828 1.8622150049402535 0 0 0 0 7.0798199106975517 15.355051402252684 0 15.355051402252684 5.3542388111699211 0 0 0 0 20.596220761522545 2.8875239461108322 0 2.8875239461108322 0.88291377978384844 0 0 0 0 -3.1147845968316688 10.940597159446952 0 10.940597159446952 5.8837873595621204 0 0 0 0 -0.68152458854638098 0.8064231863590976 0 0.8064231863590976 -2.1848225440789975 0 0 0 0 -0.29689297006189008 17.012300341837545 0 17.012300341837545 -1.9974519288043666 0 0 0 0 -4.3913602172280264 -7.4892979211712714 0 -7.4892979211712714 -13.663742381979318 0 0 0 0 -5.2283708074785693 4.0531895343643498 0 4.0531895343643498 -8.4147893948374985 0 0 0 0 -4.136679144210575 7.8018299879549886 0 7.8018299879549886 38.851485293824226 0 0 0 0 -2.2173236894793895 2.2392418331902686 0 2.2392418331902686 1.7439782638529735 0 0 0 0 -0.072315996067690236 7.2361516278356177 0 7.2361516278356177 -5.0110358186099653 0 0 0 0 4.9590601548425184 -2.4479859285602288 0 -2.4479859285602288 -22.592515993053894 0 0 0 0 15.934940224430648 7.4948543167051866 0 7.4948543167051866 -10.999077436414154 0 0 0 0 25.968708279170642 21.582647578924025 0 21.582647578924025 -3.9268109467448085 0 0 0 0 9.2978240659567746 36.094545949911662 0 36.094545949911662 28.452337139921838 0 0 0 0 -5.0476907283025412 13.939112542271573 0 13.939112542271573 1.9185399082571166 0 0 0 0 5.8108211338458204 3.6697588868305502 0 3.6697588868305502 -19.712265891195784 0 0 0 0 4.4458896159358119 19.34367113402368 0 19.34367113402368 12.044151620314551 0 0 0 0 -3.7561605338833033 23.543594481378932 0 23.543594481378932 9.9999348922156059 0 0 0 0 17.283932419487428 45.251101487232518 0 45.251101487232518 26.991196667077929 0 0 0 0 3.3941440189341847 48.563573477624232 0 48.563573477624232 49.205319737764512 0 0 0 0 4.5986395158749982 2.2035536432521035 0 2.2035536432521035 0.42775455687677066 0 0 0 0 15.360027107484711 5.2494063094877674 0 5.2494063094877674 -4.4039271974233998 0 0 0 0 8.3233757610119028 -3.4167763781217673 0 -3.4167763781217673 -14.46656434651959 0 0 0 0 -2.8473314585935441 3.6664035368121404 0 3.6664035368121404 -3.8862156928012155 0 0 0 0 -5.1080929224299325 35.701940974411627 0 35.701940974411627 -119.55040581725552 0 0 0 0 -7.4204831783408736 13.905214378319215 0 13.905214378319215 28.491307648073416 0 0 0 0 -14.683225676451912 16.67663516031098 0 16.67663516031098 -21.590110051816737 0 0 0 0 -1.5486569907392571 1.1709843750780102 0 1.1709843750780102 1.4760016649076899 0 0 0 0 6.4083917173382137 6.5695888728066505 0 6.5695888728066505 0.078429554260353029 0 0 0 0 -22.88706101103071 43.113518396570726 0 43.113518396570726 -50.026343656754761 0 0 0 0 0.95189051515387946 0.52854638080045202 0 0.52854638080045202 -0.12879980309167394 0 0 0 0 -2.0906058151376783 10.270989826822188 0 10.270989826822188 -73.397399770339689 0 0 0 0 1.0042763150850078 26.003473522278 0 26.003473522278 -106.06966418543016 0 0 0 0 -0.94292761159704241 17.99019900537678 0 17.99019900537678 -88.93310756264691 0 0 0 0 17.466748269264826 10.025085333433708 0 10.025085333433708 -153.18689032190741 0 0 0 0 1.6818390914374959 27.351961727209527 0 27.351961727209527 -131.07757032589507 0 0 0 0 -12.044493854002781 40.288194831047122 0 40.288194831047122 -99.46481165392106 0 0 0 0 7.539452911511944 37.887487956510085 0 37.887487956510085 -131.45374722424049 0 0 0 0 13.458261022785337 37.462356034579898 0 37.462356034579898 -160.91886488898672 0 0 0 0 14.79891087213764 35.024108610397889 0 35.024108610397889 -156.59641761955595 0 0 0 0 -2.0416386676383809 66.841129636343794 0 66.841129636343794 -159.37398567287892 0 0 0 0 -2.5584933735208324 68.694050940503075 0 68.694050940503075 -143.44673962608795 0 0 0 0 4.0158524006237712 54.404034131683147 0 54.404034131683147 -134.4788071818848 0 0 0 0 7.7333508313415678 59.297929404561728 0 59.297929404561728 -134.09149921404241 0 0 0 0 1.4455158657851825 45.38023155211431 0 45.38023155211431 -139.36762255147369 0 0 0 0 -10.176399895277427 46.711023989078967 0 46.711023989078967 -120.80632051971179 0 0 0 0 6.0793841013087331 65.048766371832244 0 65.048766371832244 -137.58492837406084 0 0 0 0 -21.015637826784086 82.42578119748805 0 82.42578119748805 -138.75561983742136 0 0 0 0 -13.858557517984991 -5.5519333627262313 0 -5.5519333627262313 2.9480688985304369 0 0 0 0 3.7790020070100745 1.9913666400748689 0 1.9913666400748689 0.8699642437898607 0 0 0 0 -4.0320036403644224 22.331505498955465 0 22.331505498955465 -6.6259534033943055 0 0 0 0 2.5449232740663721 1.8513560653888135 0 1.8513560653888135 1.0136204222538918 0 0 0 0 -6.6061009048107735 12.738679039001909 0 12.738679039001909 -1.9937541137292101 0 0 0 0 -3.9975798686064081 13.831461359829518 0 13.831461359829518 -11.089672201582289 0 0 0 0 -12.238554230349109 9.2873758889054443 0 9.2873758889054443 -10.275139062800463 0 0 0 0 -0.70396200630693784 4.6704990608579919 0 4.6704990608579919 -28.074796352033445 0 0 0 0 3.5968098442092469 5.1530656154973258 0 5.1530656154973258 -6.7058583768630342 0 0 0 0 -15.166561174670278 23.237110007855335 0 23.237110007855335 -37.81886101303644 0 0 0 0 -46.421368913532206 -7.3321577407677978 0 -7.3321577407677978 -8.1728352924601495 0 0 0 0 0.23413298264618376 6.8365155751469509 0 6.8365155751469509 -4.4587167615725178 0 0 0 0 -41.112403915383766 40.28546745829226 0 40.28546745829226 31.619990977509588 0 0 0 0 20.144449438806078 -5.0041337133325214 0 -5.0041337133325214 -23.29548813297788 0 0 0 0 0.22068378421112911 0.42805173654216766 0 0.42805173654216766 -0.73597401220995806 0 0 0 0 -6.1672691307612695 -6.2755392059607402 0 -6.2755392059607402 -19.419716573468577 0 0 0 0 -0.61373258081403037 5.7268214665937194 0 5.7268214665937194 -16.037146417987969 0 0 0 0 -5.7880802567033243 -3.5529340772673095 0 -3.5529340772673095 -10.266208994798944 0 0 0 0 -4.2046581911781686 -6.7122615665084595 0 -6.7122615665084595 -46.028164059248866 0 0 0 0 36.116812949531777 -7.9158268686114752 0 -7.9158268686114752 8.6074227832868928 0 0 0 0 -0.16114566428459653 7.3328174380010811 0 7.3328174380010811 -4.7096903244122714 0 0 0 0 -14.031355809482193 22.507843269031582 0 22.507843269031582 47.417607288876752 0 0 0 0 -7.7536811167628912 15.827128918408562 0 15.827128918408562 26.45951217972106 0 0 0 0 1.2870796474426243 7.0338737030165248 0 7.0338737030165248 9.4427924068713764 0 0 0 0 -0.78980622913510601 1.9424257800925151 0 1.9424257800925151 2.7955887767679357 0 0 0 0 -0.61281148390435192 10.224163741591838 0 10.224163741591838 20.614989315052298 0 0 0 0 4.027886369949556 9.5705795661469892 0 9.5705795661469892 7.9194755326492441 0 0 0 0 16.290960778810131 15.099557584109334 0 15.099557584109334 0.49656007558769488 0 0 0 0 3.9046428219085101 9.8838099977799629 0 9.8838099977799629 11.61692801688514 0 0 0 0 29.635293764289599 12.307243315819505 0 12.307243315819505 -14.451698051547172 0 0 0 0 3.4276849656325794 14.065178749149709 0 14.065178749149709 12.506340906458718 0 0 0 0 1.7810807245677758 7.2766881764286033 0 7.2766881764286033 -3.1496292401961874 0 0 0 0 -3.6570084041018571 9.1135303855016687 0 9.1135303855016687 14.315740722931238 0 0 0 0 18.552522225952089 30.570693544799724 0 30.570693544799724 9.2747079399141512 0 0 0 0 24.834452507800961 15.6007769674261 0 15.6007769674261 9.0327247138047824 0 0 0 0 0.95420305512447001 2.7531550745918825 0 2.7531550745918825 -0.33776626661813225 0 0 0 0 9.6629869874000178 9.8985808760025975 0 9.8985808760025975 3.4373903261148371 0 0 0 0 0.51512166560109618 9.2641450535388792 0 9.2641450535388792 0.12939224836217278 0 0 0 0 7.0806454025560015 5.0329255868664404 0 5.0329255868664404 0.40725232777367637 0 0 0 0 10.866509763672639 5.0776915805672616 0 5.0776915805672616 -3.4116863703948184 0 0 0 0 5.9901256899677264 3.9016009897065942 0 3.9016009897065942 -3.4261111268660898 0 0 0 0 6.5636847791636228 4.6307715037858088 0 4.6307715037858088 -7.5306152781067794 0 0 0 0 2.8576213451488002 6.8028537826521642 0 6.8028537826521642 -2.4137483590088777 0 0 0 0 -0.88064329163381849 0.62570914626587459 0 0.62570914626587459 -0.93982451228688291 0 0 0 0 7.943221676289113 7.0226803665354964 0 7.0226803665354964 -2.577788268616132 0 0 0 0 -1.0426788571247485 8.8521748585479827 0 8.8521748585479827 8.1887324463095865 0 0 0 0 -0.9094587095451061 2.9356483731762637 0 2.9356483731762637 8.2913217533409806 0 0 0 0 -22.283488874181614 31.662143742497165 0 31.662143742497165 -9.6631143111007987 0 0 0 0 -27.553892629759048 -1.7285789084144199 0 -1.7285789084144199 3.9869716277830776 0 0 0 0 -0.092496122974479178 0.27653767384117778 0 0.27653767384117778 -0.42373302068756402 0 0 0 0 7.5456523393149837 7.0611038623392233 0 7.0611038623392233 -34.161803155610869 0 0 0 0 -10.928623494305612 29.651825212049516 0 29.651825212049516 -16.941074256808861 0 0 0 0 -26.321100322382108 21.172690528639123 0 21.172690528639123 0.89268236788302602 0 0 0 0 -11.35054033133747 6.3066455384614528 0 6.3066455384614528 10.678688593778134 0 0 0 0 -3.3535122693310768 16.477406397862978 0 16.477406397862978 -10.907267865467475 0 0 0 0 -0.25476494231679681 19.007253258342644 0 19.007253258342644 -9.2174876476738064 0 0 0 0 0.039614658650862111 16.952760775212482 0 16.952760775212482 -14.942764825205359 0 0 0 0 -2.0905089046154899 13.100656054017236 0 13.100656054017236 -13.709708983748442 0 0 0 0 6.9201720797937014 16.05163933712447 0 16.05163933712447 -64.49854065159343 0 0 0 0 -15.206580937411672 16.25331931049368 0 16.25331931049368 15.74591924266133 0 0 0 0 -3.9455503020280958 38.628836125184534 0 38.628836125184534 -16.824837117827428 0 0 0 0 1.2409832254634239 5.8814690598992456 0 5.8814690598992456 -1.9192651062394361 0 0 0 0 13.660601820660304 3.8067954945845486 0 3.8067954945845486 -5.1452901528282382 0 0 0 0 1.252101512885929 3.4910901321418351 0 3.4910901321418351 1.5190025225538193 0 0 0 0 8.9463368410606563 12.402342712610334 0 12.402342712610334 2.0794656270736596 0 0 0 0 6.1910764801937148 9.3613944878993607 0 9.3613944878993607 -11.122064488537944 0 0 0 0 -6.7451792636798018 18.179312063159614 0 18.179312063159614 -7.0393041623156023 0 0 0 0 3.0431698513597993 7.8570863423167552 0 7.8570863423167552 3.9742099117685008 0 0 0 0 -15.199974694292905 -34.519492261049891 0 -34.519492261049891 -34.625931686350668 0 0 0 0 -9.7478054680004789 58.517015950390487 0 58.517015950390487 17.452664443084359 0 0 0 0 5.8093439421563744 13.994802191125927 0 13.994802191125927 -15.442977054741277 0 0 0 0 -5.9972610981881971 10.354327811723458 0 10.354327811723458 -1.7534643031817758 0 0 0 0 -24.074830961716827 -17.255884759994331 0 -17.255884759994331 32.84207616871754 0 0 0 0 0.96407683291181456 34.70110648784248 0 34.70110648784248 31.714224744127932 0 0 0 0 16.624978159219609 7.8465174887423927 0 7.8465174887423927 -42.987577956326277 0 0 0 0 -3.4775946257102923 8.0402541783309776 0 8.0402541783309776 -5.0781082144114222 0 0 0 0 -0.62459180586966312 0.41065346353037668 0 0.41065346353037668 -0.7029696247307875 0 0 0 0 17.805186391742609 21.840892805244948 0 21.840892805244948 -48.737683145207484 0 0 0 0 2.2687673131849806 19.55990485786333 0 19.55990485786333 7.2552626748647526 0 0 0 0 13.630162075207295 74.396962018487216 0 74.396962018487216 -25.277482296307426 0 0 0 0 5.4997070487825113 18.505358281760891 0 18.505358281760891 -13.799896357956641 0 0 0 0 8.843748753423597 16.499490479704946 0 16.499490479704946 -15.049358553373168 0 0 0 0 18.302473153376923 26.709885369725043 0 26.709885369725043 -18.584851580570103 0 0 0 0 12.098944904499149 23.23193125925718 0 23.23193125925718 -11.307348554266355 0 0 0 0 13.084204675859837 5.9716504422485741 0 5.9716504422485741 -19.030841178828268 0 0 0 0 5.6158030334868272 9.1945466974866576 0 9.1945466974866576 15.510021509486251 0 0 0 0 7.9364758179417549 18.059338497158933 0 18.059338497158933 7.6327786485053366 0 0 0 0 -5.4418958685218968 14.361702279029487 0 14.361702279029487 7.8602244907938257 0 0 0 0 0.67137680780888331 28.050312920351644 0 28.050312920351644 22.493298107021474 0 0 0 0 2.2897115710302387 25.88308729176515 0 25.88308729176515 -7.5459386954371439 0 0 0 0 5.8989270946049146 18.866805639837366 0 18.866805639837366 -41.145776026773092 0 0 0 0 5.9048272399140842 17.182714379812751 0 17.182714379812751 -14.757006571509919 0 0 0 0 -3.6870806909387284 -10.118503400522059 0 -10.118503400522059 -27.007244058559081 0 0 0 0 -3.5485236614049427 -4.541912106509244 0 -4.541912106509244 -0.70310000259087246 0 0 0 0 2.2281499036689638 5.6434916344296653 0 5.6434916344296653 5.5098692534024849 0 0 0 0 0.51786066725530944 4.6890224653902273 0 4.6890224653902273 5.4922246297618642 0 0 0 0 -8.595713524772691 1.4088652666905546 0 1.4088652666905546 7.3205050991227836 0 0 0 0 0.20582826945224042 13.65207419183389 0 13.65207419183389 -3.9442146023611713 0 0 0 0 7.8238057177622977 15.821051697205803 0 15.821051697205803 -18.116377013478996 0 0 0 0 1.8350810036778178 5.3290512538363011 0 5.3290512538363011 6.3627072112688658 0 0 0 0 -0.82208790411914379 11.248075161035558 0 11.248075161035558 -2.1683567071231664 0 0 0 0 -9.043597138282621 21.643372778879439 0 21.643372778879439 -7.0690081125903816 0 0 0 0 -3.4028472523723394 21.342775722208899 0 21.342775722208899 -12.953450411600443 0 0 0 0 -1.7618454186685995 19.924583498349421 0 19.924583498349421 -15.579486999957226 0 0 0 0 -3.5179968928387098 18.721274046618419 0 18.721274046618419 -13.826393653476771 0 0 0 0 -2.449634886473973 27.978366367510603 0 27.978366367510603 -22.657117447037308 0 0 0 0 -11.568091480360636 27.983323781751096 0 27.983323781751096 -22.152388888150654 0 0 0 0 -7.5911346330931337 28.161002562191243 0 28.161002562191243 -18.952549772299335 0 0 0 0 -6.3870932386134882 25.518206941661902 0 25.518206941661902 -27.142295040681347 0 0 0 0 -21.306847219635529 17.181050085661809 0 17.181050085661809 -23.11891947580807 0 0 0 0 -20.582643260164332 30.899180634098229 0 30.899180634098229 -8.5935742442738956 0 0 0 0 -20.070562974540941 6.3211820806412931 0 6.3211820806412931 17.794868125447465 0 0 0 0 -0.079400392483098159 0.52672218790977965 0 0.52672218790977965 -0.34546096195108689 0 0 0 0 -7.9648916127543998 25.054989929445583 0 25.054989929445583 -44.637528593149909 0 0 0 0 -28.522293891199752 26.794438186600019 0 26.794438186600019 -13.12265615634351 0 0 0 0 -18.358643375843258 25.898735037566439 0 25.898735037566439 -13.063263555688536 0 0 0 0 -22.300285727322262 23.630052175365563 0 23.630052175365563 0.00090224554151063785 0 0 0 0 -17.433178110519748 22.974585549939775 0 22.974585549939775 -6.5801858098820958 0 0 0 0 -22.800756556202032 26.238987436305251 0 26.238987436305251 -4.2616722768088948 0 0 0 0 -22.217310836828233 24.904084336136748 0 24.904084336136748 -12.109350468823322 0 0 0 0 -11.330124501126193 26.606408209943766 0 26.606408209943766 -14.254875559112406 0 0 0 0 -19.695108838486703 31.091872550989137 0 31.091872550989137 -0.009381971174661885 0 0 0 0 -19.006931379033631 34.720407215122577 0 34.720407215122577 -15.17477632363989 0 0 0 0 -8.7250819737170104 33.026704211925789 0 33.026704211925789 -14.899607970228317 0 0 0 0 -6.8644844683021802 2.0439776267021443 0 2.0439776267021443 3.4734941556525882 0 0 0 0 3.4477343011412813 9.4296306757096318 0 9.4296306757096318 1.780070034250457 0 0 0 0 -2.4353712083652752 2.3574105325409 0 2.3574105325409 3.3990605881455096 0 0 0 0 -0.59180216903894589 0.24631368901490802 0 0.24631368901490802 -0.15740501881425306 0 0 0 0 -13.068333638624608 -1.646115827165886 0 -1.646115827165886 16.220590473643824 0 0 0 0 -7.5115824309759773 0.74083898165372375 0 0.74083898165372375 5.5514341650668939 0 0 0 0 -17.415769939479105 1.6254384226067486 0 1.6254384226067486 13.941631460535064 0 0 0 0 -1.3837531924748419 6.3742916672456431 0 6.3742916672456431 11.471473471232457 0 0 0 0 -0.66787102273676879 3.6663671938957521 0 3.6663671938957521 4.3087647415518902 0 0 0 0 -1.7998534563535031 14.89868323441442 0 14.89868323441442 -9.6806492181167414 0 0 0 0 -1.8168460287173165 0.74178585873067604 0 0.74178585873067604 2.3214666180090315 0 0 0 0 -2.7025077886901272 -3.5299591582379435 0 -3.5299591582379435 9.0360025550016871 0 0 0 0 -0.7172837010902029 4.2389179432955792 0 4.2389179432955792 5.0493129117680624 0 0 0 0 -5.1700036468419057 10.12042786789425 0 10.12042786789425 -7.0713631318799344 0 0 0 0 -0.48763552202091631 0.82600327879092106 0 0.82600327879092106 1.9142677004239577 0 0 0 0 1.3664727193408908 3.1825484856271942 0 3.1825484856271942 11.597377546711868 0 0 0 0 -2.7167856854407546 10.015867396747581 0 10.015867396747581 -8.5736519425063307 0 0 0 0 -5.8276920398830043 10.69037529099478 0 10.69037529099478 -2.8102136052202695 0 0 0 0 -1.1019919335903978 4.7659110804806915 0 4.7659110804806915 -1.8366968699629069 0 0 0 0 -17.330264425665632 23.597056157717873 0 23.597056157717873 -7.5748265293586883 0 0 0 0 -3.9675706903735772 14.803980059169589 0 14.803980059169589 -13.739322829722369 0 0 0 0 -11.872853454061897 15.938414905232548 0 15.938414905232548 -4.0414827287386288 0 0 0 0 -11.61210588266249 17.016822269476506 0 17.016822269476506 -0.012103836868845974 0 0 0 0 -10.274830987051246 13.925558301469209 0 13.925558301469209 -2.4949491232764558 0 0 0 0 -16.592243019253601 13.908264459240854 0 13.908264459240854 -0.0026455588558746967 0 0 0 0 -5.8124456995501532 11.9681922672371 0 11.9681922672371 -5.0447416267907101 0 0 0 0 -3.1511431611122589 5.6699358908649629 0 5.6699358908649629 -0.41458594166033436 0 0 0 0 -13.947767283259964 11.642140291551186 0 11.642140291551186 -3.2372652167659908 0 0 0 0 -7.616472081410393 4.822940666201248 0 4.822940666201248 0.79648824280229746 0 0 0 0 -0.98450994795349001 0.33401585672985235 0 0.33401585672985235 0.92587613210952924 0 0 0 0 -9.5535395172173594 3.867470000920548 0 3.867470000920548 0.96734699481930875 0 0 0 0 103.97938014083593 38.067963841580877 0 38.067963841580877 -15.508655343484861 0 0 0 0 -29.981055693346207 6.4954528544531058 0 6.4954528544531058 1.2483149758063519 0 0 0 0 0.20694701343679522 -0.38181848338216051 0 -0.38181848338216051 0.034198473007364782 0 0 0 0 9.3672402318998138 3.4832171347406984 0 3.4832171347406984 -5.530259440455211 0 0 0 0 -29.738319762124718 -31.242316885300738 0 -31.242316885300738 -2.1254171992204647 0 0 0 0 -3.5688434544390475 79.538680052030031 0 79.538680052030031 0.009333859652542742 0 0 0 0 -2.5349747667269185 11.049369559470506 0 11.049369559470506 22.510433525520057 0 0 0 0 -0.045483493857803481 0.26444246592168952 0 0.26444246592168952 -0.39549993488527235 0 0 0 0 0.70311105433938792 1.1854339473629807 0 1.1854339473629807 0.0013218904155715212 0 0 0 0 0.99143004459529038 1.4725180600498788 0 1.4725180600498788 0.15320575125952018 0 0 0 0 0.10116769790385938 1.2033255675746837 0 1.2033255675746837 -0.76683293451394263 0 0 0 0 1.2839700808840462 1.5133936699767219 0 1.5133936699767219 0.15826134740791531 0 0 0 0 -10.797434673987482 11.185571219347366 0 11.185571219347366 6.4594264767792993 0 0 0 0 -10.804356678123327 3.8409049405827318 0 3.8409049405827318 12.902147143562615 0 0 0 0 -10.365838400094944 -1.8409005030684398 0 -1.8409005030684398 -6.7723518188722664 0 0 0 0 4.3263925983310401 11.301595410450318 0 11.301595410450318 4.7265649003984436 0 0 0 0 4.5201389001031202 9.458784290785843 0 9.458784290785843 20.268718958459431 0 0 0 0 16.588638420883399 1.6811622113309568 0 1.6811622113309568 8.6568772272839851 0 0 0 0 34.522606011098105 24.017076657739381 0 24.017076657739381 11.797778998923604 0 0 0 0 -0.87123903356772026 0.77737125065149471 0 0.77737125065149471 -0.020020005440997579 0 0 0 0 29.975136788293185 26.85022822722658 0 26.85022822722658 15.192434250395308 0 0 0 0 0.11876465799014113 12.665328946329282 0 12.665328946329282 8.665617953382025 0 0 0 0 4.6322692029451673 2.6023938971329699 0 2.6023938971329699 0.0022289329535851721 0 0 0 0 10.440225206466721 -0.674491598527311 0 -0.674491598527311 -1.4365047225237504 0 0 0 0 0.065897450243536326 -0.30757413741541839 0 -0.30757413741541839 0.37350115079379265 0 0 0 0 1.2867847859715766 1.2745791219458624 0 1.2745791219458624 -0.00073751337231641768 0 0 0 0 1.429715028281862 1.3218268273467402 0 1.3218268273467402 0.0065166868480446283 0 0 0 0 9.6643893793343523 -0.75961368890420999 0 -0.75961368890420999 0.38582727717221132 0 0 0 0 4.8559770005642466 -0.79744003920342266 0 -0.79744003920342266 -0.29470531142771605 0 0 0 0 3.736013646273932 0.14635006536809669 0 0.14635006536809669 -0.53434834970721568 0 0 0 0 5.8310841009945307 2.0061972755852366 0 2.0061972755852366 -1.8662081385973579 0 0 0 0 -11.991855058085093 -6.8236406620453636 0 -6.8236406620453636 28.798087217426655 0 0 0 0 1.0050570273266013 -0.044333597319649698 0 -0.044333597319649698 0.43364670157678731 0 0 0 0 -1.396377294176574 11.651635748241688 0 11.651635748241688 38.861217743873567 0 0 0 0 1.5223255034672434 -0.96238725788634838 0 -0.96238725788634838 28.506690629139484 0 0 0 0 0.61046972610574635 -0.66745957005592871 0 -0.66745957005592871 -0.24225699551914914 0 0 0 0 3.932452451467725 -9.2080164389089987 0 -9.2080164389089987 13.398640081590202 0 0 0 0 11.63197461144722 -6.8648427405792063 0 -6.8648427405792063 13.864418220691732 0 0 0 0 7.6201575886194632 -2.2190787570170869 0 -2.2190787570170869 21.981968190268162 0 0 0 0 8.8050027253070198 -8.8925090513184841 0 -8.8925090513184841 13.124339954692914 0 0 0 0 4.403812148822567 -14.623471038597927 0 -14.623471038597927 9.1114443881961051 0 0 0 0 -9.1754104534772978 -10.845828297351545 0 -10.845828297351545 17.865253664595912 0 0 0 0 -1.1394702928852212 -0.53179457749274661 0 -0.53179457749274661 2.4537174685465288 0 0 0 0 -0.27456384014860635 2.9330646138395906 0 2.9330646138395906 -5.3987185837642002 0 0 0 0 18.02056888033394 10.041276676933194 0 10.041276676933194 -6.8345803186384728 0 0 0 0 9.8835477499142144 20.977637162170595 0 20.977637162170595 4.5490385965786118 0 0 0 0 18.013564673066867 9.522487688002002 0 9.522487688002002 -11.870555333444827 0 0 0 0 5.8344391881428237 4.0869634209120704 0 4.0869634209120704 -7.1376913638632686 0 0 0 0 36.105816632561073 -1.2041173465731845 0 -1.2041173465731845 -2.4026253375413944 0 0 0 0 20.345788010353317 19.224374647611512 0 19.224374647611512 5.5788086747852503 0 0 0 0 4.0311860812074647 2.874525915002339 0 2.874525915002339 -0.55340472875350599 0 0 0 0 -10.673413078791327 9.0118458454280699 0 9.0118458454280699 9.0215266798059019 0 0 0 0 29.884833981658176 -16.411956595439733 0 -16.411956595439733 9.2224290383092011 0 0 0 0 30.205958855575432 -21.631035706048351 0 -21.631035706048351 9.2234749685812858 0 0 0 0 10.931834969036572 11.647165951224451 0 11.647165951224451 -5.7585765106850886 0 0 0 0 3.5383221545880588 9.6500613127955148 0 9.6500613127955148 -3.5185761815446313 0 0 0 0 19.542918864875901 6.7494659179756127 0 6.7494659179756127 -5.257765165559249 0 0 0 0 4.1743167459119075 3.7163072583995014 0 3.7163072583995014 0.023650606734292978 0 0 0 0 -28.834453358900191 39.879596486581704 0 39.879596486581704 18.245688190661895 0 0 0 0 0.0020546698292398524 1.6133282716481983 0 1.6133282716481983 -0.3576609254862575 0 0 0 0 1.4067259674654022 2.3745067649169442 0 2.3745067649169442 -3.722846667341102 0 0 0 0 55.006019721490702 -43.241831615089723 0 -43.241831615089723 -69.662855343030969 0 0 0 0 5.1947494500492741 -0.86612526962577441 0 -0.86612526962577441 -3.2109144518727391 0 0 0 0 6.6334658770292663 0.88046018007662497 0 0.88046018007662497 -2.3911145136444247 0 0 0 0 42.357519275426966 -21.420975801797795 0 -21.420975801797795 15.368495526239712 0 0 0 0 0.18022370371421648 6.0552112091846233 0 6.0552112091846233 -5.1589523923665013 0 0 0 0 -2.5561930614592185 1.3383150774766115 0 1.3383150774766115 -0.64173929207001379 0 0 0 0 128.41903231988664 -25.701312540496474 0 -25.701312540496474 -11.921376584501559 0 0 0 0 2.6804316509831629 6.7047131390727968 0 6.7047131390727968 -5.6936271947733985 0 0 0 0 2.4408006124427297 -0.17759625436886672 0 -0.17759625436886672 0.64023143583000319 0 0 0 0 45.450758329594066 -34.729420402850337 0 -34.729420402850337 25.684122643495357 0 0 0 0 12.17681405305575 11.394213707664676 0 11.394213707664676 -6.5540961329352285 0 0 0 0 18.266614866276939 0.23707092498079874 0 0.23707092498079874 4.0791921877826098 0 0 0 0 -16.293269426931261 -56.642023839641297 0 -56.642023839641297 41.871446505305357 0 0 0 0 77.986390041064624 -78.706543363734454 0 -78.706543363734454 15.92477772257007 0 0 0 0 37.233077031177459 -27.399204188216572 0 -27.399204188216572 17.494340444507543 0 0 0 0 1.802003497956548 -18.704467009449672 0 -18.704467009449672 18.17002055701596 0 0 0 0 36.040639830619966 -44.911903924608851 0 -44.911903924608851 14.833719409665719 0 0 0 0 59.542802381574688 -4.1427421071384742 0 -4.1427421071384742 12.049833365437735 0 0 0 0 -1.9279214627192118 -25.343085221543333 0 -25.343085221543333 31.797528598704957 0 0 0 0 -29.351347664220157 -1.2500405784830946 0 -1.2500405784830946 18.962273614850346 0 0 0 0 -51.357139014223094 29.730028636934549 0 29.730028636934549 10.328040591110039 0 0 0 0 -33.076840073425785 -2.0386081490332799 0 -2.0386081490332799 39.372509065486156 0 0 0 0 -76.434334163859603 -25.969086923054419 0 -25.969086923054419 14.088803804619602 0 0 0 0 -84.987497385157624 99.280778327501139 0 99.280778327501139 -24.019935452404752 0 0 0 0 -55.801367897565342 1.6631044474306691 0 1.6631044474306691 41.73140787912962 0 0 0 0 -20.799057595177487 -24.433647789558563 0 -24.433647789558563 5.4146709898941481 0 0 0 0 -53.756371945058845 -32.025364782494762 0 -32.025364782494762 38.07455998977548 0 0 0 0 -25.999351357868591 -5.0829537554864146 0 -5.0829537554864146 -93.916479258923573 0 0 0 0 -86.768784440809895 -36.027443462277006 0 -36.027443462277006 18.252337795916901 0 0 0 0 -80.583234005359799 24.98510634984882 0 24.98510634984882 -59.694379487387778 0 0 0 0 -247.00496557969225 175.7808670071629 0 175.7808670071629 -142.81582449231792 0 0 0 0 -206.57488297687894 -29.788308027853418 0 -29.788308027853418 -83.398409877294398 0 0 0 0 -215.44567443339241 207.39124042876711 0 207.39124042876711 -208.51621405299738 0 0 0 0 -98.307941084758568 56.604011165010888 0 56.604011165010888 -269.92330449780638 0 0 0 0 -92.173660809053558 113.29290305703398 0 113.29290305703398 -175.85260083000685 0 0 0 0 -88.61042656137144 3.0014622052460709 0 3.0014622052460709 -61.025351050779136 0 0 0 0 50.676053252768611 27.87947752499349 0 27.87947752499349 -73.770514591153187 0 0 0 0 -48.816855170879194 -3.1249645913112545 0 -3.1249645913112545 -44.175140030180046 0 0 0 0 177.35180842815049 -41.196692560435622 0 -41.196692560435622 -48.678153896296863 0 0 0 0 1.9329477720321753 7.3655371248046766 0 7.3655371248046766 -3.0626975064538655 0 0 0 0 76.125814736802795 -45.827884419626571 0 -45.827884419626571 8.1183887460883852 0 0 0 0 108.81204631151448 -38.214220496773237 0 -38.214220496773237 11.315531908214325 0 0 0 0 34.468290010759574 -28.616701168735744 0 -28.616701168735744 71.818224561902753 0 0 0 0 -31.074570221471532 -20.490287278344567 0 -20.490287278344567 9.4873467229990638 0 0 0 0 45.592187115030356 -51.346964059475795 0 -51.346964059475795 -47.431746011587165 0 0 0 0 105.88449630757732 -11.288794137185732 0 -11.288794137185732 -32.593224581254617 0 0 0 0 35.370432551784688 -29.994010502981837 0 -29.994010502981837 -28.982974538597773 0 0 0 0 -30.448036502706756 88.474714115251118 0 88.474714115251118 -90.884360169557112 0 0 0 0 -2.6848226840240841 50.891538819099878 0 50.891538819099878 -68.425153687203419 0 0 0 0 -32.135898421423832 84.144263610516646 0 84.144263610516646 -101.04010647246287 0 0 0 0 11.31697358034566 11.363270798412486 0 11.363270798412486 -82.388802105805553 0 0 0 0 -12.917850473747876 30.382786328949351 0 30.382786328949351 -7.9450128206990485 0 0 0 0 5.8431475005947107 50.73538023439869 0 50.73538023439869 -219.27890961240155 0 0 0 0 -0.0048707407767110134 0.69391631112046426 0 0.69391631112046426 -0.44862619869436138 0 0 0 0 -9.3289746541857994 11.100095363826767 0 11.100095363826767 -0.20988029631735117 0 0 0 0 -9.7815442175221676 19.82034687560008 0 19.82034687560008 -177.23293136919892 0 0 0 0 -24.52000735222623 89.481481097540382 0 89.481481097540382 -412.68137688190473 0 0 0 0 -59.156338418667929 169.20637135044853 0 169.20637135044853 -284.59764710837408 0 0 0 0 -107.1437050900654 57.697024865186904 0 57.697024865186904 -44.094943713818793 0 0 0 0 -41.554280145425707 97.236916812222262 0 97.236916812222262 -84.574715091432154 0 0 0 0 -20.306298986019954 115.72498683719914 0 115.72498683719914 -153.5886166639857 0 0 0 0 -37.451055543008238 92.306426510127494 0 92.306426510127494 -24.632637535038157 0 0 0 0 -20.269116796962749 98.311814754826628 0 98.311814754826628 -84.604888320189957 0 0 0 0 -67.615352354650668 -3.2526073637018271 0 -3.2526073637018271 147.36265348964116 0 0 0 0 0.071993217573830037 0.50010762910613593 0 0.50010762910613593 0.35970344075467153 0 0 0 0 -17.725828150172447 61.129160581764154 0 61.129160581764154 -122.11219827873174 0 0 0 0 0.52356748784759621 1.3052842286746618 0 1.3052842286746618 0.92847038482315369 0 0 0 0 -4.5122415466370853 9.9760989424776199 0 9.9760989424776199 24.351671352508674 0 0 0 0 -4.7320242329317068 66.965275003359238 0 66.965275003359238 -109.77042643789991 0 0 0 0 -58.885134137914747 109.42900549047226 0 109.42900549047226 -71.578756808601611 0 0 0 0 -16.557822029429445 98.458262338884651 0 98.458262338884651 -88.904714010452153 0 0 0 0 -67.963450252854585 56.620676952891813 0 56.620676952891813 -94.492386605779757 0 0 0 0 -34.310913602958067 78.161120581466093 0 78.161120581466093 -80.71081053252783 0 0 0 0 -113.74067706217375 123.35887303334493 0 123.35887303334493 -99.826610533018538 0 0 0 0 -45.202757173025475 98.395002830015073 0 98.395002830015073 -143.26094153476515 0 0 0 0 0.25504503274650725 0.073501806056066599 0 0.073501806056066599 -0.9177722808997828 0 0 0 0 1.0217746698804149 -4.042962330944647 0 -4.042962330944647 -17.879690775202107 0 0 0 0 -23.492060746541711 36.433699872433863 0 36.433699872433863 -30.662948562649035 0 0 0 0 1.3167513206375741 2.0977627231407538 0 2.0977627231407538 0.97913110014596683 0 0 0 0 -23.202084518148467 42.165854018685422 0 42.165854018685422 -8.4930364688152622 0 0 0 0 -21.909357128424716 21.95003108066112 0 21.95003108066112 -13.862332668151794 0 0 0 0 -25.394128034209473 30.766313546959282 0 30.766313546959282 -19.07786196611778 0 0 0 0 0.62811035055350428 0.83701887571336897 0 0.83701887571336897 0.02394272471032366 0 0 0 0 -34.577686508439854 24.86123085334475 0 24.86123085334475 -18.281023215397909 0 0 0 0 -38.152214846903398 31.088552077786517 0 31.088552077786517 -17.781489180102653 0 0 0 0 -25.336081755878581 11.189937481843117 0 11.189937481843117 5.668134882222148 0 0 0 0 -6.6997776457442342 46.027063726958659 0 46.027063726958659 34.962843226318 0 0 0 0 -21.818882486510976 66.130711820986392 0 66.130711820986392 -8.8281615192827303 0 0 0 0 -11.49615918128643 47.098267604902503 0 47.098267604902503 -85.355667784327125 0 0 0 0 -25.376462937260101 21.057933285665058 0 21.057933285665058 -8.2247112423447106 0 0 0 0 -10.081975248667618 2.2227954413410771 0 2.2227954413410771 -3.4905819178094362 0 0 0 0 -3.3751713426775609 9.9275220954809811 0 9.9275220954809811 1.4211422843436594 0 0 0 0 0.22724993269248239 -0.068658029471521331 0 -0.068658029471521331 0.071585129779354162 0 0 0 0 2.2828469841563548 1.0820914412779317 0 1.0820914412779317 0.74641842432908945 0 0 0 0 4.2203510844313996 -0.92503127589043288 0 -0.92503127589043288 -5.4745536115524374 0 0 0 0 3.1308736401103943 0.36744987355996273 0 0.36744987355996273 1.8756836680386186 0 0 0 0 -8.3727942056740972 4.3281667886667492 0 4.3281667886667492 2.7397173314502652 0 0 0 0 0.95613249353493357 0.90938791868760305 0 0.90938791868760305 0.54982030172735108 0 0 0 0 -0.13739321029561324 1.2856286150381493 0 1.2856286150381493 -0.00094532121875090525 0 0 0 0 0.81015497107535595 2.2783619042270402 0 2.2783619042270402 -0.89190432151553978 0 0 0 0 1.1188306322617336 0.72548989706319844 0 0.72548989706319844 -0.35670832337291358 0 0 0 0 -29.411709400779785 17.488575082035823 0 17.488575082035823 -13.361244056061423 0 0 0 0 -28.949026669586992 18.975419427372344 0 18.975419427372344 -36.374530527653405 0 0 0 0 -5.4030677352399152 2.6479762726539775 0 2.6479762726539775 -9.4920900274050268 0 0 0 0 -9.5722195502361274 26.24779824788402 0 26.24779824788402 -21.259572057042533 0 0 0 0 -0.13675279942088092 1.2824692109516604 0 1.2824692109516604 -0.001067687209797441 0 0 0 0 -39.184906691449306 19.885380419059402 0 19.885380419059402 -11.743881033651633 0 0 0 0 -47.455178557729475 12.512618239782569 0 12.512618239782569 -11.780080752238064 0 0 0 0 0.075466244937647087 0.48561724904256209 0 0.48561724904256209 0.35683383292370863 0 0 0 0 218.74163043318848 53.411035518262452 0 53.411035518262452 -21.524439520266242 0 0 0 0 -68.354080668160563 106.7977660570732 0 106.7977660570732 -0.31893019260871919 0 0 0 0 0.11930650673475859 0.19538823460107491 0 0.19538823460107491 0.27374765511896015 0 0 0 0 85.817091524020725 51.010553788957623 0 51.010553788957623 -0.53432043165594223 0 0 0 0 121.6958542317563 92.755630872931761 0 92.755630872931761 20.22394555297069 0 0 0 0 133.70327787484268 116.81299325741611 0 116.81299325741611 -0.00027875912019226234 0 0 0 0 65.649266490122727 83.348551007858532 0 83.348551007858532 2.3053348612902482 0 0 0 0 39.564777643646323 118.63902649991405 0 118.63902649991405 0.00063336337188957259 0 0 0 0 109.39209989890469 119.62323425247087 0 119.62323425247087 -11.613313270766866 0 0 0 0 41.282710408060979 97.869535013070163 0 97.869535013070163 -4.9350882392736821 0 0 0 0 63.314150858086123 154.85602166008994 0 154.85602166008994 -19.206036550329372 0 0 0 0 46.18689978624684 109.91101710658086 0 109.91101710658086 -41.632278627208507 0 0 0 0 42.733643041780013 134.48997159753173 0 134.48997159753173 -41.732316714087574 0 0 0 0 24.269831458670524 121.22073940840983 0 121.22073940840983 -45.420993907515367 0 0 0 0 46.052475598554906 112.35256533686754 0 112.35256533686754 -76.766255354299574 0 0 0 0 -20.910724716123582 60.203617440811286 0 60.203617440811286 -96.877727210611738 0 0 0 0 -30.998430070216614 93.480626943769494 0 93.480626943769494 -106.47185872505725 0 0 0 0 0.25108935788285236 1.2585347503399404 0 1.2585347503399404 0.51936026815908676 0 0 0 0 -64.130292919493513 69.978903555953366 0 69.978903555953366 -82.911858921750536 0 0 0 0 9.1059002358795169 4.5328230450581941 0 4.5328230450581941 -0.88904599356101244 0 0 0 0 -1.2158519936907624 7.9913279125448753 0 7.9913279125448753 38.757092112992723 0 0 0 0 64.382563368272486 91.72560746560157 0 91.72560746560157 -158.68019643796288 0 0 0 0 0.16395490087998876 0.52531840194225055 0 0.52531840194225055 0.29177037450975973 0 0 0 0 33.756793466738316 67.846112423014802 0 67.846112423014802 91.184880769640586 0 0 0 0 -90.382720956367848 75.592420501351626 0 75.592420501351626 -40.804957324246061 0 0 0 0 -94.165950431946271 92.089632454599268 0 92.089632454599268 -65.022672563460219 0 0 0 0 -101.18348820487745 80.973715581720171 0 80.973715581720171 0.0015964240137691377 0 0 0 0 -72.299691263673822 87.850188587740377 0 87.850188587740377 -33.970209327100747 0 0 0 0 -69.730772411261938 77.211853056166547 0 77.211853056166547 -21.645528348535663 0 0 0 0 -31.672069578233277 108.776817205523 0 108.776817205523 -0.027731234644306824 0 0 0 0 -10.574989258396954 83.788232695439547 0 83.788232695439547 -15.377350416222271 0 0 0 0 10.239506952221518 121.27637422647967 0 121.27637422647967 -17.384865913982196 0 0 0 0 -23.277441964357195 89.392891204951866 0 89.392891204951866 -45.127580705291621 0 0 0 0 21.79661646273297 130.11136173965656 0 130.11136173965656 -73.303753617323309 0 0 0 0 -28.324570164550323 146.08648295065177 0 146.08648295065177 -25.53362662858126 0 0 0 0 -24.625310506281949 152.61496841346434 0 152.61496841346434 -159.59340294556205 0 0 0 0 -38.795546653717565 111.10309275124564 0 111.10309275124564 -42.025699393395371 0 0 0 0 -73.068612941933907 78.665549162323714 0 78.665549162323714 -71.494457488189255 0 0 0 0 24.151354106348663 27.761865985728946 0 27.761865985728946 -40.688574152556612 0 0 0 0 0.067372042656785425 1.9596179086615564 0 1.9596179086615564 2.5497281186371978 0 0 0 0 -93.225944627309445 89.32061179935954 0 89.32061179935954 -62.329910591135558 0 0 0 0 -84.293103747731266 100.79329555240406 0 100.79329555240406 -57.799606547428994 0 0 0 0 -147.14954038732992 101.34200707887749 0 101.34200707887749 170.94749676241008 0 0 0 0 196.13518812395432 24.651724286444733 0 24.651724286444733 -11.053272713874321 0 0 0 0 0.77349663563399762 1.6375901449265076 0 1.6375901449265076 2.0311986284336285 0 0 0 0 -206.65968836661386 33.340850590819628 0 33.340850590819628 100.79188210846041 0 0 0 0 168.85242236681597 77.413932820967602 0 77.413932820967602 -56.617518099585141 0 0 0 0 -31.126659321341663 84.030520045992262 0 84.030520045992262 162.30286734245419 0 0 0 0 0.0021977078356414381 1.0163160670519424 0 1.0163160670519424 0.97013581610155342 0 0 0 0 -87.814248228837641 -6.4562775353549569 0 -6.4562775353549569 203.16414823039304 0 0 0 0 -73.38543183549541 -13.534789666080087 0 -13.534789666080087 -1.2947525259587565 0 0 0 0 -14.281694428680112 84.028138645883701 0 84.028138645883701 156.83497415193551 0 0 0 0 40.146523982067492 52.641196517179196 0 52.641196517179196 -14.305571590994077 0 0 0 0 -4.3634485541854247 104.45073898223836 0 104.45073898223836 29.99402001189992 0 0 0 0 37.309848529983583 56.179328344311671 0 56.179328344311671 12.402530093762834 0 0 0 0 14.303135986882353 72.496042338359985 0 72.496042338359985 6.0554226173608185 0 0 0 0 21.550555260486021 60.749250197923175 0 60.749250197923175 0.3328901030945417 0 0 0 0 33.689673052025796 85.203393554333161 0 85.203393554333161 28.331738516902988 0 0 0 0 -4.2669165925210564 45.192224632208308 0 45.192224632208308 10.937808172591758 0 0 0 0 5.0996321285615522 71.457138632645638 0 71.457138632645638 42.61117701706462 0 0 0 0 33.040947683423838 66.969372477058641 0 66.969372477058641 20.287560608270724 0 0 0 0 1.2776163717696587 1.5156114151118061 0 1.5156114151118061 2.0468252801602347 0 0 0 0 6.5055377781304742 73.234758172899092 0 73.234758172899092 81.867229158147893 0 0 0 0 61.821968214306708 133.49124282329103 0 133.49124282329103 125.64325266405831 0 0 0 0 199.47787488649146 101.325525480951 0 101.325525480951 -23.769894666562323 0 0 0 0 129.23715611393072 -24.142915465893566 0 -24.142915465893566 2.4305907982270583 0 0 0 0 58.557629919154351 48.035802295653411 0 48.035802295653411 -33.27545690893885 0 0 0 0 80.90318868543477 69.0901349633059 0 69.0901349633059 -14.569262853592591 0 0 0 0 -95.761563942171961 -7.6812965837852971 0 -7.6812965837852971 6.1430623960350204 0 0 0 0 58.288101501022652 44.768691810608061 0 44.768691810608061 -72.555667244458164 0 0 0 0 -104.59131214553008 -49.690415621772445 0 -49.690415621772445 -114.09073465144684 0 0 0 0 -345.67612790918974 2.0588804151921067 0 2.0588804151921067 -151.44159981721168 0 0 0 0 -57.967386526752534 96.425343363877801 0 96.425343363877801 -153.58365974473782 0 0 0 0 -113.94873314441611 41.362934222408512 0 41.362934222408512 -0.37381531568462378 0 0 0 0 -279.36240781345214 299.1488334036294 0 299.1488334036294 77.145370752956296 0 0 0 0 0.096819452062023359 3.3155410761113373 0 3.3155410761113373 7.377205162880486 0 0 0 0 -5.0649826266359241 6.8592873675103192 0 6.8592873675103192 31.958826724858227 0 0 0 0 -302.19442621839744 103.33739698562204 0 103.33739698562204 357.56657618538338 0 0 0 0 -2.3812806571709579 3.034532636520229 0 3.034532636520229 -0.61902601361061471 0 0 0 0 2.39562250472909 -3.1618891562275167 0 -3.1618891562275167 21.873709250443426 0 0 0 0 -3.7678775345052031 -2.2221007525801042 0 -2.2221007525801042 30.772056371788494 0 0 0 0 1.8934658316229616 0.34360264937276952 0 0.34360264937276952 31.90556759748506 0 0 0 0 -1.1252264215395371 -3.3292106394883376 0 -3.3292106394883376 35.619316130145307 0 0 0 0 -5.2863657317120669 5.3486972470891487 0 5.3486972470891487 40.856086026054982 0 0 0 0 68.270746758128553 -2.7010301953869202 0 -2.7010301953869202 7.9691212790016834 0 0 0 0 -82.207408532514819 18.362175864778692 0 18.362175864778692 13.125498949959365 0 0 0 0 1.9263044321866962 4.6972242709188752 0 4.6972242709188752 2.6739472880544284 0 0 0 0 144.12887585531121 74.531668484832608 0 74.531668484832608 42.487557265747455 0 0 0 0 127.80620679175126 10.72299341152825 0 10.72299341152825 -2.5420663067488931 0 0 0 0 14.323413407252815 70.587474005198601 0 70.587474005198601 -42.885911426130406 0 0 0 0 -5.9372697864548627 69.137682873136328 0 69.137682873136328 -96.82493457524015 0 0 0 0 -18.42652991410705 39.092666016284056 0 39.092666016284056 -60.901870696370679 0 0 0 0 -32.898287345698066 57.762788468492317 0 57.762788468492317 -93.729552885972225 0 0 0 0 32.941647896890345 81.999269265559633 0 81.999269265559633 -101.32187346372848 0 0 0 0 2.9175775343797454 49.914069913012099 0 49.914069913012099 -80.094008071329881 0 0 0 0 21.883639238759315 77.006461196117016 0 77.006461196117016 -72.967561768207815 0 0 0 0 31.114147259485662 91.688957872813262 0 91.688957872813262 -59.745672387926788 0 0 0 0 25.236430828014932 90.911652499590218 0 90.911652499590218 -16.094371328976194 0 0 0 0 18.010790597624464 107.26775142329097 0 107.26775142329097 -47.431954045385055 0 0 0 0 13.919269405404066 68.495013599927915 0 68.495013599927915 -33.87227373422229 0 0 0 0 3.4364051164446323 43.174146483540881 0 43.174146483540881 -10.772176800190209 0 0 0 0 0.094662624974205301 49.61402441688324 0 49.61402441688324 -0.16793535631586565 0 0 0 0 -3.4001132306520958 61.00599067127223 0 61.00599067127223 23.896157980781936 0 0 0 0 -4.1904439537872804 48.288910371044039 0 48.288910371044039 0.52835242097535229 0 0 0 0 -19.098047091120407 40.025207893755578 0 40.025207893755578 13.338155941197329 0 0 0 0 -11.178833537082028 37.388833234848789 0 37.388833234848789 -13.693461331506114 0 0 0 0 -13.46560653312963 38.842298152883814 0 38.842298152883814 25.158296542536846 0 0 0 0 -12.945019887356011 31.109511440663027 0 31.109511440663027 9.1476907869400748 0 0 0 0 -12.136793542029409 24.588413970646798 0 24.588413970646798 -7.486089345838991 0 0 0 0 14.619080447196893 2.5222886476785789 0 2.5222886476785789 -17.829910717642861 0 0 0 0 -9.5045475768718575 12.461675872708383 0 12.461675872708383 32.332247948179429 0 0 0 0 -1.6923860861937783 39.591452924289115 0 39.591452924289115 -24.3526752858088 0 0 0 0 7.1988613209657615 38.17372136970971 0 38.17372136970971 -47.057256213736764 0 0 0 0 -18.871578961174009 50.068399392932406 0 50.068399392932406 -40.669687938600418 0 0 0 0 4.1372249899649205 41.97928432070421 0 41.97928432070421 -63.474857825600338 0 0 0 0 -0.21545509503443494 0.98399994163845861 0 0.98399994163845861 -0.48071165092204993 0 0 0 0 14.933814179869955 28.957127641526313 0 28.957127641526313 -42.60063037657369 0 0 0 0 8.0947822102369855 5.5441421124387489 0 5.5441421124387489 -40.31906605999211 0 0 0 0 3.0102672563194801 9.0399493488184817 0 9.0399493488184817 -34.361215384979005 0 0 0 0 -22.348993946755627 36.881474622054156 0 36.881474622054156 46.689815846803867 0 0 0 0 -12.451003635285133 17.234279622871327 0 17.234279622871327 -103.33465539120152 0 0 0 0 -0.066239033091229693 0.58643615456409393 0 0.58643615456409393 -0.28255126371944783 0 0 0 0 -0.3384824814217211 -7.393554409040803 0 -7.393554409040803 -70.044860776075438 0 0 0 0 0.15742455497274932 35.022388419407434 0 35.022388419407434 -59.999643071105311 0 0 0 0 -39.396644692064228 39.290361804507484 0 39.290361804507484 -6.6915256762756599 0 0 0 0 -11.60593541404387 23.028197291496326 0 23.028197291496326 -5.8970295055999031 0 0 0 0 2.5867320533255338 12.746930696104755 0 12.746930696104755 -1.9815079944291938 0 0 0 0 7.3152599364013895 28.523570163886689 0 28.523570163886689 -24.46978644045339 0 0 0 0 6.6288506430869631 9.0430041108114665 0 9.0430041108114665 -36.054887028032681 0 0 0 0 0.99655189836482805 16.496483217151763 0 16.496483217151763 -9.1397568618849618 0 0 0 0 -4.4556743772004666 22.508900945065761 0 22.508900945065761 11.696245482055019 0 0 0 0 -5.7666024129083526 6.8778777133302285 0 6.8778777133302285 -6.0576222518873593 0 0 0 0 3.3960431662628707 23.731288460434371 0 23.731288460434371 -19.761687287453981 0 0 0 0 0.026297183532801416 2.2625967353165279 0 2.2625967353165279 -2.8850822925160098 0 0 0 0 5.9324053454497516 35.225432019686195 0 35.225432019686195 -6.2022983259053035 0 0 0 0 -7.9441232374537094 25.429399370063038 0 25.429399370063038 42.196072281680244 0 0 0 0 -6.4229921859678143 13.585898267406264 0 13.585898267406264 7.9060204837223864 0 0 0 0 -9.9352909675191086 13.968471098984992 0 13.968471098984992 11.40821967273223 0 0 0 0 -29.779178059520291 15.631224219046999 0 15.631224219046999 11.430836376614025 0 0 0 0 -14.897085564803547 22.488812578492798 0 22.488812578492798 15.512666852388065 0 0 0 0 2.1120846057417566 19.741380273664618 0 19.741380273664618 13.541504868977427 0 0 0 0 -5.7369221773820218 8.5722584934483486 0 8.5722584934483486 -4.393150481884426 0 0 0 0 2.779626703280428 19.768841416696887 0 19.768841416696887 -1.1964182168158004 0 0 0 0 -6.5223585733233449 18.596559916539263 0 18.596559916539263 13.580920437496388 0 0 0 0 -9.4140755356165755 26.61693056492004 0 26.61693056492004 -6.7512546123343782 0 0 0 0 1.4117954390537761 13.849545916636316 0 13.849545916636316 6.4451116878590256 0 0 0 0 -10.556266613485832 5.1810051999400457 0 5.1810051999400457 23.944652834117733 0 0 0 0 0.26291009315900737 28.798496428138606 0 28.798496428138606 32.449326995627416 0 0 0 0 -0.0076849229486173343 0.19885757249807412 0 0.19885757249807412 0.68265208407310496 0 0 0 0 -5.3861679865257486 12.066680535216619 0 12.066680535216619 14.517378783162712 0 0 0 0 -33.407201982734932 41.568704425069882 0 41.568704425069882 21.573017696561692 0 0 0 0 0.063939329731816041 5.5530601540130888 0 5.5530601540130888 9.2802413845869509 0 0 0 0 -58.606269631827672 3.8002710538476094 0 3.8002710538476094 63.016608044234772 0 0 0 0 -61.825953165447117 -29.590931189231924 0 -29.590931189231924 -21.972076273318635 0 0 0 0 1.0068151378729384 1.6106262698515401 0 1.6106262698515401 1.2539812721987147 0 0 0 0 -22.627175040364364 70.08372814568429 0 70.08372814568429 52.734855567486647 0 0 0 0 -15.593068184263302 10.330770485790708 0 10.330770485790708 14.309609174990328 0 0 0 0 -7.3983923081912053 11.715559885687981 0 11.715559885687981 7.7629003227484645 0 0 0 0 0.32519076299033411 4.4780226289040463 0 4.4780226289040463 8.3112122482707065 0 0 0 0 -1.2145544367863295 25.831471355078975 0 25.831471355078975 -14.267679534688824 0 0 0 0 38.689009826238816 -13.12390307544274 0 -13.12390307544274 -13.4692559279938 0 0 0 0 -0.047331779862830548 2.0362009712966671 0 2.0362009712966671 0.30013484300823023 0 0 0 0 -0.60546075767756147 6.7805588096968172 0 6.7805588096968172 2.4026426471972577 0 0 0 0 -2.8412670575630727 -6.6643869449080739 0 -6.6643869449080739 4.5197627665402251 0 0 0 0 -0.10028133299815067 4.5276433184563416 0 4.5276433184563416 -4.542051929372974 0 0 0 0 0.21534246645717925 0.89009131490605142 0 0.89009131490605142 -0.34090848013505592 0 0 0 0 -26.715020023782472 34.150796243422519 0 34.150796243422519 -64.553986483797416 0 0 0 0 0.012504875396514237 0.7676286202153797 0 0.7676286202153797 0.86466345717298765 0 0 0 0 -19.913707788854481 -0.79665257412671053 0 -0.79665257412671053 6.919992905592153 0 0 0 0 -13.506959651605939 6.3669309662564046 0 6.3669309662564046 4.5252415058785118 0 0 0 0 -43.527753494027365 11.228692511718691 0 11.228692511718691 8.0609260921373789 0 0 0 0 -28.096522262707822 54.786389599561517 0 54.786389599561517 -5.9165307906077942 0 0 0 0 1.245321736166261 8.7419305087569228 0 8.7419305087569228 -42.943926543572161 0 0 0 0 1.3042383504487134 7.6426280202447288 0 7.6426280202447288 -26.850922149609687 0 0 0 0 -1.1154707577038607 36.018370307432633 0 36.018370307432633 -52.653298172728682 0 0 0 0 -1.9212526169558259 27.071323807570479 0 27.071323807570479 -8.3771834750514245 0 0 0 0 -3.8518332926119001 19.235301987824641 0 19.235301987824641 -26.996971768836374 0 0 0 0 5.8285823351325234 36.560957433553995 0 36.560957433553995 -5.8094751645601264 0 0 0 0 -17.848777804107158 16.321714095294737 0 16.321714095294737 -9.9403662586410064 0 0 0 0 -15.181925864751975 -50.977030636664495 0 -50.977030636664495 -19.736025145299209 0 0 0 0 -0.29792664477620878 -0.013500370712277387 0 -0.013500370712277387 0.50016396095350046 0 0 0 0 -20.550970605032489 34.613031596731162 0 34.613031596731162 32.834189778552172 0 0 0 0 24.663239645824547 97.629540179594869 0 97.629540179594869 -96.5044462589467 0 0 0 0 228.01745904053155 -8.4576507868850967 0 -8.4576507868850967 -216.82151723506831 0 0 0 0 1.0410399630742848 1.6756345885168287 0 1.6756345885168287 2.9223832807531309 0 0 0 0 32.164666528432463 -127.90417097466252 0 -127.90417097466252 159.8466263719929 0 0 0 0 279.60975984449306 -145.78779696749734 0 -145.78779696749734 -29.414336364240626 0 0 0 0 -3.1357963079721047 2.2980801930522077 0 2.2980801930522077 0.50917619078721188 0 0 0 0 -190.25003894743531 -0.48977355272472778 0 -0.48977355272472778 286.4638311133449 0 0 0 0 -53.950562026665466 202.85759849801843 0 202.85759849801843 20.441849830156571 0 0 0 0 1.9192198249729868 5.2993801565226377 0 5.2993801565226377 5.0077654731365016 0 0 0 0 -0.42248976620930989 0.98331804842200654 0 0.98331804842200654 -4.8513591520277259 0 0 0 0 -8.6693552195881693 -2.7213756658566126 0 -2.7213756658566126 53.596436983902095 0 0 0 0 -5.9721871811766505 -3.1907483007917108 0 -3.1907483007917108 47.574108904835157 0 0 0 0 -10.449597059407097 -0.60810499107901705 0 -0.60810499107901705 51.486900440919271 0 0 0 0 -3.7794110699701378 -6.8609409127275285 0 -6.8609409127275285 52.222547573146585 0 0 0 0 7.0652529622411748 -6.8398103022809664 0 -6.8398103022809664 37.062058530033028 0 0 0 0 -9.4035450437449981 -3.909209969904623 0 -3.909209969904623 52.073603709040185 0 0 0 0 39.623468888983155 -34.209383793667257 0 -34.209383793667257 72.82328947228234 0 0 0 0 24.718690703532957 -9.4805076884531445 0 -9.4805076884531445 37.816964880388696 0 0 0 0 0.84257034875236059 -20.70325487934042 0 -20.70325487934042 79.439844444903429 0 0 0 0 8.77652635912807 4.7814547288846825 0 4.7814547288846825 27.997120258394716 0 0 0 0 -80.54790641114505 91.724966810615115 0 91.724966810615115 57.803184115292424 0 0 0 0 -22.23264455199228 20.905610968757628 0 20.905610968757628 81.557133170390443 0 0 0 0 -15.077007727805722 -0.030644451813714113 0 -0.030644451813714113 140.85389398316875 0 0 0 0 -7.1068897336599548 14.780797717938185 0 14.780797717938185 37.766298362897942 0 0 0 0 -5.6052479338841295 6.2364179006663107 0 6.2364179006663107 57.005978179178783 0 0 0 0 22.928398498608658 18.555845322086498 0 18.555845322086498 37.912814815370666 0 0 0 0 3.0961109206300534 1.0074056468783965 0 1.0074056468783965 42.558839731864282 0 0 0 0 5.3216572234121031 47.273262493761194 0 47.273262493761194 -7.3153795608504879 0 0 0 0 0.26233596950260107 6.6144604796227213 0 6.6144604796227213 -34.386317689968564 0 0 0 0 -0.96409589509802451 1.0928668553071645 0 1.0928668553071645 -0.82537661175128108 0 0 0 0 -3.4723808778926468 13.302854018757898 0 13.302854018757898 -27.396098993242958 0 0 0 0 2.1745629795314017 20.156683427014286 0 20.156683427014286 -20.799732885441642 0 0 0 0 -0.31721753460169566 14.511243653611018 0 14.511243653611018 -33.553390319180835 0 0 0 0 -6.5348668085573536 0.49833879795141911 0 0.49833879795141911 -73.84651471993493 0 0 0 0 -16.564827243664695 49.525814440530667 0 49.525814440530667 -48.828937159733869 0 0 0 0 -35.088390224103478 43.352883561345152 0 43.352883561345152 -23.434906810583925 0 0 0 0 -2.1678977307110472 5.6175228015599714 0 5.6175228015599714 -3.1347612752033456 0 0 0 0 -0.95456274116679651 5.6397865400408591 0 5.6397865400408591 -3.9677516085685056 0 0 0 0 -1.7966537267884632 6.4364265927506494 0 6.4364265927506494 -2.3222911508837569 0 0 0 0 -0.50506753546142136 5.1984753042179364 0 5.1984753042179364 -3.836499626382647 0 0 0 0 -1.530453571358521 7.2874685758870328 0 7.2874685758870328 -4.6440945591803029 0 0 0 0 -2.5333135556281263 6.2124855444956211 0 6.2124855444956211 -3.996334901330556 0 0 0 0 -2.7033958545853238 7.540953051589895 0 7.540953051589895 -4.2279682426524232 0 0 0 0 -1.9076664477815939 5.0910321628252859 0 5.0910321628252859 -3.3533686833934553 0 0 0 0 -0.20861425624798358 3.279634982251082 0 3.279634982251082 -21.304446082402137 0 0 0 0 -0.12661933018625859 4.7197691001001658 0 4.7197691001001658 -6.2253096867534623 0 0 0 0 -1.8146528158322326 6.690595766676779 0 6.690595766676779 -5.9088694985057373 0 0 0 0 -0.055570041884948296 5.9187910158652812 0 5.9187910158652812 -9.6182485482422635 0 0 0 0 -1.374069776014494 17.785215557431002 0 17.785215557431002 -10.980490441612346 0 0 0 0 0.49575007842349805 19.432603648861914 0 19.432603648861914 -10.537724793048255 0 0 0 0 -3.6701709219528311 17.832963405538976 0 17.832963405538976 -4.9648246038568686 0 0 0 0 -6.1954786462422362 16.535304263157741 0 16.535304263157741 7.5539695504048723 0 0 0 0 -1.943113048369014 4.3369958370967652 0 4.3369958370967652 0.4651682328676543 0 0 0 0 -7.0208590468146213 14.431787671232087 0 14.431787671232087 13.178637377000996 0 0 0 0 -10.357558131632914 33.09942600046179 0 33.09942600046179 14.971168953219603 0 0 0 0 -8.2056462406044375 27.140176637762124 0 27.140176637762124 -9.9969107203341991 0 0 0 0 -6.4365516549596578 34.571827234649845 0 34.571827234649845 -6.4168649305029248 0 0 0 0 -1.8748501018380921 28.111452488221403 0 28.111452488221403 1.260242523897432 0 0 0 0 -1.9029062166292761 27.4246103345086 0 27.4246103345086 -15.141101640907436 0 0 0 0 1.0944055010813827 32.329798786287938 0 32.329798786287938 -9.8788035911729821 0 0 0 0 4.4088633005912925 34.851885910511555 0 34.851885910511555 -10.00033791481917 0 0 0 0 -0.82500707380313543 28.360777630743996 0 28.360777630743996 2.6327778964478057 0 0 0 0 -2.956575375339753 33.6727832749757 0 33.6727832749757 -5.0342619333896437 0 0 0 0 0.29575002584169852 30.861589723177531 0 30.861589723177531 5.1329212828022719 0 0 0 0 3.5458576779768691 4.2840407483172385 0 4.2840407483172385 23.538209760801692 0 0 0 0 2.0737078982718913 11.624004688701461 0 11.624004688701461 -9.1704600890734582 0 0 0 0 -6.740964559627173 13.093152614570499 0 13.093152614570499 -5.8833548152542789 0 0 0 0 -3.8285062674449364 9.3284669945896894 0 9.3284669945896894 -30.226521278705604 0 0 0 0 -22.80467997097071 40.490209483730723 0 40.490209483730723 -18.890903699175396 0 0 0 0 -27.318965156126978 31.826918376496906 0 31.826918376496906 4.4487537663844705 0 0 0 0 -23.781350670876577 38.021251924781609 0 38.021251924781609 -22.792506503701588 0 0 0 0 -6.8240497023571152 32.499122295466805 0 32.499122295466805 -33.551669537369889 0 0 0 0 -25.371152195893615 43.510450597161707 0 43.510450597161707 -11.757319480926526 0 0 0 0 -25.809203522404459 37.571852748071251 0 37.571852748071251 3.6502365562955674 0 0 0 0 -15.971309113234383 33.746844432997023 0 33.746844432997023 -5.3498069588222279 0 0 0 0 -15.312019447927696 31.267320520393696 0 31.267320520393696 2.6243733414812596 0 0 0 0 -0.9045123757168767 33.132127731130822 0 33.132127731130822 -15.750440295172666 0 0 0 0 -7.0322337499732157 31.533354842547851 0 31.533354842547851 -15.616266345841723 0 0 0 0 -0.12577155661983852 27.460025909072101 0 27.460025909072101 -13.288148701150931 0 0 0 0 2.1851209047026714 32.785709046554985 0 32.785709046554985 -27.224912794486954 0 0 0 0 4.5688898378059974 30.597538515814108 0 30.597538515814108 -12.501149325555161 0 0 0 0 -2.6643261775579958 33.669169135706397 0 33.669169135706397 4.6300680713356996 0 0 0 0 30.102889901228991 79.283746556953702 0 79.283746556953702 -52.824005025926454 0 0 0 0 -0.30863815244440573 0.20140575819191753 0 0.20140575819191753 0.17186278956231327 0 0 0 0 -14.825296426401565 11.966763344308674 0 11.966763344308674 63.879746216884087 0 0 0 0 4.6662715485163062 35.45271941836836 0 35.45271941836836 4.5714985129889101 0 0 0 0 0.41063267614670451 21.540754098246779 0 21.540754098246779 27.934167852559767 0 0 0 0 -10.42323179520281 44.871045400643197 0 44.871045400643197 48.120332207532556 0 0 0 0 -71.27733920873834 44.305364884608935 0 44.305364884608935 28.195669487518899 0 0 0 0 -40.920004304231043 17.125370833909983 0 17.125370833909983 1.2693425897978159 0 0 0 0 -12.285050839442192 28.250487818446345 0 28.250487818446345 -0.20220053052980802 0 0 0 0 -13.425832737231758 35.536168161797832 0 35.536168161797832 3.8109485789545943 0 0 0 0 5.2530064933221183 43.726136266786398 0 43.726136266786398 9.6853897702821996 0 0 0 0 3.0105708253831835 51.894828007596516 0 51.894828007596516 23.379921491177811 0 0 0 0 -6.1658211894573469 37.094998698394193 0 37.094998698394193 24.673725341482623 0 0 0 0 -0.96327066747699064 29.961337565104259 0 29.961337565104259 5.7726504185047816 0 0 0 0 -21.32317279711242 32.024782548449366 0 32.024782548449366 10.333856317291065 0 0 0 0 -20.811080835272151 35.567043636502603 0 35.567043636502603 10.508895750110241 0 0 0 0 -18.511402440817619 27.606770229951508 0 27.606770229951508 7.4927429439291302 0 0 0 0 -24.577268691367863 31.927976878494519 0 31.927976878494519 7.5484262598226906 0 0 0 0 -20.056634291724549 25.609267141322562 0 25.609267141322562 10.321988954809058 0 0 0 0 -22.845790139910605 28.308639755784498 0 28.308639755784498 14.778289910042076 0 0 0 0 -28.884302367675446 31.297658862491517 0 31.297658862491517 9.6098839439073345 0 0 0 0 -29.862618152044888 33.677607807921959 0 33.677607807921959 12.892417986040527 0 0 0 0 -18.206591368178579 20.037037153214214 0 20.037037153214214 7.4297817111582845 0 0 0 0 -15.596311816496836 18.726541100432769 0 18.726541100432769 7.1657360010867706 0 0 0 0 -14.100258359593226 19.764877005431117 0 19.764877005431117 3.6212243119043706 0 0 0 0 -20.147132684596272 26.476516077411361 0 26.476516077411361 7.9348256303601374 0 0 0 0 -20.528701600162094 32.368676200485424 0 32.368676200485424 10.022852174930449 0 0 0 0 -5.9372401732703111 14.877089285127113 0 14.877089285127113 4.7340513337185257 0 0 0 0 -7.0196402759849548 15.549143115628794 0 15.549143115628794 -10.636090244289335 0 0 0 0 -20.145256816294022 26.525168034433591 0 26.525168034433591 -11.951054237735661 0 0 0 0 -8.6057039555660744 12.311682381960036 0 12.311682381960036 -8.3092245451685276 0 0 0 0 -2.6410232545062984 0.15688576186310854 0 0.15688576186310854 4.3838230764270634 0 0 0 0 0.31833576050030388 24.686662523321502 0 24.686662523321502 -26.036968766789869 0 0 0 0 -18.34898034116577 44.506162029552797 0 44.506162029552797 -4.3116975379052747 0 0 0 0 0.63238327016291862 65.419842552818125 0 65.419842552818125 15.137663115790929 0 0 0 0 -1.3233112708129156 -0.72767874617667871 0 -0.72767874617667871 -11.636751267273212 0 0 0 0 -1.5783720149340059 3.3986219154898549 0 3.3986219154898549 -5.0470216271537822 0 0 0 0 -8.8187142293693057 16.153168185381219 0 16.153168185381219 -7.7360905782188638 0 0 0 0 -9.2099728203375264 17.702065006634712 0 17.702065006634712 -2.8529063634377962 0 0 0 0 -8.2499223750326038 19.149844301139638 0 19.149844301139638 -8.802641724327259 0 0 0 0 -7.9373346691239099 12.293046880136554 0 12.293046880136554 -12.893477995075592 0 0 0 0 -12.760704194537539 16.869106907948662 0 16.869106907948662 -14.610683297541073 0 0 0 0 -7.9699366660025817 19.014288744569285 0 19.014288744569285 -2.9415582724013802 0 0 0 0 -8.5622713863609548 20.09935488731935 0 20.09935488731935 -3.7375269467847829 0 0 0 0 1.4582084848970105 1.6988784465122606 0 1.6988784465122606 -4.7582159402555977 0 0 0 0 -16.655501337236274 13.537033813065136 0 13.537033813065136 8.6141076014937425 0 0 0 0 -9.6781095568454809 11.132975776418458 0 11.132975776418458 -2.5162288919057509 0 0 0 0 -13.544005473352399 21.912553050131464 0 21.912553050131464 -17.465667221749754 0 0 0 0 -12.604009815959984 21.698120144335689 0 21.698120144335689 -17.567144187874874 0 0 0 0 -11.083167067307571 18.308859653787181 0 18.308859653787181 -17.079399854028452 0 0 0 0 -1.3591817496291707 1.6426731667517238 0 1.6426731667517238 -1.9583552300809242 0 0 0 0 -11.166034033743927 18.512786160550604 0 18.512786160550604 -18.984255174362261 0 0 0 0 -5.2568356648696408 14.806467938833521 0 14.806467938833521 -17.930410814649804 0 0 0 0 -4.4102459295566927 17.323391930403375 0 17.323391930403375 -16.324660644808318 0 0 0 0 -8.5798499456986974 14.883876249758032 0 14.883876249758032 -14.908234694070416 0 0 0 0 -11.141588431074979 17.121893958559667 0 17.121893958559667 17.450292913497833 0 0 0 0 -4.4456194713075092 19.513981087444336 0 19.513981087444336 -12.16360313972109 0 0 0 0 -6.9474289315060984 11.107903614387201 0 11.107903614387201 -1.0024355890875256 0 0 0 0 -11.526561352500721 20.334433492047538 0 20.334433492047538 -15.593364677478348 0 0 0 0 -8.8344013970800006 2.7954305530056445 0 2.7954305530056445 -53.603913252550072 0 0 0 0 -8.9054547843299119 15.372703375085507 0 15.372703375085507 -6.3662410045326396 0 0 0 0 0.52610726273813135 4.0675193579880116 0 4.0675193579880116 -2.7799830137841024 0 0 0 0 -8.7938717236087314 14.594583458097986 0 14.594583458097986 -7.5532705278019421 0 0 0 0 -8.9977152604045614 16.304849411968462 0 16.304849411968462 -5.4048022909810243 0 0 0 0 -9.1409605706962616 14.766855442034512 0 14.766855442034512 -6.6521163864308619 0 0 0 0 -9.3651462167715067 13.941329321268313 0 13.941329321268313 -2.7613509514503676 0 0 0 0 -9.1914317126461924 14.065143164013534 0 14.065143164013534 -6.2382104609166618 0 0 0 0 -12.69004438204388 14.295002989467264 0 14.295002989467264 -21.921335573313627 0 0 0 0 1.160961959128529 0.9690971558298358 0 0.9690971558298358 1.1877861071062572 0 0 0 0 -16.616895566970811 27.014593135203086 0 27.014593135203086 -29.903067924945844 0 0 0 0 -20.828165660283616 19.398652934229176 0 19.398652934229176 -15.389096606890234 0 0 0 0 -15.537062412952878 15.084597219106399 0 15.084597219106399 -22.234164709954712 0 0 0 0 -14.886127129934607 22.576969143225142 0 22.576969143225142 -14.053521311690929 0 0 0 0 -17.507962111083884 13.779038082690931 0 13.779038082690931 -12.094896385468019 0 0 0 0 -3.244609078697807 0.89065547474704232 0 0.89065547474704232 1.4423922102456572 0 0 0 0 -14.036243687907188 13.261243665159782 0 13.261243665159782 -12.569362522888696 0 0 0 0 5.2113707695443736 -5.1559340044586861 0 -5.1559340044586861 29.34216967814973 0 0 0 0 -5.4698994514158965 7.1504213714038141 0 7.1504213714038141 5.1603363234004913 0 0 0 0 7.430787528923247 -1.7843830593537859 0 -1.7843830593537859 9.6335691580352432 0 0 0 0 -1.3986166020231394 0.35695788695011288 0 0.35695788695011288 9.2848583409058847 0 0 0 0 -0.21303278538714432 -0.60582514704644908 0 -0.60582514704644908 1.6399796973568908 0 0 0 0 -0.063813697673325898 -0.23456024727209268 0 -0.23456024727209268 -0.15040757880410283 0 0 0 0 -7.2700682866825446 -11.225605262711724 0 -11.225605262711724 32.552782037450015 0 0 0 0 -56.024165864310362 33.44460617605364 0 33.44460617605364 -24.133547068309781 0 0 0 0 -18.966301179958919 63.025114214602581 0 63.025114214602581 -0.99366429489600705 0 0 0 0 11.381923628183358 -0.19892640810758166 0 -0.19892640810758166 -7.6032154129297851 0 0 0 0 -6.8045754560453133 20.347317066747564 0 20.347317066747564 -19.472840981088666 0 0 0 0 -5.5858596768407125 15.516141790027177 0 15.516141790027177 -24.036713050303661 0 0 0 0 -23.074258197089875 17.069833826350077 0 17.069833826350077 22.943765251269724 0 0 0 0 -10.583506971805974 17.063647602114543 0 17.063647602114543 -4.1676680219115951 0 0 0 0 -6.2635335397641798 6.6432448859203781 0 6.6432448859203781 5.8242780950896282 0 0 0 0 -0.57866956708437556 9.5518900829265476 0 9.5518900829265476 -4.6943908222792743 0 0 0 0 2.4048191122081723 3.2710549880152904 0 3.2710549880152904 -1.6339580970380876 0 0 0 0 -0.86506085750488637 9.5814742538400424 0 9.5814742538400424 -5.8702432102763851 0 0 0 0 -3.6469512593465847 10.080429743373056 0 10.080429743373056 -11.879525391842513 0 0 0 0 1.0677875997178035 16.582102925355684 0 16.582102925355684 -19.220821305894788 0 0 0 0 8.1625991381677068 15.48568527459588 0 15.48568527459588 -16.790272540585647 0 0 0 0 10.649508267867077 22.300689352970039 0 22.300689352970039 -24.269687381427502 0 0 0 0 20.194656235244054 -3.4533557359475253 0 -3.4533557359475253 -0.85807363829371752 0 0 0 0 -26.75666739676808 43.632902762474259 0 43.632902762474259 -25.088007574217045 0 0 0 0 31.988745236684679 35.967415630983851 0 35.967415630983851 -38.336769316778373 0 0 0 0 33.244581003767053 -7.653000384848383 0 -7.653000384848383 -0.39207473324859166 0 0 0 0 92.22378578857888 13.576377840257919 0 13.576377840257919 -30.605812172295373 0 0 0 0 -6.971581234600535 11.417074555331055 0 11.417074555331055 5.2833618683989698 0 0 0 0 1.1723439032487413 2.9366798470792297 0 2.9366798470792297 -1.3214720013766303 0 0 0 0 -2.1658267125098973 16.047879570547593 0 16.047879570547593 3.9656282445794204 0 0 0 0 -9.7972799591325384 13.336308047129933 0 13.336308047129933 3.6075876713512116 0 0 0 0 6.6525788208509766 14.265492850294322 0 14.265492850294322 -1.0381658211990725 0 0 0 0 9.3691206286237048 0.49214712618754675 0 0.49214712618754675 3.4422182461348712 0 0 0 0 7.0198568816381339 0.90616050476273813 0 0.90616050476273813 2.0472607657357003 0 0 0 0 0.10566191689266025 5.7991880318410907 0 5.7991880318410907 -0.28838334813319477 0 0 0 0 -3.652380040196908 7.9733104912516595 0 7.9733104912516595 0.024025554098379587 0 0 0 0 -1.1239545013381758 6.2073594137837063 0 6.2073594137837063 -3.2333509526361013 0 0 0 0 4.3594592809126613 8.6186812077474428 0 8.6186812077474428 -2.5704630560949155 0 0 0 0 -2.9713114145515647 4.5181139552187233 0 4.5181139552187233 -9.9947839540145651 0 0 0 0 4.4932601870694606 4.5255099733857307 0 4.5255099733857307 0.19294123591754442 0 0 0 0 -8.8742508747809552 16.429740494502767 0 16.429740494502767 1.0780975259240222 0 0 0 0 1.1003767461204781 0.75580602922160889 0 0.75580602922160889 0.0066982381307951755 0 0 0 0 -25.128573095474735 14.437407776370037 0 14.437407776370037 -0.47118801729266124 0 0 0 0 7.5748131628220108 3.2629428039040249 0 3.2629428039040249 -7.3032658278116287 0 0 0 0 4.8122205265474349 14.35581336391715 0 14.35581336391715 -16.424595010776102 0 0 0 0 4.8485860746441176 12.254053456503243 0 12.254053456503243 -2.6737970534372835 0 0 0 0 0.47596236645472345 16.846025541123709 0 16.846025541123709 -9.2939259386221238 0 0 0 0 -2.8494862395161817 9.3812669773615198 0 9.3812669773615198 -2.6314620328957972 0 0 0 0 0.4444913429823103 11.807639053808117 0 11.807639053808117 -12.388476219661243 0 0 0 0 4.7297745874513071 5.3301315252849335 0 5.3301315252849335 0.81504025220009169 0 0 0 0 0.12107325071262665 18.217221061144699 0 18.217221061144699 -25.384600165907614 0 0 0 0 -8.7892874389781355 9.8401728260623713 0 9.8401728260623713 7.6760034352701041 0 0 0 0 -29.047711061642076 27.859430500458984 0 27.859430500458984 -8.287351680408392 0 0 0 0 -19.211281523700109 11.338934390241775 0 11.338934390241775 22.716027518419651 0 0 0 0 -54.217369215778035 -3.1377371190174017 0 -3.1377371190174017 16.729240083617697 0 0 0 0 -15.604191579679991 -27.015100094105037 0 -27.015100094105037 -16.845189191684767 0 0 0 0 33.280350572341376 35.496616169511526 0 35.496616169511526 16.651823619886272 0 0 0 0 -0.20819989647770853 24.643948041049953 0 24.643948041049953 16.508541002654965 0 0 0 0 49.448933395960694 20.132275942849446 0 20.132275942849446 -41.184857237587494 0 0 0 0 14.029258292015584 -7.8918717230626498 0 -7.8918717230626498 37.348781594610955 0 0 0 0 -0.34782891449905318 0.3491550551449798 0 0.3491550551449798 0.21509397176923528 0 0 0 0 16.928695978666838 -11.796290139405755 0 -11.796290139405755 -9.8288978910313745 0 0 0 0 -8.7737197776816629 21.326312517836413 0 21.326312517836413 -58.613965494572767 0 0 0 0 -12.76665655631939 44.106150598820022 0 44.106150598820022 -55.527301433126922 0 0 0 0 -0.47131632548280322 32.768975632383444 0 32.768975632383444 -48.305098287613873 0 0 0 0 0.19588789952391128 0.32641700294114884 0 0.32641700294114884 0.34482594802054933 0 0 0 0 -216.44295343258636 3.5932658994715894 0 3.5932658994715894 -38.996065643968905 0 0 0 0 -0.85662098413354038 0.49057015530724257 0 0.49057015530724257 -0.30657426943944444 0 0 0 0 -21.153859385955457 -7.0298493066393348 0 -7.0298493066393348 36.178341474042099 0 0 0 0 -88.261113108527752 2.3103374705879105 0 2.3103374705879105 6.1661640080037614 0 0 0 0 49.475021606960354 -28.731750392104914 0 -28.731750392104914 -161.7877470273379 0 0 0 0 -127.47304819410692 62.62965069566053 0 62.62965069566053 0.55231239980048485 0 0 0 0 20.740498824666247 163.64559420600426 0 163.64559420600426 -76.34231425913822 0 0 0 0 1.2062208959070357 1.2505147025441445 0 1.2505147025441445 -0.55445975166121397 0 0 0 0 4.7888992153364143 7.6405964705122642 0 7.6405964705122642 -9.312082520689728 0 0 0 0 -2.3361090555899864 11.821733798858077 0 11.821733798858077 19.070033719361817 0 0 0 0 4.1134516600884581 9.0057021798056667 0 9.0057021798056667 11.45411915063778 0 0 0 0 -4.4619405408357125 2.4015968230341969 0 2.4015968230341969 12.951717860239114 0 0 0 0 -4.3947154100451371 15.19229772496692 0 15.19229772496692 18.776468358852071 0 0 0 0 -3.2501038911113938 13.910567720575273 0 13.910567720575273 4.0057139491669318 0 0 0 0 -3.0724919195820988 1.8641598308354723 0 1.8641598308354723 -0.81290633709149063 0 0 0 0 7.7262643394406041 7.8649809257976813 0 7.8649809257976813 5.3824793872299779 0 0 0 0 13.895859781483978 28.724284135108519 0 28.724284135108519 55.0635273785756 0 0 0 0 37.555068794006729 20.878108056360361 0 20.878108056360361 -0.2213124467778016 0 0 0 0 47.533007400133101 38.91308756782928 0 38.91308756782928 -2.2763113819696628 0 0 0 0 -4.4886335777910062 14.81362803119282 0 14.81362803119282 0.23663916771693039 0 0 0 0 -12.733829516769674 24.679837609734932 0 24.679837609734932 -2.8432361257036973 0 0 0 0 40.505766068604316 22.529131060817235 0 22.529131060817235 -17.46131816137131 0 0 0 0 48.285786098949757 6.5699341287290736 0 6.5699341287290736 -2.3849530432853498 0 0 0 0 -42.567085572576616 55.993514094826423 0 55.993514094826423 64.281385267438964 0 0 0 0 -15.566603868334482 23.037429041490725 0 23.037429041490725 52.158671471574053 0 0 0 0 42.699117931200817 41.504895597212453 0 41.504895597212453 35.692314578744117 0 0 0 0 -0.36897996256448096 14.978712611631636 0 14.978712611631636 -14.28759717943467 0 0 0 0 34.116430213925923 9.6801177449142415 0 9.6801177449142415 -6.1346906027429782 0 0 0 0 -1.854612603166256 1.7320709753132491 0 1.7320709753132491 -0.85456244963780748 0 0 0 0 0.51078093029105887 0.70571228423659349 0 0.70571228423659349 -0.49082294919882241 0 0 0 0 3.3621076113349773 22.560921358563064 0 22.560921358563064 -35.990849132433141 0 0 0 0 -2.8766739852508181 9.6515695510643127 0 9.6515695510643127 -17.1380675809487 0 0 0 0 -1.45358274363889 6.6937154355182429 0 6.6937154355182429 -35.261322692509566 0 0 0 0 11.255768092684775 20.676874289628813 0 20.676874289628813 -142.94647055782661 0 0 0 0 -0.61051149062141974 0.62261055303204316 0 0.62261055303204316 -0.47455930879628738 0 0 0 0 -36.626528838271042 23.300792289867786 0 23.300792289867786 29.749670853579119 0 0 0 0 -1.8184437688977333 12.807398972484656 0 12.807398972484656 8.6320316037134628 0 0 0 0 1.0151167713293034 42.752718476347582 0 42.752718476347582 -65.027153209278367 0 0 0 0 2.3213596978184796 35.810524457347128 0 35.810524457347128 -28.609974025068368 0 0 0 0 2.8110496687868363 34.622575574594066 0 34.622575574594066 -26.662805622796441 0 0 0 0 0.20539634425995246 23.955919306180476 0 23.955919306180476 -5.9616442784863466 0 0 0 0 -2.0526096361973032 34.422492771879661 0 34.422492771879661 -19.649546557493522 0 0 0 0 0.28362214776655037 22.946606784238156 0 22.946606784238156 -8.3961450800634339 0 0 0 0 0.76824928210135113 28.788034733951463 0 28.788034733951463 1.7397520807398905 0 0 0 0 0.12684180968881265 24.592357206724955 0 24.592357206724955 -35.949331794109639 0 0 0 0 2.5016178360119738 36.897105723774985 0 36.897105723774985 -26.528782539733584 0 0 0 0 9.3885913874214566 31.773762609675941 0 31.773762609675941 -31.791834061514237 0 0 0 0 0.31769051800580428 22.843519621290284 0 22.843519621290284 -13.282604990690743 0 0 0 0 0.050803956888557877 28.842724001404349 0 28.842724001404349 -13.72389577857939 0 0 0 0 2.8573027994098084 20.109652459253994 0 20.109652459253994 -19.06008727479275 0 0 0 0 6.3130291915279031 15.08194522710528 0 15.08194522710528 -3.6918963155694655 0 0 0 0 14.623213818108525 23.869363910045649 0 23.869363910045649 -17.859541929849001 0 0 0 0 8.2929711913211577 31.674292236441033 0 31.674292236441033 -12.75610551340651 0 0 0 0 17.489389376679355 34.398890707015198 0 34.398890707015198 17.07029520965807 0 0 0 0 17.137276834810109 10.535477270732372 0 10.535477270732372 12.988280374329406 0 0 0 0 13.515041641462631 20.468518758332721 0 20.468518758332721 -1.5221320888545051 0 0 0 0 9.0255896359340113 18.969924933310722 0 18.969924933310722 -1.428218899125568 0 0 0 0 9.0292225911939568 31.398818213987397 0 31.398818213987397 -6.7603594609236097 0 0 0 0 3.8263755281699332 16.389196476865209 0 16.389196476865209 18.194740843209729 0 0 0 0 -7.891274680636343 19.039714359050777 0 19.039714359050777 -10.525106101527854 0 0 0 0 -5.0863134497240026 10.244138212297912 0 10.244138212297912 -9.8736271740998518 0 0 0 0 -4.7696481644916275 12.701778631944762 0 12.701778631944762 -7.7735702387108176 0 0 0 0 1.2729015701961544 13.52572653030802 0 13.52572653030802 -11.058423959115316 0 0 0 0 2.0106949800720031 10.350644242096678 0 10.350644242096678 -7.2108160041243536 0 0 0 0 3.0577903720968607 14.823278238765852 0 14.823278238765852 -4.0424461152688309 0 0 0 0 0.32188709682395711 15.190488613043271 0 15.190488613043271 -12.245325584543025 0 0 0 0 5.1990261758101042 10.89707069679389 0 10.89707069679389 -9.4158059457367926 0 0 0 0 0.29237132437083346 19.854969945721678 0 19.854969945721678 -13.799638273563687 0 0 0 0 8.2108218493558525 18.225282699344461 0 18.225282699344461 -14.411579684576736 0 0 0 0 13.717949740730738 7.544205132515728 0 7.544205132515728 0.38339386356892646 0 0 0 0 -1.4239583167145611 9.6986879092728486 0 9.6986879092728486 16.634834019156187 0 0 0 0 1.7179432242865005 18.454724782879566 0 18.454724782879566 15.994085522793398 0 0 0 0 -6.5600545817233069 14.586334691932279 0 14.586334691932279 3.7798121183241165 0 0 0 0 -2.3691555926673118 13.403478029102189 0 13.403478029102189 4.1099982110645215 0 0 0 0 -14.084115065961669 16.763499230584785 0 16.763499230584785 14.327659229411438 0 0 0 0 -14.043404732408362 16.500187069379535 0 16.500187069379535 10.348671026938973 0 0 0 0 -28.092411188961705 33.981673541256896 0 33.981673541256896 8.728035538471886 0 0 0 0 -18.509697528118522 22.167121065986066 0 22.167121065986066 13.738485775586014 0 0 0 0 -30.030418323082813 26.109228241270102 0 26.109228241270102 23.235561815426991 0 0 0 0 -22.415072814104406 22.923566961571851 0 22.923566961571851 18.365331612309092 0 0 0 0 -19.692566967404105 18.694172045401729 0 18.694172045401729 26.889435109704209 0 0 0 0 -3.6996549784871604 10.472443493201354 0 10.472443493201354 16.450514808431763 0 0 0 0 -8.2529487174761016 20.395108965374675 0 20.395108965374675 17.522499913451611 0 0 0 0 26.035265417126993 4.3272851024785268 0 4.3272851024785268 18.821485284146547 0 0 0 0 -6.9173801943443323 13.419158956967294 0 13.419158956967294 38.509890779349007 0 0 0 0 36.434585703516859 27.719118366248949 0 27.719118366248949 -3.9901650542524294 0 0 0 0 54.344364273709289 24.388017909552218 0 24.388017909552218 -3.7391343498164815 0 0 0 0 -24.273683367779995 36.972802612042869 0 36.972802612042869 5.5747074732444162 0 0 0 0 -19.558089547327654 13.002798440738843 0 13.002798440738843 21.452239799073141 0 0 0 0 22.493685226969319 33.476931156992578 0 33.476931156992578 22.975642381417856 0 0 0 0 -28.594325700357331 37.065113129972815 0 37.065113129972815 8.7948370469330257 0 0 0 0 -28.795627936020139 21.403103274754017 0 21.403103274754017 28.947806308788131 0 0 0 0 -60.37007444003757 55.554263065707346 0 55.554263065707346 -5.301204867324941 0 0 0 0 -27.119517353046831 32.549289358474198 0 32.549289358474198 -6.9344295789269381 0 0 0 0 -38.17906256743936 45.404476504290869 0 45.404476504290869 0.90300221602956299 0 0 0 0 -27.792544110189226 32.040369611261895 0 32.040369611261895 7.9180254853854422 0 0 0 0 -39.465933100106668 31.381069691704397 0 31.381069691704397 10.866943865155918 0 0 0 0 10.112523238749873 10.846775124261512 0 10.846775124261512 36.467941772392805 0 0 0 0 -2.0371293764576421 9.852908702955574 0 9.852908702955574 49.619232433826255 0 0 0 0 5.6477257016122167 22.409600302787112 0 22.409600302787112 23.80144826036485 0 0 0 0 0.82064761921341223 0.57315190412891681 0 0.57315190412891681 0.033677675516364469 0 0 0 0 33.953461579980285 39.36476382747469 0 39.36476382747469 32.585680698735814 0 0 0 0 4.3930114455361036 30.828196540358476 0 30.828196540358476 99.022447055754526 0 0 0 0 0.31489738491641894 0.38220856812490211 0 0.38220856812490211 0.018923733399424325 0 0 0 0 8.6822644447202038 3.8127846462230082 0 3.8127846462230082 -7.8714761282153631 0 0 0 0 38.174052513982133 23.145200564345942 0 23.145200564345942 -48.598237834906968 0 0 0 0 -13.426514485336384 15.934932064586519 0 15.934932064586519 18.177223669874365 0 0 0 0 -3.0245118436048948 1.8529671293537113 0 1.8529671293537113 -0.8705414751328 0 0 0 0 20.34942428540694 2.3098058239670536 0 2.3098058239670536 -28.523517910276496 0 0 0 0 2.4723793791552033 0.95343613947728301 0 0.95343613947728301 -0.27254117664944744 0 0 0 0 -0.57600598182921203 12.688224299248304 0 12.688224299248304 -0.4300761145677825 0 0 0 0 5.4058955446680557 8.036468481994234 0 8.036468481994234 -83.871631401400009 0 0 0 0 -0.042383686185440084 0.81291274378846978 0 0.81291274378846978 -0.33962894895605444 0 0 0 0 17.371296403852966 30.17141681942303 0 30.17141681942303 69.033900015125255 0 0 0 0 -19.16990314944087 -27.767908733148033 0 -27.767908733148033 -120.37674144991979 0 0 0 0 -3.854688449068135 25.617826850385882 0 25.617826850385882 -40.357393935140863 0 0 0 0 4.9686096610680579 17.656790032457593 0 17.656790032457593 -91.587826482511446 0 0 0 0 -5.9439555915969322 15.440715585797079 0 15.440715585797079 -89.030202496451238 0 0 0 0 -23.049235309876167 39.854937670737854 0 39.854937670737854 -33.930905318207806 0 0 0 0 -8.607067828770596 29.548175624884607 0 29.548175624884607 -30.492079309945439 0 0 0 0 14.047840275386079 23.156964796053217 0 23.156964796053217 -40.196906407344613 0 0 0 0 3.2937485647516951 0.91359415666465793 0 0.91359415666465793 -36.247912253984396 0 0 0 0 -1.1664418617947376 37.430735723864018 0 37.430735723864018 2.1348094650957137 0 0 0 0 19.705470678381062 6.8777757607585954 0 6.8777757607585954 -84.597589861983579 0 0 0 0 13.159935373453209 20.805053373089322 0 20.805053373089322 -179.11184056199636 0 0 0 0 -25.561989205525151 44.29501609887302 0 44.29501609887302 -68.188997508372267 0 0 0 0 -38.132017587578957 115.59080938643274 0 115.59080938643274 -106.58434344973193 0 0 0 0 -29.484345114854477 29.294947253336431 0 29.294947253336431 -5.7337489335041028 0 0 0 0 -94.3332614880037 98.153097325031013 0 98.153097325031013 11.007997222470294 0 0 0 0 15.123721716508953 -22.982613265758118 0 -22.982613265758118 -194.58515965540937 0 0 0 0 -0.13741847914069893 0.80600650381042982 0 0.80600650381042982 -0.5234413283248891 0 0 0 0 35.202955855967957 38.750845984912303 0 38.750845984912303 34.360317534945352 0 0 0 0 -24.34970634604997 62.178305843357521 0 62.178305843357521 -123.09928761528136 0 0 0 0 19.140665900345539 -18.706341487423742 0 -18.706341487423742 46.169706884411426 0 0 0 0 -38.35003951148019 80.660631285811633 0 80.660631285811633 27.390784631879797 0 0 0 0 18.626195415374241 36.245054637620342 0 36.245054637620342 -213.0011349305787 0 0 0 0 -16.979747090180808 33.603623285173853 0 33.603623285173853 -76.637785725299182 0 0 0 0 -22.654398890026641 62.582558465659531 0 62.582558465659531 -90.463862708798843 0 0 0 0 0.49770009892290545 1.6368812230966796 0 1.6368812230966796 -153.37694037670735 0 0 0 0 -23.45818241633242 18.636388196315238 0 18.636388196315238 -4.1821350868631271 0 0 0 0 -51.507088014783221 44.398982922402865 0 44.398982922402865 -13.921399807756643 0 0 0 0 -35.810834371663077 24.375287051927444 0 24.375287051927444 -30.422038570166478 0 0 0 0 -14.940247238109805 88.29011000380342 0 88.29011000380342 -182.22206623482816 0 0 0 0 -69.957436192850764 106.88331617017866 0 106.88331617017866 -50.722639847324899 0 0 0 0 -27.836881834570704 50.380070465160316 0 50.380070465160316 78.11471547533165 0 0 0 0 -0.2823323988981592 0.58657145784042797 0 0.58657145784042797 -0.36344747583696169 0 0 0 0 -24.77708701764368 36.294884418903166 0 36.294884418903166 -203.69712654746399 0 0 0 0 -27.859575892277576 85.441882372950488 0 85.441882372950488 -11.709429177743004 0 0 0 0 -24.752338654890991 -1.1993466400017496 0 -1.1993466400017496 27.616503072241358 0 0 0 0 -47.974730327282032 27.790330896590604 0 27.790330896590604 14.12207776525247 0 0 0 0 -6.2092575813517215 13.596247374217455 0 13.596247374217455 28.760077529750561 0 0 0 0 -8.380728016240937 -0.42669331156321277 0 -0.42669331156321277 41.681344955431996 0 0 0 0 -17.543295724885866 -3.3805666657863185 0 -3.3805666657863185 41.257421984348184 0 0 0 0 -29.507445349443515 -0.34634887096945022 0 -0.34634887096945022 28.090995385658061 0 0 0 0 -20.305145442150092 8.0452278301795559 0 8.0452278301795559 35.71267300994441 0 0 0 0 -18.263914939210736 -3.4105395684709947 0 -3.4105395684709947 43.558991629186494 0 0 0 0 -18.881891869473293 3.1063475351711531 0 3.1063475351711531 54.760665440684534 0 0 0 0 -24.368010373122161 13.363144596300117 0 13.363144596300117 47.543093970627524 0 0 0 0 -23.453896940433879 4.9080215545636747 0 4.9080215545636747 37.207049810987883 0 0 0 0 -39.772394133051421 24.827090821349429 0 24.827090821349429 22.681028339284239 0 0 0 0 -34.586939782322588 25.081791111897473 0 25.081791111897473 18.063351262397191 0 0 0 0 -17.421101476901413 27.888169515067602 0 27.888169515067602 18.477455637232197 0 0 0 0 -13.500777130402639 13.957368324365234 0 13.957368324365234 76.434281140494932 0 0 0 0 -7.4360487530007049 5.2138485646573827 0 5.2138485646573827 70.515053887364047 0 0 0 0 24.322876717032159 22.680748921986378 0 22.680748921986378 56.495873245256007 0 0 0 0 -15.539127018381123 28.278909051170558 0 28.278909051170558 58.250089131761342 0 0 0 0 -9.0925173399396044 2.5157690193370854 0 2.5157690193370854 53.425059498105838 0 0 0 0 -17.081617981812087 12.374684087244532 0 12.374684087244532 66.132955347371535 0 0 0 0 -13.572229681564863 0.131227156005707 0 0.131227156005707 55.654777605992422 0 0 0 0 -3.9714816982886987 8.7557932218041969 0 8.7557932218041969 53.794849231522676 0 0 0 0 -11.504271883266483 2.6582345338956657 0 2.6582345338956657 58.051887174965486 0 0 0 0 27.168122848054736 25.296704817289537 0 25.296704817289537 7.1944523604324786 0 0 0 0 -7.2828064374248243 14.286269149029977 0 14.286269149029977 76.528308183538684 0 0 0 0 -16.230649847463155 27.436193615484626 0 27.436193615484626 14.069129281277128 0 0 0 0 0.4804023118049372 34.881014755679644 0 34.881014755679644 13.023713355995142 0 0 0 0 -15.130653021384205 11.698040460626544 0 11.698040460626544 46.87683547688539 0 0 0 0 -5.0411249857402254 56.701924675389819 0 56.701924675389819 94.849987121760932 0 0 0 0 11.608034793800471 54.793192469962378 0 54.793192469962378 184.72921148484602 0 0 0 0 -2.4969774625166377 2.4528876618110402 0 2.4528876618110402 -1.2726945038147264 0 0 0 0 11.546227705152432 43.192477769956895 0 43.192477769956895 128.59040219250346 0 0 0 0 7.899708413983717 27.340105182229308 0 27.340105182229308 95.702169576402412 0 0 0 0 -0.95696429507451697 1.4720782677865927 0 1.4720782677865927 -0.92009024311443 0 0 0 0 12.684476707378963 43.542414542549523 0 43.542414542549523 109.66482527419157 0 0 0 0 -2.035444758716574 2.1131695529877099 0 2.1131695529877099 -1.1748133624220856 0 0 0 0 0.4968999941029324 52.430007246327477 0 52.430007246327477 65.686102934216251 0 0 0 0 14.250966080750686 37.255372523194978 0 37.255372523194978 -57.853976994547338 0 0 0 0 16.353128774847391 5.4343039433138074 0 5.4343039433138074 -11.818571866937418 0 0 0 0 2.0089087484280981 44.835848309089329 0 44.835848309089329 0.078402572820778005 0 0 0 0 -2.9429202876870022 18.565885009964632 0 18.565885009964632 -9.3670937828501337 0 0 0 0 -5.2971079001144972 9.8596226886202203 0 9.8596226886202203 5.0796504118859502 0 0 0 0 1.970399548344469 0.69112057939942417 0 0.69112057939942417 0.13487074113438524 0 0 0 0 9.8629733726120321 13.42200196457452 0 13.42200196457452 -29.706125439383868 0 0 0 0 6.1296400589233144 -2.1271099692439748 0 -2.1271099692439748 -13.026076962287334 0 0 0 0 -42.428025407037239 42.213997286453377 0 42.213997286453377 -12.289257977083253 0 0 0 0 59.573156075574843 35.007328371564654 0 35.007328371564654 -43.366866430704249 0 0 0 0 5.4083012387832241 21.17351011468827 0 21.17351011468827 -4.4382384571545117 0 0 0 0 -1.6195425491584956 40.580871417971593 0 40.580871417971593 -25.180057847228454 0 0 0 0 57.587526346049344 2.0457160012228996 0 2.0457160012228996 -32.440416835646829 0 0 0 0 28.009687724658761 3.7983237022363028 0 3.7983237022363028 -29.83530946134124 0 0 0 0 -14.648510152290328 44.390395982190967 0 44.390395982190967 12.216446393834303 0 0 0 0 0.70147321153302045 0.48355576191633531 0 0.48355576191633531 0.11525460128335396 0 0 0 0 2.5735986773797777 43.43013231824898 0 43.43013231824898 97.347934338200503 0 0 0 0 74.5439864573259 -57.668980864812511 0 -57.668980864812511 -76.433290758895964 0 0 0 0 16.028135475753515 57.275377248658515 0 57.275377248658515 -52.486599859346825 0 0 0 0 -0.11870132384285625 0.55300539114366742 0 0.55300539114366742 -0.42260219623803508 0 0 0 0 22.712700175332429 33.735053535719999 0 33.735053535719999 75.791407022979001 0 0 0 0 14.478072820350008 26.392980032335799 0 26.392980032335799 87.599450882675228 0 0 0 0 -0.056351709252339788 18.646649254203112 0 18.646649254203112 85.995529285326029 0 0 0 0 -0.07203437839386595 0.65491852662541916 0 0.65491852662541916 -0.0076500245088784169 0 0 0 0 4.5106891019806881 19.220791057159659 0 19.220791057159659 64.598318665584884 0 0 0 0 0.42335494739268142 62.894923101178165 0 62.894923101178165 139.72451335672122 0 0 0 0 -24.382921951792014 -7.4983723703612668 0 -7.4983723703612668 166.63645454664766 0 0 0 0 0.589082556576491 0.70587196682056685 0 0.70587196682056685 0.84987857985573356 0 0 0 0 -0.2350748061119674 0.65431513624427851 0 0.65431513624427851 -0.035858368227640547 0 0 0 0 73.749553908717644 4.0353306047613842 0 4.0353306047613842 54.176786034902761 0 0 0 0 13.427034374397863 39.717366431034861 0 39.717366431034861 123.93280872889591 0 0 0 0 -38.261450796198005 -21.086120614821084 0 -21.086120614821084 134.74349783257458 0 0 0 0 -1.0843257079336546 0.73292765943648419 0 0.73292765943648419 0.054488319867331825 0 0 0 0 -13.213179927435704 19.296541490365598 0 19.296541490365598 57.733078257375382 0 0 0 0 -13.662738387516583 7.9073573582381869 0 7.9073573582381869 41.814291269207388 0 0 0 0 8.3979301152712651 92.286675872599517 0 92.286675872599517 89.570366968595408 0 0 0 0 -6.4734892068067893 -1.8771857794840798 0 -1.8771857794840798 124.22380214389523 0 0 0 0 17.01648404352909 82.68705044217495 0 82.68705044217495 8.6840335315600896 0 0 0 0 10.571178786776841 46.826182220164696 0 46.826182220164696 -3.2472118008881807 0 0 0 0 0.15150149300325211 59.220467345480756 0 59.220467345480756 31.509997118393585 0 0 0 0 -6.5629169331041339 78.286318830236496 0 78.286318830236496 -8.2213222647260409 0 0 0 0 -16.924715602555807 81.093835133797256 0 81.093835133797256 14.810414086052333 0 0 0 0 -17.909825341876058 11.207459643327184 0 11.207459643327184 2.6627494566018868 0 0 0 0 13.116545107530328 37.422338060951006 0 37.422338060951006 8.8946514985946123 0 0 0 0 -29.598676114071168 32.605321474021366 0 32.605321474021366 8.8987221156712621 0 0 0 0 -25.58098956543995 22.065627488777636 0 22.065627488777636 0.076901351310880273 0 0 0 0 53.286812009855566 34.334410805005064 0 34.334410805005064 -28.4176233322396 0 0 0 0 58.6764611741728 86.190072151151981 0 86.190072151151981 22.297726871738632 0 0 0 0 286.30968547197199 209.73078775355771 0 209.73078775355771 23.549582566545723 0 0 0 0 209.85591879800222 112.96706625345269 0 112.96706625345269 26.48182480971991 0 0 0 0 22.871641660474779 1.4023627105816558 0 1.4023627105816558 50.497881917826817 0 0 0 0 106.77322544362869 131.5995571956264 0 131.5995571956264 107.59439272340387 0 0 0 0 109.32973669123203 41.093036744648998 0 41.093036744648998 13.137907161006297 0 0 0 0 -30.251352656227027 59.503247118258514 0 59.503247118258514 88.63131913997222 0 0 0 0 3.3603157893830939 9.0263289902213728 0 9.0263289902213728 25.003449139140685 0 0 0 0 3.3772308872912618 20.689796120552273 0 20.689796120552273 40.258616312896265 0 0 0 0 -5.8917027674481233 5.2751062598749741 0 5.2751062598749741 51.514440558599745 0 0 0 0 44.111651133662235 246.12322022574017 0 246.12322022574017 199.26843061056934 0 0 0 0 -6.1545651202177396 25.865497254813818 0 25.865497254813818 74.276708476209024 0 0 0 0 -89.536007141414302 46.860682440688834 0 46.860682440688834 98.437883786640668 0 0 0 0 139.2458995924153 99.043157487667486 0 99.043157487667486 152.29373817164378 0 0 0 0 -2.114033992120067 2.4531303751435161 0 2.4531303751435161 -1.5862322779018143 0 0 0 0 -113.26788631843374 189.27542625825299 0 189.27542625825299 196.97223920764009 0 0 0 0 0.022690698119495201 0.31103216526697608 0 0.31103216526697608 1.9697074446422604 0 0 0 0 -140.06740136833423 -1.2818032556615435 0 -1.2818032556615435 60.035070323356194 0 0 0 0 -77.798535324476688 -18.004868475222793 0 -18.004868475222793 5.9217728191142669 0 0 0 0 -88.665884194876128 51.061360321824736 0 51.061360321824736 6.4955796568174264 0 0 0 0 138.33041227270633 52.307833317383484 0 52.307833317383484 -35.896801841071465 0 0 0 0 0.5692786454110319 83.854554088906298 0 83.854554088906298 0.80215302738361061 0 0 0 0 30.323136758661349 45.246139021741328 0 45.246139021741328 2.1967071473409305 0 0 0 0 -3.424911447077875 52.047999910338604 0 52.047999910338604 185.21923841794523 0 0 0 0 -59.770019310460157 95.964838960411726 0 95.964838960411726 39.836017536934378 0 0 0 0 -0.72761103144296513 0.69673191891061137 0 0.69673191891061137 0.018118872810582332 0 0 0 0 -121.80287413666883 149.17402337332896 0 149.17402337332896 -1.8896911210395047 0 0 0 0 122.20486452876048 -32.961243080758322 0 -32.961243080758322 -65.711512388263145 0 0 0 0 -65.800313615482992 113.43628323099074 0 113.43628323099074 -57.952187893676353 0 0 0 0 -80.357030194524668 35.060459731274477 0 35.060459731274477 1.66106038700309 0 0 0 0 -210.30892768216381 65.298248377535856 0 65.298248377535856 37.009380994066305 0 0 0 0 -9.562571911280429 63.071322635187244 0 63.071322635187244 4.6375701887556033 0 0 0 0 -12.988065907381042 65.134125144238965 0 65.134125144238965 11.652406483004597 0 0 0 0 1.1123489946658083 43.014154989576127 0 43.014154989576127 23.02194276321103 0 0 0 0 64.092535076601052 33.736559011874306 0 33.736559011874306 -8.1605075152820064 0 0 0 0 -0.30279870436156786 1.376575115869862 0 1.376575115869862 -3.7394442531102356 0 0 0 0 -0.13611403008849132 0.52338366646266543 0 0.52338366646266543 -1.3393067437065298 0 0 0 0 14.480678252102734 -6.8290716830224483 0 -6.8290716830224483 24.784370665644019 0 0 0 0 -6.1970403637078562 27.427533340370246 0 27.427533340370246 -20.433808542937186 0 0 0 0 -84.835532596504891 17.234330550848426 0 17.234330550848426 25.429144326551977 0 0 0 0 -6.0564566468474368 24.383358718907402 0 24.383358718907402 -1.1524032062366132 0 0 0 0 -15.88711986887256 -2.1643800444123826 0 -2.1643800444123826 1.4459260495659692 0 0 0 0 97.552533289979692 194.37217881681863 0 194.37217881681863 266.16481080180711 0 0 0 0 128.80586716674406 -64.409147045424106 0 -64.409147045424106 -84.542480548550884 0 0 0 0 -31.361313531134442 15.117865125773505 0 15.117865125773505 86.012589983838552 0 0 0 0 202.44615426342966 48.559982850734741 0 48.559982850734741 -57.302114340964181 0 0 0 0 -0.24060558860061332 0.38027742282397448 0 0.38027742282397448 4.8970419339563023 0 0 0 0 185.16030456888166 106.71204986646262 0 106.71204986646262 30.188325901257485 0 0 0 0 187.33789089720722 71.323820464147502 0 71.323820464147502 7.2203369879025558 0 0 0 0 0.31230333189780346 1.2872432208087705 0 1.2872432208087705 -0.20430736079830325 0 0 0 0 37.343359921972933 23.819944329448845 0 23.819944329448845 -54.858949896519334 0 0 0 0 -137.82866727226474 89.048667480747099 0 89.048667480747099 -49.485006557260931 0 0 0 0 -69.209066242719246 -66.551406238872232 0 -66.551406238872232 -27.527945099005592 0 0 0 0 -32.031924767920032 13.612167078896164 0 13.612167078896164 11.037545842766121 0 0 0 0 -0.0089190724008720856 1.0117060814862437 0 1.0117060814862437 5.4922211347142706 0 0 0 0 -0.26440351395672224 18.142028595676038 0 18.142028595676038 5.9975213967409218 0 0 0 0 12.028264097587908 5.9304805910692266 0 5.9304805910692266 4.7015500833422266 0 0 0 0 -8.0148730015362162 7.140834974406971 0 7.140834974406971 1.3365990920356126 0 0 0 0 3.5404305584297617 12.118963697341314 0 12.118963697341314 0.21806573210642455 0 0 0 0 0.34120345498638471 4.5853042729198776 0 4.5853042729198776 4.7155976573725837 0 0 0 0 -23.574578065578862 -6.8316267746413359 0 -6.8316267746413359 5.562940302739662 0 0 0 0 0.034122473917510554 2.2993682948765066 0 2.2993682948765066 -5.5762682752655053 0 0 0 0 11.286857679502646 18.771645861969773 0 18.771645861969773 -0.18278317743079242 0 0 0 0 120.23989586514017 76.7516021835213 0 76.7516021835213 12.508669053047925 0 0 0 0 141.03170668512814 66.616795347611856 0 66.616795347611856 3.3785696240483958 0 0 0 0 37.370175375927829 58.917906110521471 0 58.917906110521471 12.20815192716509 0 0 0 0 130.86355856403497 90.230297125060588 0 90.230297125060588 8.4451922580810788 0 0 0 0 144.59623022744751 94.001769305195921 0 94.001769305195921 7.6647275870818703 0 0 0 0 20.103362659919185 116.6985097516399 0 116.6985097516399 50.398191531376142 0 0 0 0 143.61673831347252 125.90879848335499 0 125.90879848335499 34.088663561831709 0 0 0 0 114.41087505123505 79.784599645337948 0 79.784599645337948 56.489428440618212 0 0 0 0 18.177975747683377 155.92733429674718 0 155.92733429674718 37.154897902260927 0 0 0 0 101.00868084135709 82.169546891153914 0 82.169546891153914 14.838617450219317 0 0 0 0 183.54774914319773 177.34503410457137 0 177.34503410457137 0.25124607363432006 0 0 0 0 345.40440305440006 137.72390645377345 0 137.72390645377345 -31.99760684537614 0 0 0 0 0.080083397866304029 0.69498314328562394 0 0.69498314328562394 0.8572354251296801 0 0 0 0 -77.491092888153389 48.905880317324318 0 48.905880317324318 -12.784153864966356 0 0 0 0 377.44531938707678 103.67376851236804 0 103.67376851236804 -27.755414962703071 0 0 0 0 322.25733550554105 46.793856537477041 0 46.793856537477041 51.038956132193562 0 0 0 0 149.78217919793815 135.53921785413513 0 135.53921785413513 19.742581597896788 0 0 0 0 128.75211135797781 89.944887128620849 0 89.944887128620849 114.98997211680398 0 0 0 0 404.62059885813869 79.62437820586274 0 79.62437820586274 -39.937472277786583 0 0 0 0 345.15722278015164 110.31675192465991 0 110.31675192465991 144.23172203989816 0 0 0 0 -0.4309461092320479 0.56817872560148786 0 0.56817872560148786 -0.032633910268057065 0 0 0 0 -64.738838259371732 36.040969122905153 0 36.040969122905153 -0.039163465097544758 0 0 0 0 -40.91059759710447 46.537795369776632 0 46.537795369776632 -23.1420322421327 0 0 0 0 -51.130451645247945 84.783226180957627 0 84.783226180957627 -67.868821069241676 0 0 0 0 -69.352194611754385 61.261955313906583 0 61.261955313906583 -28.987665776057838 0 0 0 0 -87.739901189808961 61.928127352477077 0 61.928127352477077 -0.0013396371850831201 0 0 0 0 -105.06580097097662 67.918491414705841 0 67.918491414705841 -30.687007972850552 0 0 0 0 -111.52552514706804 80.846619336990443 0 80.846619336990443 -14.085042721040736 0 0 0 0 -69.44306955596403 5.9376124316486312 0 5.9376124316486312 19.427397247502086 0 0 0 0 -18.036773612234356 3.7684390555323262 0 3.7684390555323262 7.9415278969845531 0 0 0 0 -30.679313712906719 6.392773933260969 0 6.392773933260969 8.9000132519413455 0 0 0 0 -25.267968547350961 21.289914786263125 0 21.289914786263125 24.728630298059215 0 0 0 0 -16.917215018842626 67.512799426353013 0 67.512799426353013 28.756265520059969 0 0 0 0 -57.559115047467458 63.509767699127224 0 63.509767699127224 30.760391532591711 0 0 0 0 17.858719940505637 99.52252011269178 0 99.52252011269178 45.290531034421292 0 0 0 0 -19.543520053480279 111.60809597258276 0 111.60809597258276 52.097688182455386 0 0 0 0 -54.56543743194743 45.048553512690887 0 45.048553512690887 58.531090368093828 0 0 0 0 -138.05238410791515 6.3671025784852873 0 6.3671025784852873 40.652144041854626 0 0 0 0 -78.620707397350088 -0.7120684445490042 0 -0.7120684445490042 30.953552832273999 0 0 0 0 -116.11493014545613 122.14421833454253 0 122.14421833454253 79.336348055459894 0 0 0 0 -20.646484901760232 108.03894168202896 0 108.03894168202896 51.33645145610717 0 0 0 0 -270.17313825087513 150.14255456479714 0 150.14255456479714 78.109031788844732 0 0 0 0 -40.500192839990632 185.32529832389491 0 185.32529832389491 -0.43732754789016326 0 0 0 0 -0.12684843082206498 6.0115663636843237 0 6.0115663636843237 0.0090530037787901804 0 0 0 0 -1.5015876574204476 0.45096127181307821 0 0.45096127181307821 -0.31130511244753478 0 0 0 0 -350.33798194583756 -144.79372687244529 0 -144.79372687244529 -45.356917692306524 0 0 0 0 -4.237822502327969 1.3726982902176204 0 1.3726982902176204 -0.51078543755002315 0 0 0 0 -1.446683507283069 6.3751660601883486 0 6.3751660601883486 12.00116952717508 0 0 0 0 -85.91428847448833 -35.111760195202123 0 -35.111760195202123 -9.2111942936153355 0 0 0 0 -31.128654198818822 -2.3502027281201663 0 -2.3502027281201663 10.323959266645943 0 0 0 0 -30.497767493616152 0.2990063170727808 0 0.2990063170727808 7.5463507088825281 0 0 0 0 -5.0101699300539622 14.197539319333373 0 14.197539319333373 -0.003821959135166253 0 0 0 0 -0.53103610676897084 -0.070677316005543389 0 -0.070677316005543389 -0.0024957703391450536 0 0 0 0 -19.93442680041062 -4.2440421617156971 0 -4.2440421617156971 11.494814098316056 0 0 0 0 14.908498495276035 19.33102956577568 0 19.33102956577568 0.005226000256237158 0 0 0 0 0.60378436409882852 16.337514972376084 0 16.337514972376084 -9.4262261980657058 0 0 0 0 2.37241479991917 9.9929280140345327 0 9.9929280140345327 10.870417797012124 0 0 0 0 -4.9430937982298353 4.6285334784130292 0 4.6285334784130292 -2.4625590618137423 0 0 0 0 -5.9753848043292237 28.14723601834703 0 28.14723601834703 20.04548532193121 0 0 0 0 -19.662755138984721 -5.7698012940491026 0 -5.7698012940491026 -3.0400142418193354 0 0 0 0 -6.0967248198042761 2.8269167083827327 0 2.8269167083827327 -0.35699738411066306 0 0 0 0 -17.152395137323765 0.47038930266171519 0 0.47038930266171519 7.1120943415162401 0 0 0 0 -9.9814153111010455 4.5897687139067784 0 4.5897687139067784 4.6830870197100012 0 0 0 0 -4.1399971559399802 1.1375790659754692 0 1.1375790659754692 4.5209864768021788 0 0 0 0 -11.490499787539648 9.8222061976803161 0 9.8222061976803161 22.856908845973521 0 0 0 0 -18.771339845533475 -10.592798186386972 0 -10.592798186386972 11.86630909741325 0 0 0 0 -1.6517192962449556 1.170254914386188 0 1.170254914386188 3.5584033330697551 0 0 0 0 -2.9238855477319703 5.0299923750058042 0 5.0299923750058042 3.2613085666707775 0 0 0 0 -10.769327842474013 -7.2183106689735723 0 -7.2183106689735723 -3.6721530112699838 0 0 0 0 -1.1374831918036961 0.062768873903165101 0 0.062768873903165101 1.2078171482937989 0 0 0 0 -13.228586491158239 3.9328185759104599 0 3.9328185759104599 3.7460543562713156 0 0 0 0 -9.2688277074803409 21.242068336738157 0 21.242068336738157 16.176599206497485 0 0 0 0 13.859754692351999 12.075750364427222 0 12.075750364427222 2.5645991753481212 0 0 0 0 12.74836198178491 9.6098404550593841 0 9.6098404550593841 -2.9002711465400353 0 0 0 0 15.60960280449217 6.7153012782282531 0 6.7153012782282531 -0.49208082895165717 0 0 0 0 -5.8433005800288811 25.817850132276362 0 25.817850132276362 -4.5928826182189368 0 0 0 0 25.480680520495298 14.130998792075843 0 14.130998792075843 -17.185368473891685 0 0 0 0 -18.847379952851043 24.296032011374336 0 24.296032011374336 -3.8546751578487601 0 0 0 0 -78.488662430263503 26.060523874815772 0 26.060523874815772 -1.0631924220915607 0 0 0 0 -84.561665719769735 -8.7209378040151933 0 -8.7209378040151933 3.4259567115832397 0 0 0 0 0.33364316931157312 0.82077566791659962 0 0.82077566791659962 0.36825937119115082 0 0 0 0 -19.501978695923754 10.294144901454274 0 10.294144901454274 -3.4761400759434764 0 0 0 0 -68.555233886796486 5.239371205052521 0 5.239371205052521 0.083280563569132937 0 0 0 0 -51.895128589501837 -5.550479856403399 0 -5.550479856403399 -2.197808268967492 0 0 0 0 -12.731978472464107 19.595296809626234 0 19.595296809626234 -3.0565908764583583 0 0 0 0 -14.335921914303981 31.943862176824041 0 31.943862176824041 2.3252580935441074 0 0 0 0 0.14217940336220636 21.011892097389136 0 21.011892097389136 2.1730832882640243 0 0 0 0 -10.514807136617037 30.972094612229739 0 30.972094612229739 16.52416972282299 0 0 0 0 2.2183360490780615 3.9440608025497568 0 3.9440608025497568 4.0293592969610472 0 0 0 0 -6.8330242356489137 5.9754578211094156 0 5.9754578211094156 -2.6262583082728526 0 0 0 0 -19.709635621627967 3.7181464869663614 0 3.7181464869663614 25.701945382807935 0 0 0 0 -16.755839337313319 5.5103941773704719 0 5.5103941773704719 17.195568257513514 0 0 0 0 -2.2867410288445384 0.76656595547567719 0 0.76656595547567719 4.7310493126843411 0 0 0 0 -0.86825025598175998 1.4262680555384719 0 1.4262680555384719 2.4259335766080596 0 0 0 0 -39.224106525936804 -14.03352900920072 0 -14.03352900920072 0.29623228508717148 0 0 0 0 5.5618526113448752 14.722863721568501 0 14.722863721568501 7.8863111234786629 0 0 0 0 -17.979158874607492 3.6818915877756808 0 3.6818915877756808 -3.4679686303716153 0 0 0 0 -30.191419808837964 16.848297859696686 0 16.848297859696686 11.053014128885479 0 0 0 0 -41.30502555109706 8.1280854270808049 0 8.1280854270808049 7.9747895142645575e-05 0 0 0 0 -23.478882246530702 21.805674519690001 0 21.805674519690001 -5.2738164493948716 0 0 0 0 -69.831801902117149 -5.513375322916545 0 -5.513375322916545 2.466516004065852 0 0 0 0 -70.530528697763657 -6.8380184278648812 0 -6.8380184278648812 2.1461805681374244 0 0 0 0 6.0825781530456879 4.4381383452150658 0 4.4381383452150658 2.4892150827108708 0 0 0 0 5.5609459218142092 3.3696638011513187 0 3.3696638011513187 -0.00025195185844495427 0 0 0 0 1.1671990188657517 0.66839185443367555 0 0.66839185443367555 0.24942188956225664 0 0 0 0 -68.065313623356815 -13.718528545383379 0 -13.718528545383379 -1.7704862360042171 0 0 0 0 -13.785942622977018 -13.683075027955056 0 -13.683075027955056 -15.797376384725794 0 0 0 0 0.055578694668009021 1.46261564930143 0 1.46261564930143 4.1377102925875562 0 0 0 0 0.076662087593376782 0.69341091445033598 0 0.69341091445033598 0.23072111368293946 0 0 0 0 -27.528867997287307 -16.702325155405561 0 -16.702325155405561 -13.353502063400811 0 0 0 0 -20.886641606502963 22.001862038368927 0 22.001862038368927 -3.4440388089860789 0 0 0 0 1.4324104716756016 0.32432780632554525 0 0.32432780632554525 0.056122884432262765 0 0 0 0 4.6865094725300018 3.2329913432804389 0 3.2329913432804389 0.049092366117349684 0 0 0 0 4.5743039926146594 3.0953878657537643 0 3.0953878657537643 0.14875468876562081 0 0 0 0 4.0571663528608042 3.5234247924399824 0 3.5234247924399824 -0.00077221494575496763 0 0 0 0 11.940379670171751 0.27148593142055688 0 0.27148593142055688 -8.6378243666786148 0 0 0 0 3.8319541106557153 3.322677899493101 0 3.322677899493101 -3.4622719244816835 0 0 0 0 5.9722026542985986 13.704103383808615 0 13.704103383808615 6.6389613215978898 0 0 0 0 2.1558032727207319 9.8839125844224327 0 9.8839125844224327 2.8204925362970812 0 0 0 0 0.27035283749083305 0.15412836923425211 0 0.15412836923425211 -0.067178837679264802 0 0 0 0 15.534783002776749 7.1043300838418872 0 7.1043300838418872 -3.1964711956570682 0 0 0 0 2.8294754116905096 10.356258339810665 0 10.356258339810665 -0.0026425152191222878 0 0 0 0 3.0320981182339892 3.6287343827279983 0 3.6287343827279983 -1.625062674851506 0 0 0 0 0.97946932154991373 4.1359173108648974 0 4.1359173108648974 0.0029023935989155509 0 0 0 0 2.7577826934111727 2.8780565781762562 0 2.8780565781762562 0.72735946763350512 0 0 0 0 -2.0627773733322101 2.4826854541461216 0 2.4826854541461216 -1.1714556319107032 0 0 0 0 3.2037129126572736 2.9893835632987376 0 2.9893835632987376 -0.63321543281414083 0 0 0 0 1.6106139664893426 0.87483121529284524 0 0.87483121529284524 -2.1874891352987476 0 0 0 0 0.92464887934238504 2.7842637726957946 0 2.7842637726957946 -1.2387801654112991 0 0 0 0 1.2884595689537477 1.7449532557274061 0 1.7449532557274061 0.55238361160821015 0 0 0 0 1.6600841795685355 2.6564368227936654 0 2.6564368227936654 0.80474681037446949 0 0 0 0 -0.024826995830153464 5.3068633177845186 0 5.3068633177845186 -3.474760591762788 0 0 0 0 -0.041779637712238582 5.1861358448825285 0 5.1861358448825285 -2.0717105908079247 0 0 0 0 -2.1045083335170602 4.6618786698563781 0 4.6618786698563781 1.9286161922973406 0 0 0 0 -1.1773744510301185 4.840343417164604 0 4.840343417164604 1.7551064113431494 0 0 0 0 -1.4653873022944026 3.1998003784683533 0 3.1998003784683533 -2.9112860466257189 0 0 0 0 0.046041328770908052 0.39586764393282436 0 0.39586764393282436 0.42831384452318133 0 0 0 0 -6.5555859434552985 5.1611112017253618 0 5.1611112017253618 4.2256995402221946 0 0 0 0 2.6425000586523311 6.4508611573874077 0 6.4508611573874077 18.804862432049049 0 0 0 0 -0.0059076204287258349 -0.18958343672810152 0 -0.18958343672810152 0.13304216828399262 0 0 0 0 3.7274142030330211 3.0772824685385309 0 3.0772824685385309 -3.3328193815799558 0 0 0 0 4.721044085756148 11.440504863524438 0 11.440504863524438 -3.4104319488333203 0 0 0 0 4.4105295359331649 18.660914851381676 0 18.660914851381676 1.8445480989366843 0 0 0 0 1.2596840395817708 11.349234369024998 0 11.349234369024998 8.4550476290660299 0 0 0 0 5.9554501650766269 6.8781974092357814 0 6.8781974092357814 2.5337421692365751 0 0 0 0 3.1623586696125585 7.6363419338358653 0 7.6363419338358653 3.6392221073219844 0 0 0 0 -1.9334253349902824 2.5755478023540483 0 2.5755478023540483 0.50115585736921986 0 0 0 0 -19.327865068476967 -0.69934851121251995 0 -0.69934851121251995 8.3967931963957199 0 0 0 0 -4.0711261067726809 30.130371046117034 0 30.130371046117034 36.627598077928269 0 0 0 0 18.099919599526402 -4.9102116391641175 0 -4.9102116391641175 -0.74915522076992147 0 0 0 0 31.608912179861363 11.324744315188582 0 11.324744315188582 -2.505634155102598 0 0 0 0 3.6429167494467336 4.2918034282004598 0 4.2918034282004598 -3.13984732839522 0 0 0 0 -4.2683309197371173 3.0871855239373467 0 3.0871855239373467 3.7306442072525456 0 0 0 0 6.868890357478449 12.077985229809201 0 12.077985229809201 11.394358390518391 0 0 0 0 43.543236509711278 -7.4369949460124189 0 -7.4369949460124189 -30.802327054258058 0 0 0 0 -4.0062656483951287 16.619759893681476 0 16.619759893681476 13.95274070188043 0 0 0 0 1.4162454605775565 8.3104212510884281 0 8.3104212510884281 1.9457950289270229 0 0 0 0 0.66168015218546472 4.1476426256139263 0 4.1476426256139263 1.5031436752208869 0 0 0 0 -2.0697413274938299 7.6742728261033335 0 7.6742728261033335 6.4843878121837406 0 0 0 0 -4.1175363279698107 4.9771908988455138 0 4.9771908988455138 1.5094653822672512 0 0 0 0 -5.5428669528300816 5.760973578795074 0 5.760973578795074 5.0718578919768333 0 0 0 0 8.6269655083799535 2.4247377055953621 0 2.4247377055953621 -3.0393850564723834 0 0 0 0 -3.172715331178062 3.9759794794711993 0 3.9759794794711993 0.57304663970777625 0 0 0 0 -5.9863069915127838 3.2461155324733255 0 3.2461155324733255 1.7593399614027376 0 0 0 0 2.2321265205446252 5.5186709435838566 0 5.5186709435838566 2.0930148945808469 0 0 0 0 0.49254010402182757 13.142137484056548 0 13.142137484056548 6.5732434544761418 0 0 0 0 7.233907091202127 10.376784165718163 0 10.376784165718163 7.6121996726360521 0 0 0 0 -4.2056071411807352 4.1069153140269918 0 4.1069153140269918 2.6858548590334976 0 0 0 0 -1.819160050884193 2.8883235836561312 0 2.8883235836561312 0.11473312149958836 0 0 0 0 -1.0004427124872564 4.5035848111040195 0 4.5035848111040195 2.6202373858777719 0 0 0 0 2.2657512201781174 3.3466146299792854 0 3.3466146299792854 0.91849537834605144 0 0 0 0 -1.752968118323194 2.0420158200886043 0 2.0420158200886043 1.8796354715665302 0 0 0 0 31.431553121138677 -8.1532535520377678 0 -8.1532535520377678 -24.859563935951883 0 0 0 0 4.7385032568141199 3.3499632619702133 0 3.3499632619702133 -3.0320592434157518 0 0 0 0 3.1380630484245557 10.792184954738332 0 10.792184954738332 6.5618832322215894 0 0 0 0 7.608092235535878 12.566987346155656 0 12.566987346155656 -4.470551000418709 0 0 0 0 9.422416126151802 22.069621253715013 0 22.069621253715013 2.1706710744165321 0 0 0 0 1.6641037759973187 16.396913642108302 0 16.396913642108302 15.391879086313565 0 0 0 0 12.631373272701239 30.658910640612703 0 30.658910640612703 23.891658920902046 0 0 0 0 -8.157867722665177 4.6382854810344902 0 4.6382854810344902 -0.96979625532128999 0 0 0 0 -14.856600476119638 8.4542500438492425 0 8.4542500438492425 17.528551482249895 0 0 0 0 -4.4909213151086078 3.9078457377772793 0 3.9078457377772793 3.7980482364255295 0 0 0 0 -3.7000894645756404 0.47134620599092969 0 0.47134620599092969 3.018167220814675 0 0 0 0 38.857387417101563 16.791016566668986 0 16.791016566668986 1.964477792946127 0 0 0 0 15.513429575083137 -18.345864184506809 0 -18.345864184506809 96.779025698338955 0 0 0 0 31.88399991989354 -41.155655676959213 0 -41.155655676959213 35.120654831532192 0 0 0 0 -26.157836221558682 -87.338210522926602 0 -87.338210522926602 44.200454895501025 0 0 0 0 14.301962929896035 4.7148659310096264 0 4.7148659310096264 16.952679906069534 0 0 0 0 5.3122296224173624 -10.16417997469398 0 -10.16417997469398 2.1287142120454519 0 0 0 0 4.1392919032823556 4.597406404762296 0 4.597406404762296 -31.766584686520218 0 0 0 0 -13.942572456357084 -26.516420876898337 0 -26.516420876898337 17.819076145074177 0 0 0 0 -2.1028456032047096 0.93501218100343664 0 0.93501218100343664 1.5058607679435667 0 0 0 0 0.015701703071499651 3.9382113017200027 0 3.9382113017200027 2.7940713448642782 0 0 0 0 -2.915025169440014 2.1876711970498945 0 2.1876711970498945 3.9946351846683683 0 0 0 0 -0.49012015879816317 5.3958090914384229 0 5.3958090914384229 -4.1247912266517233 0 0 0 0 18.888101023687341 65.778936132985109 0 65.778936132985109 152.2132518860999 0 0 0 0 -0.42559963631197206 0.73049258203087319 0 0.73049258203087319 -0.24981936486085132 0 0 0 0 -0.11642897636511407 6.7584340492048796 0 6.7584340492048796 -0.22650732573310961 0 0 0 0 0.54588707680068183 4.7236240744496172 0 4.7236240744496172 -0.29978171930997632 0 0 0 0 -0.58941832693381002 5.25175351371945 0 5.25175351371945 0.12906525356811471 0 0 0 0 -1.5615734903713019 5.3167333592750765 0 5.3167333592750765 -0.46651151913101785 0 0 0 0 0.53357210564354318 4.1627052656185697 0 4.1627052656185697 -2.9175645564566253 0 0 0 0 -0.71138686158246855 6.8572387805024846 0 6.8572387805024846 -2.8660896355941077 0 0 0 0 0.20196784012296121 4.0738770875377668 0 4.0738770875377668 -2.0474483853322454 0 0 0 0 0.12049951941821746 4.3989010943791982 0 4.3989010943791982 -0.12868471397814574 0 0 0 0 -0.9031473680279305 5.9034902158091427 0 5.9034902158091427 2.3180902535532368 0 0 0 0 -1.9713891991238732 2.6231357645465998 0 2.6231357645465998 -0.49589565152692217 0 0 0 0 133.01096772532765 40.242779912373408 0 40.242779912373408 8.9055427292782952 0 0 0 0 -4.0900694594537992 2.2637385981184828 0 2.2637385981184828 0.5815371115566137 0 0 0 0 150.00694459327497 22.33127528514251 0 22.33127528514251 -145.80385606010259 0 0 0 0 -2.7593233740958567 2.593673051771475 0 2.593673051771475 4.2023352495598374 0 0 0 0 0.985156038859337 1.9309826274483441 0 1.9309826274483441 -0.11536006168269708 0 0 0 0 -104.22306614636182 -105.26659481124079 0 -105.26659481124079 41.084797501323919 0 0 0 0 23.708883202577454 45.079559750491171 0 45.079559750491171 76.389623702581048 0 0 0 0 2.2570126977186646 1.9604728579781749 0 1.9604728579781749 1.2523657796227781 0 0 0 0 0.37805827343040832 0.84897339419242357 0 0.84897339419242357 0.089593572795731546 0 0 0 0 -4.6309385390795796 3.7204110414768365 0 3.7204110414768365 3.1711212617356068 0 0 0 0 -2.1320161884270767 2.0810054165701501 0 2.0810054165701501 1.5173441481133239 0 0 0 0 -9.7678231028694427 2.4463596504538145 0 2.4463596504538145 8.0979612603914575 0 0 0 0 -3.9426470944401828 2.4092201092341732 0 2.4092201092341732 0.22923532497765109 0 0 0 0 -3.854119517070103 3.5181222076780614 0 3.5181222076780614 2.2941169663099572 0 0 0 0 55.140383860309157 81.483917292504884 0 81.483917292504884 112.52120275077323 0 0 0 0 -3.3475141751259798 -5.0417303842987167 0 -5.0417303842987167 -1.0573174719611416 0 0 0 0 -0.39731975978892731 -0.24804540807328479 0 -0.24804540807328479 1.3577050598110532 0 0 0 0 -13.718201832385603 5.2118305814747146 0 5.2118305814747146 6.231477782705042 0 0 0 0 -5.4299183751791134 8.6374528274282056 0 8.6374528274282056 -3.268338349811529 0 0 0 0 39.067710985265876 166.27865571569419 0 166.27865571569419 267.36289192755066 0 0 0 0 -109.63552706596602 38.011368828989362 0 38.011368828989362 423.7895171125856 0 0 0 0 -21.282978319344693 128.47061740720528 0 128.47061740720528 366.33224884427909 0 0 0 0 -24.655489762620391 78.565812442055631 0 78.565812442055631 210.30209861246112 0 0 0 0 -52.613611528795445 27.849027948013827 0 27.849027948013827 268.26715131988749 0 0 0 0 20.107120852353546 41.602658935145882 0 41.602658935145882 152.58588546131068 0 0 0 0 5.9080698711641162 60.415891218911838 0 60.415891218911838 127.6607304798963 0 0 0 0 8.4418211373067606 36.468596796270504 0 36.468596796270504 99.463409939014127 0 0 0 0 -1.0814726336234344 25.089939039892897 0 25.089939039892897 111.04609084236472 0 0 0 0 -9.8582779177522752 42.696870956401654 0 42.696870956401654 105.2530213308255 0 0 0 0 -8.937462418299674 23.259529679661682 0 23.259529679661682 112.76103720101582 0 0 0 0 0.074823214898543711 0.23386166611366122 0 0.23386166611366122 -0.058736739493596701 0 0 0 0 -24.145300841915741 46.134462868772971 0 46.134462868772971 101.50212464987817 0 0 0 0 1.7704354976372088 2.12415325462689 0 2.12415325462689 43.245316602533421 0 0 0 0 10.439759740634145 18.802690898500259 0 18.802690898500259 112.41596608564669 0 0 0 0 -11.629244991172072 44.554048981927735 0 44.554048981927735 116.8431915149049 0 0 0 0 -17.855646981608515 36.905179422732544 0 36.905179422732544 106.15960018531086 0 0 0 0 -16.53091798695641 20.637184790197352 0 20.637184790197352 36.91383870898153 0 0 0 0 1.7049758724191193 1.8273287057660017 0 1.8273287057660017 1.9107948853327343 0 0 0 0 -15.250904674103367 8.4325538278080785 0 8.4325538278080785 4.8549818457540823 0 0 0 0 -8.8181214453752546 30.624722799732353 0 30.624722799732353 -11.743276084953322 0 0 0 0 1.0627665510073712 7.7196896639916304 0 7.7196896639916304 -19.560730325976692 0 0 0 0 2.0923308705232007 2.774360919206746 0 2.774360919206746 2.7094042237218616 0 0 0 0 -6.5793665435494404 -14.257138008895708 0 -14.257138008895708 -15.98836778617266 0 0 0 0 -18.274703877617867 37.244681091700841 0 37.244681091700841 -18.738232543009872 0 0 0 0 8.6296095740472083 11.841331291792812 0 11.841331291792812 7.5390436404313732 0 0 0 0 1.0417530942764905 1.008123249276661 0 1.008123249276661 0.076921116656908595 0 0 0 0 14.520682926926838 7.3966386860452076 0 7.3966386860452076 -5.5112596340768505 0 0 0 0 6.7390498075001233 2.3474255862747668 0 2.3474255862747668 0.86595010021665075 0 0 0 0 3.7418631745244966 -4.1235554214131298 0 -4.1235554214131298 -8.0025757932762644 0 0 0 0 -9.3016144950197486 5.3577267536757063 0 5.3577267536757063 -1.9079623357579294 0 0 0 0 -31.624497766338663 3.7990222397820617 0 3.7990222397820617 3.1014096305152634 0 0 0 0 -0.02777386693196604 357.00575815451498 0 357.00575815451498 222.07714588467115 0 0 0 0 115.40249434198881 277.24838615240503 0 277.24838615240503 198.83346845387587 0 0 0 0 214.90828264818992 415.07304191859157 0 415.07304191859157 -0.20312912442113884 0 0 0 0 391.50327188241931 454.68414410158073 0 454.68414410158073 358.34076656830257 0 0 0 0 362.96315162558949 257.10644832694879 0 257.10644832694879 132.44516318778551 0 0 0 0 2.5313036758285392 0.28822422804842773 0 0.28822422804842773 -0.34040532974339754 0 0 0 0 243.47741824266222 171.22794701329985 0 171.22794701329985 -11.042127473148867 0 0 0 0 46.33719831025337 -57.375007121690032 0 -57.375007121690032 -237.77751003052799 0 0 0 0 153.48340308860588 370.84795545472798 0 370.84795545472798 179.36169216619237 0 0 0 0 320.08690096126338 332.24485854727936 0 332.24485854727936 83.27853517828953 0 0 0 0 118.27195234423561 218.47864794491761 0 218.47864794491761 110.59440546397354 0 0 0 0 35.74033705565671 36.149061435399744 0 36.149061435399744 15.508185750642497 0 0 0 0 163.59741093481716 164.90675876286787 0 164.90675876286787 111.74936299322144 0 0 0 0 -1.8162608652647556 1.5845004511583909 0 1.5845004511583909 -0.45274240129008092 0 0 0 0 41.875971603503785 90.474131572654187 0 90.474131572654187 62.701912063048439 0 0 0 0 39.1427042983305 63.804179317244234 0 63.804179317244234 19.571150669707549 0 0 0 0 37.428208356628602 71.583284648301742 0 71.583284648301742 -11.283557011651283 0 0 0 0 58.900363109274622 51.474504640011219 0 51.474504640011219 -102.89145871215442 0 0 0 0 27.493394328103022 77.066477419931289 0 77.066477419931289 12.650657565120582 0 0 0 0 198.1321923730211 122.59114487629813 0 122.59114487629813 0.2923393406717878 0 0 0 0 277.38339601759708 265.95692313206882 0 265.95692313206882 89.476324127707812 0 0 0 0 -21.159768009003528 61.565377699774217 0 61.565377699774217 27.969763738721667 0 0 0 0 12.224107474288758 -45.61511023210187 0 -45.61511023210187 -128.01361966653894 0 0 0 0 6.3694815997529517 0.27962682432485053 0 0.27962682432485053 -1.2583720014983335 0 0 0 0 96.748604055796022 61.025171795945425 0 61.025171795945425 -33.306705939146923 0 0 0 0 78.604659411896137 28.015471056263777 0 28.015471056263777 -48.212283045828372 0 0 0 0 86.035427952378086 55.197705302438408 0 55.197705302438408 -41.701780703082477 0 0 0 0 -5.0857600760100468 10.336288694374161 0 10.336288694374161 16.634086500165722 0 0 0 0 -7.2173415677625599 54.846599123296983 0 54.846599123296983 41.448442736442303 0 0 0 0 81.543647522848914 37.988754531534141 0 37.988754531534141 -25.013102626705404 0 0 0 0 0.79257288563795925 1.2760722665448156 0 1.2760722665448156 -0.340776646426876 0 0 0 0 92.275821657334745 50.202225513401572 0 50.202225513401572 -55.417233893937009 0 0 0 0 51.464436666112306 89.874711052309067 0 89.874711052309067 -4.7060070847037423 0 0 0 0 8.9561622683416218 0.69410748063861405 0 0.69410748063861405 -1.3987982560799495 0 0 0 0 157.78885186412481 113.44044857497192 0 113.44044857497192 86.777731039950595 0 0 0 0 19.92047312844079 -2.7962623994717433 0 -2.7962623994717433 -27.840126591989247 0 0 0 0 1.3500147013826975 -0.72850821668305166 0 -0.72850821668305166 -0.47893906156487631 0 0 0 0 -7.2794305092902505 8.1366724712534051 0 8.1366724712534051 1.8128558170283213 0 0 0 0 -2.6019111292407615 7.678560991109407 0 7.678560991109407 1.323187656718801 0 0 0 0 4.4591591646671684 0.72659711410431882 0 0.72659711410431882 -0.01856198625262806 0 0 0 0 5.7467519716847164 2.5541660680901259 0 2.5541660680901259 -0.005090150436076398 0 0 0 0 8.2107013405257021 1.1387404602610331 0 1.1387404602610331 -1.9340719713654835 0 0 0 0 4.1591014790642191 1.8285051972621318 0 1.8285051972621318 -0.50045374640944829 0 0 0 0 1.6406322309339885 1.6224385386085487 0 1.6224385386085487 -1.0551856258280168 0 0 0 0 3.2112001739427312 2.273082339267912 0 2.273082339267912 1.3108725839583997 0 0 0 0 2.9377373591050855 3.5957532841293869 0 3.5957532841293869 7.3629159008632996 0 0 0 0 5.5930007412205214 3.8521571024941004 0 3.8521571024941004 0.38903726338931932 0 0 0 0 -2.7625834541540826 8.905371724471479 0 8.905371724471479 3.2107303637239966 0 0 0 0 5.0712239940048676 9.7541479262354187 0 9.7541479262354187 0.092180951378395548 0 0 0 0 3.7863188486938695 3.9762711319369473 0 3.9762711319369473 0.48404004792767807 0 0 0 0 1.434299585314875 4.4551279808219988 0 4.4551279808219988 -0.52964940134916105 0 0 0 0 2.0776490532609628 3.6533335318999125 0 3.6533335318999125 1.9876317862849255 0 0 0 0 -0.42589905976072373 4.2521205415540706 0 4.2521205415540706 1.0715537744977679 0 0 0 0 -123.97596021613208 100.03200285491403 0 100.03200285491403 28.261023218774426 0 0 0 0 -155.37543307199621 -68.867984750153255 0 -68.867984750153255 32.335323258697827 0 0 0 0 -80.946577795200938 62.878377434736194 0 62.878377434736194 -117.31548779886725 0 0 0 0 -0.27665843122576916 5.4327420532208635 0 5.4327420532208635 -1.4146356578494306 0 0 0 0 0.16317208684269191 3.9419839134043144 0 3.9419839134043144 -0.69555696158439417 0 0 0 0 -0.80640314297239968 0.64530548594660786 0 0.64530548594660786 -0.14324892241549492 0 0 0 0 101.61768811547881 100.56198602660606 0 100.56198602660606 -19.167623892525626 0 0 0 0 101.54492767817283 26.763717327678023 0 26.763717327678023 20.022406221081837 0 0 0 0 -45.440040750820117 37.597514932740978 0 37.597514932740978 22.343031884362063 0 0 0 0 -74.008946408806878 -9.7866271194361616 0 -9.7866271194361616 8.3490352792514386 0 0 0 0 3.4678939907225868 7.1732972256977519 0 7.1732972256977519 5.6231801004178124 0 0 0 0 0.022825695484372188 4.2019383845428528 0 4.2019383845428528 3.0547549779849916 0 0 0 0 -65.52342179134348 -14.446839012673735 0 -14.446839012673735 5.9364420397378126 0 0 0 0 -134.6691907771683 15.836741121978775 0 15.836741121978775 42.9197864282105 0 0 0 0 -0.65231650096501426 1.3012222192070695 0 1.3012222192070695 0.4198762861918226 0 0 0 0 -96.92638037524739 -49.844625602175256 0 -49.844625602175256 -27.762890458171569 0 0 0 0 4.7092195581790293 35.045537098652858 0 35.045537098652858 -94.39823565489678 0 0 0 0 -152.03234142476867 29.511732597091395 0 29.511732597091395 22.274374543165322 0 0 0 0 -64.234603783157581 69.846466529736063 0 69.846466529736063 -39.147621514823186 0 0 0 0 -3.7548180422090809 20.907626074390464 0 20.907626074390464 27.32648525161494 0 0 0 0 0.52329818179757659 0.54525022426903647 0 0.54525022426903647 -0.55659485691854371 0 0 0 0 -93.216489334692596 133.96551904109947 0 133.96551904109947 33.939018473911347 0 0 0 0 -30.104549224977745 14.586431792722578 0 14.586431792722578 103.77669065544433 0 0 0 0 -59.022706538191414 -18.27653220825232 0 -18.27653220825232 94.064785643192408 0 0 0 0 -8.5386133329556841 3.5787243987656296 0 3.5787243987656296 -1.3993556332914885 0 0 0 0 50.22700912684013 125.83620886271819 0 125.83620886271819 -12.270174214465442 0 0 0 0 21.838347075285128 -5.7027797273240139 0 -5.7027797273240139 45.799254569923505 0 0 0 0 -50.828542830364313 -7.9047188994627504 0 -7.9047188994627504 73.56117402381642 0 0 0 0 -135.82354174927605 -21.12520328098617 0 -21.12520328098617 71.612211846546415 0 0 0 0 -71.814668385371988 12.072428698263138 0 12.072428698263138 46.082213363184565 0 0 0 0 -93.793434296028863 35.80804862043442 0 35.80804862043442 32.741134168799363 0 0 0 0 -0.26759103245422011 74.0687498131756 0 74.0687498131756 -26.086374991042248 0 0 0 0 -54.21121496323758 98.970367002852072 0 98.970367002852072 -83.527057966639404 0 0 0 0 40.523703432416369 -226.35709366070478 0 -226.35709366070478 -475.82187810087635 0 0 0 0 -247.18061364338064 87.076791433635663 0 87.076791433635663 34.465426117097195 0 0 0 0 12.695347100205254 34.818323252449773 0 34.818323252449773 -111.41615008895405 0 0 0 0 10.654127111794878 -2.9735929092112201 0 -2.9735929092112201 -52.116925743215688 0 0 0 0 -18.56017834211525 32.774005037765164 0 32.774005037765164 -28.501679852914094 0 0 0 0 -7.5106490480029606 54.307068658388744 0 54.307068658388744 13.425029808677209 0 0 0 0 -15.640827757873922 68.294204696228917 0 68.294204696228917 17.042534155953035 0 0 0 0 19.439493511954879 71.340727175111681 0 71.340727175111681 7.2237226822981029 0 0 0 0 6.6804008194910693 -56.413589431671653 0 -56.413589431671653 65.599566270029754 0 0 0 0 -15.965602161957577 69.901135088834053 0 69.901135088834053 79.433366563944219 0 0 0 0 -6.118690368351686 2.7570097509127223 0 2.7570097509127223 -1.0032058710286531 0 0 0 0 -54.01112845386524 17.214122649174897 0 17.214122649174897 108.79384066713055 0 0 0 0 -18.665463917335728 -19.480638290122442 0 -19.480638290122442 9.6947437417129549 0 0 0 0 1.4732888564249151 -25.887252875660124 0 -25.887252875660124 11.265719283696853 0 0 0 0 -1.0473864875057188 16.577720959570797 0 16.577720959570797 24.256711365738738 0 0 0 0 24.556591467775434 17.819948412830854 0 17.819948412830854 17.224921769569846 0 0 0 0 24.458346287017775 21.390990107563539 0 21.390990107563539 -7.0577663340736763 0 0 0 0 29.079090236376942 48.945891952631428 0 48.945891952631428 -69.121632992853847 0 0 0 0 -1.9667066214667415 1.0999598585473578 0 1.0999598585473578 -0.60757707256858495 0 0 0 0 -28.906723504220281 -81.833430562353897 0 -81.833430562353897 -29.358200023845711 0 0 0 0 -125.86296631755977 27.439645473210476 0 27.439645473210476 96.439229432340653 0 0 0 0 -54.251348382822471 100.1528449424768 0 100.1528449424768 -10.609178712762514 0 0 0 0 -167.50928167204438 -20.508468449620523 0 -20.508468449620523 138.28263438240174 0 0 0 0 16.019985424749621 60.958827557300879 0 60.958827557300879 61.604465983678892 0 0 0 0 -1.4916377817545978 1.2858566532807565 0 1.2858566532807565 -0.63647597731638683 0 0 0 0 -1.931858559640105 1.6342699445507414 0 1.6342699445507414 -0.53150728446436801 0 0 0 0 -33.131599629035009 -64.358841726318133 0 -64.358841726318133 -8.71774141068272 0 0 0 0 45.367141739210638 24.466519546751442 0 24.466519546751442 -66.977537533265604 0 0 0 0 -28.63370750510785 25.140675383003781 0 25.140675383003781 65.639636866548244 0 0 0 0 8.8183007306197396 71.572611733736267 0 71.572611733736267 72.368550149223665 0 0 0 0 25.893950610783577 112.01641371591631 0 112.01641371591631 161.43026469807774 0 0 0 0 0.30512098624545519 48.923152511284101 0 48.923152511284101 89.537987145544321 0 0 0 0 1.3033319998685329 64.997712517265427 0 64.997712517265427 81.955561970645704 0 0 0 0 53.931665649733986 178.82948294391372 0 178.82948294391372 247.66463331822342 0 0 0 0 108.21438416939782 221.80568015527206 0 221.80568015527206 119.5641360566151 0 0 0 0 -30.823050650305959 35.722799319033584 0 35.722799319033584 165.07814842744483 0 0 0 0 -1.02523570536232 70.7640092261056 0 70.7640092261056 141.62816263911191 0 0 0 0 19.127299903615494 -26.268803472426953 0 -26.268803472426953 62.557505681066687 0 0 0 0 4.3761329860626574 65.584067473956111 0 65.584067473956111 75.489009927041479 0 0 0 0 -29.0388318464029 -31.802459794855167 0 -31.802459794855167 10.914283361774324 0 0 0 0 -0.65003451046777627 23.325489640039905 0 23.325489640039905 49.592988197346131 0 0 0 0 -18.145115119365073 -20.450841246245545 0 -20.450841246245545 -57.993788020399734 0 0 0 0 -81.505100020502141 -46.80111557183227 0 -46.80111557183227 29.615702630947453 0 0 0 0 -31.109285833030299 -33.665910229139627 0 -33.665910229139627 33.955386149969854 0 0 0 0 -59.427205956882972 2.4725812477490763 0 2.4725812477490763 -11.536826900226515 0 0 0 0 -81.639236395814805 -63.999354115258029 0 -63.999354115258029 -44.998899938349496 0 0 0 0 68.163377971457521 53.320202434428666 0 53.320202434428666 6.1981181576411473 0 0 0 0 51.720422606247666 -60.643457427568137 0 -60.643457427568137 -231.52717543661674 0 0 0 0 -0.34448847744181421 0.45605421707501392 0 0.45605421707501392 -0.7130585348223164 0 0 0 0 -118.10053345635606 -74.717596773571131 0 -74.717596773571131 -15.682006486031241 0 0 0 0 64.380405108109699 61.46791497353297 0 61.46791497353297 -5.9720662313120556 0 0 0 0 -126.27074743582125 -13.331770568143838 0 -13.331770568143838 9.6250265157650574 0 0 0 0 -38.873094852599024 0.22748280957603129 0 0.22748280957603129 -11.868833005164561 0 0 0 0 -36.163598041963269 -0.82744295531483658 0 -0.82744295531483658 -13.784624276922841 0 0 0 0 -11.402880903355253 21.451329623308993 0 21.451329623308993 -9.0258093300794826 0 0 0 0 -13.260793920950164 26.63739979273123 0 26.63739979273123 -20.062660194027558 0 0 0 0 -45.752758120328508 -21.249105397599124 0 -21.249105397599124 -5.4062804515451717 0 0 0 0 -5.4325212075746094 10.666526054659698 0 10.666526054659698 -1.8877456192108184 0 0 0 0 28.58025868036566 5.1858896144340179 0 5.1858896144340179 -31.091677701489971 0 0 0 0 -19.291514671502227 -8.0378695854960824 0 -8.0378695854960824 59.057936174758652 0 0 0 0 3.4947336249060754 -31.855051250000542 0 -31.855051250000542 45.235668124474614 0 0 0 0 61.279716733756004 10.703693010140114 0 10.703693010140114 8.9554736983009207 0 0 0 0 -11.692468621411535 30.406445741419702 0 30.406445741419702 -35.09082548819697 0 0 0 0 8.3991903224778071 25.725427972505713 0 25.725427972505713 -40.178650614680009 0 0 0 0 -0.13391239526072729 0.33140434751491554 0 0.33140434751491554 5.636307830735241 0 0 0 0 0.096546108094972993 0.7178138981203972 0 0.7178138981203972 0.24592292444303609 0 0 0 0 -6.1730796790070599 38.171149978390076 0 38.171149978390076 -2.6721779920335393 0 0 0 0 -32.591144562954469 18.112960114634461 0 18.112960114634461 25.059711134028475 0 0 0 0 175.60118301424723 309.97210760347753 0 309.97210760347753 414.2877767818336 0 0 0 0 -10.291467248327535 -57.325777394023135 0 -57.325777394023135 134.85045644823003 0 0 0 0 0.1099784752102404 0.3643204697283835 0 0.3643204697283835 2.0566700608078179 0 0 0 0 17.947892929474278 29.466260479305447 0 29.466260479305447 102.80196342473937 0 0 0 0 -51.703776981175906 -47.619119582753228 0 -47.619119582753228 285.22065456282689 0 0 0 0 -32.778152416345165 158.02717402981307 0 158.02717402981307 470.12469824393884 0 0 0 0 235.10550811000485 208.29108820628971 0 208.29108820628971 237.11073191929427 0 0 0 0 160.52765144108071 323.66083475921141 0 323.66083475921141 272.80992049109227 0 0 0 0 -7.3129239242498443 20.172231776884473 0 20.172231776884473 8.3773437817091008 0 0 0 0 -43.986563656280453 -4.7839722719947702 0 -4.7839722719947702 6.8134619182637834 0 0 0 0 5.810525876500833 12.510335128748011 0 12.510335128748011 9.306387932776488 0 0 0 0 -0.65391711951164533 10.511434258647025 0 10.511434258647025 10.22026355543094 0 0 0 0 0.0027709150940695947 1.392942347901605 0 1.392942347901605 1.6903771365032298 0 0 0 0 11.792644819401175 14.613143098971705 0 14.613143098971705 7.5740619598948342 0 0 0 0 15.45870932282196 14.524182155541894 0 14.524182155541894 5.567293949683517 0 0 0 0 -0.096820092344739095 0.63496329237223748 0 0.63496329237223748 0.45746683286066769 0 0 0 0 47.938054967235075 43.256579249286915 0 43.256579249286915 39.76170803428522 0 0 0 0 12.498158431953925 6.9725177573945984 0 6.9725177573945984 7.1358495386284631 0 0 0 0 -0.00097938005898612346 0.051779546587109593 0 0.051779546587109593 1.2202994228500064 0 0 0 0 -0.76427961531473798 1.368914212200341 0 1.368914212200341 3.1119623169560953 0 0 0 0 -4.5183876428991425 1.4963511772716629 0 1.4963511772716629 4.6039775331428245 0 0 0 0 -1.7795272650609502 0.25870634816714144 0 0.25870634816714144 5.719712276923147 0 0 0 0 20.313149674417218 -14.00720616966646 0 -14.00720616966646 -17.449434720257159 0 0 0 0 -1.2953175861270658 1.8124512544970557 0 1.8124512544970557 4.309628499370298 0 0 0 0 -1.2259343971336421 4.0907182298169573 0 4.0907182298169573 3.2545912449895695 0 0 0 0 3.2880114813839896 3.0648220569779667 0 3.0648220569779667 2.5474162451508686 0 0 0 0 -12.521199913341661 1.4095688625202456 0 1.4095688625202456 0.91569255497779523 0 0 0 0 -16.75842390689127 5.099853732225899 0 5.099853732225899 1.2688014452375089 0 0 0 0 -13.849384316259602 19.414282725547309 0 19.414282725547309 -12.770523362043605 0 0 0 0 -68.147237037108425 -33.69798901597278 0 -33.69798901597278 88.939803266986928 0 0 0 0 52.809923847278696 73.309720808274506 0 73.309720808274506 0.44359054749384086 0 0 0 0 -63.889286300767708 29.209849406090143 0 29.209849406090143 155.8136346946194 0 0 0 0 -15.720549754068646 3.6484050972033906 0 3.6484050972033906 -0.90834371244656609 0 0 0 0 10.693283399106804 69.224350791821053 0 69.224350791821053 52.356834211127534 0 0 0 0 55.40400172171212 72.029423103162117 0 72.029423103162117 -5.3765676551793149 0 0 0 0 -10.64624772897514 -7.0007016704394118 0 -7.0007016704394118 -0.26655171682978107 0 0 0 0 35.086581680836389 10.530435815602686 0 10.530435815602686 -26.457566557437531 0 0 0 0 -0.71875714336783858 6.7156724299147754 0 6.7156724299147754 17.609648849129371 0 0 0 0 11.474401266459608 -10.328012260171818 0 -10.328012260171818 -18.40679346501247 0 0 0 0 -1.7962943719667237 -20.631683832384624 0 -20.631683832384624 -12.384318395130094 0 0 0 0 7.2752501372988263 -10.843062444097995 0 -10.843062444097995 -13.82133769884058 0 0 0 0 -20.586727430898463 -5.9148365691389699 0 -5.9148365691389699 -1.9176966819477457 0 0 0 0 5.1672874038040391 -21.176498282981356 0 -21.176498282981356 6.8222144021747226 0 0 0 0 -19.691115766879193 -14.042668727228374 0 -14.042668727228374 13.2025492756311 0 0 0 0 2.6379852761638176 -13.189531403179899 0 -13.189531403179899 8.9742593143100748 0 0 0 0 13.043504772283995 13.731291272542876 0 13.731291272542876 37.510795092466651 0 0 0 0 40.488798512289577 41.417545177869215 0 41.417545177869215 44.386396393864516 0 0 0 0 -13.74963183269756 24.121665684422624 0 24.121665684422624 47.368163716399863 0 0 0 0 6.2059008092732029 27.80532661480197 0 27.80532661480197 21.158742684812751 0 0 0 0 -67.196567991028132 16.926412619206531 0 16.926412619206531 22.559397239239615 0 0 0 0 -2.4705211776072247 -8.0630105479354768 0 -8.0630105479354768 4.6575148377814912 0 0 0 0 -54.044106418512456 -36.544452524736698 0 -36.544452524736698 -7.7241482799872756 0 0 0 0 15.924095895522896 -26.386963532340815 0 -26.386963532340815 -44.104541856188007 0 0 0 0 -53.860759680957017 -119.51595554160667 0 -119.51595554160667 -137.08810822949454 0 0 0 0 28.460060485799659 -6.7156179095140942 0 -6.7156179095140942 -60.171577167024225 0 0 0 0 30.637666890539549 -19.352829071507585 0 -19.352829071507585 -41.527475052942464 0 0 0 0 83.972391419523774 97.492935220316213 0 97.492935220316213 -47.054737563890285 0 0 0 0 148.07918462568978 27.603278969640996 0 27.603278969640996 -211.59943314846532 0 0 0 0 40.304097811669635 36.806270876869348 0 36.806270876869348 28.306383629780612 0 0 0 0 19.89024312946276 82.640644557992346 0 82.640644557992346 0.48725331596301658 0 0 0 0 -57.443087575265963 -19.825000887038186 0 -19.825000887038186 122.99001362264062 0 0 0 0 -2.6202741914675727 0.41166951721895373 0 0.41166951721895373 -0.16149711070359452 0 0 0 0 -10.875469351695724 2.7377590654908381 0 2.7377590654908381 -0.534713152997913 0 0 0 0 3.7725067899336864 -42.332799050560425 0 -42.332799050560425 -54.046725760003028 0 0 0 0 -223.98702119164773 -62.228394638869304 0 -62.228394638869304 98.308787876114366 0 0 0 0 4.439037907657621 59.579310906675346 0 59.579310906675346 56.157572028980212 0 0 0 0 -51.659123034870845 50.322127572893805 0 50.322127572893805 -33.714078196690025 0 0 0 0 -192.37919137316567 -22.002828470504028 0 -22.002828470504028 -1.731104326856439 0 0 0 0 -30.998577828941507 -0.96389415648764043 0 -0.96389415648764043 -6.1221567956854415 0 0 0 0 -31.802486118300294 52.250940409267059 0 52.250940409267059 -23.330716175172711 0 0 0 0 -9.8805323460892396 28.40055270119683 0 28.40055270119683 -28.386670954113015 0 0 0 0 0.10063154717317957 11.568898503917808 0 11.568898503917808 -8.2008465839990095 0 0 0 0 -47.65237830843671 27.190307685355037 0 27.190307685355037 -8.5178882952850472 0 0 0 0 -48.238029452640149 -10.248275376749007 0 -10.248275376749007 -3.210078505278716 0 0 0 0 -6.1459307285304021 -9.2443711146827354 0 -9.2443711146827354 -3.2013611965630844 0 0 0 0 45.360043137374305 -29.617190138020305 0 -29.617190138020305 -77.615496719155999 0 0 0 0 -3.6001877011505599 0.96613342945908443 0 0.96613342945908443 -0.36322528854688585 0 0 0 0 -275.25723955875583 -90.28659512539889 0 -90.28659512539889 151.98752755486203 0 0 0 0 56.479353646792333 88.407878315810194 0 88.407878315810194 76.507489470877772 0 0 0 0 -1.4943521616403732 -0.2678320124449094 0 -0.2678320124449094 1.50879885654048 0 0 0 0 -6.728266316240223 2.1410339696499463 0 2.1410339696499463 0.088827107982805131 0 0 0 0 -13.092521654344637 -2.2926852791283636 0 -2.2926852791283636 14.977012958696832 0 0 0 0 52.851018341773852 89.296996892056086 0 89.296996892056086 76.299704206247497 0 0 0 0 0.34728689006842295 -0.095545191997093326 0 -0.095545191997093326 0.084854775594564558 0 0 0 0 133.68327270834016 113.25658359950967 0 113.25658359950967 43.898741836996123 0 0 0 0 12.811012755551928 65.072931760746542 0 65.072931760746542 58.839218054631601 0 0 0 0 -2.1255189389762563 85.486886455366403 0 85.486886455366403 47.988998337083103 0 0 0 0 -40.90291369877832 46.427735894656962 0 46.427735894656962 36.650780182939343 0 0 0 0 41.279104990742781 65.014880594619171 0 65.014880594619171 44.95959763189785 0 0 0 0 40.242537810061549 60.83966426725965 0 60.83966426725965 36.487036932585397 0 0 0 0 6.5544856071812774 29.518737009350389 0 29.518737009350389 31.05072216811277 0 0 0 0 10.087703318369677 54.013187541069783 0 54.013187541069783 52.31136350522047 0 0 0 0 63.977939625319777 72.122492926215273 0 72.122492926215273 46.68347632743189 0 0 0 0 17.266447008918476 63.635513288557377 0 63.635513288557377 113.12929845019062 0 0 0 0 -4.4347900865992642 -25.793431483090785 0 -25.793431483090785 78.412811063248228 0 0 0 0 11.09784780627524 4.0783027976594894 0 4.0783027976594894 32.570770174814697 0 0 0 0 -5.5385068064679217 15.70697338658465 0 15.70697338658465 53.155215677581509 0 0 0 0 1.4669124211359303 -5.9692514869402657 0 -5.9692514869402657 30.150434861046961 0 0 0 0 1.884070942834569 -8.8052604657541451 0 -8.8052604657541451 33.45809576267493 0 0 0 0 -1.743217165681699 14.015742147053004 0 14.015742147053004 -23.887141474709097 0 0 0 0 7.8092066624776635 -5.5983787630775623 0 -5.5983787630775623 28.418563243110839 0 0 0 0 -0.34659654134578233 10.593623429901264 0 10.593623429901264 2.7515402735133758 0 0 0 0 -0.86795407198809826 0.39757005550506008 0 0.39757005550506008 3.593654856585295 0 0 0 0 0.92975678590300959 4.5920643826284504 0 4.5920643826284504 47.711615617576172 0 0 0 0 0.2433864284921583 4.9389490278740595 0 4.9389490278740595 -15.872012442583127 0 0 0 0 -0.86405718785488261 10.698908505992279 0 10.698908505992279 -17.114386178997847 0 0 0 0 -16.64531423373046 1.9359730237192707 0 1.9359730237192707 32.405358699721091 0 0 0 0 -1.0898640531348214 4.2856395870142876 0 4.2856395870142876 -0.52444850067925941 0 0 0 0 17.026843363126318 1.597881651769967 0 1.597881651769967 -2.5165123351798684 0 0 0 0 -2.5449263189698712 7.5042229629154704 0 7.5042229629154704 0.027026275690395174 0 0 0 0 -0.90544990463604336 3.6641374233058741 0 3.6641374233058741 2.0603503821657796 0 0 0 0 0.18626675462110143 5.3939874084253461 0 5.3939874084253461 -6.8253873143294186 0 0 0 0 0.024986165563536389 0.27751781187902225 0 0.27751781187902225 -0.20175345742979722 0 0 0 0 -0.91021548577030309 5.4563787551866909 0 5.4563787551866909 0.78843482418227495 0 0 0 0 -3.5933995352834245 11.99294159206238 0 11.99294159206238 -13.985506179147706 0 0 0 0 -4.5991194302882832 10.12068825888241 0 10.12068825888241 -14.274310163022164 0 0 0 0 56.326436097380792 8.2650714307401358 0 8.2650714307401358 -13.20764250162938 0 0 0 0 -4.3673450273888594 9.5855973810576174 0 9.5855973810576174 -12.636297734231263 0 0 0 0 28.955270621125237 27.589213308419858 0 27.589213308419858 -26.819439540247458 0 0 0 0 6.2692201652427499 1.2955871208592313 0 1.2955871208592313 -4.0899479421948239 0 0 0 0 52.941721816384415 67.056494140028008 0 67.056494140028008 64.420703081410466 0 0 0 0 11.057110975489195 61.81492761451409 0 61.81492761451409 104.71433462280493 0 0 0 0 37.155391277204217 73.665609478868646 0 73.665609478868646 107.78243282254334 0 0 0 0 24.89448192342752 45.880808585296109 0 45.880808585296109 97.583209410337531 0 0 0 0 49.65443553201294 87.778111031927438 0 87.778111031927438 111.75949130482331 0 0 0 0 62.970476090726152 76.178566198428598 0 76.178566198428598 115.95267688098147 0 0 0 0 -0.94634315472035269 -14.963642670580612 0 -14.963642670580612 14.809814263255248 0 0 0 0 75.236504293834514 108.94507598740438 0 108.94507598740438 123.3839611135154 0 0 0 0 0.21483759181927553 0.016143915045926605 0 0.016143915045926605 1.1207076641978944 0 0 0 0 40.741168681610361 83.992059303604037 0 83.992059303604037 150.9066934988723 0 0 0 0 39.223407824504648 21.280053968888978 0 21.280053968888978 99.238532977316936 0 0 0 0 18.541107057146746 3.8924637167247056 0 3.8924637167247056 50.987154425558401 0 0 0 0 36.799917104026463 51.475827756048602 0 51.475827756048602 75.951085719219918 0 0 0 0 22.928327980907852 27.38715954719919 0 27.38715954719919 21.502892648556099 0 0 0 0 19.166342379840899 18.631969987918637 0 18.631969987918637 51.671934081095969 0 0 0 0 -9.33092730744238 14.306832350194099 0 14.306832350194099 51.118544262400974 0 0 0 0 -1.3560633807157956 -18.102033513811421 0 -18.102033513811421 -35.218335638979624 0 0 0 0 36.220129552164508 15.099763480268848 0 15.099763480268848 25.078521992949391 0 0 0 0 67.279079734635161 69.245429593534936 0 69.245429593534936 68.338470868290187 0 0 0 0 139.39881582803901 129.8755113452271 0 129.8755113452271 73.614226636831972 0 0 0 0 36.271691415537362 -55.109432831718664 0 -55.109432831718664 4.938762971356482 0 0 0 0 2.0501737683778991 -0.62844186837104132 0 -0.62844186837104132 0.21009668726448227 0 0 0 0 18.406289369887872 101.01427407545725 0 101.01427407545725 259.68990573687915 0 0 0 0 115.25798627853146 -48.725656581739713 0 -48.725656581739713 -19.401329178914239 0 0 0 0 58.454621618388046 -9.4828455454262439 0 -9.4828455454262439 -18.231964029462688 0 0 0 0 47.075732022031843 -14.392545168361266 0 -14.392545168361266 1.0429905826604227 0 0 0 0 57.186772978591762 -21.73792148906432 0 -21.73792148906432 -30.332351900216963 0 0 0 0 49.63171955190046 -20.791325195066747 0 -20.791325195066747 -12.592251028996543 0 0 0 0 52.939761692061438 -7.5184703050254029 0 -7.5184703050254029 -7.0567423804986902 0 0 0 0 -210.77574351857402 189.20075101164093 0 189.20075101164093 62.664780798913853 0 0 0 0 -34.269800148957074 219.51216086604245 0 219.51216086604245 23.263087370045469 0 0 0 0 6.1063761403765966 64.754688553459346 0 64.754688553459346 -47.959166806816938 0 0 0 0 -52.32438322697999 -3.091167626828792 0 -3.091167626828792 -86.638237166556792 0 0 0 0 207.03121354194991 54.283737201942131 0 54.283737201942131 -68.078680848012482 0 0 0 0 1.5873675590923995 -106.71822034199226 0 -106.71822034199226 83.177049668554901 0 0 0 0 -25.226458142584306 42.687077989174213 0 42.687077989174213 34.350371103752877 0 0 0 0 -3.8514393262303734 -0.73602424837584834 0 -0.73602424837584834 1.7072936265768419 0 0 0 0 -8.0357017106143758 7.3637238251958479 0 7.3637238251958479 -8.8577647560132391 0 0 0 0 1.9221109429509566 5.8864998124648835 0 5.8864998124648835 6.7074937094142655 0 0 0 0 -34.683235648595655 -7.6998882155594401 0 -7.6998882155594401 21.57736998691189 0 0 0 0 -5.9977769849556353 8.2060356798069165 0 8.2060356798069165 6.4511270596194663 0 0 0 0 1.6784880626091105 7.8304995530834995 0 7.8304995530834995 10.14940029765329 0 0 0 0 0.64076983307131741 10.770417433731723 0 10.770417433731723 6.3218830552013969 0 0 0 0 0.52078113714310348 0.31154092751678064 0 0.31154092751678064 -0.13755301281844012 0 0 0 0 12.812618431704323 -27.813281037451816 0 -27.813281037451816 21.352898983559498 0 0 0 0 -0.011690142060327034 4.1445261294849134 0 4.1445261294849134 -2.4020196565379592 0 0 0 0 -12.477110936983081 2.5812155432404325 0 2.5812155432404325 61.647835516948362 0 0 0 0 -0.0018973133501276607 32.455480057990371 0 32.455480057990371 40.230455969269315 0 0 0 0 1.0952527815825306 1.8045231691903609 0 1.8045231691903609 11.704365701256393 0 0 0 0 -13.537945298091472 20.343829893463521 0 20.343829893463521 41.2759300312091 0 0 0 0 -55.819326892529716 6.04287314072144 0 6.04287314072144 67.475789072834232 0 0 0 0 1.8059445526781899 11.705907073473723 0 11.705907073473723 16.669887085442049 0 0 0 0 -212.41822608710572 22.666784498730976 0 22.666784498730976 104.51586498691358 0 0 0 0 7.380324589623342 4.4544608963387873 0 4.4544608963387873 -18.369868447636691 0 0 0 0 -16.009456766709945 27.412193281680402 0 27.412193281680402 5.8749835287180758 0 0 0 0 -112.02666869474888 -17.519741997061374 0 -17.519741997061374 31.754857849194195 0 0 0 0 0.6799740205029976 10.517397683635194 0 10.517397683635194 14.187228928108716 0 0 0 0 -3.5400210858388164 28.409687806544753 0 28.409687806544753 -8.9078449417356751 0 0 0 0 0.045225767311421805 23.279727289205766 0 23.279727289205766 3.7141500897614605 0 0 0 0 -3.4327298043899646 21.108510462671802 0 21.108510462671802 10.628902564531018 0 0 0 0 3.1190498524974828 33.230058307241961 0 33.230058307241961 20.246738878123779 0 0 0 0 9.0447280778969343 37.235121869575551 0 37.235121869575551 -6.7746724567059573 0 0 0 0 -3.0981322933521369 44.171520847276952 0 44.171520847276952 3.119158495164811 0 0 0 0 -25.305548968030962 52.890965066807439 0 52.890965066807439 -0.25896977299271384 0 0 0 0 -28.62928589376952 26.673386332373411 0 26.673386332373411 7.8707951552842133 0 0 0 0 -34.640489546183744 26.466646715790375 0 26.466646715790375 10.10917899056858 0 0 0 0 -9.5342295545087836 29.874759129059385 0 29.874759129059385 5.0059829330384673 0 0 0 0 -18.53509904967359 48.146680804346943 0 48.146680804346943 24.586139205261134 0 0 0 0 -1.0940583233932557 14.967729453605898 0 14.967729453605898 61.411704681858737 0 0 0 0 1.3053788227070982 53.778144333299224 0 53.778144333299224 36.878669597037515 0 0 0 0 -0.087541458991694299 0.36772521964928373 0 0.36772521964928373 0.040758739429444191 0 0 0 0 -8.8804857937826682 36.423504224134376 0 36.423504224134376 21.760473075557456 0 0 0 0 -17.5271380547033 28.806115214008969 0 28.806115214008969 146.24562810784937 0 0 0 0 -14.319449172980967 39.677590328699807 0 39.677590328699807 21.370526281118941 0 0 0 0 -14.406149130750237 40.057421021936989 0 40.057421021936989 31.194492025939326 0 0 0 0 -6.9164029583557749 21.722805586281538 0 21.722805586281538 60.870375884278474 0 0 0 0 -1.2207910211536728 26.225649470139615 0 26.225649470139615 59.339072889299132 0 0 0 0 -6.2722992843293923 32.552539899466638 0 32.552539899466638 105.83393440577856 0 0 0 0 7.8864835362910526 6.1190157349383298 0 6.1190157349383298 53.825300145037545 0 0 0 0 35.396273436432239 16.600235201156465 0 16.600235201156465 110.85401944224031 0 0 0 0 -18.953249301734104 22.50252809237827 0 22.50252809237827 116.05161654527819 0 0 0 0 97.91926994903406 66.001429477011698 0 66.001429477011698 130.6663720345241 0 0 0 0 -2.7910346956523426 39.224893749991679 0 39.224893749991679 141.26129621591826 0 0 0 0 9.3256276219563006 38.942862507234167 0 38.942862507234167 109.4679280083983 0 0 0 0 -39.564951055715937 85.717791104640128 0 85.717791104640128 167.31949709066976 0 0 0 0 19.432945525619289 125.64367310446687 0 125.64367310446687 192.15054602012242 0 0 0 0 -0.10431470514413377 51.971137855600318 0 51.971137855600318 98.325201939449471 0 0 0 0 -76.300650208683692 -7.8601044472070498 0 -7.8601044472070498 51.428120443611078 0 0 0 0 2.4758654673867113 35.786404886768196 0 35.786404886768196 33.511945418154937 0 0 0 0 -1.7646698122787221 2.1409728437382611 0 2.1409728437382611 -0.1039216904429594 0 0 0 0 23.13493923743772 57.313719873789523 0 57.313719873789523 97.534282428598999 0 0 0 0 54.775536999322867 81.443120402615023 0 81.443120402615023 115.76538752560373 0 0 0 0 -32.572071485265042 81.259829280088525 0 81.259829280088525 232.6926727164464 0 0 0 0 120.34320246330026 94.279443616655044 0 94.279443616655044 153.99473624368011 0 0 0 0 -25.516924316415043 119.39765241084888 0 119.39765241084888 166.37812799199673 0 0 0 0 -131.97483899194231 55.481981660434485 0 55.481981660434485 132.89430753387478 0 0 0 0 68.351678651120665 83.248744284356007 0 83.248744284356007 26.141658502358041 0 0 0 0 94.857221600715093 123.67161737387823 0 123.67161737387823 87.000592390469137 0 0 0 0 -0.031778600006833191 0.2141892108460226 0 0.2141892108460226 1.0602491362405573 0 0 0 0 48.807587491940467 69.513679083368515 0 69.513679083368515 38.093248315006349 0 0 0 0 62.837282787524373 103.96209893744776 0 103.96209893744776 84.807877112951246 0 0 0 0 69.730150079713439 61.927611426825933 0 61.927611426825933 2.283829173678896 0 0 0 0 -68.758747133481847 9.5028394477531037 0 9.5028394477531037 25.388035200008744 0 0 0 0 -0.054973781723417492 0.50390086872307727 0 0.50390086872307727 1.9277778134976131 0 0 0 0 23.733512626720994 57.457285977279753 0 57.457285977279753 7.8463117702294767 0 0 0 0 2.7975515571788492 22.795760859385155 0 22.795760859385155 17.015840176853089 0 0 0 0 2.3722385043338363 16.533911122819518 0 16.533911122819518 -36.517481229768237 0 0 0 0 -28.423154647382034 35.659067258147843 0 35.659067258147843 1.0685018608828614 0 0 0 0 8.0420898123917368 22.98070002696636 0 22.98070002696636 1.9534476103617635 0 0 0 0 14.503643232246759 44.720565103810259 0 44.720565103810259 -1.4174439833432189 0 0 0 0 42.898336559664585 34.764760046843548 0 34.764760046843548 5.9282125854861079 0 0 0 0 67.179914403001021 61.008637928239295 0 61.008637928239295 26.321389372438716 0 0 0 0 4.0613425185438246 34.36115260137376 0 34.36115260137376 81.738881795870839 0 0 0 0 1.5430043713968189 19.860360657048659 0 19.860360657048659 32.200676397290863 0 0 0 0 9.3373682986575659 35.913716151514564 0 35.913716151514564 46.890879672115261 0 0 0 0 6.6754848090699852 23.029153274825148 0 23.029153274825148 24.038201012917852 0 0 0 0 6.5956508473065583 35.306705871162592 0 35.306705871162592 13.861492321088008 0 0 0 0 6.9376310563739025 38.753572845320377 0 38.753572845320377 40.537956665008096 0 0 0 0 1.5141397175124212 12.463635976196429 0 12.463635976196429 -15.09935311793015 0 0 0 0 -59.712700416190273 -17.628096168022239 0 -17.628096168022239 13.374248552579047 0 0 0 0 -105.27061169117769 -1.1740039733458616 0 -1.1740039733458616 41.316768265802239 0 0 0 0 -119.18886970203653 20.56439186249554 0 20.56439186249554 54.827890917360492 0 0 0 0 -0.049388039364407943 0.067033769764613282 0 0.067033769764613282 0.88739473961327064 0 0 0 0 -58.123825577511525 58.182300391210447 0 58.182300391210447 72.646313738761819 0 0 0 0 -71.704149017195959 25.21275724201405 0 25.21275724201405 38.823780288143098 0 0 0 0 -42.844727481047812 12.314235386720611 0 12.314235386720611 42.380188673945668 0 0 0 0 -43.400277757910089 5.805688858681151 0 5.805688858681151 31.851984187247581 0 0 0 0 3.796554307336919 6.4102607999284373 0 6.4102607999284373 22.930697206887999 0 0 0 0 -5.4419654161501967 11.321473895915915 0 11.321473895915915 19.901552226388958 0 0 0 0 -36.453379516089626 21.780617783191701 0 21.780617783191701 23.949765734276298 0 0 0 0 -3.4962451746550869 1.1238539098567344 0 1.1238539098567344 49.710442788669752 0 0 0 0 -0.27924849677438246 0.45713680258126033 0 0.45713680258126033 -0.26516192989572263 0 0 0 0 -22.949273916387028 27.480966579607411 0 27.480966579607411 30.212733106203814 0 0 0 0 1.1659887028056986 10.89692810670595 0 10.89692810670595 4.30776799339246 0 0 0 0 67.597716474512708 23.974671948133619 0 23.974671948133619 0.89979359360586386 0 0 0 0 -2.5405118347207463 41.402007041411707 0 41.402007041411707 13.473602308480622 0 0 0 0 22.121927112884805 21.0134155329647 0 21.0134155329647 -34.622518198679927 0 0 0 0 -11.316604552564968 34.382899615867018 0 34.382899615867018 22.261085812912825 0 0 0 0 -0.60381960958193304 4.1838339247485692 0 4.1838339247485692 -4.2182093000465102 0 0 0 0 -11.746806055060915 23.466821779829843 0 23.466821779829843 21.642489147767265 0 0 0 0 5.668514600412891 21.410655770622725 0 21.410655770622725 21.502523662642488 0 0 0 0 20.077888699455798 -1.5666728380201675 0 -1.5666728380201675 64.492510602887705 0 0 0 0 24.172851353861915 14.067621338217577 0 14.067621338217577 11.215008194434631 0 0 0 0 12.306876093043684 4.2154609960034577 0 4.2154609960034577 11.731542649038602 0 0 0 0 16.19198856800449 27.591891120941909 0 27.591891120941909 -26.469205895772575 0 0 0 0 9.7846872884965705 23.780500249094075 0 23.780500249094075 -28.387587415226335 0 0 0 0 2.3074288038092732 10.993456862118268 0 10.993456862118268 4.690289650253316 0 0 0 0 -4.9595016915778842 10.685135163261833 0 10.685135163261833 0.40976681246866065 0 0 0 0 -3.6339311732722308 14.619371535962728 0 14.619371535962728 -28.806431685472489 0 0 0 0 8.0013285586674101 17.356848488838295 0 17.356848488838295 -37.801470258552399 0 0 0 0 4.0286228881723218 16.232884051416477 0 16.232884051416477 -9.7781031542899655 0 0 0 0 2.3723015049563685 12.556844591035272 0 12.556844591035272 -0.14406027664975873 0 0 0 0 -2.809082626309646 24.05846775682744 0 24.05846775682744 -48.860695686594227 0 0 0 0 -3.8092546502745979 15.123047453633756 0 15.123047453633756 -16.542694858059189 0 0 0 0 0.41280942372941354 12.951267110493973 0 12.951267110493973 14.636302097060252 0 0 0 0 -0.31478054278826662 1.272311512531811 0 1.272311512531811 -2.3646514629656963 0 0 0 0 -2.5489629874127786 14.725938503728685 0 14.725938503728685 34.69433973321884 0 0 0 0 4.4570478862533491 26.774310654934652 0 26.774310654934652 20.64593280392728 0 0 0 0 -0.67649219158511187 19.532479960325873 0 19.532479960325873 16.121651532354008 0 0 0 0 5.3678568013820041 18.687053023186309 0 18.687053023186309 5.8328063282983749 0 0 0 0 7.7884288182349337 37.196585960921311 0 37.196585960921311 -10.956522188345843 0 0 0 0 5.3042406845177084 38.757300182622657 0 38.757300182622657 -0.80799429602848249 0 0 0 0 7.6064539051085376 33.378149826084154 0 33.378149826084154 11.241338255171286 0 0 0 0 -84.228040198642702 39.491740240735453 0 39.491740240735453 6.9221915202660966 0 0 0 0 -43.798311712809664 -2.3475680691699381 0 -2.3475680691699381 -3.81344553046074 0 0 0 0 -35.801170067455132 66.826304415336381 0 66.826304415336381 -29.128703465703438 0 0 0 0 21.422449088940994 21.720121080272293 0 21.720121080272293 -29.345795831157972 0 0 0 0 0.16990758466995182 0.18106031977878345 0 0.18106031977878345 -0.86377124118585868 0 0 0 0 -93.094362719446508 62.630751997837251 0 62.630751997837251 0.52968059988415916 0 0 0 0 -72.308054180619365 94.752540035479797 0 94.752540035479797 22.558012566750222 0 0 0 0 -15.260602042736721 33.556983818665643 0 33.556983818665643 -32.667509712238825 0 0 0 0 -65.217706558109057 93.392620606791752 0 93.392620606791752 -45.346226293035215 0 0 0 0 -6.2233223563171123 -40.779813949079653 0 -40.779813949079653 -16.253302138286017 0 0 0 0 20.157807998269163 -0.36837332586583216 0 -0.36837332586583216 -52.381815901951086 0 0 0 0 22.428979477215762 16.787465178871571 0 16.787465178871571 6.5132866062276662 0 0 0 0 -1.4768142236689332 1.7759121070041033 0 1.7759121070041033 0.66257359874664701 0 0 0 0 0.11482858488889569 1.8404990337217235 0 1.8404990337217235 -2.6599854850500586 0 0 0 0 -5.400841666798442 -23.464793388704493 0 -23.464793388704493 28.735038468607854 0 0 0 0 -4.2828316385696148 12.585889253270626 0 12.585889253270626 4.3883463456028382 0 0 0 0 -16.939739203544377 25.412843237301786 0 25.412843237301786 -36.132928981732221 0 0 0 0 -0.67304671260603754 23.186853272544681 0 23.186853272544681 -107.69869758114828 0 0 0 0 0.090192739297648927 -0.25632873795725786 0 -0.25632873795725786 0.40446858593178181 0 0 0 0 -18.350982724808091 -29.13858803404537 0 -29.13858803404537 65.383230848256062 0 0 0 0 13.995896195545583 -54.833816926657391 0 -54.833816926657391 3.0088982628785743 0 0 0 0 -71.611221224910423 56.64065363493205 0 56.64065363493205 29.703782862224216 0 0 0 0 -4.8615718015116727 44.907781534392598 0 44.907781534392598 -54.459805407869965 0 0 0 0 -40.868906100013191 15.935609451418713 0 15.935609451418713 54.56224282050016 0 0 0 0 35.614732644735341 -21.925004033469804 0 -21.925004033469804 -51.310928826791496 0 0 0 0 1.9194515153327529 -14.93758634051278 0 -14.93758634051278 -51.766025421131417 0 0 0 0 0.68584874987558475 -0.26043686405062516 0 -0.26043686405062516 -0.89595170819764647 0 0 0 0 -72.275112660803188 48.020614417146589 0 48.020614417146589 -38.817523762200835 0 0 0 0 -8.4600283131367178 48.785654034771142 0 48.785654034771142 -85.585442359326407 0 0 0 0 -29.58581044010316 50.477230983516165 0 50.477230983516165 -38.246230437468967 0 0 0 0 -9.8632361608160863 14.76969968926096 0 14.76969968926096 3.9968154001516041 0 0 0 0 -2.02184567086897 4.0195420277809717 0 4.0195420277809717 -23.36909352719249 0 0 0 0 -29.628274444783528 45.663450668598898 0 45.663450668598898 -50.515571259038552 0 0 0 0 -2.8348115549133581 7.2554073599635558 0 7.2554073599635558 -3.0736092315589758 0 0 0 0 -0.88863137240960199 0.22183052578857154 0 0.22183052578857154 -1.3009585912496222 0 0 0 0 -0.87033967210286622 5.7446940644592548 0 5.7446940644592548 -10.345735932550223 0 0 0 0 -2.3361583214158372 5.3226388437381615 0 5.3226388437381615 -11.229554345405631 0 0 0 0 -5.171951263511346 3.9928011326808246 0 3.9928011326808246 -9.554835305690176 0 0 0 0 3.5054245830197033 11.048886298248817 0 11.048886298248817 -7.9463068766572178 0 0 0 0 -2.0244783876522399 8.1675309566726586 0 8.1675309566726586 -12.130647548022482 0 0 0 0 10.678532164310127 36.281433028076435 0 36.281433028076435 9.7305673998480415 0 0 0 0 -28.728648548707497 19.489105683178877 0 19.489105683178877 2.807017932389499 0 0 0 0 -0.6924600039797042 13.287886461862172 0 13.287886461862172 -7.0969324110728849 0 0 0 0 1.4506790566747036 3.9256735031152488 0 3.9256735031152488 -6.713682425051239 0 0 0 0 1.6178882561362116 9.157465802911247 0 9.157465802911247 -7.441197886916143 0 0 0 0 -1.3120661785303938 3.2508765103371964 0 3.2508765103371964 2.842177642467508 0 0 0 0 -12.196818491182057 16.108480089817022 0 16.108480089817022 -13.661030741761351 0 0 0 0 -2.8518674440256291 18.070365152001614 0 18.070365152001614 -16.264202098488568 0 0 0 0 -2.0040531665433647 5.7532000989807113 0 5.7532000989807113 1.8613259559158042 0 0 0 0 0.049453622008513776 12.570615268477923 0 12.570615268477923 -24.875531564216544 0 0 0 0 10.284215237356875 9.8500487369910843 0 9.8500487369910843 -24.193476997428661 0 0 0 0 -6.5049226682776862 12.138886752251892 0 12.138886752251892 -10.672439630337067 0 0 0 0 -8.5329408312791202 18.281073305087602 0 18.281073305087602 -20.734401444453397 0 0 0 0 -9.488655720713723 18.663338880158335 0 18.663338880158335 -20.849130577112646 0 0 0 0 -3.0791554905244993 10.646822672152666 0 10.646822672152666 -24.594185800500782 0 0 0 0 12.446912131275781 21.373608739722982 0 21.373608739722982 -31.358845772974746 0 0 0 0 -25.968767351914721 25.396047110963991 0 25.396047110963991 -18.846647862779719 0 0 0 0 -8.4032416400882539 20.621450642969648 0 20.621450642969648 -26.875840558881464 0 0 0 0 -0.32462643153923909 0.86244705066848937 0 0.86244705066848937 0.028012308491721427 0 0 0 0 -9.9891136569372065 18.141943995459997 0 18.141943995459997 -26.297618794815207 0 0 0 0 -9.5876862246695964 21.160318018570251 0 21.160318018570251 -27.055734626806952 0 0 0 0 -20.815966887614195 23.311226060062836 0 23.311226060062836 -46.018427761707244 0 0 0 0 -3.3398909159186587 14.62477460635273 0 14.62477460635273 -34.743716197390313 0 0 0 0 -4.2438347499810334 19.757312701914088 0 19.757312701914088 -45.265376659941467 0 0 0 0 4.9889166407401717 13.679936204577189 0 13.679936204577189 -11.774339786234123 0 0 0 0 17.471321669418558 2.6856720513496839 0 2.6856720513496839 -26.188588196120691 0 0 0 0 8.6231511433067141 -0.88762893289557621 0 -0.88762893289557621 -2.8735495490619085 0 0 0 0 8.0495880275930176 1.1283641443251327 0 1.1283641443251327 -21.673996614766111 0 0 0 0 8.1592950270260225 -1.3367433159391267 0 -1.3367433159391267 -3.3767860790372275 0 0 0 0 10.492978964863596 13.844300404809701 0 13.844300404809701 -2.4739665613105899 0 0 0 0 20.151028019552541 18.862415100119506 0 18.862415100119506 -24.583017622387615 0 0 0 0 26.368862555456417 27.566962219554853 0 27.566962219554853 -0.32361367363409954 0 0 0 0 22.649602108857607 12.244235285178206 0 12.244235285178206 -2.4188444946084928 0 0 0 0 0.67070337562199711 11.254155048398388 0 11.254155048398388 0.090535013436237932 0 0 0 0 -3.4691788464242101 6.5627352547109812 0 6.5627352547109812 -7.6558561461506152 0 0 0 0 17.25358382846207 14.908910332728738 0 14.908910332728738 -15.412890910359238 0 0 0 0 11.287327925520003 13.526042875423627 0 13.526042875423627 2.1017790355235775 0 0 0 0 -5.1779932580480921 7.7085706062231409 0 7.7085706062231409 -4.7864498968910425 0 0 0 0 -4.7885199407064647 16.536328870832222 0 16.536328870832222 0.82091087509979843 0 0 0 0 -4.3416504004771923 9.5868963634270585 0 9.5868963634270585 11.726644502830823 0 0 0 0 -2.6716110165161808 14.118781831427441 0 14.118781831427441 3.4821126289280073 0 0 0 0 -6.9943514799373361 -2.378302860557767 0 -2.378302860557767 43.787819609129656 0 0 0 0 0.24845396318973911 0.25340061307917949 0 0.25340061307917949 0.11967967762893572 0 0 0 0 36.274698592464119 -24.944014600765513 0 -24.944014600765513 -63.680034509950929 0 0 0 0 -0.062007890056584358 1.4782644910401501 0 1.4782644910401501 -1.1074480122374961 0 0 0 0 2.9101077572377108 41.042476159598664 0 41.042476159598664 -89.578646282626323 0 0 0 0 -22.932043945472742 60.503504239952463 0 60.503504239952463 -25.974734365656332 0 0 0 0 -27.112685029393106 14.225335433045984 0 14.225335433045984 -8.6255467237624543 0 0 0 0 -3.2658184406591317 17.078371729851369 0 17.078371729851369 4.0939398520047234 0 0 0 0 32.981667583830131 17.574837265478891 0 17.574837265478891 -88.951508504526828 0 0 0 0 4.2335274704637413 21.752792139342546 0 21.752792139342546 -42.157217618129835 0 0 0 0 0.66875568848445255 0.046553130209304072 0 0.046553130209304072 -0.64903798234081478 0 0 0 0 4.1206413024725919 22.741923771827757 0 22.741923771827757 -12.363075997189299 0 0 0 0 -2.727526771117482 14.566915028528797 0 14.566915028528797 -15.327529359648906 0 0 0 0 5.5910563727184126 20.30764344211957 0 20.30764344211957 -3.4361752107506618 0 0 0 0 -1.3828400109723589 11.472650593067101 0 11.472650593067101 -14.170622581488715 0 0 0 0 2.7499319439029755 7.1103251801973135 0 7.1103251801973135 3.6523315666488116 0 0 0 0 9.4139767248798307 21.378040796624191 0 21.378040796624191 -28.900471065736838 0 0 0 0 -7.438561846497123 34.377774061730292 0 34.377774061730292 -29.311634894568897 0 0 0 0 0.25967143861614517 0.78776594871718775 0 0.78776594871718775 -0.17129659905400985 0 0 0 0 -12.564730242716905 6.25223149536032 0 6.25223149536032 -14.078691349466681 0 0 0 0 13.531646398467274 -9.8354173075713334 0 -9.8354173075713334 -3.7376761608056768 0 0 0 0 -16.929420785611001 27.279054474402074 0 27.279054474402074 -33.044299126066107 0 0 0 0 30.131513472462757 8.4336506253284824 0 8.4336506253284824 -15.347753441782515 0 0 0 0 -3.5268036957718323 12.565605858517301 0 12.565605858517301 -12.637850665318183 0 0 0 0 3.0803761104980367 7.0876483672200266 0 7.0876483672200266 -6.7105913575761633 0 0 0 0 12.027268401758647 5.1029153404997487 0 5.1029153404997487 -24.793189019226702 0 0 0 0 2.6444152584047664 6.9947222278618035 0 6.9947222278618035 2.5366997163389691 0 0 0 0 -2.7718555267271086 0.63076342672155761 0 0.63076342672155761 7.2103823315637783 0 0 0 0 2.5385435950195188 16.269884786630428 0 16.269884786630428 -10.639028334099294 0 0 0 0 -8.4137600582935193 22.263040957672501 0 22.263040957672501 -13.694879760363165 0 0 0 0 0.80849732846854749 9.3957430915802433 0 9.3957430915802433 -3.8305178327375415 0 0 0 0 -7.4640766786448296 7.0832372028255364 0 7.0832372028255364 -3.2610130182088142 0 0 0 0 -5.5139685280728372 28.522752304945016 0 28.522752304945016 -18.069747752865169 0 0 0 0 -48.471029823427671 21.018058137188063 0 21.018058137188063 -6.5766432891716704 0 0 0 0 -14.232990527913898 10.263842747700892 0 10.263842747700892 4.3977846030064711 0 0 0 0 -21.43107475215038 17.188689485696386 0 17.188689485696386 -11.710312215862359 0 0 0 0 -18.801576095671408 20.604243502978079 0 20.604243502978079 -7.4565149973209373 0 0 0 0 -22.812071131259245 24.047933189050042 0 24.047933189050042 -23.360340649701811 0 0 0 0 -37.824573913206677 31.30101376750639 0 31.30101376750639 -12.375484497773414 0 0 0 0 1.3393306751296361 1.6842544312920236 0 1.6842544312920236 1.0762232546327777 0 0 0 0 114.87404316176981 -57.819770226375567 0 -57.819770226375567 19.923446143970068 0 0 0 0 -32.244857621542906 20.004931774065653 0 20.004931774065653 -9.6661509366067548 0 0 0 0 -16.709678783687309 20.660648962231306 0 20.660648962231306 -12.333579833164549 0 0 0 0 -17.193871971865519 23.955970782309578 0 23.955970782309578 -17.333542970574399 0 0 0 0 -18.217209535800066 17.135005339283225 0 17.135005339283225 -8.8009713836727315 0 0 0 0 -17.969349305924823 20.69628030572127 0 20.69628030572127 -13.194096030793844 0 0 0 0 -17.871518205063367 16.704134402527011 0 16.704134402527011 -9.3873011775021951 0 0 0 0 138.35127123570783 -64.020367024196275 0 -64.020367024196275 11.294340602891452 0 0 0 0 1.8787780629342041 1.885082722076616 0 1.885082722076616 0.9779654634275925 0 0 0 0 -75.826031785929899 57.971524287256614 0 57.971524287256614 -5.6572994159741938 0 0 0 0 -23.900090109415942 16.753727200254957 0 16.753727200254957 -6.1170113050170585 0 0 0 0 -11.785553362678911 22.502913568653639 0 22.502913568653639 -14.565941275383238 0 0 0 0 -11.084075130504061 18.149325252839617 0 18.149325252839617 -15.57413883319964 0 0 0 0 -11.319632260222988 21.784491662473442 0 21.784491662473442 -17.204843285683637 0 0 0 0 -11.326927021245865 17.071443859138526 0 17.071443859138526 -11.418715782841218 0 0 0 0 -36.754287338122595 25.653092132087977 0 25.653092132087977 -7.8569286628637656 0 0 0 0 -14.802369914140399 27.024053499280853 0 27.024053499280853 -20.432324906172198 0 0 0 0 30.753106336372184 12.376129032795006 0 12.376129032795006 -11.406166357951406 0 0 0 0 -0.057519942313759453 -0.14413058487154728 0 -0.14413058487154728 -0.26654877652550546 0 0 0 0 37.088441641447389 6.987571418866537 0 6.987571418866537 -8.7946718628372764 0 0 0 0 11.759611180770662 10.382090110153513 0 10.382090110153513 1.4369073537062604 0 0 0 0 29.004187791892946 3.0845899592981141 0 3.0845899592981141 -1.0588847662315857 0 0 0 0 1.2104291016580646 11.381269743925941 0 11.381269743925941 192.23355003081633 0 0 0 0 -3.4052169388792706 8.7560436971713891 0 8.7560436971713891 -4.0379104255122753 0 0 0 0 22.41019327867707 6.9644118798703403 0 6.9644118798703403 -2.5974774212572811 0 0 0 0 14.479343322076602 56.018193916176415 0 56.018193916176415 -12.093343415474465 0 0 0 0 89.821311163306291 10.395079448857416 0 10.395079448857416 -211.79590461020962 0 0 0 0 2.6392236174151549 12.06448125767588 0 12.06448125767588 -6.1089639746689954 0 0 0 0 19.208812830784609 40.576684012597184 0 40.576684012597184 -121.96248897774194 0 0 0 0 -11.604406618224857 20.301722542495554 0 20.301722542495554 -7.9572892990956916 0 0 0 0 18.265951328050392 40.996836449035754 0 40.996836449035754 -17.769537092842484 0 0 0 0 -20.709964294056363 1.2303945317454179 0 1.2303945317454179 -10.102819729346038 0 0 0 0 23.439801068071574 8.0037167922669141 0 8.0037167922669141 -59.567575965777223 0 0 0 0 -1.0835043030871123 0.46477882129097026 0 0.46477882129097026 -0.31485715765843114 0 0 0 0 -0.97238429302160512 27.640093390043148 0 27.640093390043148 63.059897432312482 0 0 0 0 28.058407156971043 -24.226440779706536 0 -24.226440779706536 -158.73526070313164 0 0 0 0 -7.9160377742477976 -24.504027251791172 0 -24.504027251791172 -104.90465338379636 0 0 0 0 6.9534602040885147 20.018851786807772 0 20.018851786807772 70.077169248488644 0 0 0 0 11.682276613611066 46.233251329651921 0 46.233251329651921 63.571145059643641 0 0 0 0 45.314875707137617 24.845016600233066 0 24.845016600233066 -3.9776957284284435 0 0 0 0 -7.4745905720540122 53.276422624203349 0 53.276422624203349 22.391938179266617 0 0 0 0 26.63288526503402 37.131229106202682 0 37.131229106202682 17.972675500867808 0 0 0 0 -0.38380737009606491 28.832225969891624 0 28.832225969891624 40.068308611604152 0 0 0 0 11.710211252296745 33.514459049700122 0 33.514459049700122 31.631834890623395 0 0 0 0 -3.3130507666371845 1.7060861233885589 0 1.7060861233885589 -0.48525784494487745 0 0 0 0 6.9573424593172604 26.382581506456518 0 26.382581506456518 30.562851748691628 0 0 0 0 15.917447641273611 22.195087331893774 0 22.195087331893774 48.47805678938721 0 0 0 0 11.387024780935462 37.722997096927429 0 37.722997096927429 24.171983151000973 0 0 0 0 19.224495807433414 26.979078322116038 0 26.979078322116038 22.476326518027236 0 0 0 0 21.296548439569051 19.087260858189211 0 19.087260858189211 32.460499550379609 0 0 0 0 10.964388754717788 30.38701748515831 0 30.38701748515831 35.339617804424051 0 0 0 0 21.169582121835447 36.35643873959998 0 36.35643873959998 12.824069596947993 0 0 0 0 13.163998277288556 32.583319123496494 0 32.583319123496494 12.48547874378437 0 0 0 0 -1.3921353202706026 2.2064487766572003 0 2.2064487766572003 -2.3775568839297145 0 0 0 0 10.224882338943644 14.870501348353173 0 14.870501348353173 -14.217084528583655 0 0 0 0 -16.760238972291972 30.674757572645603 0 30.674757572645603 41.673155385925838 0 0 0 0 -3.7363555866313618 18.102057701952162 0 18.102057701952162 -14.732540445816994 0 0 0 0 -1.8004451260176388 2.9384902696426591 0 2.9384902696426591 -0.14137813127299292 0 0 0 0 -0.96171984611232553 8.7176677938404161 0 8.7176677938404161 -5.1386046558786234 0 0 0 0 -1.5435995904372248 10.015821237923774 0 10.015821237923774 -6.5087360752331733 0 0 0 0 4.289203664711593 5.6202356937311659 0 5.6202356937311659 0.22910481685438899 0 0 0 0 -3.47110291293302 9.2507253711821704 0 9.2507253711821704 -2.9311734664424876 0 0 0 0 14.017730908517478 9.5301577621507931 0 9.5301577621507931 -4.2499077777104048 0 0 0 0 15.163500612979021 10.966560709721278 0 10.966560709721278 -2.4812840879285432 0 0 0 0 0.40401206934213196 1.3675899741691993 0 1.3675899741691993 -0.57447877280175419 0 0 0 0 31.407826887110787 49.667265288091926 0 49.667265288091926 45.064559302059934 0 0 0 0 10.459121644701554 8.5679450573770737 0 8.5679450573770737 -0.9970746855269681 0 0 0 0 -3.546734960946881 9.0995691187375733 0 9.0995691187375733 -1.0991118521013128 0 0 0 0 30.075189255224359 44.454585380815843 0 44.454585380815843 30.043409330869508 0 0 0 0 -13.267818472717408 32.453457639342105 0 32.453457639342105 -35.968801983748449 0 0 0 0 -9.1874378013544629 26.854969455349419 0 26.854969455349419 -35.054008523458037 0 0 0 0 -19.420363916755377 14.597662749953088 0 14.597662749953088 -3.9401004048386312 0 0 0 0 27.937726669828407 6.4665223195966064 0 6.4665223195966064 -3.8602422976900925 0 0 0 0 -51.241306826446817 41.409990467908301 0 41.409990467908301 -25.778063811419088 0 0 0 0 -0.02731905157691461 0.30918744637892459 0 0.30918744637892459 -0.35260271101084939 0 0 0 0 9.9329710914735188 7.1522780703733702 0 7.1522780703733702 -10.597931030837572 0 0 0 0 0.7233815164554156 1.2312160020071126 0 1.2312160020071126 -0.92382770315496643 0 0 0 0 -0.36788373980016331 7.4914409366679138 0 7.4914409366679138 -10.937959942988982 0 0 0 0 -0.0074829713430517586 17.321701898306401 0 17.321701898306401 -18.773966960357939 0 0 0 0 -0.0085366611432177979 11.654602425244647 0 11.654602425244647 6.762910118459331 0 0 0 0 0.066634226223072801 -0.23025262180857808 0 -0.23025262180857808 0.34832200158710425 0 0 0 0 -8.6935260798272793 14.837503068625438 0 14.837503068625438 -16.362255329546315 0 0 0 0 -0.056458278665431294 -0.12500326846960519 0 -0.12500326846960519 0.69838391225960139 0 0 0 0 0.009395990070158497 4.121182235683837 0 4.121182235683837 -2.4137872414576123 0 0 0 0 -5.097347922453082 2.3984768223181163 0 2.3984768223181163 8.3641630341867312 0 0 0 0 -6.2889473819905106 -4.8636849782037643 0 -4.8636849782037643 3.6737008301042238 0 0 0 0 4.9785242666773684 7.8765474656221386 0 7.8765474656221386 6.4609629801452684 0 0 0 0 2.0699451981268968 5.7050929046181089 0 5.7050929046181089 6.5599328729042234 0 0 0 0 0.064874709017690435 0.56412296476688795 0 0.56412296476688795 0.71543776740653442 0 0 0 0 4.935043195320759 6.4267409952844901 0 6.4267409952844901 2.3116274156736836 0 0 0 0 18.519219600544602 9.0223388677750336 0 9.0223388677750336 -6.8863816976368071 0 0 0 0 5.0885925707659112 4.7975555855507999 0 4.7975555855507999 3.2593138859768915 0 0 0 0 2.3404581222675915 11.340464176599653 0 11.340464176599653 8.6835160930306472 0 0 0 0 3.3419091549461442 5.5401666474791842 0 5.5401666474791842 5.0865620742404998 0 0 0 0 40.994493184725798 43.55018334102715 0 43.55018334102715 28.632446129249729 0 0 0 0 0.77013998508562054 4.103775478828215 0 4.103775478828215 1.4770695049916487 0 0 0 0 12.718574077947991 8.2285564957734216 0 8.2285564957734216 4.2093595286294452 0 0 0 0 6.6128487162975294 8.3250122212647142 0 8.3250122212647142 6.0035048094035766 0 0 0 0 -22.180088068716714 98.379048608011999 0 98.379048608011999 -60.088402820834744 0 0 0 0 -14.5129831741001 61.260104542568342 0 61.260104542568342 -21.100942654171376 0 0 0 0 65.983576088083282 89.685636898327175 0 89.685636898327175 -1.0572172402899014 0 0 0 0 45.636196382663911 35.515964753686603 0 35.515964753686603 -11.830461884645047 0 0 0 0 41.38783394332313 33.388918963351898 0 33.388918963351898 58.409385806240607 0 0 0 0 47.115376424577335 -6.6474088452787328 0 -6.6474088452787328 24.500665455343551 0 0 0 0 51.776448707762029 -9.2119577647263213 0 -9.2119577647263213 -6.5966384801795357 0 0 0 0 31.296139844806021 80.899317134277226 0 80.899317134277226 -71.656233504255397 0 0 0 0 73.97075802901054 2.636411903278713 0 2.636411903278713 -40.021277854681102 0 0 0 0 46.566169742038255 44.430382087195539 0 44.430382087195539 14.336874576008995 0 0 0 0 46.866181340126786 95.673873003459448 0 95.673873003459448 -44.731365218482097 0 0 0 0 4.6416031698609004 -12.969129812485335 0 -12.969129812485335 -45.877772414793071 0 0 0 0 0.44562322421413469 -0.42925756914085511 0 -0.42925756914085511 -0.89896527197584675 0 0 0 0 94.499334663862101 54.393681110288526 0 54.393681110288526 -46.272062543699576 0 0 0 0 66.61799018655438 9.2098772144017857 0 9.2098772144017857 -77.80044971643656 0 0 0 0 66.042616961589374 28.844423017111694 0 28.844423017111694 -48.473652795772068 0 0 0 0 -1.2098623917045188 28.819743278362239 0 28.819743278362239 -27.797648042995206 0 0 0 0 18.503061008597783 9.744679246735604 0 9.744679246735604 1.9904243883388428 0 0 0 0 29.768689616121264 13.693047610336976 0 13.693047610336976 -8.9819503351181993 0 0 0 0 5.6806922539119888 1.9551472902310216 0 1.9551472902310216 -2.8586445972940631 0 0 0 0 -0.11692510076682083 17.75459363254231 0 17.75459363254231 -6.9781212756961395 0 0 0 0 1.296847228316615 1.2220003905106189 0 1.2220003905106189 -0.61985060644132872 0 0 0 0 -3.6060904003934411 -3.526721002803697 0 -3.526721002803697 10.244663264746123 0 0 0 0 0.37565557555269891 0.27490914646935849 0 0.27490914646935849 -0.015417955256118887 0 0 0 0 74.037075066175021 -11.792372509133656 0 -11.792372509133656 -18.63560051902391 0 0 0 0 -5.4983932505092525 19.253028077540421 0 19.253028077540421 8.9369657275383361 0 0 0 0 28.271226795221082 18.349002522314549 0 18.349002522314549 -42.56640035469627 0 0 0 0 33.364772192886448 35.44282291043055 0 35.44282291043055 7.4030403629034822 0 0 0 0 51.999517771124374 12.009760943732999 0 12.009760943732999 -31.544852583780084 0 0 0 0 21.438902709996 30.524967326054593 0 30.524967326054593 14.943571512340895 0 0 0 0 24.630300840777636 1.2226716466675498 0 1.2226716466675498 5.8150070262324789 0 0 0 0 9.8811300247456177 11.09097275417164 0 11.09097275417164 -6.7636225681048252 0 0 0 0 13.739253700298832 16.997349361304259 0 16.997349361304259 -4.2873755923146746 0 0 0 0 -12.777162961197973 40.657134707012119 0 40.657134707012119 -13.35517372920549 0 0 0 0 2.8533285677947653 4.1298011401941679 0 4.1298011401941679 -1.9870811094372378 0 0 0 0 -10.089457982686326 18.082465866612438 0 18.082465866612438 -15.423489381629338 0 0 0 0 6.6228651927091953 6.734223825167069 0 6.734223825167069 -8.5517371621407108 0 0 0 0 -8.1528630526422745 11.982945248491113 0 11.982945248491113 3.6527301743881804 0 0 0 0 -1.2292045382928336 19.585508299936009 0 19.585508299936009 -24.249778336110467 0 0 0 0 15.568804991149591 15.745944993236435 0 15.745944993236435 -9.2418078051305201 0 0 0 0 3.8232742387933296 4.0917089412170871 0 4.0917089412170871 -4.021778869919828 0 0 0 0 33.883941651671194 6.3676677455569006 0 6.3676677455569006 -56.454376377999324 0 0 0 0 -0.91293021594174206 -31.066979383072066 0 -31.066979383072066 -8.7450698072400428 0 0 0 0 -14.844605286745718 67.850946655488769 0 67.850946655488769 -39.325782443338539 0 0 0 0 4.7767153769665995 3.0995135848275455 0 3.0995135848275455 -9.7089611402831792 0 0 0 0 -3.1446753650056962 12.404256183401912 0 12.404256183401912 -14.002645619170835 0 0 0 0 -3.0652866409827766 11.619287992925592 0 11.619287992925592 -12.075940650136545 0 0 0 0 4.1980567754535514 13.669622596325326 0 13.669622596325326 -11.611423006088444 0 0 0 0 -2.6964793625224956 15.998823699679861 0 15.998823699679861 -10.526916255506876 0 0 0 0 -4.6273560628906125 11.655693879446517 0 11.655693879446517 -12.933460985863348 0 0 0 0 -0.066951043645985919 14.589704000570009 0 14.589704000570009 -11.648401622680467 0 0 0 0 -3.1976535359467562 14.651797914794997 0 14.651797914794997 -8.2771499566233615 0 0 0 0 -3.0933957942697816 16.000265337811015 0 16.000265337811015 -10.006635728698711 0 0 0 0 0.45437440269324725 14.936471125495245 0 14.936471125495245 -10.671539716174379 0 0 0 0 0.49416627665868873 16.809261312154376 0 16.809261312154376 -17.456168701266506 0 0 0 0 2.5170381420179808 8.0325888819466442 0 8.0325888819466442 2.9372910987386223 0 0 0 0 -1.1465245740014325 14.643129080953941 0 14.643129080953941 -7.4146204127582678 0 0 0 0 5.8812219775479662 -24.554356715156302 0 -24.554356715156302 12.279104284995356 0 0 0 0 -5.4791477923099592 0.35190006076686586 0 0.35190006076686586 -29.414177693883971 0 0 0 0 3.0870524488420017 6.9873031065650117 0 6.9873031065650117 3.5563739015588194 0 0 0 0 34.463632884408071 62.385122975003014 0 62.385122975003014 -17.699988404394389 0 0 0 0 -58.232748262474161 52.407698196175488 0 52.407698196175488 -18.147588094208459 0 0 0 0 0.50362419822067217 0.54934792156540446 0 0.54934792156540446 0.25735487507315469 0 0 0 0 2.8456166705690755 2.781443413865178 0 2.781443413865178 1.4580443285894038 0 0 0 0 78.065083535474514 45.865902126330184 0 45.865902126330184 12.672930579527385 0 0 0 0 -49.52603205876494 49.85405347496183 0 49.85405347496183 -12.702138715671936 0 0 0 0 -1.3033197514680523 52.021383557611131 0 52.021383557611131 -31.800814204685139 0 0 0 0 -54.563691172501422 3.6017733912215135 0 3.6017733912215135 14.861992505529543 0 0 0 0 121.2422556155343 -85.64823960488485 0 -85.64823960488485 -6.1037718365109868 0 0 0 0 -68.704045088879866 58.018649597795957 0 58.018649597795957 -10.077915890678014 0 0 0 0 2.7713734986754286 2.9001934823545064 0 2.9001934823545064 1.3579898516603741 0 0 0 0 -1.5914012539888063 43.455437639242746 0 43.455437639242746 -38.742613199750394 0 0 0 0 104.15692728224894 -2.1497245107245817 0 -2.1497245107245817 23.89652388604253 0 0 0 0 -65.927413395158283 21.692688933731944 0 21.692688933731944 13.435978987549333 0 0 0 0 13.643513259225983 -3.177623455126195 0 -3.177623455126195 -25.459396603757341 0 0 0 0 9.0062632680103025 10.546519582113778 0 10.546519582113778 -4.7737213145575694 0 0 0 0 -9.8744259335508104 26.178365956749076 0 26.178365956749076 -14.518215605156911 0 0 0 0 -0.83308148376727331 20.293831635418542 0 20.293831635418542 -12.22293558744559 0 0 0 0 -11.604140042092695 27.411562955946465 0 27.411562955946465 -13.93258981340125 0 0 0 0 -4.1070073877817777 33.699787966539361 0 33.699787966539361 -19.546774417419215 0 0 0 0 8.7492721109940952 10.024471182285449 0 10.024471182285449 -5.4977515158042038 0 0 0 0 2.8892924182673596 17.959080234604016 0 17.959080234604016 -14.705210017228865 0 0 0 0 10.931247164024171 6.1891971406518564 0 6.1891971406518564 -28.881451803151322 0 0 0 0 -40.192871158644039 -3.1342570624452435 0 -3.1342570624452435 -3.5687930632520874 0 0 0 0 11.722027607051245 11.007879929228977 0 11.007879929228977 -9.4995255998346693 0 0 0 0 25.269705470258486 19.734437600890033 0 19.734437600890033 -25.62496470802148 0 0 0 0 12.55119352962447 17.82404792169757 0 17.82404792169757 -14.359040367508896 0 0 0 0 19.654185148330725 27.501316387787028 0 27.501316387787028 -26.708286286424482 0 0 0 0 -0.89475104842131259 55.69791954515722 0 55.69791954515722 -41.803596489698066 0 0 0 0 24.19232327310965 30.090454938798985 0 30.090454938798985 -30.434789163306959 0 0 0 0 6.7952012265177473 40.975797871944678 0 40.975797871944678 -31.021386079933265 0 0 0 0 -1.1929887932647034 34.90893704275868 0 34.90893704275868 -26.460083201650377 0 0 0 0 11.162557605219263 27.445110906770196 0 27.445110906770196 -22.404052932658942 0 0 0 0 5.0435468359432889 30.841375594331396 0 30.841375594331396 -23.598155526163737 0 0 0 0 0.37360549186632852 33.55753995068153 0 33.55753995068153 -20.047207275589926 0 0 0 0 1.4579610987866545 36.594075990991087 0 36.594075990991087 -23.141372342200611 0 0 0 0 1.9520401835252414 35.639353783935121 0 35.639353783935121 -21.299261246846072 0 0 0 0 -2.6992326795570989 37.953474862365965 0 37.953474862365965 -23.583307569335375 0 0 0 0 -0.81058221354214766 36.690725410461027 0 36.690725410461027 -20.333488546635181 0 0 0 0 -0.16653854608921392 33.822138718475799 0 33.822138718475799 -22.024490570687476 0 0 0 0 -0.96822664440333028 32.839395187020727 0 32.839395187020727 -28.051505461450233 0 0 0 0 -0.0061576788557431428 35.427910638252342 0 35.427910638252342 -23.555354998974963 0 0 0 0 -10.369083354480608 29.44364193927413 0 29.44364193927413 -28.570227599594432 0 0 0 0 -4.357682155978182 37.311341153074864 0 37.311341153074864 -28.102655906454402 0 0 0 0 -23.784731923362415 26.461383163696155 0 26.461383163696155 -32.913626117730018 0 0 0 0 -10.319579532899525 37.29328717744599 0 37.29328717744599 -51.310703488687068 0 0 0 0 -0.0022164080078271894 29.570173461474347 0 29.570173461474347 -38.196282651504589 0 0 0 0 8.0351821596432274 28.10345389978113 0 28.10345389978113 -7.0454906807883049 0 0 0 0 -0.73985922881911392 33.906069085549802 0 33.906069085549802 -9.3364235862006808 0 0 0 0 0.006349804215453639 35.201957906999922 0 35.201957906999922 -13.824168028341774 0 0 0 0 0.56739402013408835 33.198832184673165 0 33.198832184673165 -15.283565752597724 0 0 0 0 0.00024006091416793498 35.549121258687087 0 35.549121258687087 -18.931131650427687 0 0 0 0 0.53310326426253596 35.221198326082458 0 35.221198326082458 -19.094349720996433 0 0 0 0 3.3417422641869052 32.506125424797801 0 32.506125424797801 -15.784827051992693 0 0 0 0 1.1036508709214559 35.922355254799882 0 35.922355254799882 -18.568533537732492 0 0 0 0 1.2556865094284149 36.014709671857645 0 36.014709671857645 -21.395570672427368 0 0 0 0 -0.62031553994893329 37.006976742627785 0 37.006976742627785 -19.07315011216815 0 0 0 0 -1.6450046308709716 34.523326616702775 0 34.523326616702775 -18.382451441141484 0 0 0 0 1.2374115812708624 37.575165361053223 0 37.575165361053223 -15.284214075825275 0 0 0 0 0.70627250084362458 34.031467947001488 0 34.031467947001488 -5.791095913771187 0 0 0 0 3.2248405720802111 32.704925282356157 0 32.704925282356157 -14.247772374917957 0 0 0 0 -3.3148948649522936 36.452945282931296 0 36.452945282931296 -8.8058040859709763 0 0 0 0 -3.8347488946956219 34.278019511977732 0 34.278019511977732 -16.123352702559941 0 0 0 0 -12.960588927095159 34.683438391797381 0 34.683438391797381 -10.071776629405349 0 0 0 0 -12.471968831374397 35.16352930398557 0 35.16352930398557 -16.337216613067085 0 0 0 0 -20.01012346400239 34.112659709709988 0 34.112659709709988 -14.647843721235574 0 0 0 0 -10.38873629135378 34.381440801828148 0 34.381440801828148 -18.152045669117342 0 0 0 0 -16.413355470240276 38.427541929009408 0 38.427541929009408 -16.345936279294165 0 0 0 0 -19.29159962101221 37.747153342967863 0 37.747153342967863 -17.359767623458083 0 0 0 0 -9.7930257896659896 36.098988978869556 0 36.098988978869556 -14.090702384074461 0 0 0 0 -9.9901471815355762 34.079437348601232 0 34.079437348601232 -17.234676825951283 0 0 0 0 -3.3042159869146417 38.167733695012203 0 38.167733695012203 -18.501508410144424 0 0 0 0 -5.1144495958733387 34.854776543781668 0 34.854776543781668 -18.712060218402712 0 0 0 0 -22.617353508245287 29.895185705221138 0 29.895185705221138 -12.899201763387282 0 0 0 0 -17.793872389454918 35.496297504690801 0 35.496297504690801 -15.799564074996852 0 0 0 0 -11.110758050045661 36.183920301821274 0 36.183920301821274 -17.86158492749837 0 0 0 0 -28.478383188601583 31.297431732641371 0 31.297431732641371 -13.090272370123785 0 0 0 0 -25.555139933435385 33.728376364729627 0 33.728376364729627 -13.550757598283781 0 0 0 0 -1.2510684172393667 -7.2344745196295435 0 -7.2344745196295435 -12.243211368520178 0 0 0 0 -16.814813533309916 32.738664834832548 0 32.738664834832548 -38.680268000005981 0 0 0 0 9.236221298857469 10.837831741539803 0 10.837831741539803 -2.7144648810614855 0 0 0 0 -49.547993899359426 34.421181206318806 0 34.421181206318806 -10.077329493122306 0 0 0 0 -43.809667939971405 43.750282313876255 0 43.750282313876255 -15.327412386263859 0 0 0 0 2.635714119336626 16.755538181998872 0 16.755538181998872 -2.2888793517142858 0 0 0 0 7.911735521427147 12.739412455620453 0 12.739412455620453 -0.85326186360770429 0 0 0 0 -38.800587807687407 34.534913769645527 0 34.534913769645527 -11.327417675411652 0 0 0 0 -25.240991568345635 38.887152116464335 0 38.887152116464335 -18.436125813559556 0 0 0 0 -22.413586146121816 34.622218755686845 0 34.622218755686845 -15.933529253484835 0 0 0 0 -26.357136279555561 34.875631790104308 0 34.875631790104308 -17.204000507060755 0 0 0 0 -31.701878630643478 38.875044758785634 0 38.875044758785634 -17.539418805785317 0 0 0 0 -19.816534200017486 36.070268856798748 0 36.070268856798748 -19.130030921522575 0 0 0 0 -29.7233731607339 34.299138979372628 0 34.299138979372628 -17.93272440576493 0 0 0 0 -27.081015871790441 37.260118500310341 0 37.260118500310341 -14.956069910370388 0 0 0 0 -40.062522043778699 39.091796591466164 0 39.091796591466164 -18.996563553157102 0 0 0 0 -32.931018641393166 37.49752078883148 0 37.49752078883148 -17.732724952068111 0 0 0 0 -40.666159698841511 37.326243928403528 0 37.326243928403528 -15.971653078977397 0 0 0 0 -54.02653577462479 53.759888002255593 0 53.759888002255593 -30.184157124129342 0 0 0 0 -42.482008971930554 34.320930386654936 0 34.320930386654936 -18.390058879488606 0 0 0 0 4.7966596652858584 6.3709653327970983 0 6.3709653327970983 -4.1120636702821862 0 0 0 0 -32.994763886534201 36.628658930549591 0 36.628658930549591 -21.420972509032254 0 0 0 0 -32.043036954222771 34.364859441604608 0 34.364859441604608 -14.205004866372178 0 0 0 0 -31.205602083689882 35.504776873598985 0 35.504776873598985 -12.977746883937357 0 0 0 0 -29.721684053237368 35.293278297642075 0 35.293278297642075 -17.113154513824156 0 0 0 0 -28.99795341193294 37.116485854583203 0 37.116485854583203 -14.049927818218521 0 0 0 0 -21.481035399643588 33.109205155928294 0 33.109205155928294 -16.681065869997212 0 0 0 0 -20.647590811254986 32.680619856801698 0 32.680619856801698 -17.291661738816629 0 0 0 0 -19.550582132811542 28.278231955863816 0 28.278231955863816 -14.253981117929982 0 0 0 0 -2.763360850753088 39.089606831655203 0 39.089606831655203 -17.032095663556674 0 0 0 0 -31.971624753336982 40.5738511994536 0 40.5738511994536 -17.059203644314152 0 0 0 0 4.3245008166181833 84.057456463956242 0 84.057456463956242 14.396881867199568 0 0 0 0 -11.882951264840813 31.427026583450129 0 31.427026583450129 -22.783779623832544 0 0 0 0 21.103309167530824 48.474135212489657 0 48.474135212489657 -29.647063493735345 0 0 0 0 7.8351609315104724 30.460240901802479 0 30.460240901802479 -53.805050893695892 0 0 0 0 0.49780692320722864 -0.048481516807669323 0 -0.048481516807669323 -0.039484332092982383 0 0 0 0 -8.922358670797621 15.815521881028928 0 15.815521881028928 -34.480180694681763 0 0 0 0 -8.8126872692337201 24.312921458359597 0 24.312921458359597 -17.764231738370427 0 0 0 0 -16.605310079761011 27.114544513075945 0 27.114544513075945 -18.760976986021205 0 0 0 0 -16.637410402983932 24.805252665855072 0 24.805252665855072 -8.292805248227296 0 0 0 0 -7.7876719068053717 -9.6557186738639444 0 -9.6557186738639444 -2.0374330745615907 0 0 0 0 0.7978685593667123 0.046789053390365432 0 0.046789053390365432 -0.020112123080076205 0 0 0 0 -9.273378002581012 12.917540357923286 0 12.917540357923286 -16.877889878707535 0 0 0 0 -8.4931119152915926 15.528989351076731 0 15.528989351076731 -8.580807359995049 0 0 0 0 -0.73001215830799993 7.6142982677863813 0 7.6142982677863813 2.7893837596135427 0 0 0 0 -7.6082582986921352 19.789281328092546 0 19.789281328092546 12.100325416836995 0 0 0 0 -1.6352958103052515 11.384158257762579 0 11.384158257762579 -6.9884479991021635 0 0 0 0 -8.1052908048295649 24.514649676309887 0 24.514649676309887 -6.4446497265661229 0 0 0 0 -6.1853647621092023 25.724058536675074 0 25.724058536675074 -3.0611675961476976 0 0 0 0 -7.0798479364821105 30.151407395939941 0 30.151407395939941 -9.8042742661142483 0 0 0 0 -13.019936573620726 26.6437092346398 0 26.6437092346398 -13.218032557764673 0 0 0 0 -12.850704343063626 24.160020940621962 0 24.160020940621962 -1.9779849910671601 0 0 0 0 -19.438501269029075 26.9420863429294 0 26.9420863429294 -8.419267971525187 0 0 0 0 -21.920409313222081 32.585618693379075 0 32.585618693379075 -10.936644959776004 0 0 0 0 -14.516137397261446 31.032925679764347 0 31.032925679764347 -6.5459378473442484 0 0 0 0 -14.111527825582016 32.948492374489774 0 32.948492374489774 -13.546792196485853 0 0 0 0 -6.9405565994784411 31.661011446695284 0 31.661011446695284 -12.306021928705036 0 0 0 0 -5.9620843527645775 34.49395032323423 0 34.49395032323423 -4.8246688596379954 0 0 0 0 0.99416899130119418 35.316688505231298 0 35.316688505231298 0.79541582165302316 0 0 0 0 -0.44683202272790368 30.577117989195244 0 30.577117989195244 -9.2937592680297598 0 0 0 0 8.4054515666430234 27.212869350472658 0 27.212869350472658 -3.3003414458992211 0 0 0 0 4.630771983993327 32.783122896796613 0 32.783122896796613 19.82899635672311 0 0 0 0 -1.2982026884983497 29.864582182837239 0 29.864582182837239 0.40652345266903467 0 0 0 0 0.40369046512569184 23.165225833397301 0 23.165225833397301 4.70847279456558 0 0 0 0 -3.0811200290509078 11.206267609834981 0 11.206267609834981 21.097994705001497 0 0 0 0 -4.1393165528843383 9.8144108288349727 0 9.8144108288349727 -8.2683519845118383 0 0 0 0 0.53568572884993415 -0.039921161428803309 0 -0.039921161428803309 -0.025064293955695649 0 0 0 0 0.27049644294600483 -0.22906135907818159 0 -0.22906135907818159 -0.068653962062275364 0 0 0 0 1.5254199671790047 19.153071311669919 0 19.153071311669919 -30.711691688343194 0 0 0 0 -4.8786673395679827 15.349344351662197 0 15.349344351662197 78.490036542219855 0 0 0 0 3.5543681720955647 5.7616739973631184 0 5.7616739973631184 22.183770617347136 0 0 0 0 10.273488156175517 36.687260772308662 0 36.687260772308662 33.756926888722091 0 0 0 0 3.6007044938232866 28.608290407209068 0 28.608290407209068 9.0196949614304955 0 0 0 0 0.0037288542553142179 29.053741593173935 0 29.053741593173935 20.568556058486799 0 0 0 0 8.0814347117084253 21.446717673920602 0 21.446717673920602 22.940861251035102 0 0 0 0 -0.00012610995145223569 27.968341877956846 0 27.968341877956846 18.86262188408341 0 0 0 0 7.6147139129770949 21.199240552865263 0 21.199240552865263 13.142925530589423 0 0 0 0 9.6187643740554449 19.67734225482063 0 19.67734225482063 16.494673051684231 0 0 0 0 5.5440715613331122 31.204957636925428 0 31.204957636925428 5.5060051304943727 0 0 0 0 0.0041101089063632322 32.239293613980628 0 32.239293613980628 0.63411047956037692 0 0 0 0 16.766000182303287 15.600206893037011 0 15.600206893037011 -8.6788624775576864 0 0 0 0 -2.5463709017326224 3.3617894107315482 0 3.3617894107315482 -4.3528554744186589 0 0 0 0 93.963508638784333 72.117497107013605 0 72.117497107013605 29.317685246304336 0 0 0 0 14.449004615199783 23.388346394443062 0 23.388346394443062 2.0243771573659615 0 0 0 0 3.533504951346913 10.313470914004029 0 10.313470914004029 0.69749311375858269 0 0 0 0 -9.1450980774452546 -7.4106711883760568 0 -7.4106711883760568 47.342974755862087 0 0 0 0 -12.094905143981123 2.3211591676550825 0 2.3211591676550825 15.731172143056028 0 0 0 0 43.020430204992408 25.321387698448689 0 25.321387698448689 5.3830329012677112 0 0 0 0 -35.209683745102666 -37.347764715708081 0 -37.347764715708081 20.475906097477491 0 0 0 0 71.265350183474766 61.3683179847676 0 61.3683179847676 39.009363640733 0 0 0 0 69.991553129176282 39.295183555527274 0 39.295183555527274 24.749381269513151 0 0 0 0 79.382009634064161 46.569710371787551 0 46.569710371787551 20.434024631217198 0 0 0 0 59.322308822836931 40.740023721265288 0 40.740023721265288 13.224809721634301 0 0 0 0 77.827046906337273 43.716454507730305 0 43.716454507730305 7.646666000706773 0 0 0 0 51.882363432180227 26.684817426230211 0 26.684817426230211 -11.225757471474935 0 0 0 0 63.140287970701593 39.595977859771665 0 39.595977859771665 -6.6997023220378651 0 0 0 0 56.062041720203069 52.584559540051941 0 52.584559540051941 1.6097118289421815 0 0 0 0 62.241830293507064 44.306497844859678 0 44.306497844859678 12.337128433985072 0 0 0 0 60.82037296017279 69.676381117190431 0 69.676381117190431 24.194989187901911 0 0 0 0 72.608301660794496 60.67005535044882 0 60.67005535044882 20.683609765360643 0 0 0 0 84.947871945854786 49.468188952069113 0 49.468188952069113 30.843777331098408 0 0 0 0 68.80105411290242 72.096089121315345 0 72.096089121315345 58.994958902354938 0 0 0 0 12.989804986022136 14.471482492770036 0 14.471482492770036 -0.10764177411033415 0 0 0 0 88.422181220498715 89.011309568279557 0 89.011309568279557 40.440460947967722 0 0 0 0 -3.3266281346305853 4.8696178094668401 0 4.8696178094668401 -3.1568807912048014 0 0 0 0 71.437052396001491 63.905592704816172 0 63.905592704816172 25.80279152078765 0 0 0 0 70.398289925051358 79.546872422021806 0 79.546872422021806 39.305560171117122 0 0 0 0 93.710960267640075 68.095303022201733 0 68.095303022201733 28.945469398014211 0 0 0 0 61.717265944921792 62.071883453166834 0 62.071883453166834 37.616647110565282 0 0 0 0 57.211345825782701 70.033629155561357 0 70.033629155561357 38.349805161933546 0 0 0 0 -0.18296143850693003 7.8303420609229653 0 7.8303420609229653 -15.7117588559796 0 0 0 0 54.760352446925026 61.115826333768382 0 61.115826333768382 45.783917834978638 0 0 0 0 46.94236347390688 70.702796508153369 0 70.702796508153369 41.619231965165 0 0 0 0 80.278041185786606 57.038507962010044 0 57.038507962010044 40.620543551017363 0 0 0 0 6.2302585591848505 5.2708260396618662 0 5.2708260396618662 -6.9834275600858469 0 0 0 0 -4.2962558108911253 16.103245874493041 0 16.103245874493041 19.331001016473238 0 0 0 0 -1.8371372610271521 17.372598918928617 0 17.372598918928617 8.1255029119488427 0 0 0 0 0.76117376608544873 10.699982510662494 0 10.699982510662494 7.5303885113044089 0 0 0 0 -3.1816606360830519 -2.6704414101329803 0 -2.6704414101329803 39.297787524134264 0 0 0 0 30.85937877686456 5.2535982556789236 0 5.2535982556789236 1.2424236799672599 0 0 0 0 9.1606909728161554 5.5438213458080554 0 5.5438213458080554 5.0944714499991051 0 0 0 0 10.804179424647373 9.1970152528275548 0 9.1970152528275548 -10.263010935364491 0 0 0 0 8.7329863047804146 6.0056199809670927 0 6.0056199809670927 -5.9055521087752201 0 0 0 0 -6.4688764072806784 11.143419803925408 0 11.143419803925408 -5.7263839167953119 0 0 0 0 0.0856469377886242 15.620034836580999 0 15.620034836580999 0.28201791298397438 0 0 0 0 -12.25058114080116 19.262184372398394 0 19.262184372398394 10.763544855369219 0 0 0 0 -0.30663591273731861 3.6355551792945375 0 3.6355551792945375 1.3396403685861733 0 0 0 0 -3.3838275695567095 10.691708713727841 0 10.691708713727841 -4.5645545009901873 0 0 0 0 14.674574549866065 27.661016251556703 0 27.661016251556703 -12.642424331495022 0 0 0 0 0.78603796247989521 34.498670192863301 0 34.498670192863301 -12.921269863711132 0 0 0 0 -16.437011044042265 21.362970651195496 0 21.362970651195496 -0.19057636445586468 0 0 0 0 -11.375434386856796 17.0400886230791 0 17.0400886230791 -13.005436380065703 0 0 0 0 -7.9707234338643502 23.126088855082031 0 23.126088855082031 -3.2835754872194229 0 0 0 0 -6.3148325436307005 11.569083643101379 0 11.569083643101379 -3.002478539441654 0 0 0 0 -12.400279305696131 18.753231732971699 0 18.753231732971699 -10.650365859051817 0 0 0 0 -7.9748014897795656 16.170682419073273 0 16.170682419073273 -10.662010995831071 0 0 0 0 -6.7871157082681748 16.030137546214974 0 16.030137546214974 1.7048385911925834 0 0 0 0 -2.932221380205192 13.075097340196521 0 13.075097340196521 3.3872152934550286 0 0 0 0 -2.0515673357216642 3.8581881861366849 0 3.8581881861366849 2.4090002965057167 0 0 0 0 13.117377785743884 19.934823389440453 0 19.934823389440453 -3.9421376747668546 0 0 0 0 -18.383823500635117 22.96499203643134 0 22.96499203643134 5.846487556886359 0 0 0 0 137.87427697838029 -41.542346295558445 0 -41.542346295558445 83.580613207283022 0 0 0 0 2.0228226735647041 2.4235496597258148 0 2.4235496597258148 2.4002886318994872 0 0 0 0 129.8190686790058 -135.21156377732927 0 -135.21156377732927 -41.335074260371584 0 0 0 0 -17.676188039081353 15.635058086785193 0 15.635058086785193 -5.375633259193819 0 0 0 0 -11.706672273391177 10.009832318910071 0 10.009832318910071 -0.91629304381876864 0 0 0 0 1.7576457292463594 4.4074973006770772 0 4.4074973006770772 2.0586255174341908 0 0 0 0 0.71708529896737616 0.63745781632124299 0 0.63745781632124299 0.30317557023766373 0 0 0 0 172.69672749044275 76.522642024186496 0 76.522642024186496 61.969613938082148 0 0 0 0 -4.6571412004941521 10.854204425187163 0 10.854204425187163 -0.99373745446303019 0 0 0 0 -30.865806096249798 12.823637695068555 0 12.823637695068555 10.107573105905345 0 0 0 0 -74.615680507644356 57.418701061944489 0 57.418701061944489 11.548374904423326 0 0 0 0 -32.091325340637923 57.887262573318139 0 57.887262573318139 5.2938634102931701 0 0 0 0 -61.512131339701227 20.301851653784752 0 20.301851653784752 10.688014751141509 0 0 0 0 11.951566460375034 58.148623718419685 0 58.148623718419685 -0.19626265564261303 0 0 0 0 -8.3864607396226347 35.628605921953294 0 35.628605921953294 -25.007446315638845 0 0 0 0 -1.5606478476565186 9.3271222986991109 0 9.3271222986991109 -4.4416563751964118 0 0 0 0 98.251548233210997 -34.016726678334066 0 -34.016726678334066 -90.2484017877523 0 0 0 0 -5.050560698834488 6.4407842184000792 0 6.4407842184000792 -2.12650504818986 0 0 0 0 -4.1339113096382789 6.4457071243458586 0 6.4457071243458586 6.2659805483727382 0 0 0 0 -10.240296572046191 21.014153633258104 0 21.014153633258104 5.9507821602676358 0 0 0 0 -13.59775096629528 22.832848142595594 0 22.832848142595594 7.6998266988246229 0 0 0 0 -12.334312531316755 29.043652877542712 0 29.043652877542712 0.97114809938345559 0 0 0 0 -10.397771308595111 16.833360532192387 0 16.833360532192387 15.985493431978909 0 0 0 0 -4.6451981717236777 18.831081272389468 0 18.831081272389468 3.1505103963546617 0 0 0 0 -2.002996214067025 23.96596444166638 0 23.96596444166638 -4.4993790026442539 0 0 0 0 -41.857962326085726 42.217407737748658 0 42.217407737748658 -15.564779233818172 0 0 0 0 11.741171694529601 12.89150003476785 0 12.89150003476785 -7.143333756225462 0 0 0 0 -4.4997075450478405 19.626137643721933 0 19.626137643721933 -8.9279784079969886 0 0 0 0 -2.3644805047714801 4.5234651302459596 0 4.5234651302459596 -3.3909177025626063 0 0 0 0 37.998065719377792 72.077027693910281 0 72.077027693910281 61.592050098903655 0 0 0 0 2.1190909560573346 12.560785457555653 0 12.560785457555653 2.9354215404536035 0 0 0 0 -0.41756300345039321 7.0653916350848842 0 7.0653916350848842 -5.4224698158422688 0 0 0 0 5.4246253848887136 8.4223980603748032 0 8.4223980603748032 -7.6266780738164073 0 0 0 0 -3.0068244214462538 2.1381793132527491 0 2.1381793132527491 22.656202251507125 0 0 0 0 -0.46964072316476013 2.5553696214885822 0 2.5553696214885822 -1.5838711445800953 0 0 0 0 -32.67255001202102 25.003794161647846 0 25.003794161647846 31.490927795792459 0 0 0 0 -11.311974469073903 22.247376487277037 0 22.247376487277037 44.327764413849081 0 0 0 0 -28.386811916849183 9.3567178111868259 0 9.3567178111868259 -3.5178062504266272 0 0 0 0 3.6020916735797073 -31.878921189652175 0 -31.878921189652175 -33.75636812839673 0 0 0 0 34.799737228462618 37.23201792785062 0 37.23201792785062 0.089895305772870415 0 0 0 0 56.12414506167579 -12.728538506230052 0 -12.728538506230052 -44.471499399432105 0 0 0 0 -199.41034370809939 -39.407505462342215 0 -39.407505462342215 132.93701852014891 0 0 0 0 -133.40632575943528 27.771273754622825 0 27.771273754622825 146.44614157263459 0 0 0 0 -32.813514734645651 -21.038390503338178 0 -21.038390503338178 52.719945044551423 0 0 0 0 -152.98666316715389 -116.71501109770588 0 -116.71501109770588 6.5218339101821812 0 0 0 0 -131.41434141163847 39.600710589546274 0 39.600710589546274 25.696909053684521 0 0 0 0 25.375588970387071 -64.06479373983916 0 -64.06479373983916 -159.1667564226658 0 0 0 0 -69.109762363102163 -10.915799774414609 0 -10.915799774414609 -3.9266408246714235 0 0 0 0 244.22814246052667 72.094604466105579 0 72.094604466105579 -166.03249444267101 0 0 0 0 -0.49358879502756903 1.6802398578108981 0 1.6802398578108981 -3.4648460150493205 0 0 0 0 -48.766974433016912 32.923497305114111 0 32.923497305114111 -16.272514350982355 0 0 0 0 170.34858987745247 17.785472108113883 0 17.785472108113883 61.643342803121115 0 0 0 0 -1.4210910506400971 1.0728567940752125 0 1.0728567940752125 -2.5917010521072354 0 0 0 0 -132.08908107441584 -51.615212788920928 0 -51.615212788920928 41.828721225917832 0 0 0 0 -28.646677391621779 19.854911731068654 0 19.854911731068654 -59.944819747745271 0 0 0 0 53.026190465298896 51.257543812846507 0 51.257543812846507 -31.104466157037564 0 0 0 0 -171.86543675032044 41.179344789531882 0 41.179344789531882 37.668015088377842 0 0 0 0 -134.04204973509786 79.563860533433171 0 79.563860533433171 31.000273397643468 0 0 0 0 -190.93598330403074 93.756711815268545 0 93.756711815268545 51.450792891203491 0 0 0 0 -0.67777870070738544 1.0367360643057237 0 1.0367360643057237 -1.4821860552043846 0 0 0 0 -34.428398767921863 40.598006103675147 0 40.598006103675147 -19.610711344549145 0 0 0 0 -10.892746823225025 23.82726595908975 0 23.82726595908975 -3.2914958035179396 0 0 0 0 -3.9880420254139608 28.451662991516919 0 28.451662991516919 -7.9706110950922948 0 0 0 0 -14.709328658463164 29.977129365081581 0 29.977129365081581 -7.0864065041113804 0 0 0 0 -11.487201738851581 30.751855789480061 0 30.751855789480061 -27.836550229781267 0 0 0 0 -36.366529930097386 16.354916855273594 0 16.354916855273594 -11.348606963324903 0 0 0 0 1.6345635616726213 42.443362046971544 0 42.443362046971544 -15.684033420162677 0 0 0 0 17.620980780027821 11.628314302979305 0 11.628314302979305 -23.551054638280249 0 0 0 0 -26.883322165725986 11.100671668190095 0 11.100671668190095 -17.358399390707007 0 0 0 0 -29.952086766878892 43.625377482790157 0 43.625377482790157 -14.647903733672024 0 0 0 0 11.339355010009601 13.630615635033063 0 13.630615635033063 -3.147288431312155 0 0 0 0 -52.978002872798243 42.114373882783923 0 42.114373882783923 -12.129018773909763 0 0 0 0 -55.575696362655435 37.85730086529756 0 37.85730086529756 -7.2988459227931912 0 0 0 0 -123.5367187344491 -0.42371939053180085 0 -0.42371939053180085 120.39872324605795 0 0 0 0 10.402168937012711 16.031425976187403 0 16.031425976187403 0.4967865501413935 0 0 0 0 182.42757188847827 74.891173473042954 0 74.891173473042954 -271.82348449152551 0 0 0 0 -84.834240921527453 16.124326980133631 0 16.124326980133631 5.6236932758033618 0 0 0 0 -61.659415941079715 40.880762388597134 0 40.880762388597134 6.2479634840092331 0 0 0 0 -36.338073068935046 58.270063175552337 0 58.270063175552337 1.5600103129315244 0 0 0 0 -4.1521724374542828 10.158520295655194 0 10.158520295655194 7.6120494626661213 0 0 0 0 -149.98984924186379 7.5879372484644136 0 7.5879372484644136 7.6858116658077051 0 0 0 0 -14.703608095003801 62.19585548112633 0 62.19585548112633 -13.710446537243115 0 0 0 0 -18.579195481266652 59.250927634995378 0 59.250927634995378 -12.850111525905959 0 0 0 0 3.15943320419683 88.225715150608721 0 88.225715150608721 -49.976217435068293 0 0 0 0 -63.427066985727834 101.38707791340209 0 101.38707791340209 -25.289197037600388 0 0 0 0 104.26088924679061 28.717932597852837 0 28.717932597852837 -53.840672430321774 0 0 0 0 66.565508786029568 -113.71079353428831 0 -113.71079353428831 -90.380205690112064 0 0 0 0 4.6946247842778064 4.696768468968326 0 4.696768468968326 -6.4119296841622919 0 0 0 0 0.023081090604559762 0.34031403774517344 0 0.34031403774517344 -1.2528738091856491 0 0 0 0 132.16958644128317 211.05206778364391 0 211.05206778364391 -77.051545334323237 0 0 0 0 234.61507616401423 96.999756594148664 0 96.999756594148664 19.700562283297018 0 0 0 0 18.077029875059225 24.473346991401058 0 24.473346991401058 0.07986838203669322 0 0 0 0 32.117649291639282 2.3062289006441574 0 2.3062289006441574 9.8854198152143908 0 0 0 0 17.451725547235583 27.670640014122171 0 27.670640014122171 20.531414089616078 0 0 0 0 -1.3915287443560374 20.259032955709131 0 20.259032955709131 14.934982234507515 0 0 0 0 0.29036520352428852 28.907752001850142 0 28.907752001850142 8.1062139999935425 0 0 0 0 -41.105132588020751 39.291914650939873 0 39.291914650939873 10.903875270610797 0 0 0 0 -9.804553180269977 38.579032754859327 0 38.579032754859327 -0.99460897916560498 0 0 0 0 7.9579000913581694 38.818394874162436 0 38.818394874162436 -4.2647526280188544 0 0 0 0 -9.6201597980059432 38.832803571807318 0 38.832803571807318 -4.2059216835108373 0 0 0 0 57.640121500433906 41.53808438279674 0 41.53808438279674 -18.819066978641558 0 0 0 0 52.420105638094356 28.276978459988555 0 28.276978459988555 -14.294546328783554 0 0 0 0 38.319056364115568 32.94364581301852 0 32.94364581301852 -21.141924410508864 0 0 0 0 38.867584095922211 46.180054483001243 0 46.180054483001243 -27.290845392157053 0 0 0 0 42.470598122790761 59.614075274329934 0 59.614075274329934 -50.963729015264789 0 0 0 0 55.595980719302133 12.975851741983433 0 12.975851741983433 4.1117472706232547 0 0 0 0 64.885283335431268 36.761860444769127 0 36.761860444769127 -26.537099284145143 0 0 0 0 62.549831759442895 19.503740432886275 0 19.503740432886275 -16.910923388017181 0 0 0 0 55.902422637308518 24.588616785122326 0 24.588616785122326 -6.0857978696767532 0 0 0 0 65.108206494213846 32.122536992142841 0 32.122536992142841 -2.359526524826606 0 0 0 0 61.106384217537197 28.257352036265274 0 28.257352036265274 7.8060376285043276 0 0 0 0 61.025047028191921 25.299671803096942 0 25.299671803096942 2.82197543159009 0 0 0 0 69.388412435765531 33.935683700019126 0 33.935683700019126 1.127432322470213 0 0 0 0 63.548388361329671 41.095702764560315 0 41.095702764560315 27.230958001580802 0 0 0 0 76.225373671229136 60.005423369281345 0 60.005423369281345 30.256114065355177 0 0 0 0 52.563943960747565 -8.9699080878372115 0 -8.9699080878372115 -59.124165297969171 0 0 0 0 -1.8804009464982663 2.6621014744152554 0 2.6621014744152554 -3.2784394241435617 0 0 0 0 56.416048316650404 40.372997802492364 0 40.372997802492364 44.659713570908934 0 0 0 0 44.97057177953252 24.160460935553488 0 24.160460935553488 -13.030234113306051 0 0 0 0 52.300153492743448 18.660082945616068 0 18.660082945616068 -13.002938412441665 0 0 0 0 69.297633487010899 30.350088581828913 0 30.350088581828913 -3.3832191924575454 0 0 0 0 68.60774839586793 43.727083456453784 0 43.727083456453784 18.628478148169279 0 0 0 0 59.456746329474299 32.990322670218916 0 32.990322670218916 -1.5470056421372647 0 0 0 0 59.073401277968628 18.289907748084659 0 18.289907748084659 -12.273463164506211 0 0 0 0 62.804220826466462 27.974905096547445 0 27.974905096547445 -8.7703245738214264 0 0 0 0 49.242753787230868 24.029697056038572 0 24.029697056038572 -13.028298631703365 0 0 0 0 45.976887368626194 11.022160214327585 0 11.022160214327585 -22.671727768887195 0 0 0 0 18.506094113871768 13.09246490542148 0 13.09246490542148 -4.7938717890767748 0 0 0 0 38.49191808296564 25.794999261313023 0 25.794999261313023 -3.3603986964754995 0 0 0 0 57.958031596303044 20.850893673436758 0 20.850893673436758 -15.697381390629914 0 0 0 0 57.914945119178356 24.509840704735836 0 24.509840704735836 -20.535758836407751 0 0 0 0 47.408296352513844 31.767353470839339 0 31.767353470839339 17.442895262289845 0 0 0 0 105.06428908923112 120.30194574956272 0 120.30194574956272 74.593034801659201 0 0 0 0 48.827676483197024 31.60075521857928 0 31.60075521857928 -4.2751632850547594 0 0 0 0 -0.41397411530674866 4.7630945993192171 0 4.7630945993192171 -8.795116649077567 0 0 0 0 73.272495672826608 53.634906960023045 0 53.634906960023045 64.915349873537252 0 0 0 0 103.9074450716065 -34.197100497484143 0 -34.197100497484143 45.127930426687271 0 0 0 0 167.85835661171132 121.3372010091598 0 121.3372010091598 81.039375890093027 0 0 0 0 20.112752062779606 2.8817731961859323 0 2.8817731961859323 -18.119456874676871 0 0 0 0 -0.99229044021750301 4.7227696534358055 0 4.7227696534358055 -8.0889139212505068 0 0 0 0 -35.732589728585253 23.576839161190037 0 23.576839161190037 11.150435860465677 0 0 0 0 -0.29582570203474923 0.18262705829772763 0 0.18262705829772763 0.72958202071865408 0 0 0 0 -34.609126224157649 13.158787612081369 0 13.158787612081369 94.021031926731212 0 0 0 0 -30.767498766901781 92.406518305345799 0 92.406518305345799 51.110619253854566 0 0 0 0 -9.5731422633580223 82.026452485422851 0 82.026452485422851 -78.548137798407879 0 0 0 0 -9.6993672529886226 42.22092166881248 0 42.22092166881248 24.03083394106261 0 0 0 0 -5.832911733095159 52.745664185854366 0 52.745664185854366 16.31669893156959 0 0 0 0 5.2359330575623062 3.5974995704887078 0 3.5974995704887078 -79.832511155720908 0 0 0 0 4.2722609510915923 10.503757962372532 0 10.503757962372532 3.8953250192380438 0 0 0 0 57.238503285628553 316.93227432676485 0 316.93227432676485 112.42998778699075 0 0 0 0 -0.87076248231213516 1.1615305085510741 0 1.1615305085510741 -1.0779402300847298 0 0 0 0 138.16148338802617 49.714322403202118 0 49.714322403202118 112.67435453408325 0 0 0 0 36.711579798186449 99.499499759058381 0 99.499499759058381 195.77424153455786 0 0 0 0 3.0013886891647417 9.501787645712966 0 9.501787645712966 -14.121027987998673 0 0 0 0 -12.830654030094934 -5.4452546085581162 0 -5.4452546085581162 -18.763901400909162 0 0 0 0 -1.3550000907519024 3.851173235487316 0 3.851173235487316 -5.8207215644908565 0 0 0 0 -7.721626921681036 -22.298288404360846 0 -22.298288404360846 -46.795341813950472 0 0 0 0 15.504421685252964 -4.7453468051596701 0 -4.7453468051596701 -41.242350859978956 0 0 0 0 5.6311392521583912 4.6379726573327389 0 4.6379726573327389 -53.253773329363128 0 0 0 0 30.442459033972227 19.699018674212311 0 19.699018674212311 -32.530811996522175 0 0 0 0 31.968413549434899 15.662089367519343 0 15.662089367519343 -29.971424655883766 0 0 0 0 35.428612813710743 9.9300837962595097 0 9.9300837962595097 -22.14971808142127 0 0 0 0 46.841462063094696 33.244949244553936 0 33.244949244553936 -18.747632592493289 0 0 0 0 31.168478289779159 17.499012162695863 0 17.499012162695863 -26.153678608803602 0 0 0 0 43.48192345617008 47.103472276944558 0 47.103472276944558 -24.223992098733646 0 0 0 0 47.458879769084206 38.464366078168041 0 38.464366078168041 -6.7938415050321055 0 0 0 0 43.474198705130675 59.703313881090708 0 59.703313881090708 -24.975679843250305 0 0 0 0 51.820845256048415 55.550301539574662 0 55.550301539574662 20.042398232995765 0 0 0 0 43.944136423300733 66.522205025872154 0 66.522205025872154 6.0457528570460681 0 0 0 0 25.718034406573224 65.379766234636691 0 65.379766234636691 -16.541493854580949 0 0 0 0 25.996008340847766 77.055139786887594 0 77.055139786887594 14.348032822204459 0 0 0 0 34.790916203296547 39.539102307028088 0 39.539102307028088 -17.950135634979233 0 0 0 0 27.03908665723759 11.433369604634322 0 11.433369604634322 -106.46820979910535 0 0 0 0 41.323494201216135 42.150490178207974 0 42.150490178207974 -46.204617474635143 0 0 0 0 11.473186455818905 -3.2149983761353269 0 -3.2149983761353269 -54.347675201312995 0 0 0 0 -17.959707516722801 -8.2475854963588517 0 -8.2475854963588517 -56.992549847387636 0 0 0 0 -18.316461201718774 -85.845186510830146 0 -85.845186510830146 -206.93212841091236 0 0 0 0 -0.7501579001627694 1.4697967054961103 0 1.4697967054961103 -2.073367574638513 0 0 0 0 29.67913024549739 148.12640775122441 0 148.12640775122441 169.47114351592222 0 0 0 0 54.879510768655564 62.793238417510565 0 62.793238417510565 -209.73696848238717 0 0 0 0 -11.611453230297684 92.593632686423689 0 92.593632686423689 -91.204421902237755 0 0 0 0 16.137000116125591 44.044657529278993 0 44.044657529278993 -88.965835585408968 0 0 0 0 37.383738454232116 86.484477720396626 0 86.484477720396626 -55.653854092928214 0 0 0 0 63.53606080448526 114.41065495826911 0 114.41065495826911 -41.921244115072795 0 0 0 0 14.935832277982854 102.63894400156414 0 102.63894400156414 52.168758343766513 0 0 0 0 23.468984079452753 33.235372194083311 0 33.235372194083311 -5.4160910111550038 0 0 0 0 208.82262478453072 73.87309817946425 0 73.87309817946425 0.71439246885211105 0 0 0 0 144.05638342550975 -91.134909259420795 0 -91.134909259420795 31.955879015604296 0 0 0 0 -22.214231919627991 94.893688262950718 0 94.893688262950718 164.35683113623622 0 0 0 0 95.761339109276605 157.38633999907267 0 157.38633999907267 88.875792765848473 0 0 0 0 10.629446371688573 65.756164140632109 0 65.756164140632109 69.366958429768715 0 0 0 0 -14.561824002397543 42.561863236972385 0 42.561863236972385 48.169760627676624 0 0 0 0 12.794065865238281 62.223153183909517 0 62.223153183909517 47.501350049873054 0 0 0 0 38.311894152752757 69.909117894383144 0 69.909117894383144 43.679356390500288 0 0 0 0 39.749244887327222 65.765763823038014 0 65.765763823038014 49.216913590706099 0 0 0 0 30.490879223179036 69.36224513040338 0 69.36224513040338 44.523499499389573 0 0 0 0 49.5346137700908 75.74683055456444 0 75.74683055456444 23.600377506138102 0 0 0 0 27.819356163952534 78.54883788621828 0 78.54883788621828 13.279758101452899 0 0 0 0 11.910727185052565 88.524597923257261 0 88.524597923257261 61.484855337054341 0 0 0 0 16.233220620613565 100.938452820056 0 100.938452820056 12.768788999856952 0 0 0 0 13.215316060686661 0.24886831488021244 0 0.24886831488021244 -72.022600327602447 0 0 0 0 -76.64748491413178 116.85482076330209 0 116.85482076330209 -103.05867602690776 0 0 0 0 -76.627421077971292 45.873588645503254 0 45.873588645503254 4.3287094397662713 0 0 0 0 -11.815857655173687 50.570477424489582 0 50.570477424489582 -102.05058483227361 0 0 0 0 -200.71011542996314 100.19372482599817 0 100.19372482599817 -35.58518385732782 0 0 0 0 -86.732381279472918 95.97293790603419 0 95.97293790603419 -46.267900794746083 0 0 0 0 1.956543262131873 3.3624781454342276 0 3.3624781454342276 4.8977634616869992 0 0 0 0 -12.550474373811085 50.907362454032182 0 50.907362454032182 52.404537294742227 0 0 0 0 12.915334396484923 -14.469007540363577 0 -14.469007540363577 202.93057634993988 0 0 0 0 92.665872284076954 -41.206996403046901 0 -41.206996403046901 -10.487893482279105 0 0 0 0 71.799828552703502 -67.476905964218076 0 -67.476905964218076 -14.103248029810061 0 0 0 0 0.63946169454255708 4.4012307791557799 0 4.4012307791557799 6.6394185915552706 0 0 0 0 -8.2964458752981045 0.20264064456932829 0 0.20264064456932829 2.1994693107308194 0 0 0 0 -14.997476752549005 14.68129096424002 0 14.68129096424002 18.597336643215385 0 0 0 0 126.60092552508559 -31.661551443957137 0 -31.661551443957137 3.4500574245512325 0 0 0 0 -1.9860037789674827 1.4406467181429532 0 1.4406467181429532 0.27321007326809266 0 0 0 0 -26.113104938233676 -52.62226145491033 0 -52.62226145491033 3.1543878621391741 0 0 0 0 127.32639973124014 -22.055923560533756 0 -22.055923560533756 -135.28814158590239 0 0 0 0 24.807932642317269 165.40130410665728 0 165.40130410665728 120.42778908531227 0 0 0 0 117.73527043268541 103.62772691057171 0 103.62772691057171 -131.83433323238935 0 0 0 0 -4.8570324154140598 6.5380372116305452 0 6.5380372116305452 -3.425588938794486 0 0 0 0 -1.8522482846970547 21.77236926618798 0 21.77236926618798 16.401117419326511 0 0 0 0 116.94645636015917 93.70708998824 0 93.70708998824 3.6587302098987493 0 0 0 0 -169.89540583873782 -7.0848856691718538 0 -7.0848856691718538 18.255704170300078 0 0 0 0 1.3421450271347903 7.0750805948557884 0 7.0750805948557884 7.935293129608139 0 0 0 0 -158.85847299932539 33.579720000844645 0 33.579720000844645 -3.9831158021947886 0 0 0 0 -6.9848421956256743 -4.8035853247201885 0 -4.8035853247201885 76.128259338812313 0 0 0 0 -13.276743641335997 39.373473008769452 0 39.373473008769452 -14.45697433719306 0 0 0 0 -11.034059884059388 5.8302698932129715 0 5.8302698932129715 15.466105150771909 0 0 0 0 -8.3969052910096984 5.5637733920177794 0 5.5637733920177794 7.0513985131630363 0 0 0 0 -83.944467037542211 16.450799887847211 0 16.450799887847211 19.178882182122607 0 0 0 0 -1.3575128208057912 -0.40690081113746057 0 -0.40690081113746057 0.55468036744362426 0 0 0 0 -1.9624526450959463 2.3822209505962801 0 2.3822209505962801 -0.20262792478323099 0 0 0 0 -271.43326675931644 -117.68286043949172 0 -117.68286043949172 -4.9611971984068077 0 0 0 0 -241.65727194085457 2.9097658652074188 0 2.9097658652074188 37.083510800871636 0 0 0 0 -157.28374915151062 43.503977805590694 0 43.503977805590694 55.432787602347162 0 0 0 0 -160.85433930897227 224.13279345772389 0 224.13279345772389 -100.14063533821059 0 0 0 0 70.311492589933607 -92.234397711414317 0 -92.234397711414317 -47.341040683428218 0 0 0 0 2.1352248940258187 3.3966715874189055 0 3.3966715874189055 4.8444514333306365 0 0 0 0 -149.09300357789652 74.947258498978044 0 74.947258498978044 81.090717606485669 0 0 0 0 -101.59583948237696 50.04819682829384 0 50.04819682829384 93.415256395199322 0 0 0 0 18.85582680053534 65.326553370809961 0 65.326553370809961 3.9484842331430627 0 0 0 0 -42.516648447030377 108.33203010485886 0 108.33203010485886 -26.16334791956433 0 0 0 0 172.03827677628254 13.917493349422784 0 13.917493349422784 -29.703155103744848 0 0 0 0 -0.050697751796696444 0.1801427957456907 0 0.1801427957456907 -1.5629153296079963 0 0 0 0 91.247213516181461 71.372945420242559 0 71.372945420242559 -20.427221851064132 0 0 0 0 -309.36474258994843 77.905225210909748 0 77.905225210909748 129.38089701761874 0 0 0 0 9.7363106311640308 11.920980667479398 0 11.920980667479398 4.1568470760312266 0 0 0 0 32.26170167583382 118.27253845836549 0 118.27253845836549 129.10319679638269 0 0 0 0 5.9522432386569397 21.426443236008708 0 21.426443236008708 10.111982604790683 0 0 0 0 -3.1666763378077309 3.3730480968174046 0 3.3730480968174046 -3.298252981059143 0 0 0 0 23.177039555517183 24.825045730312468 0 24.825045730312468 -4.4010807852519065 0 0 0 0 17.292852496277135 30.729548584878103 0 30.729548584878103 17.684167246802645 0 0 0 0 35.954107021891332 36.483990615685343 0 36.483990615685343 6.1216180741648714 0 0 0 0 35.373277316110475 28.980071075359774 0 28.980071075359774 -5.0052961953027193 0 0 0 0 49.023806117223515 15.502585919828107 0 15.502585919828107 6.3437138135250279 0 0 0 0 12.398594815511615 35.115606474870219 0 35.115606474870219 -39.650852472300357 0 0 0 0 15.316919687891357 22.989298769204652 0 22.989298769204652 10.21226822920471 0 0 0 0 37.517800647744451 24.850381938987539 0 24.850381938987539 -4.3565142496386215 0 0 0 0 48.81164244746094 39.094948038205985 0 39.094948038205985 8.2516894273378796 0 0 0 0 41.947931554412769 26.433917204080132 0 26.433917204080132 -10.611361552934795 0 0 0 0 -0.92196189220886282 26.251044305857249 0 26.251044305857249 2.4597511973006476 0 0 0 0 10.683713816986369 36.786598790331027 0 36.786598790331027 4.9539867599260106 0 0 0 0 -12.368029810913185 64.037979767078923 0 64.037979767078923 -76.383302398723572 0 0 0 0 68.294921474337741 -1.7408742610452919 0 -1.7408742610452919 9.5315927954952713 0 0 0 0 45.522104108010382 4.82745253300304 0 4.82745253300304 -7.2301640205123476 0 0 0 0 74.25287744821361 16.263599137062329 0 16.263599137062329 -7.7585224311058028 0 0 0 0 0.19083573528078035 0.85990768792231143 0 0.85990768792231143 -5.6723910360883814 0 0 0 0 -222.14301427239414 64.951152159707135 0 64.951152159707135 54.387210753843647 0 0 0 0 9.8110383315490708 86.976270960933107 0 86.976270960933107 -46.441372783362567 0 0 0 0 10.449984186067837 83.870007458075293 0 83.870007458075293 -94.84044275523047 0 0 0 0 132.59816027839844 117.37918840620387 0 117.37918840620387 -86.477462650160305 0 0 0 0 -16.044054038009563 -1.719868840116078 0 -1.719868840116078 237.932268550152 0 0 0 0 -65.801166551914719 -11.4022475784991 0 -11.4022475784991 13.693270458375991 0 0 0 0 -19.375414119453183 204.14876699859747 0 204.14876699859747 46.027670466084828 0 0 0 0 109.27743343824784 13.291739576705993 0 13.291739576705993 -93.355326028224226 0 0 0 0 -39.205425465511752 41.884352420383948 0 41.884352420383948 -91.415795026175147 0 0 0 0 -34.997764474014076 60.988853490196561 0 60.988853490196561 -101.31046215739298 0 0 0 0 -233.01608526381216 87.414325748709871 0 87.414325748709871 -20.654431513884447 0 0 0 0 -209.55962302905863 213.15565636608017 0 213.15565636608017 -146.54251983149106 0 0 0 0 -160.61486068355669 123.68154884052137 0 123.68154884052137 -95.368880766807706 0 0 0 0 -0.091809948223210647 -0.32999178602045554 0 -0.32999178602045554 -0.79115461343829097 0 0 0 0 -23.500779225051929 40.609480603585098 0 40.609480603585098 -20.351550111266988 0 0 0 0 -31.463401604582959 -32.535873596821233 0 -32.535873596821233 72.834142769729624 0 0 0 0 -2.2054135817587945 2.2290563008589857 0 2.2290563008589857 3.3195197157993377 0 0 0 0 -108.13466231222466 87.112838925280585 0 87.112838925280585 -24.368411676336564 0 0 0 0 -103.74238873498813 102.72567979099568 0 102.72567979099568 -71.55158139901323 0 0 0 0 6.3281167550371773 7.158398657163981 0 7.158398657163981 6.9047977666627052 0 0 0 0 -77.463822654869887 86.803337025044129 0 86.803337025044129 -62.98044585006005 0 0 0 0 -1.0598392222830171 14.30682892653914 0 14.30682892653914 35.760342821765448 0 0 0 0 -8.6192656703597095 -0.68727274644891168 0 -0.68727274644891168 64.965821399600827 0 0 0 0 1.9560837902961339 23.461273940523029 0 23.461273940523029 38.991549113149517 0 0 0 0 2.3767390122332932 2.3996062529315605 0 2.3996062529315605 2.6114282282612216 0 0 0 0 70.099808393534204 97.111032381498376 0 97.111032381498376 -84.842426613081727 0 0 0 0 -164.21668044103788 243.86013375906833 0 243.86013375906833 137.30801136262244 0 0 0 0 81.775951545233966 142.49092835280192 0 142.49092835280192 -162.24444982509948 0 0 0 0 1.1224850047062707 1.2722441973240617 0 1.2722441973240617 1.0439567893633175 0 0 0 0 -13.456571894791182 208.56326662544438 0 208.56326662544438 -168.84914128306809 0 0 0 0 24.137954998243686 -29.69059106937766 0 -29.69059106937766 -94.735291820697512 0 0 0 0 149.69782100147131 43.555778532822842 0 43.555778532822842 -42.611641185947519 0 0 0 0 9.8598242422157067 2.395772736138964 0 2.395772736138964 0.42923719518668157 0 0 0 0 -83.145645121173857 -14.7126014196906 0 -14.7126014196906 245.60974554632685 0 0 0 0 5.7839919581978165 47.542582004793644 0 47.542582004793644 -54.600083013831863 0 0 0 0 36.164481344352083 -13.743686796788097 0 -13.743686796788097 -74.428929059078655 0 0 0 0 0.82112688214874652 -38.683769899100753 0 -38.683769899100753 -69.851601188306176 0 0 0 0 -34.292318313468968 -22.217576361755164 0 -22.217576361755164 -74.619380288986349 0 0 0 0 9.7755682115121854 3.9084566872482123 0 3.9084566872482123 -0.62122038439688154 0 0 0 0 23.292471146143271 -8.6873972166295061 0 -8.6873972166295061 -5.6517880778615108 0 0 0 0 11.090005347484293 3.6072689009704391 0 3.6072689009704391 -15.37570057230846 0 0 0 0 -52.144541646011817 38.617411961352047 0 38.617411961352047 -54.279868837406866 0 0 0 0 3.5766796282204512 0.6228840418097592 0 0.6228840418097592 0.23393016288040247 0 0 0 0 -81.444760978635713 9.0118977772424387 0 9.0118977772424387 372.41080669603571 0 0 0 0 91.441801301830765 96.905348215131426 0 96.905348215131426 -231.50216903527416 0 0 0 0 27.675831138201829 -68.095903545570309 0 -68.095903545570309 52.477865306371314 0 0 0 0 168.0704883362323 -46.889081110350162 0 -46.889081110350162 -206.79265166158589 0 0 0 0 4.9629111878148251 2.8822793701096998 0 2.8822793701096998 1.2806579570842587 0 0 0 0 -1.86116960647837 3.7793907899185797 0 3.7793907899185797 5.3860225231428558 0 0 0 0 1.5866796309016991 6.6035129286779011 0 6.6035129286779011 1.7679424627472144 0 0 0 0 5.9047039548566049 6.7575207475839747 0 6.7575207475839747 -1.1130669884094235 0 0 0 0 -20.884860910173757 29.433279008455031 0 29.433279008455031 7.8202885281061754 0 0 0 0 -10.175884804611997 -1.3574627527632401 0 -1.3574627527632401 9.3501130129889134 0 0 0 0 -3.2918383630793677 6.151276110346716 0 6.151276110346716 2.3970766697902981 0 0 0 0 -2.7160342163044415 -0.3950054067687141 0 -0.3950054067687141 -0.39387013092585121 0 0 0 0 1.7237000825139148 8.4644728619564376 0 8.4644728619564376 -1.75095825794142 0 0 0 0 6.1373465100190421 5.7019721536098382 0 5.7019721536098382 1.8048516520498428 0 0 0 0 14.280849415104967 19.152528816076369 0 19.152528816076369 -7.8616363560810214 0 0 0 0 3.5519158127965937 6.9060917297546052 0 6.9060917297546052 4.3108144506795316 0 0 0 0 3.7197293265419376 6.7423021205719351 0 6.7423021205719351 9.8022628489738963 0 0 0 0 10.118917035149934 24.543900134917294 0 24.543900134917294 29.030373633351132 0 0 0 0 3.4360213308554535 16.047133361105793 0 16.047133361105793 36.855164469593774 0 0 0 0 7.9696205914626717 35.626435080512692 0 35.626435080512692 66.564131843767655 0 0 0 0 25.491809652639859 27.639852590367127 0 27.639852590367127 22.154668539345721 0 0 0 0 -1.0025982176290777 4.8793594347182747 0 4.8793594347182747 -3.2437059143675517 0 0 0 0 18.142319627038091 10.18253732498286 0 10.18253732498286 10.121733661469989 0 0 0 0 -118.54910438340721 -160.15255643210355 0 -160.15255643210355 433.12822641015782 0 0 0 0 7.2724125728319677 13.322831531255389 0 13.322831531255389 9.5462862786268943 0 0 0 0 60.048600582011204 -36.537560072470569 0 -36.537560072470569 -158.09633100246299 0 0 0 0 -76.871865543635977 109.53726143973654 0 109.53726143973654 352.39000763345189 0 0 0 0 -3.0743779316399014 350.54991408511728 0 350.54991408511728 -28.233996630877982 0 0 0 0 42.236162724690075 52.40449744370585 0 52.40449744370585 47.514481765267192 0 0 0 0 -1.3061768518117551 1.1912155171334629 0 1.1912155171334629 -0.6898588042974545 0 0 0 0 -103.14593067839996 -80.209486446495134 0 -80.209486446495134 -56.163773992516781 0 0 0 0 31.952645794209388 67.449600914271514 0 67.449600914271514 -3.3134444422962588 0 0 0 0 -38.157110528078192 27.78701939077223 0 27.78701939077223 -28.642639522573745 0 0 0 0 44.287600055890834 10.752869444365388 0 10.752869444365388 -55.768587818880178 0 0 0 0 56.10313886508311 58.150593014919309 0 58.150593014919309 77.104843791408257 0 0 0 0 91.453427093467326 30.732812033403434 0 30.732812033403434 17.593908044886575 0 0 0 0 -33.37409383757813 119.16654505365273 0 119.16654505365273 90.748767003370631 0 0 0 0 75.975988561393024 -19.043308128258786 0 -19.043308128258786 230.3832452590118 0 0 0 0 150.97339970726898 59.251531354792178 0 59.251531354792178 75.743294165129555 0 0 0 0 -0.24130688136717149 0.4040934703804373 0 0.4040934703804373 -0.20299388344793545 0 0 0 0 -172.75732132304483 -10.085518027247076 0 -10.085518027247076 24.328707496260847 0 0 0 0 7.6614175201927992 43.890946928755397 0 43.890946928755397 -24.311462528139828 0 0 0 0 94.605975050002485 116.55108852031009 0 116.55108852031009 59.15630999133873 0 0 0 0 29.413851613324596 44.628282573695628 0 44.628282573695628 50.250429454115647 0 0 0 0 10.005727942225803 43.033766898421732 0 43.033766898421732 65.283991915194065 0 0 0 0 13.693028530386528 47.910056800917914 0 47.910056800917914 55.225494906815129 0 0 0 0 -14.125084487795675 59.004459270496625 0 59.004459270496625 61.902512264449001 0 0 0 0 15.706274090287195 57.891310604010926 0 57.891310604010926 51.270293469623311 0 0 0 0 -5.6034266134161044 61.101488961608538 0 61.101488961608538 51.028014444626024 0 0 0 0 -5.5443366036924999 16.030688365242099 0 16.030688365242099 -35.724401305810659 0 0 0 0 11.138676272735211 28.542829807003727 0 28.542829807003727 -16.008866979314689 0 0 0 0 -12.928664218638914 61.058769467484126 0 61.058769467484126 46.031566181666221 0 0 0 0 0.015869075026103019 57.685261915737669 0 57.685261915737669 43.094800038870517 0 0 0 0 -11.369452587382739 50.66157063141236 0 50.66157063141236 49.073269541265631 0 0 0 0 6.9074179968003246 6.0444620683511951 0 6.0444620683511951 2.6615310865027739 0 0 0 0 -25.631598615649182 52.349716457006139 0 52.349716457006139 51.318214201312912 0 0 0 0 23.098376411274216 32.807377500135772 0 32.807377500135772 -29.570216897256671 0 0 0 0 165.66627003493258 187.14734027551765 0 187.14734027551765 15.218100665699012 0 0 0 0 -336.7043327287895 71.479071473080324 0 71.479071473080324 41.426442538040192 0 0 0 0 50.351926633690596 -61.748506874250211 0 -61.748506874250211 86.266284817985934 0 0 0 0 -232.43393277459248 45.363603427147552 0 45.363603427147552 223.31257597560784 0 0 0 0 14.318319632684961 157.80250818246191 0 157.80250818246191 244.96894783377172 0 0 0 0 -4.5157732558942598 -37.093216406840213 0 -37.093216406840213 261.25218340812762 0 0 0 0 -17.454372946353828 56.381221101863275 0 56.381221101863275 118.58148272571941 0 0 0 0 0.27259712013028548 65.253964799086248 0 65.253964799086248 53.247448124049242 0 0 0 0 52.042372752921779 115.13400722383506 0 115.13400722383506 27.584707846046967 0 0 0 0 12.196714518285575 31.52878332902074 0 31.52878332902074 -43.532969048287896 0 0 0 0 25.497409931661082 56.507523153260422 0 56.507523153260422 -22.47705254387256 0 0 0 0 25.024750234942417 35.317063300498944 0 35.317063300498944 -50.867309935717458 0 0 0 0 71.855622641356149 61.421132830998886 0 61.421132830998886 -165.3064953965694 0 0 0 0 -121.58617964677478 -60.906620745305418 0 -60.906620745305418 -114.92216545495759 0 0 0 0 18.729005672583639 10.987737145241908 0 10.987737145241908 -87.119065674404283 0 0 0 0 -4.4727238883313589 -16.026125352556392 0 -16.026125352556392 -83.083722105854577 0 0 0 0 -20.377939991231187 -4.855838350964234 0 -4.855838350964234 160.17268422198589 0 0 0 0 -83.704891930172309 38.44346533539283 0 38.44346533539283 -31.408513001834763 0 0 0 0 -1.0649595709474728 2.2545669576257703 0 2.2545669576257703 1.5236278517282469 0 0 0 0 0.43725527758954641 3.3927510064124347 0 3.3927510064124347 1.9442694479621456 0 0 0 0 8.6091512654611506 3.8506292176516013 0 3.8506292176516013 -56.158726880323002 0 0 0 0 1.6222057305033104 12.34712738312362 0 12.34712738312362 -65.531253161292398 0 0 0 0 15.139276514420089 26.816206854284871 0 26.816206854284871 -77.251968046247612 0 0 0 0 2.7484476933631905 4.6434055189622585 0 4.6434055189622585 2.3628852423722448 0 0 0 0 -18.742414601845212 6.8742085809745959 0 6.8742085809745959 111.66119364119203 0 0 0 0 -19.406844098255078 23.706710478474122 0 23.706710478474122 96.011735051736082 0 0 0 0 -0.22762521977949746 7.5898411263092953 0 7.5898411263092953 75.522023958239402 0 0 0 0 -22.465140597483241 42.177344685939147 0 42.177344685939147 20.376177701790311 0 0 0 0 -33.707489340335087 22.098810434549137 0 22.098810434549137 84.246997290769684 0 0 0 0 -4.1019531213034952 49.965733064948154 0 49.965733064948154 79.541156281396411 0 0 0 0 0.44674757152654188 0.21671003878223871 0 0.21671003878223871 102.58966108994309 0 0 0 0 -14.840714747167686 -40.820369995125162 0 -40.820369995125162 251.68536512847265 0 0 0 0 6.1816820479926946 -17.490126490687373 0 -17.490126490687373 120.77836526052306 0 0 0 0 -57.021712888935326 29.314008779995788 0 29.314008779995788 73.233260636543775 0 0 0 0 -84.885347250607452 117.32317862015645 0 117.32317862015645 -66.005048715135047 0 0 0 0 -16.163124492344195 7.5684174651709668 0 7.5684174651709668 30.681284710509317 0 0 0 0 -16.646699536653614 21.747743342908336 0 21.747743342908336 65.409228685081246 0 0 0 0 -39.283212001796983 37.227028855322224 0 37.227028855322224 55.916814948088586 0 0 0 0 -22.310824875708931 44.299915015433839 0 44.299915015433839 85.275307188116244 0 0 0 0 -11.550932301364128 27.968490577729064 0 27.968490577729064 35.643174778873998 0 0 0 0 5.0478137722448944 5.669550724883738 0 5.669550724883738 2.6634238984960499 0 0 0 0 10.621854067681852 51.462535016439347 0 51.462535016439347 -43.245407737645792 0 0 0 0 -15.686509588798117 52.743812611766735 0 52.743812611766735 13.076115984580298 0 0 0 0 -10.24965833193869 15.206720619050088 0 15.206720619050088 85.024393496628136 0 0 0 0 -14.715803384725632 23.975360225255145 0 23.975360225255145 75.872418366024021 0 0 0 0 -29.48156682911258 27.897875587507087 0 27.897875587507087 82.163287911651878 0 0 0 0 -23.357180462557608 32.050528781935327 0 32.050528781935327 79.086922240830802 0 0 0 0 -27.359376737310868 12.662706230765366 0 12.662706230765366 72.688759624551551 0 0 0 0 -29.318292583780476 14.888631988144652 0 14.888631988144652 96.538332501196692 0 0 0 0 -19.821155936140713 15.082826401046191 0 15.082826401046191 74.724558340301201 0 0 0 0 -5.0734350714919856 -58.465175107724917 0 -58.465175107724917 79.616052406297968 0 0 0 0 -10.542952703616038 31.8247108497726 0 31.8247108497726 -24.319783011391337 0 0 0 0 -10.995734857665436 13.01083914388043 0 13.01083914388043 10.965318964109944 0 0 0 0 -25.480026269533482 31.76620446146768 0 31.76620446146768 112.53482461374301 0 0 0 0 -30.135154645663761 26.447423496134832 0 26.447423496134832 107.47060078891218 0 0 0 0 -5.9674250215884967 47.845654980648305 0 47.845654980648305 99.03473313203699 0 0 0 0 25.447862774530222 33.77339009657976 0 33.77339009657976 97.322213306389642 0 0 0 0 -20.056262618512164 11.215812543865837 0 11.215812543865837 117.40199203979 0 0 0 0 19.221966469192665 4.6933914480065653 0 4.6933914480065653 113.40772768341935 0 0 0 0 55.026685976389672 63.237443871538858 0 63.237443871538858 160.74817909311855 0 0 0 0 -14.475844729502569 37.875443263262696 0 37.875443263262696 279.82643279371086 0 0 0 0 -0.81807920870596718 7.8923406664200684 0 7.8923406664200684 129.31062659740678 0 0 0 0 -9.5887782021327439 42.532412717623174 0 42.532412717623174 247.26649211330368 0 0 0 0 -0.99888723292315262 9.4789435349321138 0 9.4789435349321138 200.37723117895712 0 0 0 0 21.116413802316004 52.501102503462747 0 52.501102503462747 134.33411987982254 0 0 0 0 -12.306769106481624 21.731492445281219 0 21.731492445281219 -13.701008262300093 0 0 0 0 -5.2974140600229571 0.098414170520936928 0 0.098414170520936928 6.2224606359642305 0 0 0 0 -16.991499678167713 28.850911338417973 0 28.850911338417973 -16.186315631435718 0 0 0 0 70.842866156785021 107.44104418860684 0 107.44104418860684 4.1712136627697873 0 0 0 0 -1.9248782833409592 3.0396055643849071 0 3.0396055643849071 -2.7031993107905725 0 0 0 0 -22.25113045076796 59.290644538517085 0 59.290644538517085 42.523353989268571 0 0 0 0 -19.459284537579151 34.173172840646771 0 34.173172840646771 112.96613998458565 0 0 0 0 -9.7478114115407983 18.481863900275076 0 18.481863900275076 -17.207384862461968 0 0 0 0 -4.2579668028920423 33.831890925503899 0 33.831890925503899 28.199057668247519 0 0 0 0 -15.221461240724238 33.996857730510555 0 33.996857730510555 33.08854221407222 0 0 0 0 -38.876938388299095 -10.429645049480428 0 -10.429645049480428 61.367231239192392 0 0 0 0 -3.1488933798436847 -5.6463055650064291 0 -5.6463055650064291 95.115255476095058 0 0 0 0 -31.882321063177187 9.0163543329680351 0 9.0163543329680351 114.3989112524913 0 0 0 0 15.967425818715128 5.9558981606783163 0 5.9558981606783163 96.068736890839318 0 0 0 0 -3.4028733514593341 30.548547261617387 0 30.548547261617387 8.5167645971605452 0 0 0 0 -15.673495429709533 20.40168024512468 0 20.40168024512468 5.1941801927760025 0 0 0 0 -5.5345294045409998 3.6565652020781068 0 3.6565652020781068 -2.3749468915325664 0 0 0 0 -18.567150637490982 26.130872600218026 0 26.130872600218026 -4.2077962993680558 0 0 0 0 -4.9644376836891979 19.2068762198478 0 19.2068762198478 -12.833739779038751 0 0 0 0 -2.0688575827323348 20.275560430150108 0 20.275560430150108 -12.525256330974571 0 0 0 0 -6.4691513245039687 23.849311602079069 0 23.849311602079069 -6.5546536976526113 0 0 0 0 -7.9241992948280995 21.113058061055199 0 21.113058061055199 -10.214492050290573 0 0 0 0 -13.735174777465204 24.476822504355368 0 24.476822504355368 -11.903197069306771 0 0 0 0 -12.284656706463011 23.804991401029838 0 23.804991401029838 -12.183478553717578 0 0 0 0 -8.8522905979516509 23.993979282986402 0 23.993979282986402 -14.71098040925699 0 0 0 0 -12.252832093185702 21.315687334399627 0 21.315687334399627 -6.2630703398508558 0 0 0 0 -10.49067130364952 25.655486883556478 0 25.655486883556478 -11.00919852109655 0 0 0 0 -6.3410977751673272 26.215192003282027 0 26.215192003282027 -7.2674755344839923 0 0 0 0 -10.190528610084698 28.916173736904057 0 28.916173736904057 6.660849784659149 0 0 0 0 -22.41006165382737 22.886549675058632 0 22.886549675058632 13.572277170559573 0 0 0 0 -19.754398409542603 13.799645885537302 0 13.799645885537302 8.7154171827087339 0 0 0 0 -5.2175714532099278 16.733888337679673 0 16.733888337679673 1.7541721115558175 0 0 0 0 -5.9433776589262379 29.058477894204771 0 29.058477894204771 -1.2577939000689184 0 0 0 0 -13.614736234367001 22.663260303349489 0 22.663260303349489 -1.2307718277152162 0 0 0 0 -10.767358402820037 20.329746340702968 0 20.329746340702968 -16.950270117535183 0 0 0 0 -8.8453890338530528 26.342759973971624 0 26.342759973971624 -24.482569980547737 0 0 0 0 -16.870613186858975 23.959263919288105 0 23.959263919288105 -3.4447655008480069 0 0 0 0 -12.083296142220039 35.269102107877075 0 35.269102107877075 -17.082311102226413 0 0 0 0 -7.7990721034464485 33.16401049134862 0 33.16401049134862 8.9663677106746036 0 0 0 0 -6.3282973323590319 20.619482998050614 0 20.619482998050614 9.7224056100822054 0 0 0 0 -6.797857205392936 7.9984968706670685 0 7.9984968706670685 12.501369572550175 0 0 0 0 -7.4769866006911752 -5.0116509253529387 0 -5.0116509253529387 71.366785047787744 0 0 0 0 0.44702569684885884 0.37045685534108408 0 0.37045685534108408 0.25863483552748612 0 0 0 0 -3.6962174335353666 26.94645410854173 0 26.94645410854173 -38.197627848476259 0 0 0 0 -2.1774820810778124 32.945612578667806 0 32.945612578667806 -17.378415382280082 0 0 0 0 13.290725054559942 17.753008916562294 0 17.753008916562294 -0.81088204497063998 0 0 0 0 0.088164337067439646 41.903428786465156 0 41.903428786465156 41.027764312891122 0 0 0 0 -8.7432957898022323 41.08591629343573 0 41.08591629343573 35.404427677893182 0 0 0 0 36.407865418783103 47.73629962225732 0 47.73629962225732 26.999243546876642 0 0 0 0 -119.47932691566567 -29.484442343307819 0 -29.484442343307819 63.110844469760195 0 0 0 0 0.052176003405621785 -0.087835859589790122 0 -0.087835859589790122 -0.24155695765220742 0 0 0 0 -8.7084601809527982 45.157401091683369 0 45.157401091683369 9.5109599267470912 0 0 0 0 -40.426405847679405 21.733362202233366 0 21.733362202233366 -4.8103332707298705 0 0 0 0 -1.1119283167185188 9.9448972471584511 0 9.9448972471584511 17.120275823062912 0 0 0 0 -1.7180628246492451 2.1659959137054052 0 2.1659959137054052 0.92332124246825487 0 0 0 0 11.035727460720693 23.155360155732069 0 23.155360155732069 22.306895456576967 0 0 0 0 2.6537528516777797 12.542039894573008 0 12.542039894573008 9.5881263927458349 0 0 0 0 -4.5875726486692656 3.1459816468368444 0 3.1459816468368444 41.254860079064429 0 0 0 0 -9.7276783322565734 27.67527081580738 0 27.67527081580738 49.341084744798763 0 0 0 0 -6.3756591151932298 29.561894595638023 0 29.561894595638023 34.924211266945349 0 0 0 0 -8.6056015752929547 21.807175326831715 0 21.807175326831715 31.009054047264726 0 0 0 0 -9.1269650355599197 21.272056246573811 0 21.272056246573811 26.451309018979373 0 0 0 0 -33.498839213800494 18.809011720836878 0 18.809011720836878 48.872263078294509 0 0 0 0 -10.97261754390491 24.270137715368946 0 24.270137715368946 -0.23960843525173914 0 0 0 0 49.152899680331018 69.200515826026503 0 69.200515826026503 -95.469382379008948 0 0 0 0 -14.407523244074355 127.95917301987356 0 127.95917301987356 -62.499036992609945 0 0 0 0 -8.6764982880859804 23.556145277512314 0 23.556145277512314 -1.7366370177605859 0 0 0 0 -2.5122523188368255 15.625096544636843 0 15.625096544636843 15.822508867617463 0 0 0 0 60.721557174206907 92.389540041809141 0 92.389540041809141 -49.789263533105441 0 0 0 0 13.736086602019896 18.456995328688663 0 18.456995328688663 -63.661195821529077 0 0 0 0 16.631031649260535 80.227098958489933 0 80.227098958489933 -52.892596415496882 0 0 0 0 14.837562885762026 36.994944531147667 0 36.994944531147667 21.628274728564975 0 0 0 0 4.1552316277253851 57.107926276885792 0 57.107926276885792 51.163719814314163 0 0 0 0 -15.283148139635045 58.233454265171133 0 58.233454265171133 -24.706943334412017 0 0 0 0 -7.6925797740378909 13.917213209254268 0 13.917213209254268 14.593085399361122 0 0 0 0 -17.01111961016754 29.869402718273932 0 29.869402718273932 4.2055853881447547 0 0 0 0 -12.467179798166882 23.568565694324661 0 23.568565694324661 -2.7941277496202019 0 0 0 0 -13.492197462469392 31.520329942096396 0 31.520329942096396 -6.206269998271182 0 0 0 0 -4.8087710775987791 15.277204992084631 0 15.277204992084631 14.518206217255043 0 0 0 0 -12.831327805689597 20.888035033240612 0 20.888035033240612 5.1871265965692146 0 0 0 0 -15.869439211274974 24.841415966856403 0 24.841415966856403 2.9470863965616445 0 0 0 0 -14.89693007281069 22.285017804181734 0 22.285017804181734 7.8080304379782319 0 0 0 0 -15.475687037901281 19.037941735112327 0 19.037941735112327 29.660397551427195 0 0 0 0 -15.628958848157339 21.99957443962694 0 21.99957443962694 7.8693651419926027 0 0 0 0 -8.7784502911344013 9.5062483105855335 0 9.5062483105855335 3.2374185522021435 0 0 0 0 -8.9588234422294875 9.4489391921074457 0 9.4489391921074457 11.543343515234483 0 0 0 0 -15.013924431606284 17.810210874976292 0 17.810210874976292 12.888552961620917 0 0 0 0 -14.610421923641706 18.431301845891426 0 18.431301845891426 2.680043054275302 0 0 0 0 -11.289776002262734 17.429927287050305 0 17.429927287050305 2.9184467322593264 0 0 0 0 -11.293441724507211 17.690540894834157 0 17.690540894834157 -2.8160624257948257 0 0 0 0 -10.382034811170939 19.73061070057247 0 19.73061070057247 0.56272714889473718 0 0 0 0 -12.704726475455324 20.76389522004547 0 20.76389522004547 0.15472892965226492 0 0 0 0 -10.324391453101162 22.950925139591845 0 22.950925139591845 -0.22395954162857379 0 0 0 0 -9.7290671534550839 22.027544400746592 0 22.027544400746592 0.10124704350550928 0 0 0 0 -5.6725749554114202 22.889416163040551 0 22.889416163040551 -1.6028658600935159 0 0 0 0 -9.6000195509592672 21.597325845756131 0 21.597325845756131 -1.3002140160169802 0 0 0 0 -5.7916990006152957 21.085934405292392 0 21.085934405292392 -3.5034746581914078 0 0 0 0 -2.701597121112286 21.895346278867692 0 21.895346278867692 -3.3241345059650484 0 0 0 0 -9.6815704439335342 18.714200130552854 0 18.714200130552854 -2.4385604562012304 0 0 0 0 -6.323276494915941 20.684521242358414 0 20.684521242358414 -1.7414312001383223 0 0 0 0 -8.2329016974734373 20.128519311778291 0 20.128519311778291 -1.8143803172575872 0 0 0 0 -5.4414152079072409 18.051666720059529 0 18.051666720059529 -2.957960880520659 0 0 0 0 -2.7320729057963717 19.811557486029415 0 19.811557486029415 -5.0550604812415258 0 0 0 0 -2.8656489284766735 19.064506921668908 0 19.064506921668908 -3.9592668771038007 0 0 0 0 -2.6328753234225815 19.558307971929253 0 19.558307971929253 -4.4527966589830612 0 0 0 0 -3.5926129991439666 19.5452306912739 0 19.5452306912739 -4.0445928878993982 0 0 0 0 -2.264446869713538 17.461786024372486 0 17.461786024372486 -11.823725016224216 0 0 0 0 -8.1538640077741125 13.659029207816738 0 13.659029207816738 -11.145502527768468 0 0 0 0 -0.81336322219431167 22.809662115039828 0 22.809662115039828 -17.960566172747349 0 0 0 0 3.0817492238675186 22.924819888323327 0 22.924819888323327 -23.991060369051411 0 0 0 0 0.02730329704900214 15.836287354390151 0 15.836287354390151 -11.078085829361953 0 0 0 0 -6.0897014765414497 22.276739467359221 0 22.276739467359221 -17.060695470310748 0 0 0 0 -8.0352011087352366 29.292589806267642 0 29.292589806267642 -18.496060983685311 0 0 0 0 -6.950635749126377 29.969529465615778 0 29.969529465615778 -21.408541478682309 0 0 0 0 -8.4157944808757748 29.416454013817201 0 29.416454013817201 -15.596660079310823 0 0 0 0 1.1494714367980308 5.5648719347384556 0 5.5648719347384556 -10.484603861550424 0 0 0 0 -17.603111877962647 3.3223237467291256 0 3.3223237467291256 -33.148886654337502 0 0 0 0 -27.17495875002686 58.61706090075154 0 58.61706090075154 -96.933223645278758 0 0 0 0 -6.9999750165951671 33.111661000187169 0 33.111661000187169 -22.832451627386778 0 0 0 0 0.016456481835255943 2.2671529430941142 0 2.2671529430941142 -10.019270362187612 0 0 0 0 -2.1342380613413061 18.772697999156886 0 18.772697999156886 7.4175393585425793 0 0 0 0 -1.8564464120807997 53.680575952240815 0 53.680575952240815 -148.3840694711057 0 0 0 0 -2.7653760781264225 20.366635332949045 0 20.366635332949045 -5.1108016267863832 0 0 0 0 -54.392292949265993 32.044858657098303 0 32.044858657098303 -148.08374307545211 0 0 0 0 -2.7511146675216196 20.604833318091551 0 20.604833318091551 -4.5298283475026437 0 0 0 0 -3.0960580357102572 20.027582609909132 0 20.027582609909132 -4.8196354803421855 0 0 0 0 -51.545041740152946 113.37364901461535 0 113.37364901461535 5.3005793148249722 0 0 0 0 -243.02035271687529 -54.202857898778348 0 -54.202857898778348 50.890681685894378 0 0 0 0 34.346018198939099 125.82308899360805 0 125.82308899360805 -52.750028907593332 0 0 0 0 0.42831871837560137 0.72129897949278732 0 0.72129897949278732 0.57401582867593159 0 0 0 0 -1.2460995190993471 1.5405066960221951 0 1.5405066960221951 -1.2403811169863328 0 0 0 0 111.79179252338713 67.700322327555341 0 67.700322327555341 -127.62194493788456 0 0 0 0 -18.348569469958285 25.897751509497624 0 25.897751509497624 51.706695060701122 0 0 0 0 23.976504300751003 -32.900225064887309 0 -32.900225064887309 -139.05418577515275 0 0 0 0 31.65253973244009 33.67349788060767 0 33.67349788060767 52.915684189790966 0 0 0 0 12.681315453388606 32.219145175275571 0 32.219145175275571 49.066604424936145 0 0 0 0 -3.4931608114554216 71.049266405509343 0 71.049266405509343 42.498774639151634 0 0 0 0 7.1378990372462567 39.743813050156405 0 39.743813050156405 -4.2319504770985077 0 0 0 0 -7.1518804678598826 -1.7251586109960044 0 -1.7251586109960044 -40.487023824842822 0 0 0 0 -5.3241139351971505 3.646393290027159 0 3.646393290027159 -2.0178475446873136 0 0 0 0 -0.15757470249758398 27.002837073128262 0 27.002837073128262 110.76111673584273 0 0 0 0 -26.344872289203863 2.2424829084185944 0 2.2424829084185944 -33.201875758503093 0 0 0 0 -9.1920932937933078 16.525829459592337 0 16.525829459592337 -14.634270058417 0 0 0 0 -4.7748048598998594 23.842108715497488 0 23.842108715497488 -41.719122676161646 0 0 0 0 6.3080407586763432 18.77903893541173 0 18.77903893541173 -0.11038484352912725 0 0 0 0 4.1664316152545098 38.439255356678643 0 38.439255356678643 -21.161025752341629 0 0 0 0 -2.3934084514003189 28.436802001167962 0 28.436802001167962 -48.304191927694774 0 0 0 0 6.5528492615453615 39.338813082959859 0 39.338813082959859 -56.834812527870781 0 0 0 0 -6.4180780641911497 32.042291874724469 0 32.042291874724469 -35.818661942859762 0 0 0 0 -7.61335128572955 30.579728752216397 0 30.579728752216397 -19.512780189674231 0 0 0 0 -2.3800821911336243 37.117177107673342 0 37.117177107673342 -30.184206157267909 0 0 0 0 4.3449510009841106 27.982452041040233 0 27.982452041040233 -33.263773782327917 0 0 0 0 4.349102429310733 19.814551352965282 0 19.814551352965282 -19.522846664993267 0 0 0 0 -7.4765454944297289 27.788929436513627 0 27.788929436513627 -32.705745340626891 0 0 0 0 4.6282605385128974 14.842525801982498 0 14.842525801982498 10.071739060949822 0 0 0 0 3.9795338512158196 43.599648251473809 0 43.599648251473809 -53.560019800997907 0 0 0 0 -7.8865684530719591 40.156852190546715 0 40.156852190546715 -28.808578448337357 0 0 0 0 -8.304834004771692 25.518065184153329 0 25.518065184153329 -13.867157587448105 0 0 0 0 -15.151891637299968 30.84277460952444 0 30.84277460952444 -12.467171216259885 0 0 0 0 3.329084665901064 25.61986618361243 0 25.61986618361243 -29.397604887484931 0 0 0 0 -5.6315406630628786 45.630209755343913 0 45.630209755343913 -43.608763641170299 0 0 0 0 -6.4504587296196405 51.872861050499523 0 51.872861050499523 -111.45420630848355 0 0 0 0 19.096689872991192 13.467855783437244 0 13.467855783437244 27.695632989107253 0 0 0 0 1.3966985599057367 14.171298036366098 0 14.171298036366098 8.4413022544399912 0 0 0 0 25.954003576145624 26.452901239518724 0 26.452901239518724 -56.409432951654608 0 0 0 0 -5.7386036123643862 43.582885264685501 0 43.582885264685501 -56.068198786307676 0 0 0 0 13.263112152476424 32.931157092674766 0 32.931157092674766 -27.388705504306017 0 0 0 0 8.8034625321761268 51.003155459633945 0 51.003155459633945 21.412868915801482 0 0 0 0 74.157467927748257 20.995992388590366 0 20.995992388590366 -27.398448924424297 0 0 0 0 -32.543904850415572 17.919415278385372 0 17.919415278385372 -2.5114674044980347 0 0 0 0 -2.9925385450392241 -13.119995803762606 0 -13.119995803762606 0.66689027202664874 0 0 0 0 67.223799859641986 71.47313733249166 0 71.47313733249166 -33.239733680730524 0 0 0 0 11.565394280838063 -18.687011329024244 0 -18.687011329024244 13.073351701264073 0 0 0 0 0.34366402637111459 0.074171174162025011 0 0.074171174162025011 0.77263228805127859 0 0 0 0 -49.80020486218109 30.013461942458889 0 30.013461942458889 17.554571171953285 0 0 0 0 124.54339156308106 10.858125166148284 0 10.858125166148284 -25.901514980622778 0 0 0 0 20.360306991202378 18.928824165133392 0 18.928824165133392 -5.561126156113005 0 0 0 0 -6.6611914745853937 69.504753253955187 0 69.504753253955187 1.5987096973062762 0 0 0 0 32.250186853742889 38.542775217366852 0 38.542775217366852 -3.5097250995095237 0 0 0 0 3.4114433680733782 41.037394182822482 0 41.037394182822482 7.7780315840055891 0 0 0 0 -1.0716298658245478 20.596932891534379 0 20.596932891534379 1.1232763284206158 0 0 0 0 -21.518272546569278 3.5995163341203806 0 3.5995163341203806 5.1927831188786513 0 0 0 0 -3.5485851352104874 23.366116961840362 0 23.366116961840362 4.5526538160150949 0 0 0 0 -12.6515379869752 22.058937220976077 0 22.058937220976077 4.3864390277667553 0 0 0 0 34.112206748792232 33.131570410742825 0 33.131570410742825 14.462494170151331 0 0 0 0 -9.1122045028605498 23.721356864665722 0 23.721356864665722 -8.0923867073861402 0 0 0 0 -21.746496393607231 40.877142433509562 0 40.877142433509562 4.8467201850244237 0 0 0 0 -18.369619498129396 33.296254352621872 0 33.296254352621872 19.788957091402978 0 0 0 0 -1.4796578389386923 9.1079672755599859 0 9.1079672755599859 19.885029528735686 0 0 0 0 0.59022370219317466 -0.54182173498516484 0 -0.54182173498516484 -2.7042226963447096 0 0 0 0 -5.0082289771109956 10.648144471102977 0 10.648144471102977 -16.115163511702786 0 0 0 0 11.625557639170438 33.098098048893007 0 33.098098048893007 14.82729283595836 0 0 0 0 12.274220424787927 15.775487538972357 0 15.775487538972357 2.8014208504846465 0 0 0 0 -7.0697510348290962 -4.4006457777558694 0 -4.4006457777558694 -25.44658363685221 0 0 0 0 -2.4502995896997586 1.330891740579121 0 1.330891740579121 3.399123825602075 0 0 0 0 -16.393536603199209 5.1161848517700506 0 5.1161848517700506 -19.784851329994083 0 0 0 0 27.58843363938422 -51.000735619360739 0 -51.000735619360739 -43.942149847432574 0 0 0 0 -33.733766543586171 0.63051582533842065 0 0.63051582533842065 25.051144616707006 0 0 0 0 -9.9205079940785144 6.0811083159812505 0 6.0811083159812505 -5.1062006553092116 0 0 0 0 -13.909830917036743 33.704221043395592 0 33.704221043395592 -50.180710876455123 0 0 0 0 -11.827126822383434 41.534374076154563 0 41.534374076154563 -57.503775303928705 0 0 0 0 -3.2894279729410592 7.3832079372138084 0 7.3832079372138084 -10.836983720231093 0 0 0 0 -1.2764363489128905 6.4470006663436124 0 6.4470006663436124 4.5545297423147044 0 0 0 0 -32.273245356720849 69.370190916825436 0 69.370190916825436 18.493726660885898 0 0 0 0 -21.644466689336696 48.001630786390933 0 48.001630786390933 -2.7446601687438488 0 0 0 0 -18.586521289215625 23.685071128891934 0 23.685071128891934 163.90628856025023 0 0 0 0 151.39325873482107 -10.884090781643408 0 -10.884090781643408 14.707787324071887 0 0 0 0 4.8157268224995278 19.39430370009768 0 19.39430370009768 21.679334592688065 0 0 0 0 11.399331022615115 35.134144349761527 0 35.134144349761527 11.451228516866649 0 0 0 0 11.769354653810751 32.799482108657685 0 32.799482108657685 -3.8368790528047612 0 0 0 0 5.0665023332958299 17.991083364082442 0 17.991083364082442 5.8334162013786681 0 0 0 0 -1.8051423084163734 5.2658943850377984 0 5.2658943850377984 -1.5054558839526013 0 0 0 0 12.766153609794856 15.3933221501768 0 15.3933221501768 -11.485497794872003 0 0 0 0 12.43651625086477 26.696856171793797 0 26.696856171793797 -6.0920046551100313 0 0 0 0 12.793690964639609 2.8448906902342515 0 2.8448906902342515 -42.087397375911678 0 0 0 0 -3.6444697531602657 9.3710643194980179 0 9.3710643194980179 -17.279758222866509 0 0 0 0 -4.9272891609684955 3.1595305930535291 0 3.1595305930535291 -5.4927772609251946 0 0 0 0 8.8867579328007196 -25.050303595471178 0 -25.050303595471178 -74.042682777530899 0 0 0 0 -29.249716250875736 -6.6458125214743404 0 -6.6458125214743404 -2.1759694067218334 0 0 0 0 23.904860326576454 35.921198871201341 0 35.921198871201341 -30.325320994516346 0 0 0 0 -1.7378576760721423 7.8673754555206177 0 7.8673754555206177 -18.244448298087008 0 0 0 0 19.544659471608568 39.03304331427131 0 39.03304331427131 46.36021031292421 0 0 0 0 19.980776772219087 34.469564912555313 0 34.469564912555313 19.268699680431382 0 0 0 0 46.499576973132207 58.664599044912393 0 58.664599044912393 37.459103196365049 0 0 0 0 349.18748318916778 103.09099167708666 0 103.09099167708666 -53.858088924204253 0 0 0 0 7.4938379217610418 7.1224922209767101 0 7.1224922209767101 -23.077110720917972 0 0 0 0 -74.923634175128541 21.248931083174512 0 21.248931083174512 107.96372375073906 0 0 0 0 332.80066208133542 109.56198750232937 0 109.56198750232937 -44.720670751300077 0 0 0 0 1.1094467970046042 0.79016588441957758 0 0.79016588441957758 3.1381801421607864 0 0 0 0 337.59460049156729 99.853795938010819 0 99.853795938010819 -38.640586738723869 0 0 0 0 353.98838760890499 93.446944508504771 0 93.446944508504771 -47.898583804709801 0 0 0 0 0.87027656186333813 1.5483049323102804 0 1.5483049323102804 1.9086630644456797 0 0 0 0 -185.94156032674806 93.375551843009134 0 93.375551843009134 -1.9886063831550018 0 0 0 0 -131.93929988379898 99.079750110384225 0 99.079750110384225 -43.593433987618937 0 0 0 0 -103.46585700361501 91.450668586879942 0 91.450668586879942 -44.254819390150487 0 0 0 0 -103.48023018251081 91.657653099217555 0 91.657653099217555 -43.97928339526959 0 0 0 0 -51.630973231134675 66.261578562202089 0 66.261578562202089 -64.963778517625997 0 0 0 0 -73.717108449048709 100.74267550499474 0 100.74267550499474 -111.81037731387687 0 0 0 0 -138.45205607933303 168.68877685055418 0 168.68877685055418 -159.0220376221672 0 0 0 0 -0.81545137670139112 0.98810234377342221 0 0.98810234377342221 0.72593176651455926 0 0 0 0 -45.592098982431139 -12.772266471629507 0 -12.772266471629507 394.24274436285555 0 0 0 0 4.0131734852362513 31.601880310606475 0 31.601880310606475 161.39163705986437 0 0 0 0 31.959113880310127 -16.728290931802235 0 -16.728290931802235 147.24282804863583 0 0 0 0 -16.796225930228587 44.26317595146395 0 44.26317595146395 132.08119381016513 0 0 0 0 -56.78065430866684 102.92539963583772 0 102.92539963583772 119.67995090868249 0 0 0 0 -33.742748027172524 119.77328859454838 0 119.77328859454838 57.026314330091168 0 0 0 0 78.227956361265115 114.91496434653027 0 114.91496434653027 39.724327609617831 0 0 0 0 116.90185813871321 194.22239311636827 0 194.22239311636827 92.297027881206077 0 0 0 0 -145.78539422094661 188.76188800118143 0 188.76188800118143 95.947949998986587 0 0 0 0 
</DataArray>
<DataArray type="Float64" Name="cross_section_updated" format="ascii">
1 1 1 1 1 1 1 1 1 0.0098798991132945223 1 0.0093845909010350694 1 1 1 1 1 1 1 1 1 1 1 1 1 1 1 0.0098757867203043137 1 1 1 1 1 1 1 1 1 1 1 1 0.0099468335308744819 1 1 1 1 1 1 1 1 1 1 1 1 1 1 1 1 1 1 1 1 1 1 1 1 1 1 0.011448420257603422 1 0.011007677269140438 1 1 1 1 0.011760892991295029 0.010882442399115261 1 1 0.010754151100520108 1 1 0.0078464204413557191 1 1 1 1 1 1 1 1 1 1 0.010004232550369276 1 1 1 1 0.0084467340474523485 1 1 1 1 1 1 1 1 1 1 1 1 0.010291856358736261 1 1 1 1 1 1 1 1 1 1 0.010037724326733218 1 1 1 1 1 1 0.010882826433516256 1 1 1 1 1 1 0.011466682131972748 1 0.0099807654986630856 1 1 1 1 1 1 1 1 1 1 1 0.0099177803218399065 1 0.010106303973591264 1 1 1 1 0.010000104279312983 1 0.0099878512722901807 1 1 1 1 1 1 1 1 1 1 0.010002319082557342 1 1 1 0.0099009467417225556 1 1 1 1 0.010361328165146347 1 1 0.0097998838783412649 1 0.010898412771429259 1 0.0097360640688003222 1 0.01112401014242231 1 1 0.010229562283506846 1 0.011129714625570001 1 1 1 0.010038358600556662 1 1 1 0.010326235880957171 1 1 0.0095073270197984505 1 1 0.010209360997163847 1 1 1 0.0090929981777103843 0.01001065942257898 0.010718105183554635 1 1 1 1 1 1 1 1 1 1 0.010380003238321268 1 1 0.011047390557617338 1 1 0.010001596917776433 1 1 1 1 0.011906394097690981 1 1 1 1 1 1 1 1 1 1 1 1 1 1 1 1 1 1 1 1 1 1 1 0.0099257322378191216 1 1 1 1 1 1 1 1 1 1 1 0.01016128992107383 1 1 1 0.010468535607645331 1 1 0.0097932263077094572 1 1 1 1 1 1 1 1 0.0088818004806722629 1 1 1 1 0.009413634915948571 1 1 1 1 1 1 1 1 1 1 1 0.0083985623788039934 1 1 0.0099956429641354476 1 1 1 1 1 1 1 1 0.010062017653769781 1 1 0.010681940321838253 1 0.0091153445152263902 1 1 0.0099422909101414634 1 1 0.01001606669743247 1 1 1 1 1 1 1 1 1 1 1 1 1 1 1 1 1 1 1 1 1 1 0.0101292269780307 1 1 1 1 1 1 1 1 1 0.0098424538925950614 1 1 1 1 1 1 1 1 1 1 1 1 1 1 1 1 1 1 1 1 1 1 1 1 0.0090280311196347263 1 1 1 1 1 1 1 1 1 0.010015667973477898 1 1 1 0.010043671245727364 0.0097968573830453966 1 1 1 0.01009713573041901 1 1 0.0099351051779866043 1 0.010352817022485378 1 1 0.0096133412469358026 0.01052387499343814 1 1 0.010090119282581661 1 1 0.010829697665233673 1 0.009450440574514888 1 1 0.011936256914987543 1 1 1 1 1 1 1 1 1 1 1 1 1 1 1 1 1 0.010361467427246085 1 1 1 1 1 1 0.0099144557793687145 1 1 0.0099856174112210212 1 1 1 1 1 1 1 1 0.010135421988097004 1 1 1 1 0.0095912975119794922 1 1 1 1 1 0.010049746848850901 1 1 1 1 1 1 1 1 1 1 1 1 1 0.0099391014020452362 1 1 1 0.0092470645148096456 1 1 1 1 0.0099937947271671081 1 1 1 0.0097814874047060241 0.010267938986268411 0.0089885783831220381 1 1 0.0098333575798189125 0.0096037921599487711 1 0.010024265181138036 0.01010088325180453 1 1 1 1 0.0087746376655770363 0.010792023936234801 0.010006570390400295 1 1 0.01006387376493343 1 1 1 1 1 1 0.010027284176155307 1 1 1 1 1 1 1 0.0099948125668241645 1 1 0.0099713812889818121 1 1 1 0.010069989451317906 1 1 1 1 0.010000047102435659 1 0.010026823484353275 1 1 1 1 1 1 1 1 1 1 1 1 1 1 1 1 1 0.010034873879447116 1 1 1 1 1 1 1 1 1 1 1 1 1 1 1 1 1 0.0099648069216824991 1 0.0099044969865524409 1 1 1 1 1 1 1 1 1 1 1 1 0.0098828672844422181 1 1 1 1 1 0.0099432154668502443 1 1 1 1 1 1 1 1 1 0.0099645347662995019 1 0.010841708676653085 1 1 0.0090537255342494072 1 1 1 1 1 1 1 1 1 1 1 1 1 1 1 1 0.0096938398801743094 1 1 1 1 1 1 1 0.0099324642913266835 1 1 1 1 1 1 0.0083685157525204383 1 0.010088850851462163 1 1 1 0.0099797487902119151 0.010262611301803407 0.0083518417275552474 1 1 1 1 1 1 1 0.0086679901963942936 1 1 1 1 0.0099864326462483586 1 1 1 1 1 1 1 1 1 1 0.009999058592967968 1 1 0.010740088412808817 1 1 1 1 1 1 1 1 1 1 0.010188343328307869 1 1 0.0102720813890862 1 1 1 1 1 1 1 1 1 1 1 1 1 1 0.0099953228792463884 1 1 0.009210725834456257 1 0.0083203613388950926 1 1 1 1 1 1 1 1 1 1 1 1 1 1 1 1 1 1 0.010059116350277165 0.0099534631581745282 1 1 1 1 1 0.0098558321895995775 1 1 1 1 1 1 1 1 1 1 1 1 1 1 1 1 1 1 0.010147403500756266 1 1 1 1 1 1 1 1 0.010346917835983722 1 1 1 1 0.0099219894319144478 1 0.0099732277102937902 1 1 1 1 1 1 1 1 1 1 1 1 1 0.010041690355167811 1 1 1 1 0.010117567370792956 1 1 1 0.0099856864923832563 0.010383241637137707 1 1 1 1 0.0099478520392778796 1 0.0093065971577321951 1 1 0.010028032674584035 1 0.0081606735901220383 1 1 1 1 1 1 1 1 1 1 1 1 1 1 1 1 1 1 0.0083573429268120024 1 1 0.0080385259801261048 1 1 1 0.0081297011291362672 1 1 1 1 0.010045095108248664 1 1 1 1 1 1 1 0.010041671409477657 1 1 1 0.010117548425102802 1 1 1 1 1 1 1 1 1 1 1 1 1 1 1 1 1 1 1 1 1 1 1 1 1 1 1 1 1 1 1 0.010401097555338405 1 1 1 1 1 1 0.008980452434038378 1 1 1 1 1 1 1 1 1 1 1 0.0091043613911894854 1 1 1 1 1 1 1 0.0086401852801403691 1 1 1 1 1 0.0078988629114858759 1 1 0.011485753781900226 1 1 1 0.0099015475711703802 1 1 1 0.009967640615215427 0.011285879737623543 1 1 1 0.0097445717449070896 0.0099134752235840538 1 1 1 1 1 1 1 1 1 1 1 1 1 1 0.010102083902238379 1 1 1 1 1 0.010308169553270635 1 1 1 1 1 1 1 1 1 1 1 1 1 1 1 1 1 1 1 1 1 1 1 1 1 1 1 1 1 1 1 1 1 1 1 1 1 1 1 1 1 1 1 1 1 1 1 1 1 0.0084830182050274934 1 1 1 1 0.012765076893897843 1 1 1 1 1 0.010694156157838672 1 0.010510033296219917 1 1 1 1 1 1 1 1 1 1 1 1 1 1 1 1 1 0.0098817667969732185 1 1 1 0.0098805782315216032 1 1 1 1 1 0.0099484956840822994 1 1 1 1 1 1 1 1 1 1 1 1 1 1 1 1 1 1 1 1 1 1 1 1 1 1 1 1 1 1 1 1 1 1 1 1 1 1 1 1 1 1 1 1 1 1 1 1 1 1 1 1 1 1 1 1 1 1 0.0099092216115796144 1 1 1 1 1 1 1 1 1 1 1 1 1 0.010190394475533073 1 1 1 1 1 1 1 1 1 1 1 0.010549862655444752 1 1 1 0.0098633340267770403 1 1 1 1 1 1 1 1 1 1 1 1 1 1 1 1 1 1 1 1 1 1 0.0099496842495339147 1 1 0.010077386656964366 1 1 0.010250172215071553 1 1 1 1 1 1 1 1 1 1 1 1 0.0089498052464766602 1 1 1 1 1 1 1 1 1 0.010034533889815195 1 1 1 1 1 1 0.0090219016214518159 1 1 1 0.01000450133856466 1 1 0.0084057193773016455 1 1 1 1 1 1 1 1 1 0.010078157624347658 1 1 1 1 1 1 1 1 1 1 0.011071234522624013 1 1 1 1 1 1 1 0.01157792829506942 1 1 1 1 1 0.0087541548619343816 1 1 1 1 1 1 1 0.0099934893869527489 1 1 1 1 1 1 0.0096735211391081061 0.01060047665913133 1 1 1 1 1 1 1 1 0.008539075678008547 1 1 1 1 1 1 1 1 1 1 1 1 1 1 1 1 1 1 0.010065459873007075 1 1 1 1 1 1 1 1 1 1 1 1 1 0.0087403931829149236 1 1 1 0.010050434861700059 0.0084267921062245194 1 1 1 1 1 1 1 1 1 1 1 1 1 1 1 1 1 1 1 1 1 1 1 1 1 1 1 1 1 1 1 1 1 1 1 1 1 1 1 1 1 1 1 1 1 1 1 0.010004050010111978 0.010442635568080619 1 1 1 0.010022665704362379 1 1 1 0.0086416836499319787 1 1 0.0086257818227282353 1 1 1 1 1 1 1 1 1 1 1 0.0088811901272087303 1 1 1 1 1 1 0.0097558912678697846 1 0.009017641211388731 0.0091718735277535757 1 1 1 0.010182577033712075 1 1 0.010149897148545063 1 0.0099913078723092106 1 1 1 0.0092065792531264672 1 1 1 1 0.010024695685140675 1 1 1 1 0.010022637860797249 1 1 1 0.010061946756625398 1 1 1 1 1 1 0.010001390873816492 1 1 1 1 1 1 1 1 1 1 0.0099922312017624443 1 1 1 1 1 1 1 1 1 1 1 1 1 1 1 1 1 1 1 0.0100267562880893 1 1 1 1 1 0.010070280336544125 1 1 0.0099853280449457727 1 1 1 1 1 1 1 1 1 1 1 1 1 1 1 1 0.010009550057155229 1 1 1 1 1 1 1 1 1 0.010026915628322561 1 1 1 1 1 1 1 1 1 1 1 1 1 1 1 1 1 1 1 0.0097923112314239735 1 1 1 0.009814779754616771 0.0099428763882605121 1 1 1 0.0097925275932665493 1 1 1 0.0099722214162677701 1 1 1 1 1 1 0.0097913158482763329 1 1 1 1 1 1 1 1 1 1 1 0.0098797498529629227 0.0095555566588233515 1 1 1 1 0.0096897731936315696 1 1 1 1 1 1 1 1 1 0.009727119990191848 1 1 1 0.0096463292104940583 1 1 1 1 1 1 1 1 0.0095211886663866853 1 1 1 1 1 1 1 0.0099722448400813551 1 1 1 1 1 1 1 1 1 1 0.01028735839753693 1 1 1 0.010789416324612309 1 1 1 1 1 1 0.0085403888923596301 0.0099217032438609944 1 1 1 1 0.0093693489710727895 1 1 1 1 1 1 1 1 1 1 1 1 1 1 1 1 1 1 0.01005384821050101 1 1 1 1 1 1 1 0.008636685354449801 1 1 1 1 1 1 1 1 1 0.010028285024321461 1 1 1 1 1 1 0.0084815166933716636 1 0.009972689063492678 1 1 1 1 0.0099965063989234781 1 1 1 1 1 1 1 1 1 1 0.0085014435159623068 1 1 1 1 1 1 1 1 1 1 1 1 1 1 1 1 1 1 1 1 1 1 1 0.010039249757633584 1 0.0085246668405053513 0.010008292276957528 1 1 0.010255576401553237 0.0094186529745537116 1 1 1 1 1 1 1 1 1 1 1 1 1 1 1 1 1 1 0.010033104993628469 1 1 1 0.01009951737560596 1 1 0.010066412381977492 1 1 1 1 1 1 1 1 1 1 1 1 1 0.0092847810357095384 1 1 1 1 1 1 0.0092350201361230434 1 1 1 1 1 1 1 1 1 1 1 1 1 1 1 1 1 1 1 1 1 1 1 1 0.0099906260847275278 1 1 0.010025563186179549 1 1 1 1 1 1 1 1 1 1 1 1 1 1 0.010445067797477649 1 0.010126616928958616 1 1 0.010737200287979596 1 0.010146905860615806 1 1 1 1 1 1 0.010756992635441338 1 1 1 1 1 0.01004858753977971 1 1 1 1 1 1 1 1 1 1 1 1 1 1 1 1 1 1 0.011338369595042971 1 1 1 1 1 1 0.011733352497659878 1 1 1 1 0.010817736547098451 0.010041231070897438 1 1 0.0096376440304395804 1 0.010596071226033175 0.011499961811713772 1 1 0.0099157927399185618 1 0.009161836547383468 1 1 1 1 1 0.0093638434559988343 1 0.0099916822090871573 1 1 1 1 1 0.0097684062349267589 1 1 1 1 1 1 1 1 1 0.0093180340643568837 1 1 1 0.0088683147889843349 1 1 1 1 0.0099993383880012787 1 1 1 1 1 1 1 1 1 1 1 1 1 1 1 1 0.010149272208951831 1 1 1 0.010031033853007005 1 1 1 1 1 1 1 1 1 1 1 1 1 1 1 1 1 1 0.009968194768988782 1 0.0097197375749960273 1 1 1 1 0.010672851523163385 1 0.0099990783545819712 1 1 1 0.010264886482518044 1 1 1 1 1 1 1 1 1 1 1 1 1 1 1 1 1 1 1 1 1 1 1 1 1 1 1 0.0099000261656339728 1 0.010382410765192578 1 0.010322567028456043 1 1 1 0.010364169065136467 0.0099638221302125567 1 1 1 0.009855326866829002 1 0.010308393225044225 1 1 1 1 1 1 1 1 1 1 1 0.0099655507056320598 1 1 1 1 1 1 1 1 1 1 1 1 1 0.0098808963783038363 1 1 1 0.009888689746175898 1 1 1 1 1 1 1 1 1 0.010034072754923185 1 1 1 0.009726782481504985 1 1 1 1 0.0098992495927606484 1 1 1 1 1 1 1 1 0.010088802242453562 1 1 1 1 1 1 1 1 1 0.01008874016950554 1 1 1 1 1 1 1 1 1 1 1 1 1 1 1 1 1 1 1 1 1 1 1 1 1 1 1 1 1 1 1 1 0.0099868822993655678 1 1 0.010073705884408524 1 1 1 1 1 1 1 1 1 1 1 1 1 1 1 1 0.010224082334493935 1 0.0098780744578066439 0.01040228563930589 1 1 1 0.0099902277485985555 1 1 1 1 1 1 1 0.009997961802836533 1 1 1 1 1 1 1 0.0099142618678339355 1 0.0099163927625680465 1 1 1 1 1 1 1 1 1 1 0.010127234250880824 1 1 1 1 0.01011569666719998 1 1 0.010038116994996368 0.010461781577459292 0.0099975433953667526 0.010219484892387163 1 1 1 1 1 0.0099979673557813106 1 1 1 1 0.010000120245604382 1 1 1 1 1 1 0.010299630174224125 1 1 1 1 1 1 1 1 1 1 1 1 1 0.010014769452572247 1 1 1 0.010118183470261655 1 1 1 1 1 1 1 1 1 1 1 1 1 1 1 0.010020425185748366 1 1 1 1 1 0.0097644636794707671 1 1 0.010084280927977711 1 1 1 1 1 1 1 1 0.0092254452201348987 0.01034954760782913 1 1 1 1 1 1 1 0.01021742840705853 1 1 1 1 1 1 1 0.010075963951508282 1 1 1 1 1 1 0.010041744358544855 0.0089633944606994816 1 1 1 1 0.009701799177591508 0.0096350693715439029 1 1 1 1 1 1 1 1 1 1 1 1 1 1 1 1 1 1 1 1 1 1 1 1 1 1 1 1 1 1 1 1 1 1 1 1 1 1 1 1 1 1 1 0.0091177320263805626 0.0090206372520555689 1 1 0.0099780505524145677 1 1 1 1 1 1 1 1 1 1 1 0.010027501793038471 1 1 1 1 1 1 1 1 1 1 1 1 1 1 1 1 1 1 0.0099987714511711109 1 1 0.0099922976702178888 1 1 1 1 1 0.009993504781504927 1 1 1 1 0.0099615804245519433 1 1 1 1 1 1 0.0099820137927259592 1 0.010010765135250689 1 1 1 1 1 0.0099820491043589483 1 1 0.010033344342365998 1 1 1 1 1 1 1 1 1 1 0.0099618050291927183 1 1 0.0099234431540206267 1 1 1 1 1 1 1 1 1 1 1 1 0.010020721312227292 1 1 1 1 1 1 1 1 1 1 1 1 1 1 0.010045108083056149 1 1 1 1 1 1 1 1 1 1 1 1 1 0.010024386770828857 1 1 1 1 1 1 1 1 1 1 1 1 1 1 1 1 1 1 0.0098338226646583465 1 1 1 0.010086528775506981 1 1 1 0.010062105868045016 1 1 1 1 1 1 1 1 1 1 1 1 1 1 1 1 1 1 1 0.010022597353858203 1 1 1 1 1 1 1 1 1 1 1 0.010192576337498491 1 1 1 0.010245736786508211 1 1 1 1 1 1 1 1 0.010186335799031498 0.009398351791840634 1 1 1 0.010209533504125437 1 0.0099860331387422816 1 1 0.0095283551318462514 1 1 0.010114045031087296 1 0.010263345243847758 1 1 0.0095633876525786018 1 0.0099101736569653098 0.01028316035910848 0.0096916386308559029 1 1 1 1 1 1 1 0.0099963241520565141 0.0097691091355509505 1 1 0.0099867899573415735 1 0.01004961203610303 1 1 1 1 1 1 1 1 1 1 1 1 1 1 1 1 1 1 1 1 1 1 1 1 1 1 0.010278350995870317 1 1 1 1 1 0.0097288903768761766 1 0.0094739191225988121 1 1 0.012727570295475246 1 1 1 1 1 1 1 1 0.0095683098342504436 1 1 1 0.0099947027654844652 1 1 1 1 1 1 1 1 1 1 1 1 1 1 1 0.0098045610103619698 1 1 1 1 1 1 1 1 1 1 1 1 1 1 1 1 1 1 1 1 1 1 1 0.010000200228095141 1 1 1 0.010620387413686178 1 1 1 1 1 1 1 0.010167333647789463 1 0.0099830741436777344 1 1 1 1 1 1 1 1 1 1 1 0.011375422705439923 0.0098123299220517109 1 1 0.012782458110609726 1 1 1 1 1 1 1 1 1 1 1 1 1 1 1 1 1 0.010052172969616434 1 1 1 0.01021101072235495 1 1 1 1 1 1 1 1 1 1 1 1 1 1 1 1 1 1 1 1 1 1 1 1 1 1 1 1 1 1 1 1 1 1 1 1 1 1 1 1 1 1 1 1 0.0098949452519496005 1 1 1 1 1 1 1 1 1 1 1 0.0098500507045899098 1 1 1 1 1 1 1 1 1 1 1 0.010079098623300364 1 1 1 1 1 1 1 1 1 1 1 0.0099731496896435547 1 1 1 1 1 1 1 1 1 1 1 1 1 1 1 1 1 1 1 1 1 1 1 1 0.0099991212021118218 1 1 0.0099227096597929911 1 1 1 1 1 0.010486750157168521 1 1 1 1 1 1 1 1 1 1 1 1 1 1 1 1 1 1 0.010231393551670624 0.0095136510570702579 1 1 0.011005000925203977 1 1 1 1 1 1 1 1 1 1 1 1 1 1 1 1 1 1 1 1 1 1 1 1 1 1 1 1 1 1 1 1 1 1 1 1 1 1 1 1 1 1 1 1 1 1 0.0094693257330599849 1 1 1 0.0098241876768768947 1 1 1 1 1 1 1 1 1 1 1 1 1 1 1 1 1 1 1 1 1 1 1 1 1 0.0099991118775283414 1 0.011250448716004063 0.0099939942662957606 1 1 1 1 1 0.010961859225428409 1 1 0.010001967138734476 1 1 1 1 1 1 1 1 1 1 1 1 1 1 1 1 1 1 1 1 1 1 1 1 1 1 1 1 1 1 1 1 1 1 1 1 1 1 1 1 1 0.0098751439929361667 1 1 1 1 0.0099785238089222569 1 1 1 0.011108725620661779 1 1 1 1 1 1 1 1 0.010086383752398063 1 1 1 1 1 1 1 1 1 1 1 1 1 1 1 1 1 1 1 1 1 1 1 1 1 0.0099414373383197169 1 1 1 1 1 0.010174259779644049 1 1 1 1 1 1 1 1 1 1 1 1 1 1 1 1 1 1 1 1 1 1 1 1 1 1 1 1 1 1 1 1 0.0095261559697400501 0.010226219698112403 1 1 1 1 1 1 1 1 1 1 0.0099698991493985742 1 1 1 0.010086769982477319 1 1 0.0098782982270465176 1 1 1 1 0.0099723088959631275 1 0.010014812465922198 1 1 1 0.0099114235917196758 1 1 1 1 1 0.010696491284245487 1 1 1 0.010249058546799718 1 1 1 1 1 1 1 1 1 1 1 1 1 1 1 1 1 1 1 0.0099147025609577326 1 1 1 1 1 1 1 1 1 1 1 1 1 1 1 1 1 1 1 1 1 1 1 1 1 1 1 1 1 1 1 1 1 1 1 1 1 1 1 0.010018372844462284 1 1 1 1 1 1 1 1 1 1 1 1 1 1 1 1 1 1 1 1 1 0.010480820087829221 1 1 1 1 1 1 1 1 0.011243521837858842 1 1 1 1 0.011751368319436259 1 1 1 0.010009769950626584 1 0.010086172926606895 1 1 1 1 1 1 1 1 0.010444201010454174 1 1 1 0.010849953520314275 1 0.0099900217782260617 1 1 1 1 0.0099886794561719443 1 1 1 1 1 1 1 1 1 1 1 1 1 0.011014676507550629 1 0.011442047652407104 1 1 1 1 1 0.011804227594683993 1 1 1 1 1 1 1 1 1 1 1 1 1 1 1 1 1 1 1 1 0.012100492935940427 1 1 1 1 1 1 0.0086877676691086234 1 1 1 1 1 1 1 1 1 1 1 1 1 1 1 1 1 1 1 1 0.012246394492937584 1 1 1 1 1 1 1 1 1 1 1 1 1 1 1 1 1 1 1 1 1 1 1 0.0085555705639730716 1 1 1 1 1 1 1 0.0085968795953968863 1 0.010048292448597736 1 1 0.0086348991372702938 1 1 1 1 1 1 1 1 1 1 1 1 1 1 1 1 1 1 1 1 1 1 1 1 1 1 1 1 1 1 1 0.0083560840113396824 1 1 1 1 1 0.010218231493892191 1 1 1 1 1 0.012285530328619992 1 1 1 1 1 0.012191916504709634 1 0.010623445559315114 1 1 0.011980822357161438 1 1 1 1 1 1 1 1 1 1 1 1 1 1 1 1 1 1 1 1 1 1 1 1 1 1 1 1 1 1 1 1 1 1 1 1 1 1 1 1 1 1 0.0095821728364376708 1 1 1 1 1 1 1 0.0099752230229903857 1 0.0098853660381793933 1 1 1 0.00997374777184298 1 0.0087059312505071013 1 1 1 1 0.010025404331318209 1 1 1 1 1 0.0099863557707953691 1 1 1 1 1 1 1 1 1 0.009950172267909339 1 1 1 1 1 1 1 1 1 1 1 1 1 1 1 1 1 1 1 1 1 1 1 1 1 1 1 1 1 1 1 0.010034833610564325 1 0.0098486683198254626 1 1 1 1 1 0.0092260486321151906 1 1 1 1 0.0089532471295880791 1 1 1 1 1 1 1 1 1 1 1 1 1 1 1 1 1 1 1 1 1 1 1 1 1 1 1 1 1 1 1 1 1 1 1 1 1 1 1 1 1 1 1 1 1 1 1 1 1 1 1 1 1 1 1 1 1 1 1 1 1 1 1 1 1 1 1 1 1 1 1 1 1 1 1 1 0.0099352109461469107 1 1 1 1 1 1 1 1 1 1 1 1 1 1 1 1 1 1 1 1 1 1 1 1 1 1 1 1 1 0.00982650825825079 1 1 1 1 1 1 1 1 1 1 1 1 1 1 1 1 1 1 1 1 1 1 1 1 1 1 1 1 1 1 1 1 1 1 1 1 1 1 1 1 1 1 1 1 0.010160909624540125 1 0.009696524438472685 1 1 1 1 1 1 1 1 1 1 1 1 1 1 1 1 1 1 1 1 1 1 1 1 1 1 1 1 0.009731775030852036 1 0.01013304430781202 1 1 1 1 1 1 1 1 1 1 1 1 1 1 1 1 1 0.0099970907348196792 1 1 1 1 1 1 1 1 1 1 1 1 1 1 1 1 1 1 1 1 1 1 1 1 1 1 1 1 1 1 1 1 1 1 1 1 1 1 1 1 1 1 1 1 1 1 1 1 1 1 1 1 1 1 1 1 1 1 1 1 1 1 1 1 1 1 1 1 1 1 1 1 0.010079680576252682 1 0.0094787721008097806 1 1 1 1 1 0.0097949458238855373 1 1 1 1 1 1 1 1 1 0.0098964497719694101 1 1 0.0094612521918616826 0.010379350426183719 1 0.010146664387965368 1 1 1 1 1 1 1 1 1 1 1 1 1 1 1 1 1 1 1 1 1 0.0097647105245457846 1 1 1 1 0.0098512021019959671 1 1 1 1 1 1 1 0.0098044380963216264 1 1 0.00998459836658043 1 1 0.0099421195924359381 1 0.0099923848476717661 1 1 1 0.010149499107792809 1 1 0.010390063533810773 1 1 1 1 1 0.010151043144353472 1 0.010260084193827231 0.010006391282047984 1 1 1 1 0.010179061789782059 1 1 1 1 1 1 1 1 1 0.0099651786948960867 1 1 0.009862424788236698 1 1 1 1 1 1 1 1 1 1 1 1 1 1 1 0.0099992654901636009 1 1 1 1 1 1 0.0099692431772288384 1 1 0.010228296713211987 1 1 0.0099277190541650229 1 0.010080961461987871 1 0.009895215402927475 0.010172253898258815 1 0.010063948097418562 1 0.010145998868437617 0.010139300784732094 1 1 0.0098932341808829309 1 1 1 1 1 1 1 1 1 0.010000506806517854 1 1 1 0.010137358954960636 1 1 1 1 1 1 1 1 1 1 1 1 0.01017191111650375 1 1 1 1 1 1 1 1 1 0.010060332010342073 1 0.0097949297769777122 1 1 1 1 1 1 1 0.0099463924937125033 1 1 1 1 1 1 1 1 1 1 1 1 1 1 1 1 1 1 1 1 1 1 1 1 1 1 1 1 1 1 1 1 1 1 0.0099076133854835678 1 1 1 0.010013230539800379 1 1 1 1 1 1 1 1 1 0.0095953162912219524 1 0.010541951479419704 1 1 1 0.010661760063016192 1 1 1 1 1 1 1 1 1 0.0098946793701984188 1 1 1 1 1 1 1 1 1 1 1 1 1 1 1 1 1 1 1 1 1 1 1 1 1 1 1 1 1 0.0099698861165101339 0.010276081440427525 1 1 1 1 0.0098699990469115987 1 0.0099135310649073778 1 1 1 0.0097968230740704994 0.01002004426431702 1 0.010232488143094553 0.0099141346682873922 1 0.010287554227039156 1 1 1 1 1 1 1 0.010010885527834953 1 1 1 1 1 0.009828316273444172 1 0.0098824348416255044 1 1 1 0.010033786503064811 1 1 0.009739243449453797 1 1 1 0.010030130864710463 1 1 0.0098364205424985307 0.0098273473934149362 0.010028554664213277 1 1 1 0.010062121727612242 1 1 1 1 0.0099999314501076179 1 1 1 1 1 0.0098390130260180893 1 0.010087077126275592 1 1 0.010115307439677524 1 0.010076541585549282 1 1 1 1 1 1 1 1 1 0.0099153076755117558 1 1 1 1 1 1 1 1 1 1 1 1 1 1 1 1 1 1 1 1 1 1 0.0099652972004082505 1 1 1 1 1 0.0099917799792393555 1 0.0098592097997213975 1 0.0096711131374604131 0.010160145232955279 1 1 0.010098815373165121 1 0.010197789177863383 1 1 1 1 0.0099614512911820399 1 1 1 1 1 1 1 1 1 1 1 1 1 1 1 1 1 1 1 1 1 1 1 1 1 1 1 1 1 1 1 1 1 1 1 1 1 1 1 1 1 1 1 1 1 1 1 1 1 1 1 1 1 1 1 1 1 1 1 1 1 1 1 1 1 1 1 1 1 1 1 1 1 1 1 1 1 1 1 1 1 1 1 1 1 1 1 1 1 1 1 1 1 1 1 1 1 1 1 1 1 1 1 1 1 1 1 1 1 1 1 1 1 1 1 1 1 1 1 1 1 1 1 1 1 0.010047760785644682 1 1 0.010133734666283634 1 1 1 1 1 1 0.0099871928598801209 1 1 1 1 1 1 0.0099717991892984258 1 1 1 1 1 1 1 1 1 1 1 1 1 1 1 1 0.0099687746623211334 1 1 1 1 1 1 0.0099821643563262549 1 1 1 1 1 1 1 1 1 1 1 0.009914986866624096 1 1 1 1 1 1 1 1 0.010062295100172439 1 1 1 1 1 0.0099979960234234319 1 1 0.010104063897285482 1 1 1 1 1 1 1 0.010036707440730638 1 1 1 1 1 1 1 1 1 1 1 1 1 1 1 0.0098975989259698655 0.0099232039805501795 1 1 1 1 0.0098500033658887962 1 1 1 1 1 1 1 1 1 1 1 1 1 1 1 1 1 1 1 1 1 1 1 0.0096586475923110034 1 1 1 1 1 1 1 1 1 1 1 0.010150620637450222 1 1 1 1 1 1 1 1 1 0.0095733871556364612 1 1 1 1 1 1 1 1 1 1 1 1 0.0098651771739066904 1 0.010751218213152093 1 1 0.0099970614093582138 1 1 1 1 0.0097677614410872169 1 1 1 1 1 1 1 1 1 1 0.0097867719212675376 1 1 1 1 1 1 1 0.0097014680068561836 0.010036777435430461 1 1 1 0.0098858787616982642 0.010757311785014767 0.010075290550428233 1 1 0.010717932538416559 1 1 0.010255812721492865 1 0.010050530162574109 1 1 1 1 0.010403784378730236 1 1 1 0.010451688202819153 1 0.01009216394360494 1 1 0.0099925330920548859 1 1 0.010585765538855705 1 1 0.0098740857486869608 0.010011423306286444 1 1 1 1 1 1 0.0097192303856830885 1 1 0.009859247949668172 1 0.010946913998086304 1 1 1 0.010861398390699342 1 1 1 1 1 0.0093796483805180676 0.009659539247219814 1 1 0.0099996224881227971 0.011239993625115125 1 1 1 0.010461450900677266 0.0098142800080513043 1 0.010734623012215401 1 1 0.010006673082289842 0.0098460093129432869 1 1 0.0095434645260447266 1 1 1 0.010226370952972687 1 0.0097619490267435976 1 1 1 1 1 1 1 1 1 0.0099192576357641053 1 1 1 1 1 1 1 1 1 1 1 1 1 1 0.010474475407912315 1 1 0.010736175301579947 1 1 1 1 1 1 1 1 1 1 1 1 1 1 1 1 1 1 1 1 1 1 1 1 1 1 1 1 1 1 1 0.010142967777069687 1 1 1 1 1 1 1 1 1 1 0.0099957044455809343 1 1 1 1 1 0.010094133362281451 0.01024440846509206 1 0.010047058755442057 1 1 1 1 1 1 1 1 1 1 1 1 1 1 0.0098201994954230289 1 1 1 1 1 1 1 1 1 1 1 1 1 1 1 1 1 1 0.009703844248881599 1 1 0.010053430937112015 0.0097952667169862988 1 0.010154472338539167 1 0.010000519128489004 1 1 1 0.009889928684097056 0.0099891736800330772 1 0.010446710668886463 1 0.010694113148805242 1 1 0.0096388106055252595 1 1 1 1 1 0.0099295276436482671 1 1 1 1 0.0099628304536278564 0.010009658623955562 1 1 1 0.009977194276965036 1 1 1 1 1 1 1 1 1 1 1 1 0.010010183807949097 1 1 1 1 1 1 1 1 1 1 1 1 1 1 1 1 1 0.0099518345988805837 0.0099104461444419114 1 1 0.0099844238649199422 1 1 1 1 1 1 1 1 0.0099857054388789827 1 1 1 1 1 1 1 1 1 1 1 1 1 1 0.010286738156681262 1 1 1 1 0.010729371026332759 1 1 1 0.0095956626396277965 1 1 0.0096382815654521732 1 1 1 1 1 1 1 1 1 1 1 1 1 1 1 1 1 1 0.0096822757135094691 1 1 1 1 1 1 1 1 0.010314957179514254 1 1 1 1 1 1 1 1 1 1 1 1 0.0088704391777536303 1 0.011267661634416169 1 1 0.011223035535172019 1 1 0.0094651272433152068 1 1 1 1 1 1 0.0096215133658488338 1 1 1 0.01012845341660339 1 1 1 1 1 0.010122191846714913 1 1 1 1 1 1 1 1 1 1 0.011726766785898683 1 0.011916194622589613 1 1 1 1 1 1 1 1 0.011457624969983392 1 1 1 0.010112589415414435 1 1 1 0.010328120953902604 1 0.010597735405037775 1 0.011444366777317375 1 1 1 1 1 1 1 1 1 0.011962640080800694 1 1 1 1 0.0093872810277746115 1 1 1 1 1 1 0.01000717253516752 0.010470834987273241 1 1 0.0099547040572463483 1 1 1 1 0.010368957075054634 0.0099980387967090779 1 1 1 1 0.01050394175882991 1 1 1 0.010548719864434107 0.010165328562131619 1 1 0.010481666445694936 1 1 1 0.010234203022915936 1 0.010474760981918721 1 1 0.011127999288660279 1 1 1 1 0.010875796086670556 1 1 1 1 1 1 1 1 0.010498006642021258 1 0.010409637444073676 1 0.010366708489510303 1 1 1 1 0.0095422043070787256 1 1 1 1 1 1 1 1 1 0.011420639293697648 1 0.011034660563406311 1 1 1 0.0099985707784659705 0.0093710704799761305 1 0.01004693687505284 1 1 1 1 1 1 1 1 1 0.010035905549092844 0.0097990171368424316 1 1 0.010488464508018294 1 1 1 1 1 0.010146648611687964 1 1 1 1 1 0.010144933967678776 1 0.010003136360761267 0.010516126167401857 1 0.0097387858512068617 0.0095107857632938941 0.011367563243105335 1 1 1 1 1 1 1 1 0.010921426749619626 1 1 1 1 1 0.0096961409091210569 1 1 0.0099228229784439261 1 1 1 1 1 1 1 1 1 1 1 1 1 1 1 0.0096244618209741315 0.01032252031718069 0.010225322538959514 1 1 1 1 0.0096640150839077434 1 1 0.010190793042065351 0.0099987206746708548 1 0.010204157136103984 1 0.0095972132178728606 0.01006717103205805 1 1 1 1 1 1 1 1 1 0.010344266101957149 1 1 1 1 1 0.010165102322471404 1 1 0.010048625719549772 1 1 1 1 1 1 1 1 1 1 1 1 1 1 1 1 1 1 1 1 1 1 1 1 1 1 0.0082627673326110523 1 1 1 1 1 1 1 1 1 1 1 1 1 1 0.010004868127172771 1 1 1 1 1 1 1 0.0090215369845630632 1 1 1 1 1 1 1 1 1 1 1 1 0.011089746733831004 1 1 0.011309512169106566 0.010019619611940369 1 0.011014294697642204 1 0.010890307224756743 1 1 1 1 1 1 1 1 1 1 1 1 0.0098432850183907405 1 1 1 1 0.0095509059963349262 1 1 1 1 0.010347895862829245 1 1 1 1 1 0.011466274811965771 1 1 1 0.010000192883303494 1 0.011486363752620457 1 0.0099475624953808336 1 0.011368702339502667 0.010773808434231751 0.0100246682312008 1 0.010231359473738058 1 1 1 1 0.011002659444485972 1 1 0.011110293367187135 1 1 1 1 1 1 1 0.011441132458196111 1 1 1 0.011357737693458067 0.011344268492490719 0.011181222624777694 1 1 1 1 1 0.010804760857252212 1 1 1 1 1 0.010207057064294691 1 1 1 0.010210781079590234 1 1 0.010805996768955313 1 0.00991353100162338 1 1 1 1 1 1 0.010011155985684035 1 1 1 1 1 1 1 1 1 1 0.010617499434190755 0.010082603338337635 1 1 1 1 1 1 0.010196888612431839 1 1 0.010066525850403504 1 1 1 1 1 1 1 1 1 1 1 1 1 1 1 1 1 1 0.010026074163020727 1 1 1 1 1 1 1 1 1 1 1 1 1 1 0.010183808489645375 0.0099033297660192296 1 1 0.0096782653020560452 0.0097403987195057735 1 1 1 1 1 0.0094655599696435305 1 1 1 1 1 1 1 1 1 1 1 1 1 1 1 1 1 1 1 1 1 1 1 1 1 0.011419521995978033 1 1 1 1 1 0.0092362960901320144 1 0.0088365656382298815 1 1 1 0.010408398530025379 1 1 1 1 1 1 1 0.012493622953898838 1 1 0.010478960820898289 1 1 1 0.011549850917247481 1 1 1 1 1 1 1 1 0.01014577651309624 1 1 0.010929185334166326 1 1 1 1 1 0.010998469096504628 0.010880420746800231 1 1 1 1 0.010016504153099501 1 1 1 1 1 1 1 1 1 1 1 1 0.0096897996367785559 1 1 1 1 1 1 1 1 1 1 1 1 1 1 1 1 1 1 1 1 1 1 1 1 1 1 1 1 1 1 1 1 1 1 0.01045640324400143 1 1 1 1 1 1 0.010977565619166503 1 1 1 1 1 1 1 1 1 1 1 1 1 1 1 1 1 1 1 1 1 1 1 1 1 1 1 1 1 0.0083911487461836749 1 1 0.0099877314433312447 1 0.0092300875409537103 1 0.0099966682699756618 1 0.009020366500310923 1 1 1 0.011064016097315084 1 1 1 1 1 1 1 1 1 0.0090570056512538546 1 1 1 1 1 1 1 1 1 1 1 1 1 1 1 1 1 0.010041431707788765 1 1 1 1 1 1 1 1 0.010024763433345676 1 1 1 1 1 1 1 1 1 1 1 1 1 0.010229068805453496 1 1 1 1 0.010688950773304298 0.010033809073519166 1 1 1 1 1 0.0092763789433590108 1 1 1 0.0083875770273404895 1 1 0.0083847335044285303 1 1 1 0.010694640940894506 1 0.0099788013874874404 1 0.011131121709052323 1 1 1 1 1 0.0096990256452033161 1 1 1 1 1 1 1 1 0.010007734109466444 1 1 1 0.010002865982293675 1 1 1 1 1 1 1 1 0.0099612859414318008 1 1 1 1 0.0099326124973552372 1 1 1 1 1 0.0094241206989202977 1 1 1 1 1 0.0093062751486013354 1 1 1 1 1 1 1 1 1 1 1 1 1 1 1 1 1 1 1 1 1 1 1 1 0.010812916532530562 1 1 1 1 1 1 0.010886491572957395 1 1 1 1 1 1 1 0.010954129648718369 1 0.008916336148456213 1 1 1 1 0.010970944705964927 1 1 1 1 1 0.010585522192912478 1 1 1 1 1 0.01036143988392952 1 1 0.010023749563332244 1 0.0090139415145342756 1 0.010641562256011733 1 1 0.009994432308851919 1 0.0099997033054915821 1 1 1 1 1 1 1 1 1 1 1 0.0093028072414518184 1 1 0.009979412840264823 1 1 1 1 1 1 1 1 1 1 0.0097484934509772733 1 1 0.0101419824299508 1 0.010209852335870771 1 0.0094111801543487784 1 1 0.010255845050818124 1 1 0.010412915239013741 1 1 1 1 1 1 1 0.0099641992015405724 0.0096694380243883722 1 1 1 1 1 1 1 0.0060719966630636115 1 1 0.0065266784941500709 1 1 1 1 1 1 1 1 1 1 1 1 1 1 1 1 1 1 1 1 1 1 1 1 1 1 1 1 1 1 1 1 1 1 1 1 1 1 1 1 1 1 1 1 1 1 1 1 1 1 1 1 1 1 1 1 1 1 1 1 0.011319544528976185 1 1 1 1 1 0.011889078301633571 1 1 1 1 1 1 1 1 1 1 1 1 1 1 1 1 1 1 1 1 1 1 1 1 1 1 1 1 1 0.010515198750691067 1 1 1 1 1 1 1 1 1 1 1 1 1 1 1 1 1 1 1 1 1 1 1 0.010171277483625951 0.0094456348604492132 1 1 1 1 1 1 1 1 1 0.0099118224082046062 1 1 1 1 1 1 1 0.010062546426064812 1 1 1 0.0097438635172630676 1 0.010516858477187922 0.010471929907915227 1 0.010397700123299637 1 1 1 1 1 0.011088188088072517 1 1 1 1 1 1 1 1 1 1 1 1 1 1 1 1 0.0096786490513512367 0.0098005076712944002 1 1 1 1 0.0090354741225328449 1 1 1 0.011256925072266152 0.0098993810302307281 1 1 0.009977599387643362 1 1 1 1 0.010139933116472773 1 1 1 1 1 1 1 1 0.0099874096825172762 1 1 1 0.0099952191441238739 0.010298407106353064 1 1 1 0.008839837551640202 1 1 1 1 1 1 1 1 1 1 1 1 0.0079877048392381928 1 1 1 1 1 1 0.010004497733130596 1 1 1 1 1 1 1 1 1 1 1 1 1 1 0.0099982239555699848 1 1 0.012816638642152454 1 1 1 1 1 1 0.011743817173486435 1 1 1 0.010586725722269626 1 1 1 1 1 1 1 1 1 1 1 1 1 1 1 1 0.009762876828252269 1 1 0.010832053256382441 0.009315726018431841 1 0.0099992327287277485 0.010120890283774848 1 1 1 1 1 1 0.010583779132573879 1 1 1 0.010083051742677375 0.01027009958940618 1 1 1 0.0093630226428093061 1 0.0098525380069264222 1 1 1 0.0099084512242020844 1 1 0.0099977353365391392 1 1 0.010250297475869252 1 1 1 1 1 1 1 1 1 1 1 1 1 1 1 0.0099208776253963127 1 1 1 1 1 1 1 1 1 1 1 1 1 1 1 1 1 1 1 1 0.0099853828240132076 1 1 1 0.00999537784984862 1 1 1 1 1 1 1 0.0098068403378467651 1 0.0099957668454783224 1 1 1 1 1 1 1 1 1 0.0098437354030561312 0.010015628502772586 1 1 1 1 1 1 0.0099950590519644091 0.0099040399661419302 1 1 1 1 0.0097885320807106144 1 1 1 0.0099531631829617821 1 1 1 1 1 1 1 0.0099716513030058233 1 0.010123782647545085 1 0.0099964382569355838 0.010111302282263666 1 1 1 1 0.009078771578857496 1 1 1 1 1 0.0093496250742075831 0.010104096037350128 1 1 0.0099091814163551686 1 1 1 0.0096562075229673448 1 1 1 1 0.0099748251274910105 1 1 1 1 1 1 1 1 1 1 1 0.010008646161241936 0.0092140860135057796 1 1 1 1 1 1 1 1 1 1 1 1 0.0094522727016236492 1 1 1 1 0.0097941214236399628 1 1 1 1 1 1 1 1 1 1 1 1 1 1 1 1 1 1 1 1 1 1 1 1 1 1 1 1 1 1 1 1 0.010012439628709914 1 1 1 0.0099997421508137459 1 0.01053860560302573 1 1 0.0099535670677498925 0.010513567136142134 1 1 1 1 1 1 1 0.010636342805432148 1 1 0.010811676733888134 1 0.010825770409378981 1 1 1 0.010909698380684417 1 1 1 1 1 0.0099850282810710934 1 1 1 0.0099111262525881302 1 1 1 1 0.010205842809030606 1 0.0110539622325535 0.010028550375640027 1 0.012196846258095124 1 1 1 1 0.012441402055718274 1 1 1 1 1 1 1 0.011672830363224525 0.0093166549914485419 1 1 1 1 0.010007709321348904 1 1 1 1 1 1 1 1 1 1 1 1 1 1 1 1 1 0.0097811004876722334 1 1 1 1 1 0.010008082733331515 1 1 0.0097579160447544989 1 1 1 1 1 1 1 1 1 1 0.0098039106066856105 1 1 1 1 1 1 1 1 1 0.0099268167804771323 1 1 1 1 1 1 1 0.0099713265559234349 1 1 1 1 0.0096144600640106319 1 1 1 1 1 1 1 0.0098741836791626549 1 0.0099025106012880851 1 1 0.0098032151719543645 0.0098927829374454018 1 1 1 0.010413764370455427 1 1 1 0.0098639959834292551 1 1 1 1 1 1 0.0098968514884876235 1 1 0.01009521843762509 1 1 1 1 1 1 1 1 1 1 1 1 1 1 1 1 1 1 1 1 0.010088102025151643 1 1 1 1 1 1 1 1 1 1 1 1 1 1 1 1 1 1 1 1 1 1 1 1 1 1 1 1 1 1 1 1 1 1 1 0.0097792715982787017 1 1 1 1 1 1 1 1 1 1 0.0071034557810032827 1 1 0.010014476272052791 1 1 1 0.010002264160328945 1 1 1 1 0.0076628424414821247 1 1 1 1 1 1 1 1 1 0.00980247431260034 1 1 1 1 1 1 1 1 1 0.0086612901360915064 1 1 1 1 1 1 0.0092702659049817854 1 1 1 1 1 1 1 1 1 1 1 1 1 0.010412335383790499 1 1 0.0097762578824105023 1 1 1 1 1 1 1 1 1 0.010096891286343054 1 1 0.0098953390528979321 1 1 1 1 1 0.011057690629618517 1 1 0.0080277827370566004 1 1 1 1 1 1 0.0098303506360768889 0.011030021783725016 1 0.010001152678023227 1 0.010090105822647522 1 1 0.0099012196854600595 1 1 1 1 0.0099690887763078037 1 1 1 1 1 1 0.0093768408112235423 1 1 1 1 1 0.0093674795959104613 1 1 1 0.0093176823491304094 1 1 0.010858505287900761 1 1 1 1 1 0.0095994061093176205 1 1 1 0.01001356056971351 1 1 1 0.0097391489375643764 1 1 1 1 1 1 1 0.0096444259840835662 1 1 1 1 1 1 1 1 1 1 1 1 1 1 1 1 1 1 1 1 1 1 1 1 1 1 1 1 1 1 0.010543161496669323 1 1 0.0097816811090637029 0.010664970645527872 1 1 1 1 1 1 1 1 0.009929288743936001 1 1 1 1 1 1 1 1 1 1 1 1 1 0.0097485101528774609 1 1 0.010859759324656909 1 1 1 1 0.010645656288073131 1 1 1 1 1 1 1 1 1 1 1 1 0.0095737788372349201 1 1 1 1 1 1 1 1 1 0.0099617858724468933 1 1 0.01104598903849012 1 1 1 1 1 1 1 1 1 0.010870239703698359 1 1 1 1 1 1 1 1 1 1 1 1 1 1 1 1 1 1 1 1 1 1 1 1 1 1 1 1 1 1 1 1 1 1 1 0.010174205699763978 1 1 1 1 1 1 1 1 0.0098809590286028162 1 1 1 1 0.009993073936774571 1 0.010099267059510071 1 0.010029338209521114 1 1 1 1 1 1 1 1 0.009975622842790766 1 1 1 1 1 0.009939376335290951 1 1 1 1 1 1 1 1 1 1 1 1 1 1 0.009963718314701258 1 0.010030163184124538 1 1 1 1 1 1 0.010104211588089529 1 1 1 1 1 1 1 1 1 1 1 1 1 1 1 1 1 1 1 1 1 1 1 1 0.0097411498721986997 1 1 1 1 1 0.0098883374572966403 1 0.01043923997690166 0.0099207447374880554 1 1 1 1 1 0.0099759934394531603 1 1 1 1 1 1 1 0.0088587412672780311 1 1 1 1 1 0.0087962333493422709 1 1 0.0093937823425954189 0.009977402690591693 1 1 1 0.0095922939577230172 1 1 1 1 1 0.010152647822903092 1 1 0.010312942048203495 1 1 1 1 0.010337272911126278 1 1 0.0091756148617114491 1 1 1 1 1 1 0.0099420702004158843 1 0.0098080406489761771 0.010457953902940072 1 1 0.010694646938771691 1 1 1 1 1 1 0.0098301422956401617 1 1 1 1 1 1 1 0.0098810157927058852 1 0.010111735481078528 1 1 1 0.010051363782923293 1 1 1 1 1 1 1 1 1 1 1 1 1 0.0097387333327025715 1 1 1 0.0092528174555159531 1 1 1 1 1 1 1 1 1 0.008324472964901429 1 1 0.007983538082024913 1 1 0.010699665181613806 1 1 1 0.0099947836245470132 1 1 1 0.0098725884813322413 1 1 0.0089920559439355431 0.010914340779633887 1 1 1 1 1 1 1 0.011415201219997069 1 1 1 1 1 1 1 1 1 1 0.0099792406533404932 1 1 1 1 1 1 1 1 0.010146378200877278 1 1 1 1 0.010922112667292826 1 1 1 1 0.0095329690165576013 0.0094714520138898528 1 1 1 1 1 1 1 1 1 1 1 1 0.0085883049317550288 1 1 1 1 1 1 1 1 1 1 1 1 1 1 1 1 1 1 1 1 1 1 1 1 1 1 1 1 1 1 1 1 1 1 1 1 1 1 1 1 1 0.010589494480622238 1 0.0099679370845149884 1 1 0.010729583412420828 1 1 1 1 1 1 1 1 1 1 1 0.010899012811510941 1 0.0092244758852367999 1 1 0.0090217761361184902 1 1 1 1 0.0095740000369130291 1 1 1 1 0.0093913818692993242 1 1 1 1 1 1 1 1 1 1 1 1 1 1 1 1 1 1 1 1 1 1 1 1 1 1 1 1 1 1 1 1 1 1 1 1 1 1 1 1 1 1 1 1 1 1 1 1 0.010010397543784747 1 1 1 0.0096500478413586496 1 1 1 1 1 0.009025311371298252 0.010111229471924745 1 1 1 1 1 0.0094704814814217456 1 1 1 1 1 1 1 0.0095142052522893053 1 1 1 1 1 1 1 1 1 0.010009174169384794 1 1 1 0.0093905670371968938 1 1 1 0.010411916711841327 1 0.010018411207969917 0.0095839782800868183 1 1 1 0.0095661104429890526 1 1 0.010000917785698733 1 1 1 1 1 1 1 0.0095827096095399272 1 0.010157336325032778 1 1 0.010397207547547386 1 0.0095417132429720004 1 1 0.0094380229586421699 1 1 0.009561413255313669 1 1 1 1 1 1 1 1 1 0.0099282527415416183 0.010409432651806242 1 1 1 1 1 1 1 1 1 1 1 1 1 1 0.010020668345251591 1 0.0099560920543266991 1 1 1 1 1 0.0092728047050979253 1 1 1 0.0099971626259802993 0.0099718500185001918 1 1 1 1 1 1 0.0090664950751324722 0.010415155129005385 1 1 0.0098938011892089339 1 1 1 1 1 0.010081446584901803 1 1 1 1 1 1 1 1 0.010047888019671436 1 1 0.0097110437992423831 1 1 1 1 1 1 0.0098983756405881095 1 1 1 1 0.0099970090107389022 1 1 1 1 1 1 1 0.0097696793277339336 1 1 0.0097656423453176492 1 1 0.0090346874782422128 0.010069161788913369 1 1 1 1 1 1 1 1 1 1 1 1 1 1 1 1 1 1 1 1 1 1 1 1 0.0093651855483597116 1 1 1 1 1 1 0.0084340755233355113 1 1 1 1 1 1 1 1 1 1 1 1 1 1 0.0099218288655270968 1 1 1 1 0.0096776753352643269 1 1 1 1 0.0091708184064227642 1 1 1 1 1 1 1 1 1 1 1 1 0.010247410343339982 0.0088230698160352231 1 0.010170178565076505 1 1 1 1 1 1 1 0.010063425227181453 1 1 1 1 1 1 1 1 1 1 1 1 1 1 1 1 1 1 1 1 1 1 1 1 1 1 1 0.010318141505591929 0.010653368464543719 1 1 1 1 1 1 1 0.0099999639298492659 1 0.010453447103105248 1 1 0.010734319975126631 1 1 1 1 1 0.0093278772574468018 1 1 0.010131646584619271 1 1 1 1 0.0099976976997528787 1 1 0.0099125885428476661 1 0.009971608651936829 1 1 1 1 1 1 1 1 1 1 1 1 1 1 0.0091853060542772848 1 1 1 1 1 1 1 0.0099157271773772284 1 1 1 1 1 1 1 1 1 1 1 1 1 1 1 1 1 1 1 1 1 1 0.0098317315229881838 1 1 1 1 1 1 1 1 1 1 1 1 1 1 1 1 1 1 1 1 1 1 1 1 1 1 1 1 1 1 1 1 1 1 1 1 1 1 1 1 1 1 1 1 1 1 1 1 1 1 1 1 1 1 1 1 1 1 1 1 1 1 1 1 1 1 1 1 1 1 1 1 1 1 1 1 1 1 1 1 1 1 1 1 1 1 1 1 1 1 1 1 1 1 1 1 1 1 1 1 1 1 1 1 1 1 1 1 1 1 1 1 1 1 1 1 1 1 1 1 1 1 0.010152392579467153 1 1 1 1 1 1 1 1 1 1 1 1 1 1 1 1 1 1 1 1 1 1 1 1 1 0.0096912104966672546 0.0095256460445935741 1 1 1 1 1 1 1 1 1 1 0.010552095657553315 1 1 1 1 1 1 0.010002570206981741 0.010160571491157733 1 0.010000111487877198 1 1 1 1 1 1 1 1 1 1 1 1 1 1 1 1 1 1 0.010479046116684244 1 0.010372797031570468 1 1 1 1 1 1 1 0.0095818380884989274 1 1 0.0099545843512094719 1 1 1 1 1 0.0095147808572837705 1 1 1 0.0098499269761212673 1 1 1 1 1 1 0.0097087019424336989 0.011610486142748219 1 1 0.009754479807799369 1 0.010217789412996026 1 1 1 1 1 0.009846365448750255 1 1 1 1 1 0.0099462657712628844 1 1 1 1 1 1 1 1 1 1 1 1 1 1 1 1 1 0.011027370879679765 1 1 1 0.0088374407126127555 1 1 1 0.0091694935397655421 0.00989770014248933 1 1 1 1 1 1 1 1 1 1 1 1 1 1 1 1 1 1 0.01060273408374654 1 1 1 0.010779230000286431 1 1 1 1 1 1 1 1 1 1 1 1 0.009973789662015526 1 1 1 1 1 1 1 1 1 1 1 1 1 0.010123558172051194 0.0099338656755714946 1 1 1 1 0.010393387262284023 1 0.0098054238456713929 1 0.010460654022681896 1 0.009930604941838804 1 1 1 1 1 1 1 1 1 1 1 1 1 1 0.010072665396669364 1 1 1 0.010018613831604083 1 1 1 1 0.0099603992303175584 1 1 0.009872751095789372 1 1 1 1 1 1 1 1 0.010004932643193097 1 1 1 1 0.010002227365976222 1 1 1 0.010401723318309027 1 1 1 0.010087135177135401 1 1 0.010001721893093179 1 1 1 1 1 1 1 0.0093677243278284406 1 1 1 1 1 1 0.010317743692116497 1 1 1 1 1 1 0.010438120937536426 1 0.010000268444334515 0.00968641801089524 1 0.0097435780388244794 1 1 0.010156775113038087 0.010003354617887431 1 0.0095888648541581512 0.010077573675759432 1 1 1 1 1 1 1 1 1 1 1 1 1 1 1 1 1 1 1 1 1 1 1 1 1 1 1 1 1 1 0.0098623743715589955 1 1 1 1 1 1 1 1 1 1 1 1 1 0.0099679835607905803 1 1 1 1 1 1 1 1 1 1 0.010046720594943504 1 0.010150454937189905 1 1 1 1 1 1 1 1 0.0099238305332034552 1 1 0.010274899927008575 1 1 1 0.010057548182719067 1 1 1 1 1 1 1 1 1 0.010024294814601001 0.010282195172751127 1 1 1 0.010153733646996944 1 1 1 1 1 1 1 1 1 1 0.010045799577823714 1 1 0.010037409088514434 1 1 1 1 1 1 1 1 1 1 1 1 1 1 0.010117910347927452 1 1 1 1 0.010055362505779321 1 1 1 1 1 1 1 1 1 1 1 1 1 1 1 1 0.010243382927946559 1 1 1 1 0.010312666894797339 1 1 1 0.010114631291776789 1 1 1 1 1 1 1 1 1 1 1 1 0.010318989537144184 1 1 1 1 1 1 1 1 1 1 1 1 1 0.010846821972447277 1 1 0.0095672498517006595 1 1 1 1 1 1 1 0.010649697227710387 1 1 1 1 1 1 1 1 1 1 1 1 1 1 1 1 1 1 1 1 1 1 1 1 1 1 1 1 0.0099354631301103377 1 1 1 1 1 0.0099674795693197593 1 1 1 1 1 1 1 1 1 0.0087706344273934533 1 0.010010365367072073 1 1 1 1 1 1 1 0.008667943560134464 1 1 1 1 1 1 0.010066966503115107 1 1 0.011124678034536003 1 1 0.0099580221665750632 1 1 1 0.010969337979412585 1 1 0.010202548968060911 0.0095704235155633869 1 1 0.010072195229300477 1 0.0099643319619417449 1 1 1 1 1 1 1 1 1 1 1 1 0.010019371738630291 1 1 1 0.01039018011875088 1 1 0.0095862855900730026 1 1 0.010889422990419633 1 1 1 1 1 1 1 1 1 1 1 1 1 1 1 1 1 1 1 1 0.009840823815760626 1 1 1 1 1 1 1 1 1 1 1 1 1 1 1 1 1 1 1 1 1 1 1 1 1 1 1 1 1 1 1 1 1 1 1 1 1 1 1 1 1 1 1 1 1 1 1 1 1 1 1 1 1 0.0099805804238515834 1 1 1 1 1 1 1 1 1 1 1 1 1 1 1 1 1 1 1 1 1 1 1 1 1 1 1 1 0.0084469148251871216 0.0099847790087554383 1 1 1 1 0.010046462964162593 1 1 1 0.0078291024758481691 1 1 1 0.0099956261968218406 1 0.0084661670710744659 1 1 1 0.0099339196205949238 1 1 1 1 1 1 0.0098295056457713172 1 1 1 0.010325680655764046 1 1 1 1 1 1 0.01020867801173758 1 1 1 1 1 0.0096661776666976847 1 1 0.010200194441404135 1 1 0.0099614295009521816 0.0099827508977598997 1 1 1 1 1 1 1 1 0.010098773419898798 1 0.010418944705487831 1 0.0082842716190915568 1 1 1 1 1 1 1 1 1 0.010262935253613893 1 1 1 1 1 0.010544886634147009 0.010124483321437993 1 0.0092905900430181182 1 0.010613812423285716 1 0.0099659994020829517 1 1 1 1 1 1 1 0.010739438509607509 1 1 1 1 1 1 1 1 1 1 0.0099902837202690813 1 1 1 1 0.010039623207519907 1 0.0098914435373119204 1 1 1 1 1 0.0101164847324191 1 1 1 1 1 1 0.0095913566406686385 1 1 1 1 1 1 1 1 1 1 1 1 1 0.00970189423815058 0.010048743013765425 1 1 1 1 0.0098947096306453847 1 0.010646711542924382 1 1 1 1 1 1 1 1 1 1 1 1 1 1 1 1 1 1 1 1 1 1 1 1 1 1 1 1 1 1 1 1 1 1 1 1 1 1 1 1 1 1 1 1 1 1 1 1 1 1 1 1 1 1 1 1 1 1 1 1 1 1 1 0.010080169010702543 1 1 0.010030231671166357 1 1 1 0.0095952200001722734 1 0.010272410383759905 1 1 0.010024120727730517 1 1 1 1 1 1 1 1 1 1 1 1 1 1 1 1 1 0.0099195640681141346 1 1 1 1 1 1 1 1 1 1 1 1 1 1 0.0099366005517184074 1 1 1 1 1 1 1 1 1 1 1 1 1 1 1 1 1 1 1 1 1 1 1 1 1 1 1 1 1 1 1 1 0.0095901981409175739 1 1 0.0097970853397078648 1 0.0096554290086299267 1 1 1 1 1 1 0.010215807281352803 1 1 1 1 1 1 1 1 1 0.010085634557757645 1 1 1 0.0099427827771605744 1 1 1 0.0099725895885657834 1 1 1 0.010140675843027861 0.0099566385804584941 1 1 1 0.0098715982196704889 1 1 1 1 1 1 1 1 1 1 1 1 1 1 1 1 1 1 1 1 1 1 1 1 1 1 1 1 0.0096173636396408631 1 0.010188229422135184 1 1 1 1 1 1 1 1 0.0099074207799870143 1 1 1 1 1 1 1 1 1 0.0095934673266109514 0.0098534558239556751 1 1 1 1 1 1 1 1 1 0.010475920591367845 1 1 0.0099530211951093968 1 1 1 1 0.010521723183142886 1 1 1 1 0.010550501372299273 1 0.0093876586740112705 1 1 1 1 1 1 1 1 1 1 1 1 1 0.010063849979334873 1 1 1 1 1 1 1 0.010017148659143656 1 1 1 1 1 1 1 1 1 1 1 1 1 1 1 1 1 1 1 1 1 1 1 0.0098354871880274586 1 0.009534082185770917 1 1 1 1 1 0.009993401033810391 1 1 1 1 0.0092124243917207603 1 1 0.0092745391386228442 1 1 0.010153886045635961 1 1 0.010135348152065956 1 1 0.0099968751285273143 1 1 1 1 1 1 1 1 1 1 0.0099665995590108043 1 1 1 1 1 1 1 1 0.0089531447719465793 1 1 0.010367318516540025 0.010023361077800868 1 1 1 1 1 1 1 1 1 1 0.0099905589293213803 1 1 0.010169402065149656 0.0099994947374099363 1 1 0.0099984850544495209 0.01042866097139772 1 1 1 1 1 1 0.010003685622887556 1 1 1 1 1 1 0.010283553836864863 0.0098538652625483527 1 0.010268660833217409 0.010134193380680589 1 1 1 1 1 0.010054454576940944 1 1 0.010002498057937386 0.010047213286181049 1 1 1 1 1 0.0097518102573594043 1 1 1 1 0.0099562135000354213 0.0098744098268349675 1 1 1 1 0.0097826654926538095 1 0.0098181299775296077 1 1 0.0097980798156819746 0.0096700784556575364 1 1 1 1 0.0096490667384482622 1 1 0.010039680700865115 1 0.010118207008148814 1 1 1 1 1 0.0089657609691778852 1 1 0.010073034237707125 1 1 1 1 1 1 1 1 0.009966622649308976 1 1 1 1 0.0099227405842512214 1 1 1 1 1 1 1 1 1 0.0097041257474287622 1 0.0097256567510691574 1 1 0.010016711751629718 1 1 1 0.010002655065812247 1 0.010001086607963876 1 0.0095268011499332513 1 1 1 0.010134313408635893 1 1 1 1 1 1 1 1 1 1 1 1 1 0.0099975738893898734 1 1 1 1 1 1 0.01036128536267979 1 1 1 0.01051245514646075 1 1 1 0.010023906562602243 1 1 1 1 1 1 1 1 1 1 0.010186440384690805 1 1 1 1 1 1 1 0.0097610997165358433 1 1 1 1 1 1 1 1 1 0.010495333113853143 1 1 1 1 1 1 0.010063719221417609 1 1 0.010680377901132378 1 1 0.010006110382459172 1 1 0.0099991893106741482 1 1 0.010208212350281288 1 0.01014369874544456 1 0.010749810408590478 1 1 0.010062133263388718 1 0.010548390019832068 0.0099074963137065104 1 1 1 1 0.0099439841887993281 0.0099032761367280134 1 1 1 1 1 0.010319792248147292 1 1 0.0098579409000425135 1 1 1 1 1 0.009946241584313488 1 1 1 0.0089982604409427069 1 1 1 1 1 1 1 1 1 1 1 1 1 1 1 1 1 1 0.0092692182366153342 1 1 1 1 1 1 1 0.0097470410473031559 1 1 1 1 1 0.0097874776005183982 0.0097473383407414016 1 1 1 1 1 1 1 1 1 1 1 1 1 1 1 1 1 1 1 1 1 1 0.009897962839584825 1 1 1 1 1 1 1 1 1 1 1 1 1 1 1 0.010565320501384121 0.0099749257191802422 1 1 1 1 0.010208168650556234 1 1 1 1 1 1 1 1 0.011100839397081199 1 1 1 0.0099964592720392185 1 1 0.010003594673468815 0.010170936150053329 1 0.01057285155328401 1 0.010239262213982806 1 0.010193612627869022 1 0.0081924994575326912 1 1 1 1 0.0083430370763286771 1 1 1 1 1 1 1 1 1 1 1 1 1 1 1 1 1 1 1 1 1 1 1 1 1 1 1 1 0.0097335845269946718 0.0088449874263754058 1 1 1 1 1 1 1 1 1 1 1 1 1 0.0096141763679327072 1 1 0.010091474158074744 0.0092659759487111731 1 1 0.010024331312338087 1 1 1 1 1 1 1 1 1 1 1 1 1 1 1 1 1 0.010377300981463583 0.0099098363679498303 1 1 1 1 0.010055119457734326 1 0.0096417814113571605 1 1 0.010012148235250798 0.0095628162035463447 1 1 1 0.008112602207401412 1 0.01060370114764741 1 1 1 1 1 1 1 1 0.010087907160796482 1 1 1 1 1 1 1 1 1 1 1 1 0.010212904925415392 1 1 1 1 1 1 1 1 1 1 1 1 1 1 0.010031463529191303 1 0.010715076469445776 1 1 0.011450263105795274 1 0.010032474145999972 1 1 1 1 1 1 1 0.01175435425049326 1 1 1 1 0.011497195811823343 1 1 1 1 1 1 1 1 1 1 1 1 1 0.0099801284477907624 1 1 1 1 1 1 1 1 1 1 1 1 1 1 1 1 1 1 0.0097291966951311148 1 1 1 1 1 1 1 1 0.010107711304584058 1 1 1 1 0.010196861013789828 1 1 1 1 1 1 1 1 1 1 1 1 1 1 1 1 1 1 0.010089149709205774 1 1 1 1 1 1 1 1 0.0099656863248574479 1 0.010540187115247419 1 1 1 1 1 1 1 1 1 1 1 1 0.010655164389171023 1 1 1 1 0.010702574397308401 1 0.0073432638664380568 1 0.010022944663231543 1 1 1 1 1 1 1 1 1 1 1 0.0099304627196186712 1 1 1 1 1 1 1 0.0098295766381400022 0.010070763166613185 1 0.01037150624058622 1 1 0.010000495436115685 1 1 1 1 1 1 1 0.0099270383945975534 1 1 1 1 1 1 1 0.0099198639326728254 0.00877756474261919 1 1 1 0.0085062611734680917 1 1 1 0.0093085281634479357 1 0.010288237282161557 1 1 0.01043885720197444 1 1 1 1 1 1 1 1 1 0.0099982357311912962 1 1 1 1 1 1 1 0.01072272468361902 1 0.01065171043924888 1 1 1 1 1 0.0087560522454664339 1 1 0.008785129806377771 1 1 1 1 0.010037539257706545 1 0.010065509032698068 1 1 1 1 1 1 1 1 1 1 1 0.010634373611411492 1 1 0.010085119648300752 1 1 1 1 1 1 1 0.010611395459564205 1 1 1 1 1 1 1 1 1 1 1 1 0.010234863786061896 1 1 1 1 1 1 1 1 0.010279963560060352 1 1 1 1 1 1 1 1 1 0.0099741185105330227 1 1 1 1 0.0092541423189854422 1 1 1 1 1 1 1 1 1 0.0098698001611616376 1 1 1 1 1 1 1 1 1 1 0.0095885979391530495 1 1 1 1 1 1 1 1 0.010033017837317049 1 1 1 0.0099769829624381055 0.0091598857665125717 1 0.010681417032172834 1 1 1 0.0099354192169288005 1 1 0.0095220712010101079 1 1 1 1 1 1 0.0099671524782169695 1 0.0099172765959781375 1 1 1 0.0099980615501217146 1 0.009998585276052397 1 1 1 1 0.010698976007888151 0.010104003833156487 1 1 0.010770772501147587 1 0.01030356179728624 1 0.010005207713477614 0.011147833053557155 0.011211968030106418 1 1 1 1 1 1 1 1 1 1 1 1 0.0099811291527286093 1 1 1 1 0.012225447826262403 1 0.0099877134712803052 1 0.01010083522632357 1 0.010033971464984843 1 1 1 1 1 1 1 0.010305590473152325 1 1 0.010268765624160075 1 0.010080799739717112 0.0098583931288565799 1 1 0.0099830641981500882 1 1 1 0.0096388308101496636 1 1 1 1 1 1 1 1 1 1 0.010653735765274987 1 1 1 0.010659106735895608 1 1 0.010069782961038182 0.010415985784957647 1 1 1 1 1 1 0.010416717973558854 1 1 1 1 0.010428771689270878 1 1 1 1 0.010327006680133109 1 1 1 1 1 1 1 1 1 1 1 1 1 1 1 1 1 1 1 1 1 1 1 1 1 1 1 1 1 1 1 1 1 1 1 1 1 1 1 1 1 1 1 1 1 1 1 1 1 1 1 1 1 1 1 1 1 1 1 0.010629934201339137 1 1 1 0.010902994126473824 1 1 1 1 1 1 1 1 1 1 1 1 1 0.009998177567497317 1 1 1 1 1 1 1 1 1 1 1 1 1 1 0.010046363441433628 1 1 1 1 1 0.010078822465726958 1 1 1 1 1 1 1 1 1 1 1 1 1 1 1 1 1 1 1 1 1 1 1 1 0.010050377338541838 0.010017918314248506 1 1 1 1 1 1 1 1 1 1 1 1 1 0.009307007079981099 1 1 1 1 1 1 1 1 1 1 1 1 1 1 1 1 1 1 1 1 1 1 0.0092105367871261178 1 1 1 1 1 0.0082368088308115931 1 1 1 0.010163938690065618 1 1 1 1 1 1 1 0.010354548413646343 0.0086806414286840911 1 1 0.0099842325729096494 0.0091275056933910834 1 1 1 1 1 1 1 1 1 1 0.009997949091296263 1 1 1 0.010411127621140404 1 1 1 0.01052314046047074 0.010094525963242392 1 1 1 1 1 1 1 1 0.0092446633906302592 1 0.0091321974216603923 1 1 1 1 1 1 1 1 0.010420797749950824 1 0.0094253260928307131 1 1 0.0094749486245363761 1 1 0.010046008963044049 1 1 1 1 1 1 1 1 1 1 1 1 1 1 0.0095864022458562008 1 1 0.0096796587561260791 1 1 1 1 1 1 0.0097812255069915695 1 1 1 1 1 1 1 1 1 1 0.010811598923514897 1 1 1 0.011278231719858069 1 1 1 1 1 1 1 1 1 1 1 1 0.0091968504289958904 0.0098664279764830807 1 1 1 1 1 1 1 1 1 1 1 1 1 1 1 1 1 1 1 1 1 1 1 1 1 1 1 0.0094669145923569203 1 1 1 1 1 1 1 1 1 1 1 1 1 1 1 1 1 0.0090533325300036875 1 1 1 1 0.0090652969784458439 1 0.010043623734532462 1 1 1 1 1 1 1 1 0.0097924845398219638 1 1 1 1 0.0092508574281042096 1 1 1 1 1 1 1 1 1 1 1 1 1 1 1 1 1 1 1 1 1 0.0097103011067472163 1 1 1 1 1 1 1 1 1 1 1 1 1 1 1 1 1 1 1 1 1 1 1 1 1 1 1 1 0.010679590476419368 1 1 1 1 0.010883512626273073 1 1 1 0.010064098341178489 1 1 1 1 0.0089344437213210951 1 1 1 0.011187549143389616 1 1 1 1 0.0092041448426318055 1 0.010002031590494374 0.0096392299339117162 1 1 1 1 1 0.010695229063952693 1 1 1 1 1 0.009851302416704729 1 1 1 1 1 0.0093513285546250186 1 1 1 1 1 1 1 1 1 1 1 1 1 1 1 1 0.0094665314178026729 1 1 1 1 1 1 1 1 1 1 1 1 1 0.0099288257001214821 1 1 0.0099964907062706325 1 1 0.011376914805420024 1 1 1 1 0.010489143638544822 1 1 1 0.010235170781703851 1 1 1 0.011031567750962144 1 1 1 1 1 0.011106039210440007 1 1 1 0.010359567049096971 1 1 1 1 1 1 1 0.0095090222999945715 1 1 0.0097230507869243751 0.0097870631956211984 1 0.010970791434345728 1 0.010822298207615284 1 1 1 1 1 0.0093615509500388858 1 1 1 1 1 1 1 0.0098370057107923167 1 1 1 1 1 1 1 1 1 0.0099503540584098098 1 1 1 1 1 1 1 1 1 1 1 1 1 1 0.010970389312363511 1 1 1 1 1 1 1 1 1 1 1 1 1 1 1 1 1 1 1 1 0.010027257466658479 0.010228146472345717 1 1 1 0.010509970645967589 1 1 1 1 1 1 1 1 1 1 1 1 1 1 1 1 0.010778362393040634 1 1 1 1 1 1 1 1 1 1 1 0.010255687722508193 1 1 1 1 1 1 1 1 1 1 1 1 1 0.010010503895948446 1 1 0.010023089380348998 1 1 0.0068227079073344644 1 1 1 1 1 1 1 1 0.0099996498186196228 1 1 1 1 1 1 1 1 1 1 1 1 1 1 1 1 1 1 1 1 1 1 1 1 1 0.010073381632096323 1 1 1 1 1 1 1 0.0099842026367325028 1 1 1 0.0099335592495434222 1 1 1 1 1 1 1 1 1 1 1 1 0.011238884381574374 1 1 1 1 1 1 0.010659805150768578 1 1 1 0.011000002437594997 1 1 1 1 1 1 1 1 1 1 1 1 1 1 1 1 1 1 1 1 1 1 1 1 1 1 1 1 0.0077489741016570687 1 1 1 1 1 1 1 0.010328885833281568 1 1 0.0054972329763481988 0.010000757075069838 0.011363517722495633 1 1 1 1 1 1 1 1 0.010085495831935702 0.0097598003334572504 1 1 1 1 1 1 1 1 0.0092499070290692469 1 1 0.0072753174954364903 1 0.011649341624274915 1 1 1 1 1 1 1 1 1 0.011362827454160023 1 1 1 1 1 1 1 1 0.011015652886229008 1 1 1 1 1 1 1 1 1 0.010076451598645095 1 1 1 1 1 1 1 1 1 1 1 1 1 1 1 0.0099876643528056617 0.0080501364667039978 1 1 1 0.010001168559969574 1 1 1 0.0086325389144962274 1 1 0.0084798716789702324 0.01081883191604893 1 1 1 1 1 1 1 1 0.010210972145194301 1 1 1 0.0078628996295923379 0.009260988270301156 1 1 1 0.0080152428320689004 1 1 1 1 1 1 1 0.010340315998791136 1 1 0.010282513085265113 1 1 1 1 1 1 1 0.0099799461844381453 1 1 1 1 1 1 1 1 1 
</DataArray>
</CellData>
</Piece>
</UnstructuredGrid>
</VTKFile>
